60
Properties=species:S:1:pos:R:3 system=runs/20260728-safe-lbfgs-strict-quench-200-production/output-c60-seed42 state_id=plateau_accepted pbc="F F F"
C       -0.69623010       2.44395684       1.82113185
C       -1.33149229      -1.17674621       2.41707852
C        2.17918336      -1.31179606       1.74028990
C       -0.06824890       0.69183370      -4.19824936
C        1.46659500       2.38583855      -2.90010592
C        0.95971130      -2.11444907       1.97088882
C        0.66694756       2.77684099       1.56391838
C        0.60711459       1.83792991       3.63632306
C        0.65871052      -2.37213302      -2.50237849
C       -1.67137600       0.02639498      -4.81632791
C        2.48524779       0.49921576      -1.54567608
C        1.13065591      -2.98634566      -0.29646362
C       -1.69921300       1.95600302       0.92149975
C        0.02622012      -1.55518248      -3.53635130
C       -1.12781521      -2.97279001      -0.93434391
C        2.39110257       1.15182314       2.09141576
C       -0.99380438      -2.77525101       0.51984159
C       -2.12683820       1.52174488      -2.71208080
C       -0.89871896       2.28587362      -2.66182290
C       -1.64210823       1.00490895       3.66532389
C       -3.11243267      -0.62194014      -2.97407011
C       -3.47447524       0.52538533      -0.85262493
C        1.58286911       3.41970050      -1.89219055
C        1.26055382       3.09077371       0.33964902
C        2.62379953       2.67783322       0.15053037
C        2.89674988       1.35795908       0.73816638
C       -3.68417157      -0.61649796      -1.68130979
C        1.48761700       2.15626473       2.56303365
C       -2.62839303       1.53279598      -1.36523103
C        0.07834416      -1.37173318       2.88248871
C       -2.90181447      -1.35758899       0.42048584
C       -1.97917882       0.11825155       2.61024295
C        2.81899583       2.91189182      -1.26141102
C       -1.29447820      -1.41490677      -4.06869423
C        2.07313505      -0.15857940       2.56522291
C       -3.15027881       0.03434251       0.47445441
C        0.57541184       3.32380688      -0.88406851
C        2.53402317       1.78924859      -2.09321303
C        2.92396407       0.20304289      -0.13548082
C        2.88896323      -1.22110845       0.48661116
C       -0.71550674       1.96963888       3.16563498
C       -1.74580412       2.24201501      -0.48798214
C        0.39453610      -2.85155161       0.89709996
C        0.74586619       0.67378038       4.44708383
C       -0.22064077       0.61129770       5.53063792
C       -3.16749116      -1.74139439      -0.94112413
C        1.77907453      -1.66995285      -1.93078784
C       -1.84943745      -1.91141463       1.24177808
C        2.17827284      -2.06452622      -0.58709708
C       -2.50456508       0.50277765      -3.64797526
C        0.18976732      -3.13254842      -1.41605993
C       -1.40714581       0.67408978       5.02114386
C       -2.25870717      -1.75395451      -3.08029213
C        0.19483009       1.94731834      -3.48460528
C       -2.42142130       0.80068501       1.39720307
C        0.97618474      -0.36516432       3.49809457
C       -2.18869700      -2.39746633      -1.72539488
C        1.77120882      -0.37557351      -2.43306999
C       -0.68427215       2.80350438      -1.30626756
C        0.70451799      -0.30455988      -3.53946018
