60
Properties=species:S:1:pos:R:3 source_escape=runs/20260728-block-krylov-fixed-starter-escape/output/cases/plateau_accepted-seed43-discrete/escape.xyz pbc="F F F"
C       -1.41039670       0.31168211       2.09413193
C        0.31546233      -1.53870258       0.50804156
C        2.39717334      -0.58842388       2.11522021
C       -0.11501835       2.27186814      -3.00923033
C       -0.07803281       3.78642356      -1.06755239
C       -0.24482619       0.51669279       1.28494676
C       -1.04435064       1.60629016       2.78648256
C       -0.04999827      -0.20601294       3.90291613
C        2.00118996      -0.46353773      -2.78778728
C       -0.87183195       1.36289036      -3.80009731
C        1.91197015       2.31645458      -0.44404619
C        2.16872194      -1.78193275      -0.94898206
C       -2.42616814       0.00652485       1.06397469
C        1.21010658       0.42084457      -3.53615922
C        0.42439891      -2.49313269      -2.37422988
C        1.34267341       1.37141431       3.09381577
C        0.21608103      -3.10217216      -1.07259667
C       -2.68557156       1.43386616      -2.19151276
C       -2.01103831       2.48030670      -1.49263693
C       -0.57872098      -2.05668343       2.36435206
C       -2.24957657      -0.44671786      -3.66923849
C       -3.34385369      -0.82325943      -1.52265170
C       -0.65742735       4.16291238       0.18351400
C       -0.78765459       2.76614275       1.98723599
C        0.55707186       3.17341846       1.85390853
C        1.55198642       2.18566649       1.96972537
C       -2.89936423      -1.31881974      -2.78748881
C        0.04433660       1.20445989       3.61446240
C       -3.21997725       0.54417054      -1.21699586
C        0.72340956      -0.26874271       0.88112190
C       -2.13079128      -2.78517794      -1.17756984
C       -1.02075886      -2.14140359       0.86916112
C        0.65766152       4.09134395       0.79816661
C       -0.07337202       0.18748320      -4.06946588
C        1.97479242       0.13617179       3.22016961
C       -2.88236479      -1.74786366      -0.55695387
C       -1.48600840       3.15981541       0.80613257
C        1.17588014       3.53161338      -0.41535296
C        2.14810096       1.64149977       0.80014223
C        2.21127651       0.09726459       0.77395925
C       -0.88757773      -0.81800935       2.97166063
C       -2.83526848       1.00099240       0.10293224
C        1.13220328      -2.39797251      -0.22003371
C        1.48582168      -2.02024659       3.79890626
C        2.02240776      -1.95212360       2.42341545
C       -2.01227710      -2.43248118      -2.54073121
C        2.56402198       0.28949814      -1.68729023
C       -1.03461811      -3.13264396      -0.38009865
C        2.66554778      -0.50794137      -0.53406789
C       -2.18607184       0.95707265      -3.42434202
C        1.67441746      -1.75228779      -2.30731064
C        0.72070371      -2.45647868       2.69630802
C       -0.91214504      -0.94254590      -3.90321664
C       -0.78740372       3.00277354      -1.98679376
C       -2.27940248      -1.33119074       0.63131127
C        1.23806598      -0.67274230       4.12369732
C       -0.73166046      -2.12835839      -3.10792129
C        2.03171447       1.60835697      -1.68559883
C       -2.22300148       2.32902061      -0.07050735
C        1.19171818       1.70545656      -2.84671771
