!BIOSYM archive 2
PBC=ON
Energy      0    0.00  -220.26973
!DATE
PBC  57.08734966     62.08907823  58.15827851  90.0  90.0  90.0
O       35.888090 35.808859 36.923709   CORE 1  O  O  0.0000   1
H       36.081317 36.326815 37.721276  CORE 2  H  H  0.0000   2
H       35.186214 36.316318 36.394339  CORE 3  H  H  0.0000   3
O       32.380428 39.850033 32.968818  CORE 4  O  O  0.0000   4
H       33.247905 39.954124 32.517445  CORE 5  H  H  0.0000   5
H       31.878722 39.114067 32.521752  CORE 6  H  H  0.0000   6
O       34.585040 31.916101 34.469890  CORE 7  O  O  0.0000   7
H       34.591002 31.001696 34.144831  CORE 8  H  H  0.0000   8
H       33.693191 32.073797 34.870210  CORE 9  H  H  0.0000   9
O       31.671056 35.403665 31.846782  CORE 10  O  O  0.0000   10
H       31.893352 35.182949 32.787879  CORE 11  H  H  0.0000   11
H       32.499210 35.195616 31.320740  CORE 12  H  H  0.0000   12
O       36.483711 35.915959 33.976377  CORE 13  O  O  0.0000   13
H       36.844899 35.650070 34.842536  CORE 14  H  H  0.0000   14
H       35.672513 36.419785 34.240001  CORE 15  H  H  0.0000   15
O       34.989324 40.335679 32.018687  CORE 16  O  O  0.0000   16
H       35.137042 40.961517 31.289060  CORE 17  H  H  0.0000   17
H       35.529096 40.667062 32.757287  CORE 18  H  H  0.0000   18
O       32.611334 39.055804 35.420463  CORE 19  O  O  0.0000   19
H       32.732873 39.792180 36.040575  CORE 20  H  H  0.0000   20
H       32.555664 39.451157 34.474549  CORE 21  H  H  0.0000   21
O       32.175457 35.270721 34.551425  CORE 22  O  O  0.0000   22
H       32.143095 34.454043 35.111976  CORE 23  H  H  0.0000   23
H       31.422101 35.893823 34.796780  CORE 24  H  H  0.0000   24
O       35.471430 33.821090 32.524895  CORE 25  O  O  0.0000   25
H       35.112090 33.173077 33.171839  CORE 26  H  H  0.0000   26
H       35.864176 34.560525 33.067408  CORE 27  H  H  0.0000   27
O       34.927798 33.300226 37.067676  CORE 28  O  O  0.0000   28
H       35.357623 32.842561 36.318861  CORE 29  H  H  0.0000   29
H       35.313359 34.224042 37.082722  CORE 30  H  H  0.0000   30
O       32.574326 32.993951 36.022014  CORE 31  O  O  0.0000   31
H       31.915981 32.631971 36.638927  CORE 32  H  H  0.0000   32
H       33.420300 33.192056 36.562208  CORE 33  H  H  0.0000   33
O       33.942763 34.739317 30.575326  CORE 34  O  O  0.0000   34
H       33.808129 34.001592 29.960104  CORE 35  H  H  0.0000   35
H       34.526556 34.365596 31.314045  CORE 36  H  H  0.0000   36
O       34.208826 36.868735 35.241574  CORE 37  O  O  0.0000   37
H       33.731031 37.736443 35.350230  CORE 38  H  H  0.0000   38
H       33.484606 36.216944 34.982588  CORE 39  H  H  0.0000   39
O       30.442151 37.268123 34.890020  CORE 40  O  O  0.0000   40
H       31.044247 37.952430 35.263578  CORE 41  H  H  0.0000   41
H       30.394602 37.499481 33.927809  CORE 42  H  H  0.0000   42
O       30.796122 37.796650 32.143821  CORE 43  O  O  0.0000   43
H       30.066929 37.953572 31.523049  CORE 44  H  H  0.0000   44
H       31.169904 36.854102 31.925163  CORE 45  H  H  0.0000   45
end
end
