!BIOSYM archive 2
PBC=ON
Energy      0    0.00  -220.145966
!DATE
PBC  57.96131013     60.15495667  58.6283167  90.0  90.0  90.0
O       32.879187 33.819571 37.192815   CORE 1  O  O  0.0000   1
H       32.408774 33.890524 38.039651  CORE 2  H  H  0.0000   2
H       32.376798 34.422033 36.514706  CORE 3  H  H  0.0000   3
O       32.760426 37.727378 35.108741  CORE 4  O  O  0.0000   4
H       32.182684 38.482152 35.375487  CORE 5  H  H  0.0000   5
H       32.986534 37.852269 34.137437  CORE 6  H  H  0.0000   6
O       36.232693 33.976884 31.143154  CORE 7  O  O  0.0000   7
H       36.465972 33.931387 30.201804  CORE 8  H  H  0.0000   8
H       36.988959 34.464871 31.615624  CORE 9  H  H  0.0000   9
O       35.430234 31.620175 32.763464  CORE 10  O  O  0.0000   10
H       34.456259 31.643633 32.845068  CORE 11  H  H  0.0000   11
H       35.671379 32.362538 32.172905  CORE 12  H  H  0.0000   12
O       35.457280 34.965406 37.136166  CORE 13  O  O  0.0000   13
H       35.729241 34.824899 36.200002  CORE 14  H  H  0.0000   14
H       34.566249 34.545394 37.212064  CORE 15  H  H  0.0000   15
O       31.164268 39.855728 35.956906  CORE 16  O  O  0.0000   16
H       31.019380 40.581570 35.327766  CORE 17  H  H  0.0000   17
H       31.465198 40.282219 36.777100  CORE 18  H  H  0.0000   18
O       35.366296 37.532942 36.054075  CORE 19  O  O  0.0000   19
H       35.327188 36.783923 36.702206  CORE 20  H  H  0.0000   20
H       34.418484 37.708619 35.822797  CORE 21  H  H  0.0000   21
O       37.939006 35.384603 32.555475  CORE 22  O  O  0.0000   22
H       38.726800 34.962647 32.934142  CORE 23  H  H  0.0000   23
H       37.307502 35.538642 33.334799  CORE 24  H  H  0.0000   24
O       31.874735 33.951202 32.979564  CORE 25  O  O  0.0000   25
H       31.110036 34.013720 32.384556  CORE 26  H  H  0.0000   26
H       32.034728 32.967774 33.155481  CORE 27  H  H  0.0000   27
O       33.291591 31.427624 36.074455  CORE 28  O  O  0.0000   28
H       34.251159 31.288198 36.148267  CORE 29  H  H  0.0000   29
H       33.113245 32.304371 36.535043  CORE 30  H  H  0.0000   30
O       32.568541 31.495756 33.569005  CORE 31  O  O  0.0000   31
H       32.093426 30.673891 33.366366  CORE 32  H  H  0.0000   32
H       32.838281 31.443601 34.552089  CORE 33  H  H  0.0000   33
O       33.499209 37.869816 32.529511  CORE 34  O  O  0.0000   34
H       34.292365 38.419121 32.414854  CORE 35  H  H  0.0000   35
H       33.794302 36.932780 32.335289  CORE 36  H  H  0.0000   36
O       31.672818 35.263772 35.462562  CORE 37  O  O  0.0000   37
H       31.692460 34.832897 34.574350  CORE 38  H  H  0.0000   38
H       32.051376 36.180968 35.338722  CORE 39  H  H  0.0000   39
O       36.059314 35.582263 34.377126  CORE 40  O  O  0.0000   40
H       35.298173 35.443914 33.754274  CORE 41  H  H  0.0000   41
H       35.854712 36.431916 34.885570  CORE 42  H  H  0.0000   42
O       34.196734 35.281130 32.347866  CORE 43  O  O  0.0000   43
H       33.387877 34.723752 32.481834  CORE 44  H  H  0.0000   44
H       34.827612 34.797942 31.746080  CORE 45  H  H  0.0000   45
end
end
