!BIOSYM archive 2
PBC=ON
Energy      0    0.00  -219.942856
!DATE
PBC  60.6792614     58.3038643  58.19438005  90.0  90.0  90.0
O       30.885137 34.045157 33.745764   CORE 1  O  O  0.0000   1
H       30.153170 33.689088 33.219721  CORE 2  H  H  0.0000   2
H       30.651055 33.891520 34.696788  CORE 3  H  H  0.0000   3
O       39.618558 35.212648 31.486157  CORE 4  O  O  0.0000   4
H       40.586824 35.232191 31.547249  CORE 5  H  H  0.0000   5
H       39.332708 36.181065 31.447532  CORE 6  H  H  0.0000   6
O       35.325863 30.870152 33.477336  CORE 7  O  O  0.0000   7
H       34.737996 31.515226 33.027622  CORE 8  H  H  0.0000   8
H       35.086816 31.002779 34.424960  CORE 9  H  H  0.0000   9
O       34.602574 34.678732 35.408051  CORE 10  O  O  0.0000   10
H       34.374715 34.293650 34.519906  CORE 11  H  H  0.0000   11
H       35.477054 35.148660 35.314041  CORE 12  H  H  0.0000   12
O       32.270592 35.966300 35.779511  CORE 13  O  O  0.0000   13
H       31.962053 36.060753 34.859787  CORE 14  H  H  0.0000   14
H       33.198517 35.586656 35.699633  CORE 15  H  H  0.0000   15
O       38.865910 37.749395 31.532896  CORE 16  O  O  0.0000   16
H       38.375037 38.076228 30.763945  CORE 17  H  H  0.0000   17
H       38.298714 37.954269 32.334220  CORE 18  H  H  0.0000   18
O       30.727550 34.022330 36.516876  CORE 19  O  O  0.0000   19
H       29.965237 34.349382 37.022048  CORE 20  H  H  0.0000   20
H       31.344354 34.826433 36.357870  CORE 21  H  H  0.0000   21
O       34.170082 31.925948 35.885463  CORE 22  O  O  0.0000   22
H       34.481964 32.844273 36.059723  CORE 23  H  H  0.0000   23
H       33.420274 31.768685 36.526254  CORE 24  H  H  0.0000   24
O       37.034235 35.868459 35.092408  CORE 25  O  O  0.0000   25
H       37.530843 35.901572 35.927645  CORE 26  H  H  0.0000   26
H       37.544625 35.179693 34.501233  CORE 27  H  H  0.0000   27
O       33.490611 33.045602 33.494909  CORE 28  O  O  0.0000   28
H       32.561681 33.361739 33.392605  CORE 29  H  H  0.0000   29
H       33.491550 32.537660 34.351913  CORE 30  H  H  0.0000   30
O       38.325066 34.207678 33.688840  CORE 31  O  O  0.0000   31
H       38.800629 34.574393 32.897910  CORE 32  H  H  0.0000   32
H       38.088345 33.263661 33.479655  CORE 33  H  H  0.0000   33
O       38.773323 32.583158 30.373269  CORE 34  O  O  0.0000   34
H       39.017520 33.494103 30.632593  CORE 35  H  H  0.0000   35
H       38.408061 32.185066 31.190390  CORE 36  H  H  0.0000   36
O       37.433483 38.216910 33.757993  CORE 37  O  O  0.0000   37
H       36.593949 38.703279 33.723024  CORE 38  H  H  0.0000   38
H       37.242383 37.377733 34.266899  CORE 39  H  H  0.0000   39
O       32.036185 31.844820 37.529469  CORE 40  O  O  0.0000   40
H       31.431027 31.086676 37.565958  CORE 41  H  H  0.0000   41
H       31.500698 32.615986 37.198011  CORE 42  H  H  0.0000   42
O       37.811216 31.617205 33.014548  CORE 43  O  O  0.0000   43
H       38.394315 30.973595 33.450001  CORE 44  H  H  0.0000   44
H       36.860915 31.306373 33.191045  CORE 45  H  H  0.0000   45
end
end
