60
Properties=species:S:1:pos:R:3 trajectory=trial0001_proposal001_step003_proposal_relax trajectory_step=0 pbc="F F F"
C       -0.74177443       2.59526660       1.95662697
C       -1.01679946      -0.41204103       2.12860994
C        1.48871845      -1.43301266       1.53635926
C        0.15501796       0.44442753      -3.84567923
C        1.48140319       2.27731377      -2.81386693
C        0.13846081       0.71528094       0.11970822
C        0.62073389       2.77594605       1.56823404
C        0.61214050       1.45655033       3.42048243
C        0.70177472      -2.81699656      -2.48354886
C       -1.10741211      -0.13268244      -4.04904636
C        2.62333054       0.25385218      -1.76067566
C        1.13444417      -3.23352054      -0.12479692
C       -1.81268424       2.26198041       1.06087723
C        0.25317240      -1.94478277      -3.60119161
C       -0.90871043      -3.06882774      -0.65521994
C        2.21146019       0.92909033       1.90414720
C       -0.75138280      -2.63906992       0.79990001
C       -2.06398485       1.50800247      -2.51389522
C       -0.85378969       2.21847666      -2.49076320
C       -1.68937201       1.15215708       3.84219713
C       -2.94180156      -0.75366906      -2.90011628
C       -3.42759419       0.66075692      -0.72692304
C        1.57794923       3.36907368      -1.88568246
C        1.19379632       3.07607627       0.33277833
C        2.44633790       2.47235740       0.05381393
C        2.70570418       1.17911034       0.59410244
C       -3.21301763      -0.51223315      -1.53106501
C        1.41852873       1.96469177       2.40360561
C       -2.65582467       1.70820297      -1.21841987
C       -0.23058130       0.21422990       1.20272702
C       -2.48690731      -1.02549455       0.55860720
C       -2.06155959       0.47086129       2.67790704
C        2.74395139       2.71585167      -1.29671276
C       -1.06705247      -1.57639663      -3.88240065
C        1.73614620      -0.33988648       2.52179661
C       -3.11262312       0.26547596       0.62981857
C        0.55022498       3.42427694      -0.87838751
C        2.56589500       1.60449478      -2.17839107
C        2.64612017       0.07608909      -0.29631368
C        2.05694964      -1.09741010       0.26124443
C       -0.67541212       1.96141188       3.26611997
C       -1.79013759       2.47844283      -0.36838321
C        0.63942318      -2.72834678       1.16959369
C        0.02495993      -0.46425465       4.57436658
C       -0.90066104      -0.88331397       5.53383110
C       -2.45274513      -1.36611320      -0.79942651
C        1.70435925      -1.97807156      -1.97964667
C       -1.54586712      -1.61450782       1.43057528
C        1.81449599      -2.12010522      -0.61462941
C       -2.22623456       0.39508228      -3.38423281
C        0.24000577      -3.61995737      -1.23070576
C       -1.20299558       0.22982339       4.77638267
C       -2.07755050      -1.96768382      -2.97686261
C        0.25342959       1.72957176      -3.20795928
C       -2.63153835       1.18244568       1.55853016
C        0.91109021       0.10105075       3.67206961
C       -1.73755786      -2.27741914      -1.53325552
C        2.01681327      -0.76407164      -2.58971621
C       -0.71163995       2.92864380      -1.23310655
C        1.03380084      -0.67287909      -3.61892626
60
Properties=species:S:1:pos:R:3 trajectory=trial0001_proposal001_step003_proposal_relax trajectory_step=1 pbc="F F F"
C       -0.74106234       2.59600380       1.95845119
C       -1.01979950      -0.41472235       2.12188826
C        1.49175718      -1.43103192       1.53012763
C        0.16194430       0.43806038      -3.84683993
C        1.47993608       2.27882089      -2.81420222
C        0.13626910       0.71348572       0.12029933
C        0.61830858       2.77615413       1.57135454
C        0.61216339       1.45790928       3.42073271
C        0.70235793      -2.80706952      -2.48556580
C       -1.11249168      -0.13594810      -4.05119886
C        2.61599418       0.25461506      -1.75637471
C        1.14293178      -3.23278812      -0.12616947
C       -1.81189280       2.26363759       1.06381889
C        0.25422026      -1.95036535      -3.60067343
C       -0.92077693      -3.06162343      -0.65467099
C        2.21414884       0.92945833       1.90500573
C       -0.74747730      -2.63801087       0.79931215
C       -2.06451839       1.51401150      -2.51372226
C       -0.85018635       2.22143554      -2.48939460
C       -1.68959529       1.15417338       3.84572060
C       -2.94153109      -0.74610190      -2.88805310
C       -3.42338489       0.65338856      -0.72641608
C        1.57617269       3.36806791      -1.88597585
C        1.19376606       3.07689078       0.33015406
C        2.45013314       2.46954023       0.05554117
C        2.70096417       1.17840063       0.59360265
C       -3.22628008      -0.50826014      -1.54157401
C        1.41764636       1.96367449       2.40385749
C       -2.65954693       1.70597210      -1.22158164
C       -0.23230272       0.21377251       1.20541758
C       -2.48894473      -1.02856637       0.55434277
C       -2.06272569       0.46719943       2.67692850
C        2.74310087       2.71664626      -1.29643040
C       -1.06155947      -1.57575420      -3.88046292
C        1.73767558      -0.34203803       2.51643974
C       -3.11166237       0.26088251       0.61897375
C        0.55237653       3.42381228      -0.88093289
C        2.57004444       1.60039427      -2.17786101
C        2.64388076       0.07974824      -0.29811908
C        2.06520548      -1.09949294       0.26749755
C       -0.67638442       1.96339758       3.26706118
C       -1.79207505       2.47817399      -0.36669263
C        0.63681390      -2.72492963       1.16811940
C        0.02476853      -0.46374804       4.57715329
C       -0.90133386      -0.88207673       5.53519051
C       -2.46087648      -1.36435636      -0.79042351
C        1.70590536      -1.98817837      -1.96780898
C       -1.54899735      -1.61103206       1.42321247
C        1.81911703      -2.13662294      -0.62412993
C       -2.23251810       0.38956755      -3.38233721
C        0.24946231      -3.60861069      -1.23317251
C       -1.20244026       0.22822574       4.77958939
C       -2.07672235      -1.95927348      -2.96681154
C        0.25510341       1.72736943      -3.21059041
C       -2.62820275       1.18639136       1.55786450
C        0.91344767       0.10159175       3.67213997
C       -1.73476349      -2.28614965      -1.53412903
C        2.01466925      -0.75571015      -2.59056742
C       -0.70826670       2.92897631      -1.23363798
C        1.03346106      -0.67377036      -3.61821098
60
Properties=species:S:1:pos:R:3 trajectory=trial0001_proposal001_step003_proposal_relax trajectory_step=2 pbc="F F F"
C       -0.74099520       2.59733429       1.96127752
C       -1.02472404      -0.41794660       2.11555309
C        1.49490233      -1.42951475       1.52362189
C        0.16478194       0.43198433      -3.84905824
C        1.48070998       2.27883862      -2.81415842
C        0.13298673       0.71097881       0.12189544
C        0.61760832       2.77700469       1.57199371
C        0.61213027       1.45845241       3.42158519
C        0.70241793      -2.79819974      -2.48567747
C       -1.11505028      -0.13904762      -4.05372038
C        2.60666861       0.25604698      -1.75178096
C        1.14937360      -3.23691202      -0.12585784
C       -1.81119644       2.26588157       1.06630965
C        0.25700507      -1.95499392      -3.60071379
C       -0.92509743      -3.05890043      -0.65427276
C        2.21682434       0.92958475       1.90624618
C       -0.74636155      -2.63495957       0.79739621
C       -2.06570854       1.51911626      -2.51553992
C       -0.84676286       2.22345411      -2.48906811
C       -1.69024575       1.15485633       3.84827713
C       -2.94027232      -0.73975609      -2.87916582
C       -3.41957624       0.64844650      -0.72984003
C        1.57544978       3.36628212      -1.88692232
C        1.19406948       3.07679232       0.32985492
C        2.45258565       2.46861028       0.05686952
C        2.69580608       1.17745696       0.59311571
C       -3.23971113      -0.50938934      -1.54202467
C        1.41707380       1.96274050       2.40391723
C       -2.66282172       1.70467166      -1.22361208
C       -0.23307983       0.21434816       1.20677584
C       -2.49283449      -1.03065544       0.55034400
C       -2.06404353       0.46448907       2.67699964
C        2.74237883       2.71597337      -1.29680201
C       -1.05965273      -1.57646403      -3.87636655
C        1.73907600      -0.34291194       2.51120490
C       -3.10842465       0.25951633       0.61308103
C        0.55479251       3.42345043      -0.88286494
C        2.57324373       1.59994209      -2.17811033
C        2.63983961       0.08082514      -0.29818357
C        2.07586273      -1.10793735       0.26583098
C       -0.67747322       1.96512607       3.26929827
C       -1.79375254       2.47805098      -0.36590277
C        0.63649745      -2.72053185       1.16453485
C        0.02641625      -0.46256491       4.57954134
C       -0.90206407      -0.88206754       5.53843323
C       -2.47155859      -1.36696804      -0.79260248
C        1.70996954      -1.98956907      -1.96943361
C       -1.55075031      -1.60898357       1.41521038
C        1.83237460      -2.14573755      -0.61925101
C       -2.23721081       0.38848653      -3.37985651
C        0.25370137      -3.59377702      -1.23450433
C       -1.20272180       0.22874657       4.78215797
C       -2.07308375      -1.94944843      -2.95581285
C        0.25741147       1.72428862      -3.21360899
C       -2.62635396       1.18623138       1.55423624
C        0.91564102       0.10152500       3.67255627
C       -1.73973371      -2.28720282      -1.53181341
C        2.01062610      -0.75404752      -2.58649642
C       -0.70603164       2.92892920      -1.23333643
C        1.03449491      -0.67635750      -3.61669372
60
Properties=species:S:1:pos:R:3 trajectory=trial0001_proposal001_step003_proposal_relax trajectory_step=3 pbc="F F F"
C       -0.74238135       2.60402239       1.97134569
C       -1.04259347      -0.42610364       2.09975836
C        1.50428354      -1.42701587       1.50581135
C        0.16458087       0.41596495      -3.85758529
C        1.48575498       2.27314351      -2.81780534
C        0.12263582       0.70582269       0.12004243
C        0.61867484       2.77855197       1.57256651
C        0.61243204       1.45786958       3.42456332
C        0.70349942      -2.77523795      -2.47681835
C       -1.12019439      -0.14691846      -4.06009349
C        2.57289614       0.26330141      -1.73687128
C        1.16988889      -3.25537976      -0.12101542
C       -1.81156347       2.27282385       1.07086083
C        0.26376167      -1.96360408      -3.60658770
C       -0.92602662      -3.05377889      -0.65357550
C        2.22372205       0.92978489       1.90992040
C       -0.74604513      -2.62319325       0.78581397
C       -2.07043875       1.53306747      -2.52420072
C       -0.83820770       2.22426120      -2.49263801
C       -1.69405318       1.15315115       3.85027035
C       -2.93569944      -0.72440788      -2.86057975
C       -3.41202849       0.64271966      -0.74084063
C        1.57697672       3.36003825      -1.89056083
C        1.19736182       3.07611278       0.33041748
C        2.45554670       2.47021316       0.05874264
C        2.67951305       1.17278138       0.59194609
C       -3.28654955      -0.52180265      -1.53330626
C        1.41563509       1.96111451       2.40419293
C       -2.66726949       1.70672909      -1.23044911
C       -0.23631664       0.21278978       1.21785226
C       -2.50933963      -1.03701966       0.53331151
C       -2.06976358       0.45890649       2.67760614
C        2.74214910       2.71254601      -1.29607942
C       -1.05904275      -1.58212633      -3.85814112
C        1.74176655      -0.34268332       2.49592974
C       -3.09495128       0.26007191       0.59999096
C        0.56121257       3.42187762      -0.88412809
C        2.58040557       1.60195878      -2.18054624
C        2.62250327       0.07728196      -0.29710752
C        2.11946069      -1.12855864       0.26262863
C       -0.67961353       1.96901294       3.27947398
C       -1.79695024       2.47888172      -0.36558069
C        0.63866833      -2.70479198       1.14971549
C        0.02995013      -0.45769569       4.59104059
C       -0.90176950      -0.87913081       5.54746050
C       -2.51573395      -1.38405301      -0.79846934
C        1.73287388      -1.99007609      -1.95628060
C       -1.55545797      -1.60592439       1.38793966
C        1.88929103      -2.17874565      -0.63011558
C       -2.24102933       0.39665098      -3.37510606
C        0.25572463      -3.53988182      -1.23705227
C       -1.20126989       0.22917274       4.79248591
C       -2.05571651      -1.91634461      -2.92257115
C        0.26547227       1.71332975      -3.22179160
C       -2.61974880       1.17961329       1.54333248
C        0.92170275       0.09993594       3.67339219
C       -1.76514739      -2.28338081      -1.52265123
C        1.99650801      -0.75095709      -2.56874390
C       -0.70219610       2.92690665      -1.23118640
C        1.03767255      -0.68798043      -3.61486794
60
Properties=species:S:1:pos:R:3 trajectory=trial0001_proposal001_step003_proposal_relax trajectory_step=4 pbc="F F F"
C       -0.74391091       2.60984145       1.97495327
C       -1.05457519      -0.43027297       2.10344894
C        1.51077411      -1.42937414       1.49584738
C        0.16178921       0.41276123      -3.86274953
C        1.48909240       2.26700730      -2.82554000
C        0.10971169       0.69799515       0.13055094
C        0.61909760       2.77603897       1.57550044
C        0.61359982       1.45474783       3.42577665
C        0.71000804      -2.76582602      -2.46110783
C       -1.12194660      -0.14726248      -4.06090995
C        2.55168779       0.26963496      -1.73231975
C        1.18842201      -3.26004033      -0.12686717
C       -1.81445093       2.27434509       1.07085272
C        0.26801469      -1.96513487      -3.60720132
C       -0.93083753      -3.03876202      -0.65656094
C        2.22293284       0.93104069       1.90968482
C       -0.74175605      -2.61873315       0.77209249
C       -2.06933564       1.54027135      -2.52954090
C       -0.83622634       2.21956636      -2.49732058
C       -1.69465191       1.14582501       3.84785626
C       -2.93344073      -0.71602386      -2.85706284
C       -3.41432588       0.65338523      -0.73923518
C        1.58052415       3.35545567      -1.89209036
C        1.19945926       3.07835221       0.33174532
C        2.45435314       2.46783970       0.05951554
C        2.67220322       1.17228365       0.59119863
C       -3.31855471      -0.52842662      -1.54114571
C        1.41644805       1.96142571       2.40625208
C       -2.66396164       1.71290817      -1.23602430
C       -0.22762019       0.21819470       1.20922613
C       -2.51901999      -1.04053040       0.53240581
C       -2.07562927       0.45645838       2.67603306
C        2.74564612       2.71271221      -1.29478699
C       -1.05891538      -1.58235960      -3.85024086
C        1.73813919      -0.34014648       2.49310820
C       -3.08870796       0.26287249       0.59008671
C        0.56067649       3.41932700      -0.88212534
C        2.58047894       1.60073487      -2.18097369
C        2.61281102       0.07734913      -0.29586607
C        2.14670341      -1.15243858       0.25769309
C       -0.67903351       1.96901715       3.28561320
C       -1.79473879       2.48207022      -0.36785253
C        0.64269268      -2.69374384       1.13554953
C        0.03647912      -0.45182583       4.59688437
C       -0.89900238      -0.87843204       5.55619845
C       -2.55794869      -1.40611687      -0.78699946
C        1.74288309      -1.98911351      -1.97154320
C       -1.56272237      -1.60475765       1.37124562
C        1.94138598      -2.20368202      -0.60321425
C       -2.23387504       0.40336891      -3.37821317
C        0.25250109      -3.51276269      -1.23499245
C       -1.20220403       0.23545632       4.79458278
C       -2.04662460      -1.90079347      -2.90858469
C        0.26580208       1.70518819      -3.22341965
C       -2.61228276       1.17757872       1.54387696
C        0.92048199       0.09669645       3.67545013
C       -1.77688151      -2.28908106      -1.51514928
C        1.98794617      -0.74704197      -2.55714731
C       -0.69991657       2.92313428      -1.23255286
C        1.03577851      -0.69458456      -3.61882591
60
Properties=species:S:1:pos:R:3 trajectory=trial0001_proposal001_step003_proposal_relax trajectory_step=5 pbc="F F F"
C       -0.74371261       2.60800680       1.97336628
C       -1.04848523      -0.42785066       2.10352952
C        1.50868758      -1.42962072       1.50076243
C        0.16152534       0.41558968      -3.86134209
C        1.48838795       2.26875634      -2.82378756
C        0.11480824       0.70319869       0.12177497
C        0.61921236       2.77654608       1.57409964
C        0.61312658       1.45518862       3.42541176
C        0.70801204      -2.77074235      -2.46455768
C       -1.11944133      -0.14576736      -4.06046985
C        2.55884463       0.26773893      -1.73420448
C        1.18131394      -3.25900740      -0.12531654
C       -1.81351097       2.27360792       1.07014107
C        0.26637644      -1.96354582      -3.60583909
C       -0.92699549      -3.04215484      -0.65584155
C        2.22154277       0.93061600       1.90936012
C       -0.74351509      -2.61945010       0.77508462
C       -2.06881845       1.53653813      -2.52838430
C       -0.83730746       2.22011992      -2.49612452
C       -1.69371356       1.14705230       3.84719957
C       -2.93345672      -0.71939772      -2.86208847
C       -3.41545040       0.65294313      -0.74066125
C        1.57977477       3.35618188      -1.89150886
C        1.19840632       3.07781814       0.33290212
C        2.45339828       2.46844155       0.05873685
C        2.67538333       1.17251953       0.59144193
C       -3.30762694      -0.52609621      -1.53645524
C        1.41668873       1.96171122       2.40637024
C       -2.66368902       1.71208233      -1.23369444
C       -0.23262352       0.21231376       1.21880801
C       -2.51736499      -1.03818891       0.53537106
C       -2.07387032       0.45724897       2.67640478
C        2.74541951       2.71254399      -1.29551797
C       -1.05916542      -1.58152437      -3.85386485
C        1.73761351      -0.34074262       2.49541620
C       -3.09075483       0.26430619       0.59588148
C        0.56030042       3.41958969      -0.88266311
C        2.57856301       1.60219350      -2.18069939
C        2.61607052       0.07644061      -0.29598224
C        2.13894047      -1.14471675       0.25989859
C       -0.67877149       1.96825361       3.28310139
C       -1.79426343       2.48180456      -0.36806685
C        0.64261200      -2.69753087       1.13806142
C        0.03408855      -0.45319086       4.59589480
C       -0.89876902      -0.87745000       5.55312150
C       -2.55010458      -1.40343576      -0.79298281
C        1.74206976      -1.98884693      -1.96562207
C       -1.55942838      -1.60586686       1.37881355
C        1.93052690      -2.19522898      -0.61295314
C       -2.23446807       0.40235864      -3.37822233
C        0.25274519      -3.52345533      -1.23418532
C       -1.20151213       0.23333679       4.79380355
C       -2.04998570      -1.90791699      -2.91509234
C        0.26476502       1.70756159      -3.22193922
C       -2.61507469       1.17779291       1.54374904
C        0.91982551       0.09749164       3.67445229
C       -1.77634444      -2.28549301      -1.51630849
C        1.98948795      -0.74922724      -2.56190750
C       -0.70074279       2.92358881      -1.23287177
C        1.03587627      -0.69141604      -3.61873802
60
Properties=species:S:1:pos:R:3 trajectory=trial0001_proposal001_step003_proposal_relax trajectory_step=6 pbc="F F F"
C       -0.74380719       2.60775469       1.97297620
C       -1.04701788      -0.42779468       2.10539140
C        1.50876221      -1.43055365       1.50226099
C        0.16115596       0.41716004      -3.86165633
C        1.48815265       2.26887227      -2.82444761
C        0.11380011       0.70323483       0.12221778
C        0.61912752       2.77623635       1.57415190
C        0.61297806       1.45492330       3.42548552
C        0.70825589      -2.77193088      -2.46340659
C       -1.11797036      -0.14462384      -4.06063163
C        2.55909609       0.26760038      -1.73460453
C        1.18107856      -3.25897696      -0.12558119
C       -1.81314651       2.27352749       1.06959333
C        0.26584096      -1.96269401      -3.60448630
C       -0.92546684      -3.04027749      -0.65590801
C        2.21999929       0.93043276       1.90907054
C       -0.74360309      -2.61847679       0.77403234
C       -2.06809309       1.53533371      -2.52855563
C       -0.83744729       2.21947686      -2.49626151
C       -1.69286772       1.14629631       3.84600839
C       -2.93302937      -0.71977298      -2.86453528
C       -3.41683614       0.65477501      -0.74125808
C        1.57981889       3.35549286      -1.89130276
C        1.19802414       3.07804652       0.33378126
C        2.45233144       2.46827651       0.05819811
C        2.67597070       1.17243268       0.59153464
C       -3.30706305      -0.52518819      -1.53576519
C        1.41701796       1.96215413       2.40708584
C       -2.66264386       1.71295861      -1.23355908
C       -0.23188204       0.21135083       1.21914791
C       -2.51919211      -1.03763244       0.53673524
C       -2.07399568       0.45698689       2.67642869
C        2.74607148       2.71256258      -1.29559419
C       -1.05884659      -1.58087274      -3.85493469
C        1.73596645      -0.34081663       2.49634364
C       -3.09108269       0.26605855       0.59744027
C        0.56019728       3.41900045      -0.88277299
C        2.57695193       1.60270893      -2.18049067
C        2.61634755       0.07574448      -0.29590903
C        2.14024407      -1.14388738       0.26161226
C       -0.67849091       1.96759665       3.28233696
C       -1.79332811       2.48240308      -0.36876434
C        0.64333157      -2.69791039       1.13616086
C        0.03388111      -0.45268593       4.59679363
C       -0.89776775      -0.87613460       5.55304161
C       -2.55646121      -1.40643986      -0.79289334
C        1.74459012      -1.98951514      -1.96190288
C       -1.55867821      -1.60621484       1.38083184
C        1.93548037      -2.19609884      -0.61731789
C       -2.23329883       0.40286252      -3.37915331
C        0.25281493      -3.52526515      -1.23310606
C       -1.20112939       0.23306891       4.79382982
C       -2.05074926      -1.90970612      -2.91715180
C        0.26428168       1.70757762      -3.22111057
C       -2.61538086       1.17818653       1.54391946
C        0.91892432       0.09737558       3.67424826
C       -1.77919530      -2.28467183      -1.51590504
C        1.98844696      -0.74941050      -2.56322488
C       -0.70051096       2.92303028      -1.23370265
C        1.03546884      -0.69032965      -3.61969914
60
Properties=species:S:1:pos:R:3 trajectory=trial0001_proposal001_step003_proposal_relax trajectory_step=7 pbc="F F F"
C       -0.74394743       2.60769496       1.97287108
C       -1.04448353      -0.42891039       2.10906310
C        1.51080256      -1.43359019       1.50311199
C        0.16127259       0.42009004      -3.86393677
C        1.48754864       2.26885164      -2.82711072
C        0.10943909       0.70320672       0.12227129
C        0.61862628       2.77540287       1.57527677
C        0.61272694       1.45428211       3.42610452
C        0.71064605      -2.77147943      -2.45806260
C       -1.11528206      -0.14229877      -4.06227256
C        2.55490475       0.26798764      -1.73464662
C        1.18601041      -3.25935139      -0.12792110
C       -1.81200448       2.27418468       1.06852522
C        0.26554742      -1.96142845      -3.59995527
C       -0.92369771      -3.03135285      -0.65668077
C        2.21607468       0.92983218       1.90853598
C       -0.74249388      -2.61400808       0.76926066
C       -2.06609352       1.53411864      -2.52960310
C       -0.83664735       2.21761153      -2.49704576
C       -1.69055754       1.14353799       3.84338086
C       -2.93153452      -0.71825702      -2.86754490
C       -3.41963591       0.65977476      -0.74268941
C        1.58011054       3.35279481      -1.89109744
C        1.19722873       3.07886117       0.33550939
C        2.44981865       2.46701209       0.05733825
C        2.67519364       1.17190354       0.59165861
C       -3.31278905      -0.52279334      -1.53738294
C        1.41772832       1.96332034       2.40936606
C       -2.66029463       1.71550905      -1.23476426
C       -0.23055648       0.20744516       1.22325984
C       -2.52673115      -1.03775618       0.53986550
C       -2.07513873       0.45510824       2.67605591
C        2.74783018       2.71267228      -1.29556620
C       -1.05738207      -1.57934591      -3.85612541
C        1.73098550      -0.34111785       2.49728470
C       -3.09118531       0.27033804       0.59774536
C        0.56055201       3.41677293      -0.88323283
C        2.57321575       1.60313157      -2.17990723
C        2.61545711       0.07441616      -0.29545039
C        2.14999113      -1.14793073       0.26463310
C       -0.67799485       1.96609131       3.28107300
C       -1.79087809       2.48432275      -0.37065645
C        0.64545908      -2.69654057       1.12828447
C        0.03519901      -0.45014300       4.60026219
C       -0.89494375      -0.87264274       5.55568292
C       -2.58280972      -1.41793007      -0.78927069
C        1.75265325      -1.99118918      -1.95862870
C       -1.55895638      -1.60567025       1.38211211
C        1.95899377      -2.20440060      -0.61954975
C       -2.23032685       0.40422794      -3.38181150
C        0.25388420      -3.52390999      -1.23045713
C       -1.20065147       0.23393449       4.79434903
C       -2.05173477      -1.91025449      -2.91917270
C        0.26383501       1.70637638      -3.21982890
C       -2.61448519       1.17997035       1.54424017
C        0.91657103       0.09672445       3.67414720
C       -1.78979721      -2.28463874      -1.51408233
C        1.98430035      -0.74915937      -2.56366336
C       -0.69870562       2.92123237      -1.23612459
C        1.03455937      -0.68902386      -3.62196153
60
Properties=species:S:1:pos:R:3 trajectory=trial0001_proposal001_step003_proposal_relax trajectory_step=8 pbc="F F F"
C       -0.74260204       2.60549710       1.97246013
C       -1.04250255      -0.43310036       2.11229712
C        1.51338995      -1.43742272       1.50251404
C        0.16463648       0.42214149      -3.86722206
C        1.48634282       2.27122750      -2.82679883
C        0.10387332       0.70123462       0.12794592
C        0.61847626       2.77641450       1.57598712
C        0.61241930       1.45584050       3.42739543
C        0.71334626      -2.76942118      -2.45573625
C       -1.11383014      -0.14142368      -4.06706716
C        2.55223661       0.26678364      -1.73466386
C        1.19215320      -3.25965846      -0.12953319
C       -1.80890947       2.27578865       1.06765016
C        0.26474298      -1.95956327      -3.59343582
C       -0.92209675      -3.02222360      -0.65849590
C        2.21252228       0.92805081       1.90884818
C       -0.74161989      -2.60633632       0.76738803
C       -2.06419917       1.53257357      -2.52936811
C       -0.83491724       2.21738738      -2.49652005
C       -1.68858237       1.14317341       3.84230695
C       -2.92972444      -0.71659822      -2.86687001
C       -3.41864208       0.66052338      -0.74533048
C        1.57965066       3.35177900      -1.89100304
C        1.19597565       3.07794550       0.33545103
C        2.44826092       2.46588841       0.05742785
C        2.67272836       1.17053565       0.59221691
C       -3.31693008      -0.51907104      -1.53866079
C        1.41779146       1.96428219       2.41088863
C       -2.66024367       1.71553908      -1.23596712
C       -0.22636432       0.20631187       1.22220219
C       -2.53717589      -1.03951476       0.54328746
C       -2.07456455       0.45330150       2.67569738
C        2.74712578       2.71190011      -1.29562971
C       -1.05639201      -1.57902690      -3.85699995
C        1.72630890      -0.34284883       2.49587781
C       -3.09280871       0.27280632       0.59725126
C        0.56213786       3.41492105      -0.88447067
C        2.56981558       1.60250096      -2.17942569
C        2.61672098       0.07227083      -0.29498030
C        2.15992989      -1.15116167       0.26715942
C       -0.67841139       1.96479607       3.27841669
C       -1.78954896       2.48502988      -0.37190113
C        0.64665446      -2.69563385       1.12264907
C        0.03630135      -0.44833238       4.60374773
C       -0.89300162      -0.86828717       5.56008289
C       -2.60620825      -1.42722137      -0.78771207
C        1.76051881      -1.99340410      -1.95852617
C       -1.56113893      -1.60291694       1.38246572
C        1.97677786      -2.21118008      -0.62130055
C       -2.23038471       0.40353731      -3.38336590
C        0.25704584      -3.52252879      -1.22941296
C       -1.20010371       0.23411993       4.79545816
C       -2.05601948      -1.90963001      -2.92175293
C        0.26498142       1.70776767      -3.22046650
C       -2.61439848       1.18275968       1.54333589
C        0.91518245       0.09749529       3.67415301
C       -1.80385696      -2.28525942      -1.51374866
C        1.98361390      -0.74990674      -2.56293065
C       -0.69646149       2.92119112      -1.23768616
C        1.03540439      -0.68802633      -3.62051415
60
Properties=species:S:1:pos:R:3 trajectory=trial0001_proposal001_step003_proposal_relax trajectory_step=9 pbc="F F F"
C       -0.74161667       2.60474875       1.97184570
C       -1.04161785      -0.43463297       2.11298898
C        1.51570151      -1.43975413       1.50095438
C        0.16620556       0.42265407      -3.86954942
C        1.48602161       2.27199891      -2.82707875
C        0.10156864       0.70171805       0.12780767
C        0.61893808       2.77694850       1.57666378
C        0.61271619       1.45668115       3.42830310
C        0.71553479      -2.76781753      -2.45380637
C       -1.11338959      -0.14108148      -4.07023232
C        2.55021837       0.26672113      -1.73395118
C        1.19653433      -3.26014535      -0.13080702
C       -1.80787673       2.27624486       1.06689584
C        0.26443989      -1.95809264      -3.58957834
C       -0.92231366      -3.01562750      -0.66023058
C        2.21071238       0.92714755       1.90880850
C       -0.74055427      -2.60180230       0.76459997
C       -2.06282281       1.53223493      -2.52958279
C       -0.83397401       2.21688879      -2.49663714
C       -1.68819872       1.14238009       3.84209939
C       -2.92906532      -0.71451426      -2.86569254
C       -3.41754657       0.66116148      -0.74545159
C        1.58000888       3.35241002      -1.89089155
C        1.19560467       3.07718857       0.33500480
C        2.44755712       2.46457468       0.05781122
C        2.67038563       1.16947340       0.59237158
C       -3.32148213      -0.51881612      -1.54084248
C        1.41798405       1.96477317       2.41153453
C       -2.65938541       1.71625299      -1.23716683
C       -0.22595624       0.20331172       1.22653909
C       -2.54452509      -1.04168391       0.54403895
C       -2.07408944       0.45294883       2.67498184
C        2.74655781       2.71105050      -1.29522669
C       -1.05658410      -1.57899912      -3.85659091
C        1.72346282      -0.34357513       2.49473412
C       -3.09371005       0.27377923       0.59606615
C        0.56245542       3.41423866      -0.88453883
C        2.56816267       1.60147674      -2.17903556
C        2.61764846       0.07157153      -0.29450978
C        2.16684239      -1.15617035       0.26700509
C       -0.67846149       1.96419747       3.27758291
C       -1.78875940       2.48551973      -0.37268039
C        0.64758523      -2.69380871       1.11970184
C        0.03790670      -0.44690141       4.60546733
C       -0.89202873      -0.86617974       5.56445142
C       -2.62062113      -1.43252999      -0.78390600
C        1.76565547      -1.99533486      -1.96007895
C       -1.56395978      -1.60103614       1.38082127
C        1.98787750      -2.21539474      -0.61922765
C       -2.22926340       0.40362537      -3.38457754
C        0.25808122      -3.51869265      -1.22907756
C       -1.20032721       0.23578038       4.79568745
C       -2.05845033      -1.90803850      -2.92203361
C        0.26549750       1.70853805      -3.22173434
C       -2.61324851       1.18358861       1.54305593
C        0.91426496       0.09769067       3.67466502
C       -1.81111624      -2.28840025      -1.51374325
C        1.98433515      -0.75009465      -2.56166813
C       -0.69576840       2.92118213      -1.23827449
C        1.03567484      -0.68795850      -3.61901991
60
Properties=species:S:1:pos:R:3 trajectory=trial0001_proposal001_step003_proposal_relax trajectory_step=10 pbc="F F F"
C       -0.74066686       2.60403129       1.97090296
C       -1.04211287      -0.43566274       2.11296166
C        1.51742396      -1.44110593       1.49956591
C        0.16739095       0.42256006      -3.87100907
C        1.48599115       2.27280731      -2.82656666
C        0.10052744       0.70183854       0.12893538
C        0.61971259       2.77755344       1.57687404
C        0.61320849       1.45763910       3.42895407
C        0.71699457      -2.76701905      -2.45362998
C       -1.11353435      -0.14131249      -4.07281641
C        2.55057066       0.26642755      -1.73306029
C        1.19826164      -3.26027411      -0.13112003
C       -1.80736608       2.27602782       1.06626222
C        0.26384076      -1.95664087      -3.58677987
C       -0.92267797      -3.01195487      -0.66165407
C        2.20989397       0.92642314       1.90877933
C       -0.74004105      -2.59854634       0.76274327
C       -2.06176458       1.53198214      -2.52963656
C       -0.83335878       2.21696104      -2.49665720
C       -1.68871153       1.14272366       3.84232172
C       -2.92885015      -0.71297554      -2.86457727
C       -3.41561701       0.66059785      -0.74532047
C        1.58045190       3.35430326      -1.89076689
C        1.19553710       3.07612136       0.33430807
C        2.44745585       2.46344984       0.05825629
C        2.66856871       1.16838064       0.59248914
C       -3.32391233      -0.51932084      -1.54149231
C        1.41824013       1.96487348       2.41160495
C       -2.65897209       1.71601464      -1.23767478
C       -0.22512499       0.20212648       1.22812803
C       -2.54959787      -1.04358645       0.54495697
C       -2.07302288       0.45358387       2.67433804
C        2.74548557       2.70996729      -1.29475756
C       -1.05734480      -1.57919044      -3.85602267
C        1.72196061      -0.34404261       2.49346360
C       -3.09489519       0.27345406       0.59553008
C        0.56228088       3.41460071      -0.88432746
C        2.56741834       1.60064126      -2.17862869
C        2.61932674       0.07077568      -0.29416895
C        2.17040642      -1.15862547       0.26640857
C       -0.67846744       1.96409282       3.27711799
C       -1.78866554       2.48556548      -0.37294230
C        0.64782630      -2.69245514       1.11934874
C        0.03785899      -0.44640624       4.60681221
C       -0.89154181      -0.86387906       5.56722838
C       -2.62580308      -1.43548417      -0.78285789
C        1.76906094      -1.99703782      -1.96157857
C       -1.56661284      -1.59983060       1.37897681
C        1.99018423      -2.21727908      -0.61834891
C       -2.22850882       0.40355913      -3.38510344
C        0.25850563      -3.51525095      -1.22950354
C       -1.20005625       0.23615462       4.79640105
C       -2.06082977      -1.90707433      -2.92181616
C        0.26579455       1.70978194      -3.22358414
C       -2.61232517       1.18340359       1.54259555
C        0.91424859       0.09812788       3.67500620
C       -1.81561209      -2.29121844      -1.51405860
C        1.98695791      -0.75071797      -2.56090974
C       -0.69585711       2.92178949      -1.23825866
C        1.03589226      -0.68783108      -3.61657667
60
Properties=species:S:1:pos:R:3 trajectory=trial0001_proposal001_step003_proposal_relax trajectory_step=11 pbc="F F F"
C       -0.73906310       2.60256668       1.96870797
C       -1.04385479      -0.43714754       2.11272904
C        1.52053952      -1.44306254       1.49808064
C        0.16888571       0.42305549      -3.87310756
C        1.48577635       2.27464981      -2.82546153
C        0.09957641       0.70229211       0.13180011
C        0.62129599       2.77810675       1.57698710
C        0.61429397       1.45894650       3.43010617
C        0.71958797      -2.76688566      -2.45416101
C       -1.11339533      -0.14154454      -4.07734263
C        2.55409993       0.26516607      -1.73175877
C        1.19781888      -3.26037130      -0.13087462
C       -1.80646718       2.27467059       1.06472203
C        0.26190951      -1.95319039      -3.58066011
C       -0.92246904      -3.00641352      -0.66396136
C        2.20823161       0.92497187       1.90841430
C       -0.73972405      -2.59232824       0.75866036
C       -2.05941741       1.53106939      -2.52975338
C       -0.83233564       2.21750912      -2.49702232
C       -1.68944272       1.14371475       3.84315887
C       -2.92876041      -0.71050131      -2.86377739
C       -3.41210840       0.65926535      -0.74509823
C        1.58132589       3.35848305      -1.89041581
C        1.19549552       3.07411156       0.33344096
C        2.44675756       2.46090688       0.05865000
C        2.66617359       1.16591281       0.59278043
C       -3.32664700      -0.52053912      -1.54140638
C        1.41932958       1.96518719       2.41194191
C       -2.65736545       1.71501518      -1.23823521
C       -0.22315926       0.20000507       1.23026207
C       -2.55893886      -1.04769071       0.54614110
C       -2.07045419       0.45552306       2.67342409
C        2.74347534       2.70798105      -1.29372516
C       -1.05924993      -1.57940786      -3.85499021
C        1.71906475      -0.34462022       2.49142756
C       -3.09787843       0.27234032       0.59607569
C        0.56171415       3.41631793      -0.88368444
C        2.56568310       1.59949025      -2.17730833
C        2.62387943       0.06837580      -0.29358510
C        2.17520515      -1.16139044       0.26570443
C       -0.67821712       1.96412353       3.27613559
C       -1.78877262       2.48576712      -0.37356303
C        0.64764479      -2.69015774       1.11931750
C        0.03846752      -0.44520193       4.60790164
C       -0.89071641      -0.85965980       5.57382083
C       -2.63334893      -1.44044156      -0.78137687
C        1.77642079      -2.00086989      -1.96372496
C       -1.57068516      -1.59870309       1.37680618
C        1.99070758      -2.21912186      -0.61905174
C       -2.22647080       0.40373910      -3.38602572
C        0.25841224      -3.50911880      -1.23046653
C       -1.20059242       0.23857298       4.79657136
C       -2.06544732      -1.90673704      -2.92259260
C        0.26616011       1.71268924      -3.22727923
C       -2.61077190       1.18225350       1.54129862
C        0.91381717       0.09847636       3.67621366
C       -1.82359225      -2.29655838      -1.51538904
C        1.99369151      -0.75254547      -2.56083684
C       -0.69633025       2.92325378      -1.23855313
C        1.03566123      -0.68668359      -3.61102543
60
Properties=species:S:1:pos:R:3 trajectory=trial0001_proposal001_step003_proposal_relax trajectory_step=12 pbc="F F F"
C       -0.73780878       2.60106648       1.96680287
C       -1.04690016      -0.43835710       2.11184308
C        1.52375760      -1.44461752       1.49763786
C        0.16933314       0.42452646      -3.87458529
C        1.48586250       2.27650082      -2.82456809
C        0.09983935       0.70345726       0.13495370
C        0.62282972       2.77735063       1.57708564
C        0.61541736       1.45978583       3.43089551
C        0.72303687      -2.76766026      -2.45435195
C       -1.11286611      -0.14119577      -4.08147901
C        2.56038562       0.26316532      -1.73152645
C        1.19526231      -3.25958414      -0.13096536
C       -1.80539484       2.27229237       1.06223099
C        0.25930060      -1.94835731      -3.57216390
C       -0.92296823      -3.00072691      -0.66697061
C        2.20626807       0.92326200       1.90798558
C       -0.73968928      -2.58500484       0.75321714
C       -2.05625891       1.53021171      -2.53038536
C       -0.83107789       2.21877745      -2.49853728
C       -1.69011894       1.14663988       3.84210056
C       -2.92881007      -0.70829691      -2.86385470
C       -3.40918175       0.65867429      -0.74479872
C        1.58235541       3.36252771      -1.88998308
C        1.19556131       3.07241508       0.33334234
C        2.44462474       2.45726827       0.05861526
C        2.66498446       1.16258136       0.59280221
C       -3.32938337      -0.52243089      -1.54112803
C        1.42124491       1.96559602       2.41337772
C       -2.65414703       1.71311455      -1.23876520
C       -0.22113495       0.19661191       1.23326136
C       -2.56853206      -1.05328502       0.54894748
C       -2.06802842       0.45788400       2.67281308
C        2.74183712       2.70654107      -1.29257423
C       -1.06122118      -1.57943899      -3.85355962
C        1.71545218      -0.34453744       2.48996564
C       -3.10190304       0.27025942       0.59714529
C        0.56118056       3.41938469      -0.88269401
C        2.56297064       1.59868127      -2.17513873
C        2.63028924       0.06462219      -0.29285485
C        2.17998551      -1.16549031       0.26440061
C       -0.67708344       1.96445576       3.27522339
C       -1.78872918       2.48653570      -0.37509784
C        0.64603294      -2.68685160       1.11844073
C        0.03393119      -0.44410845       4.61276471
C       -0.88794006      -0.84863572       5.57820525
C       -2.64390251      -1.44855827      -0.78200132
C        1.78704243      -2.00556861      -1.96808558
C       -1.57535811      -1.59866471       1.37464486
C        1.99211633      -2.22103368      -0.61829756
C       -2.22337786       0.40483919      -3.38700584
C        0.25643804      -3.50156091      -1.23178113
C       -1.19867399       0.23707858       4.80038442
C       -2.07010878      -1.90676541      -2.92399630
C        0.26654591       1.71623197      -3.23115385
C       -2.60887781       1.17995574       1.53967744
C        0.91437214       0.09890595       3.67598015
C       -1.83367931      -2.30151215      -1.51636381
C        2.00234549      -0.75570977      -2.56182433
C       -0.69635553       2.92520771      -1.23946934
C        1.03433444      -0.68483845      -3.60371773
60
Properties=species:S:1:pos:R:3 trajectory=trial0001_proposal001_step003_proposal_relax trajectory_step=13 pbc="F F F"
C       -0.73812954       2.60132640       1.96712715
C       -1.04655226      -0.43800404       2.11188116
C        1.52278664      -1.44405258       1.49819731
C        0.16909420       0.42447374      -3.87377098
C        1.48586205       2.27620661      -2.82463575
C        0.10046139       0.70331986       0.13469980
C        0.62243826       2.77714692       1.57701806
C        0.61526193       1.45928210       3.43070961
C        0.72229936      -2.76793535      -2.45468847
C       -1.11293759      -0.14113060      -4.08028860
C        2.56044525       0.26322684      -1.73188399
C        1.19446852      -3.25933586      -0.13081868
C       -1.80555382       2.27239883       1.06262996
C        0.25959484      -1.94908373      -3.57339722
C       -0.92320114      -3.00241332      -0.66630942
C        2.20681679       0.92366562       1.90800424
C       -0.74008307      -2.58663687       0.75435213
C       -2.05677423       1.53032957      -2.53026669
C       -0.83133008       2.21899312      -2.49837946
C       -1.68966648       1.14599984       3.84279249
C       -2.92881418      -0.70895252      -2.86437652
C       -3.40993161       0.65846512      -0.74498519
C        1.58208351       3.36174171      -1.89000322
C        1.19551828       3.07284507       0.33360503
C        2.44482252       2.45780071       0.05842151
C        2.66578076       1.16309444       0.59284130
C       -3.32815911      -0.52185931      -1.54081776
C        1.42112063       1.96555850       2.41311682
C       -2.65448313       1.71307739      -1.23848341
C       -0.22149761       0.19730741       1.23218697
C       -2.56642179      -1.05233762       0.54811928
C       -2.06853165       0.45752234       2.67313574
C        2.74225492       2.70700223      -1.29278392
C       -1.06076433      -1.57927019      -3.85394767
C        1.71629938      -0.34451161       2.49042550
C       -3.10132264       0.27024510       0.59740018
C        0.56128156       3.41922327      -0.88288715
C        2.56344865       1.59895185      -2.17536111
C        2.62965679       0.06492213      -0.29320039
C        2.17818469      -1.16359666       0.26518617
C       -0.67720130       1.96451210       3.27541546
C       -1.78870772       2.48642522      -0.37492321
C        0.64587746      -2.68752829       1.11881769
C        0.03623612      -0.44396386       4.61028564
C       -0.88874490      -0.85155516       5.57907051
C       -2.64106126      -1.44686492      -0.78218308
C        1.78554264      -2.00523620      -1.96644080
C       -1.57414662      -1.59914467       1.37564436
C        1.99031946      -2.22041768      -0.62005985
C       -2.22408869       0.40453815      -3.38666442
C        0.25660177      -3.50341487      -1.23171071
C       -1.20029403       0.23952253       4.79831579
C       -2.06924516      -1.90726244      -2.92403932
C        0.26640085       1.71576897      -3.23033473
C       -2.60944034       1.18011316       1.53978125
C        0.91373423       0.09846388       3.67658364
C       -1.83143038      -2.30032122      -1.51644854
C        2.00126505      -0.75527253      -2.56240174
C       -0.69628476       2.92505226      -1.23945293
C        1.03426744      -0.68480334      -3.60475411
60
Properties=species:S:1:pos:R:3 trajectory=trial0001_proposal001_step003_proposal_relax trajectory_step=14 pbc="F F F"
C       -0.73831852       2.60135762       1.96727938
C       -1.04696653      -0.43787551       2.11164062
C        1.52233291      -1.44368594       1.49867640
C        0.16876661       0.42476008      -3.87307964
C        1.48594557       2.27612861      -2.82463477
C        0.10133895       0.70348404       0.13499042
C        0.62227133       2.77660139       1.57700975
C        0.61529846       1.45889168       3.43057119
C        0.72235746      -2.76830243      -2.45484068
C       -1.11290026      -0.14091429      -4.07969637
C        2.56174214       0.26285948      -1.73240036
C        1.19313858      -3.25885750      -0.13086149
C       -1.80549436       2.27200142       1.06247878
C        0.25946187      -1.94882721      -3.57281415
C       -0.92377516      -3.00305841      -0.66630864
C        2.20709140       0.92372895       1.90799246
C       -0.74058337      -2.58692269       0.75432573
C       -2.05668208       1.53044236      -2.53035965
C       -0.83131539       2.21959594      -2.49870606
C       -1.68939063       1.14625754       3.84278220
C       -2.92885979      -0.70918765      -2.86482410
C       -3.41029205       0.65827360      -0.74507155
C        1.58202256       3.36150683      -1.88994601
C        1.19550109       3.07307024       0.33394034
C        2.44445271       2.45753519       0.05818792
C        2.66650046       1.16292786       0.59279211
C       -3.32776938      -0.52182710      -1.54072366
C        1.42140555       1.96556017       2.41329123
C       -2.65398893       1.71262003      -1.23838253
C       -0.22157703       0.19718992       1.23184848
C       -2.56608796      -1.05268609       0.54773561
C       -2.06880913       0.45750035       2.67337998
C        2.74249902       2.70732919      -1.29277052
C       -1.06063587      -1.57909528      -3.85390931
C        1.71646178      -0.34436948       2.49072235
C       -3.10147203       0.26970585       0.59767092
C        0.56137284       3.41975349      -0.88285262
C        2.56342215       1.59906498      -2.17511332
C        2.63031429       0.06445217      -0.29339491
C        2.17745750      -1.16311039       0.26544222
C       -0.67697062       1.96469058       3.27552450
C       -1.78859106       2.48650173      -0.37514658
C        0.64524149      -2.68734789       1.11871077
C        0.03633885      -0.44369070       4.60978853
C       -0.88859930      -0.85083240       5.57987661
C       -2.64113464      -1.44700301      -0.78240144
C        1.78642323      -2.00579397      -1.96631232
C       -1.57396559      -1.59971181       1.37612220
C        1.98969255      -2.22021621      -0.62081948
C       -2.22416063       0.40460785      -3.38649756
C        0.25605291      -3.50351665      -1.23192480
C       -1.20077793       0.24046563       4.79802058
C       -2.06902691      -1.90754462      -2.92428369
C        0.26640426       1.71594214      -3.23016434
C       -2.60958438       1.17973118       1.53956486
C        0.91350181       0.09817981       3.67670069
C       -1.83127834      -2.29998727      -1.51668649
C        2.00186157      -0.75557641      -2.56310509
C       -0.69608504       2.92531605      -1.23969652
C        1.03384758      -0.68447553      -3.60427246
60
Properties=species:S:1:pos:R:3 trajectory=trial0001_proposal001_step003_proposal_relax trajectory_step=15 pbc="F F F"
C       -0.73853711       2.60120503       1.96750518
C       -1.04823828      -0.43796125       2.11096277
C        1.52151912      -1.44313204       1.49921006
C        0.16830101       0.42540556      -3.87156611
C        1.48625411       2.27605121      -2.82442639
C        0.10352108       0.70398816       0.13607814
C        0.62206145       2.77537479       1.57708522
C        0.61554561       1.45826047       3.43037381
C        0.72308971      -2.76880942      -2.45496807
C       -1.11289495      -0.14040115      -4.07886539
C        2.56506579       0.26178615      -1.73351869
C        1.19051664      -3.25750804      -0.13131440
C       -1.80514466       2.27094575       1.06190752
C        0.25904762      -1.94771350      -3.57036102
C       -0.92568505      -3.00359480      -0.66686930
C        2.20776093       0.92362050       1.90804638
C       -0.74193542      -2.58683480       0.75375967
C       -2.05617412       1.53083453      -2.53065275
C       -0.83110263       2.22136767      -2.49966019
C       -1.68896445       1.14720630       3.84247361
C       -2.92892528      -0.70925591      -2.86537012
C       -3.41059347       0.65766326      -0.74530949
C        1.58205784       3.36134424      -1.88976560
C        1.19544123       3.07332450       0.33454744
C        2.44348934       2.45649105       0.05777739
C        2.66776631       1.16215340       0.59261569
C       -3.32806276      -0.52201272      -1.54099161
C        1.42218499       1.96549406       2.41374270
C       -2.65255373       1.71128988      -1.23832458
C       -0.22169612       0.19641269       1.23159196
C       -2.56685393      -1.05425640       0.54721944
C       -2.06945403       0.45744858       2.67377836
C        2.74285112       2.70781185      -1.29259360
C       -1.06045503      -1.57868706      -3.85350823
C        1.71652107      -0.34419698       2.49111624
C       -3.10213531       0.26818170       0.59782015
C        0.56164501       3.42123026      -0.88269281
C        2.56332526       1.59900408      -2.17440936
C        2.63255160       0.06304325      -0.29378355
C        2.17700677      -1.16308900       0.26564992
C       -0.67635328       1.96514792       3.27572385
C       -1.78810157       2.48659752      -0.37577585
C        0.64354936      -2.68629342       1.11803637
C        0.03580473      -0.44287017       4.60958525
C       -0.88783747      -0.84717769       5.58253090
C       -2.64362441      -1.44861327      -0.78285151
C        1.79000040      -2.00775388      -1.96709552
C       -1.57472639      -1.60070741       1.37649997
C        1.98965258      -2.22054185      -0.62170307
C       -2.22421036       0.40487702      -3.38622391
C        0.25462417      -3.50244927      -1.23264436
C       -1.20147739       0.24243141       4.79815466
C       -2.06907934      -1.90763763      -2.92466113
C        0.26658070       1.71676664      -3.23021878
C       -2.60964815       1.17866658       1.53885308
C        0.91309585       0.09769860       3.67678233
C       -1.83261437      -2.29992143      -1.51731894
C        2.00426784      -0.75665862      -2.56446447
C       -0.69551610       2.92630312      -1.24032050
C        1.03292248      -0.68373255      -3.60213293
60
Properties=species:S:1:pos:R:3 trajectory=trial0001_proposal001_step003_proposal_relax trajectory_step=16 pbc="F F F"
C       -0.73857162       2.60075906       1.96764948
C       -1.04969316      -0.43851825       2.11039663
C        1.52004386      -1.44258660       1.49877151
C        0.16813239       0.42599767      -3.86921718
C        1.48687323       2.27573520      -2.82372932
C        0.10685249       0.70462712       0.13789335
C        0.62204469       2.77425281       1.57715728
C        0.61599476       1.45793210       3.43018987
C        0.72432377      -2.76900486      -2.45476688
C       -1.11288917      -0.13969475      -4.07795225
C        2.56906061       0.26037081      -1.73465320
C        1.18796274      -3.25546848      -0.13237938
C       -1.80459143       2.26968401       1.06133950
C        0.25877456      -1.94614540      -3.56701104
C       -0.92868406      -3.00395853      -0.66795314
C        2.20908780       0.92320907       1.90828795
C       -0.74455476      -2.58724837       0.75328616
C       -2.05565989       1.53155728      -2.53097829
C       -0.83104781       2.22406465      -2.50089653
C       -1.68891307       1.14828777       3.84165940
C       -2.92903306      -0.70892590      -2.86564576
C       -3.41046164       0.65674727      -0.74587018
C        1.58245676       3.36132255      -1.88945053
C        1.19536659       3.07327240       0.33492697
C        2.44269121       2.45525017       0.05752214
C        2.66892125       1.16117164       0.59231096
C       -3.32998987      -0.52254955      -1.54184667
C        1.42302214       1.96508644       2.41383920
C       -2.65066717       1.70970014      -1.23829562
C       -0.22209172       0.19532936       1.23131451
C       -2.56921665      -1.05627666       0.54649616
C       -2.07068433       0.45698373       2.67397577
C        2.74318780       2.70780619      -1.29230069
C       -1.06026231      -1.57807693      -3.85278989
C        1.71681715      -0.34444936       2.49145357
C       -3.10278116       0.26659777       0.59721897
C        0.56207460       3.42288718      -0.88248006
C        2.56391948       1.59845279      -2.17386099
C        2.63562920       0.06149002      -0.29424343
C        2.17752206      -1.16379958       0.26533736
C       -0.67576664       1.96566621       3.27587195
C       -1.78689942       2.48608946      -0.37626761
C        0.64129176      -2.68473083       1.11659704
C        0.03472864      -0.44164306       4.60980734
C       -0.88668549      -0.84091180       5.58692823
C       -2.64843148      -1.45108859      -0.78316839
C        1.79529997      -2.01059147      -1.96880183
C       -1.57693001      -1.60152740       1.37639824
C        1.99140989      -2.22146103      -0.62207599
C       -2.22447541       0.40540153      -3.38601224
C        0.25287836      -3.50057229      -1.23354780
C       -1.20204223       0.24524127       4.79882402
C       -2.06948023      -1.90706811      -2.92493508
C        0.26690134       1.71806257      -3.23018351
C       -2.60978134       1.17736816       1.53788045
C        0.91253340       0.09734881       3.67665609
C       -1.83537921      -2.30044205      -1.51819451
C        2.00790902      -0.75831519      -2.56554183
C       -0.69497581       2.92797532      -1.24093675
C        1.03235515      -0.68305620      -3.59893762
60
Properties=species:S:1:pos:R:3 trajectory=trial0001_proposal001_step003_proposal_relax trajectory_step=17 pbc="F F F"
C       -0.73783680       2.59907951       1.96728327
C       -1.05250163      -0.44130799       2.10881174
C        1.51637068      -1.44094679       1.49496339
C        0.16951888       0.42701170      -3.86301483
C        1.48831080       2.27533622      -2.82075659
C        0.11568039       0.70678504       0.14121427
C        0.62294444       2.77294945       1.57672026
C        0.61649974       1.45810644       3.42948903
C        0.72697010      -2.76856510      -2.45415107
C       -1.11180852      -0.13794340      -4.07668700
C        2.57696184       0.25723984      -1.73548532
C        1.18453613      -3.25070079      -0.13446886
C       -1.80291263       2.26731316       1.06121348
C        0.25836642      -1.94302063      -3.56008073
C       -0.93509494      -3.00477558      -0.67017380
C        2.21143379       0.92099211       1.90878043
C       -0.75224776      -2.58925604       0.75304672
C       -2.05498391       1.53391389      -2.53170465
C       -0.83149611       2.23032177      -2.50306067
C       -1.68978289       1.15033928       3.83898497
C       -2.93006319      -0.70692947      -2.86578912
C       -3.40896971       0.65622028      -0.74862266
C        1.58445992       3.36112013      -1.88854009
C        1.19584030       3.07212123       0.33435920
C        2.44282428       2.45316094       0.05755093
C        2.67070726       1.15921724       0.59239236
C       -3.33739213      -0.52387209      -1.54424575
C        1.42446919       1.96338840       2.41300527
C       -2.64734504       1.70643008      -1.23819547
C       -0.22434410       0.19162634       1.23333390
C       -2.57693792      -1.05961807       0.54745731
C       -2.07328325       0.45483085       2.67342622
C        2.74400247       2.70564802      -1.29170400
C       -1.05915213      -1.57658865      -3.85095183
C        1.71752872      -0.34642998       2.49108802
C       -3.10462834       0.26567849       0.59418793
C        0.56343073       3.42488670      -0.88262295
C        2.56689062       1.59624201      -2.17388373
C        2.64176534       0.05888035      -0.29483519
C        2.18179738      -1.16434009       0.26481672
C       -0.67554861       1.96624226       3.27456808
C       -1.78353801       2.48310792      -0.37583855
C        0.63475242      -2.68194360       1.11172658
C        0.03209856      -0.43809440       4.61117473
C       -0.88360637      -0.82371569       5.59957290
C       -2.66142504      -1.45892940      -0.78639758
C        1.80773673      -2.01749529      -1.97120108
C       -1.58386167      -1.60290875       1.37483494
C        1.99828467      -2.22643260      -0.62525454
C       -2.22494985       0.40724838      -3.38596178
C        0.25073004      -3.49513643      -1.23496675
C       -1.20295075       0.25228997       4.80050490
C       -2.07180476      -1.90495043      -2.92555689
C        0.26776120       1.72089638      -3.22864859
C       -2.61024346       1.17585266       1.53614438
C        0.91117257       0.09700164       3.67585683
C       -1.84555275      -2.30238982      -1.51876783
C        2.01695269      -0.76180931      -2.56641721
C       -0.69439947       2.93203308      -1.24154055
C        1.03328968      -0.68179420      -3.59191709
60
Properties=species:S:1:pos:R:3 trajectory=trial0001_proposal001_step003_proposal_relax trajectory_step=18 pbc="F F F"
C       -0.73783251       2.59922803       1.96724156
C       -1.05334781      -0.44148923       2.10897866
C        1.51533824      -1.44056711       1.49436126
C        0.16927431       0.42692431      -3.86180554
C        1.48875543       2.27462759      -2.82061723
C        0.11674369       0.70629842       0.14312702
C        0.62310403       2.77263103       1.57658826
C        0.61667341       1.45788993       3.42919649
C        0.72716739      -2.76862164      -2.45395682
C       -1.11182526      -0.13771601      -4.07577025
C        2.57793108       0.25714308      -1.73571831
C        1.18351669      -3.25032746      -0.13494277
C       -1.80310915       2.26690295       1.06122909
C        0.25889126      -1.94278645      -3.55987639
C       -0.93639450      -3.00567215      -0.67043091
C        2.21222423       0.92101493       1.90886292
C       -0.75361553      -2.59071087       0.75294602
C       -2.05521260       1.53438996      -2.53190849
C       -0.83180658       2.23117251      -2.50335225
C       -1.69021004       1.15041339       3.83843568
C       -2.93018177      -0.70675217      -2.86617247
C       -3.40926630       0.65546308      -0.74852727
C        1.58483858       3.36114383      -1.88835249
C        1.19601506       3.07210307       0.33437852
C        2.44309792       2.45300654       0.05760461
C        2.67120402       1.15921782       0.59217792
C       -3.33829363      -0.52446107      -1.54455888
C        1.42454068       1.96305705       2.41266592
C       -2.64646097       1.70670880      -1.23828408
C       -0.22392533       0.19251961       1.23123531
C       -2.57759590      -1.05995908       0.54527400
C       -2.07404711       0.45470665       2.67340412
C        2.74438864       2.70543647      -1.29161643
C       -1.05948488      -1.57630470      -3.85046947
C        1.71802117      -0.34643064       2.49138110
C       -3.10426919       0.26538046       0.59398964
C        0.56350631       3.42521797      -0.88239800
C        2.56774187       1.59596586      -2.17399438
C        2.64237044       0.05909086      -0.29488266
C        2.18135934      -1.16576965       0.26350523
C       -0.67540900       1.96637325       3.27481257
C       -1.78297880       2.48267437      -0.37579363
C        0.63442892      -2.68131728       1.11150510
C        0.03155598      -0.43775750       4.61119611
C       -0.88326029      -0.82151729       5.60076984
C       -2.66212445      -1.45781078      -0.78458603
C        1.80835274      -2.01773145      -1.97289282
C       -1.58462152      -1.60335757       1.37476431
C        1.99894475      -2.22538136      -0.62312644
C       -2.22493677       0.40758959      -3.38586271
C        0.24973431      -3.49458473      -1.23509560
C       -1.20299708       0.25313492       4.80078706
C       -2.07147598      -1.90449766      -2.92541721
C        0.26777970       1.72101838      -3.22818515
C       -2.61044730       1.17524908       1.53598919
C        0.91102878       0.09687644       3.67570474
C       -1.84469761      -2.30339137      -1.51947539
C        2.01785856      -0.76254253      -2.56632663
C       -0.69464104       2.93244193      -1.24141495
C        1.03350749      -0.68193730      -3.59123467
