60
Properties=species:S:1:pos:R:3 trajectory=trial0001_proposal001_step002_proposal_relax trajectory_step=0 pbc="F F F"
C       -0.74038797       2.56972531       1.94109861
C       -1.03709973      -0.40100264       2.09464013
C        1.51947710      -1.41798367       1.50126117
C        0.16561072       0.44560161      -3.81538179
C        1.46396959       2.28016081      -2.78905544
C        0.18552703       0.74941145       0.13670345
C        0.62171072       2.75419497       1.55355840
C        0.62107250       1.45015451       3.40873142
C        0.73903964      -2.78951963      -2.44444848
C       -1.09781069      -0.13768169      -4.04639534
C        2.67099142       0.24358950      -1.77450966
C        1.14728656      -3.18011999      -0.13189311
C       -1.82542710       2.24840576       1.05751406
C        0.26414738      -1.91884455      -3.51949090
C       -0.94135809      -3.00079881      -0.64916608
C        2.22148288       0.92500562       1.88802502
C       -0.77567698      -2.56734677       0.77733707
C       -2.05749954       1.50642704      -2.50181972
C       -0.85895158       2.23399313      -2.47733520
C       -1.68303267       1.15264878       3.82905437
C       -2.92559364      -0.73886052      -2.86752839
C       -3.42557738       0.63996052      -0.73271193
C        1.57472840       3.38686006      -1.87935336
C        1.19857137       3.06382258       0.32786653
C        2.44517798       2.45666448       0.04336909
C        2.71304782       1.16865255       0.57896578
C       -3.30492648      -0.54394537      -1.52311549
C        1.42889167       1.96018555       2.39365677
C       -2.65003297       1.68436087      -1.21469778
C       -0.21611713       0.21508044       1.19193809
C       -2.61503033      -1.07246421       0.58527626
C       -2.06869675       0.47510245       2.66831947
C        2.73564222       2.71010732      -1.30161862
C       -1.05626216      -1.57856515      -3.83598628
C        1.72889045      -0.33586970       2.48804900
C       -3.16085775       0.25235888       0.62909936
C        0.54924090       3.44756156      -0.86633629
C        2.54948834       1.59547535      -2.17617168
C        2.71726372       0.06049346      -0.31067128
C        2.17855572      -1.12891957       0.25100398
C       -0.66691464       1.95126517       3.25074413
C       -1.79418075       2.47278750      -0.36505755
C        0.62526381      -2.64225687       1.12443434
C        0.01288149      -0.48701849       4.52155477
C       -0.89557903      -0.89480759       5.50148916
C       -2.66816335      -1.47553176      -0.76147109
C        1.84046069      -2.02141402      -2.00051608
C       -1.59663726      -1.59147569       1.41545870
C        1.96256393      -2.16585750      -0.62533694
C       -2.21523337       0.39102414      -3.37046330
C        0.23297577      -3.49728098      -1.21446581
C       -1.19933577       0.22699638       4.75616509
C       -2.08823697      -1.95247766      -2.94012482
C        0.24546679       1.73739066      -3.18785162
C       -2.65160601       1.17386215       1.55186955
C        0.90812177       0.09149645       3.64137764
C       -1.86611091      -2.32462547      -1.50524228
C        2.08866873      -0.78270370      -2.60334214
C       -0.71605673       2.94393210      -1.22159071
C        1.04760349      -0.66376965      -3.57034629
60
Properties=species:S:1:pos:R:3 trajectory=trial0001_proposal001_step002_proposal_relax trajectory_step=1 pbc="F F F"
C       -0.73977598       2.57215376       1.94331393
C       -1.03959130      -0.40344687       2.08742859
C        1.52180885      -1.41738365       1.49497016
C        0.17089187       0.43994080      -3.81732029
C        1.46489800       2.28211792      -2.79000979
C        0.18395091       0.74666675       0.13659143
C        0.61893794       2.75507787       1.55879559
C        0.62175534       1.45192010       3.40849426
C        0.73927827      -2.78004756      -2.44907214
C       -1.10204609      -0.13954276      -4.04728722
C        2.66364489       0.24627365      -1.76975590
C        1.15446782      -3.18462594      -0.12940384
C       -1.82336862       2.25059495       1.06025909
C        0.26131699      -1.92394504      -3.52016140
C       -0.95188487      -2.99759106      -0.65010548
C        2.22355079       0.92619061       1.88971092
C       -0.76883619      -2.57000804       0.77676959
C       -2.05966242       1.50973762      -2.50395237
C       -0.85460366       2.23684770      -2.47725774
C       -1.68453860       1.15530374       3.83263937
C       -2.92795906      -0.73332458      -2.85882747
C       -3.42445206       0.63613747      -0.73021919
C        1.57234717       3.38490486      -1.87981443
C        1.19840545       3.06632966       0.32498962
C        2.44832507       2.45545740       0.04557129
C        2.70959224       1.16785233       0.57878076
C       -3.31652730      -0.53790661      -1.53459989
C        1.42900012       1.95969235       2.39450669
C       -2.65189450       1.68359145      -1.21699165
C       -0.22099244       0.21364833       1.19357883
C       -2.61584441      -1.07561960       0.58298585
C       -2.06938166       0.47122147       2.66624443
C        2.73585134       2.71121536      -1.30169732
C       -1.05043650      -1.57964755      -3.83305681
C        1.73192950      -0.33755472       2.48237393
C       -3.15940509       0.25130921       0.62190069
C        0.54996372       3.44535570      -0.87053395
C        2.55542651       1.59322632      -2.17569182
C        2.71471478       0.06380247      -0.31129555
C        2.18493123      -1.12897415       0.25629184
C       -0.66803646       1.95429620       3.25207375
C       -1.79776706       2.47223758      -0.36278849
C        0.62431833      -2.63975672       1.12384369
C        0.01248074      -0.48647406       4.52580954
C       -0.89730474      -0.89339334       5.50184986
C       -2.67144777      -1.47713434      -0.75458405
C        1.84314943      -2.02947787      -1.98814806
C       -1.60085755      -1.58712079       1.40967677
C        1.96688657      -2.17818952      -0.63559525
C       -2.22053652       0.38868873      -3.36686174
C        0.24156761      -3.48960159      -1.21783444
C       -1.19864119       0.22394701       4.76009809
C       -2.08786490      -1.94507379      -2.93218472
C        0.24589981       1.73413185      -3.19167667
C       -2.64839567       1.17609186       1.54958534
C        0.91117494       0.09098451       3.64083536
C       -1.86382908      -2.33042776      -1.50537053
C        2.08704180      -0.77603488      -2.60223357
C       -0.71289687       2.94432188      -1.22134992
C        1.04669739      -0.66534919      -3.56922157
60
Properties=species:S:1:pos:R:3 trajectory=trial0001_proposal001_step002_proposal_relax trajectory_step=2 pbc="F F F"
C       -0.73991089       2.57547593       1.94681735
C       -1.04435610      -0.40649023       2.08112725
C        1.52463735      -1.41665921       1.48818896
C        0.17318947       0.43423639      -3.82029184
C        1.46705190       2.28220974      -2.79170153
C        0.18121548       0.74266881       0.13796519
C        0.61855556       2.75745208       1.56072558
C        0.62207289       1.45234411       3.40924963
C        0.73988626      -2.77172019      -2.45093707
C       -1.10494973      -0.14180855      -4.04797107
C        2.65450384       0.24917095      -1.76430450
C        1.16133389      -3.19195378      -0.12760745
C       -1.82166919       2.25325487       1.06273031
C        0.26185463      -1.92811697      -3.52105885
C       -0.95407172      -2.99878731      -0.65117802
C        2.22607643       0.92696102       1.89118240
C       -0.76593298      -2.57049030       0.77580485
C       -2.06130683       1.51445217      -2.50646140
C       -0.85155767       2.23841256      -2.47813697
C       -1.68643502       1.15633041       3.83532227
C       -2.92931013      -0.72825224      -2.85337327
C       -3.42333788       0.63445619      -0.73153292
C        1.57108047       3.38205863      -1.88105642
C        1.19788883       3.06806445       0.32515578
C        2.45043585       2.45599652       0.04722704
C        2.70569456       1.16762182       0.57911474
C       -3.32873699      -0.53746864      -1.53559226
C        1.42924291       1.95984201       2.39537892
C       -2.65406648       1.68311980      -1.21833068
C       -0.22459663       0.21386850       1.19225056
C       -2.61853133      -1.07743452       0.57949465
C       -2.07001383       0.46854081       2.66571901
C        2.73618675       2.71183146      -1.30176056
C       -1.04987033      -1.58051846      -3.82868074
C        1.73492155      -0.33843069       2.47683245
C       -3.15629818       0.25117954       0.61727833
C        0.55135270       3.44303778      -0.87372931
C        2.56093916       1.59443749      -2.17612730
C        2.71072030       0.06565824      -0.31050813
C        2.19287170      -1.13506934       0.25493687
C       -0.66936239       1.95688366       3.25500532
C       -1.80037112       2.47242431      -0.36163227
C        0.62600603      -2.63695787       1.12175654
C        0.01498170      -0.48501972       4.52920675
C       -0.89956989      -0.89436419       5.50477570
C       -2.67873819      -1.47831627      -0.75607917
C        1.84659142      -2.03068353      -1.98843551
C       -1.60231823      -1.58589789       1.40308933
C        1.97718409      -2.18686370      -0.63128107
C       -2.22454184       0.38829232      -3.36378215
C        0.24540813      -3.47944952      -1.22015499
C       -1.19957244       0.22431824       4.76235611
C       -2.08549990      -1.93648742      -2.92323282
C        0.24839405       1.73075679      -3.19562979
C       -2.64531962       1.17633892       1.54604746
C        0.91368605       0.08997629       3.64082101
C       -1.86730067      -2.33164013      -1.50424534
C        2.08385455      -0.77427499      -2.59730148
C       -0.71169373       2.94364214      -1.22108084
C        1.04684827      -0.66854182      -3.56729861
60
Properties=species:S:1:pos:R:3 trajectory=trial0001_proposal001_step002_proposal_relax trajectory_step=3 pbc="F F F"
C       -0.74074964       2.59041024       1.96123346
C       -1.06239239      -0.41458029       2.06440879
C        1.53533929      -1.41408373       1.46883102
C        0.17289158       0.41718195      -3.83155448
C        1.47678804       2.27567011      -2.80312238
C        0.17512598       0.73460995       0.12904163
C        0.62099988       2.76675410       1.56538066
C        0.62197904       1.45043238       3.41243598
C        0.74459492      -2.75112705      -2.44384379
C       -1.11192922      -0.14959078      -4.04832167
C        2.61955577       0.26062606      -1.74479887
C        1.18487356      -3.21992354      -0.12299490
C       -1.81912944       2.26291837       1.06806865
C        0.26573402      -1.93510785      -3.52968090
C       -0.95032663      -3.00509137      -0.65489541
C        2.23363654       0.92939714       1.89549260
C       -0.76167128      -2.56934584       0.76783468
C       -2.06708733       1.53121344      -2.51503897
C       -0.84406259       2.23764121      -2.48578832
C       -1.69401619       1.15579014       3.83728460
C       -2.93491604      -0.71432530      -2.83818395
C       -3.42275956       0.63473534      -0.73955687
C        1.57148097       3.37081285      -1.88654089
C        1.19882155       3.07338168       0.32748371
C        2.45262972       2.46289921       0.05091797
C        2.69243883       1.16850894       0.58070723
C       -3.37500430      -0.54402209      -1.52908766
C        1.42956249       1.96215612       2.39878042
C       -2.65803091       1.68696997      -1.22321376
C       -0.24089792       0.20888919       1.19879153
C       -2.63154921      -1.08189393       0.56323823
C       -2.07343248       0.46387513       2.66602264
C        2.73866276       2.71496391      -1.29898108
C       -1.05603148      -1.58349249      -3.81055656
C        1.74277744      -0.33921753       2.46022256
C       -3.14223069       0.25346089       0.60577322
C        0.55516001       3.43403735      -0.87758194
C        2.57712506       1.60303021      -2.18025864
C        2.69234458       0.06587809      -0.30658994
C        2.22692324      -1.15324122       0.24989977
C       -0.67211383       1.96305929       3.26885352
C       -1.80456834       2.47595662      -0.36102605
C        0.63585811      -2.62864450       1.11094769
C        0.01937624      -0.47881425       4.54782718
C       -0.90460430      -0.89365054       5.51027961
C       -2.71375603      -1.48785418      -0.76488654
C        1.86565780      -2.03191106      -1.97644233
C       -1.60412425      -1.59024693       1.37710710
C        2.02540688      -2.22351497      -0.63583645
C       -2.22912919       0.39625240      -3.35765267
C        0.25241387      -3.44024438      -1.22594196
C       -1.19917219       0.22233268       4.77262302
C       -2.07428271      -1.90560526      -2.89224084
C        0.25984572       1.71948011      -3.20737921
C       -2.63295420       1.17246137       1.53600326
C        0.92082565       0.08627364       3.63930954
C       -1.88749470      -2.32983631      -1.49689126
C        2.06986010      -0.76925260      -2.57561816
C       -0.71180798       2.93801966      -1.22146255
C        1.04696223      -0.68184428      -3.56376533
60
Properties=species:S:1:pos:R:3 trajectory=trial0001_proposal001_step002_proposal_relax trajectory_step=4 pbc="F F F"
C       -0.74083177       2.59495509       1.96421291
C       -1.06902804      -0.41839296       2.06712887
C        1.53890951      -1.41465814       1.46508800
C        0.17170444       0.41572337      -3.83378557
C        1.48016559       2.27309786      -2.80799940
C        0.16888973       0.72826246       0.13571946
C        0.62157197       2.76824539       1.56810607
C        0.62199266       1.44850525       3.41271393
C        0.74766414      -2.74848289      -2.43818863
C       -1.11336510      -0.14985645      -4.04730365
C        2.61067757       0.26419887      -1.74205065
C        1.19174091      -3.22410503      -0.12542874
C       -1.81916457       2.26524442       1.06861816
C        0.26743910      -1.93601593      -3.53038464
C       -0.95229001      -3.00137831      -0.65609501
C        2.23324326       0.93107429       1.89594748
C       -0.75890717      -2.57023559       0.76214801
C       -2.06757633       1.53433113      -2.51731179
C       -0.84267222       2.23555257      -2.48864856
C       -1.69402482       1.15255433       3.83718652
C       -2.93632211      -0.71026726      -2.83521131
C       -3.42420420       0.63762814      -0.73985507
C        1.57242296       3.36749720      -1.88739326
C        1.19950425       3.07527865       0.32852679
C        2.45223104       2.46405934       0.05176754
C        2.68993975       1.17003887       0.58071209
C       -3.38772827      -0.54517634      -1.53155614
C        1.42953879       1.96270979       2.40014856
C       -2.65798664       1.69007524      -1.22505081
C       -0.23579674       0.21502685       1.18741122
C       -2.63401185      -1.08344984       0.56080021
C       -2.07562844       0.46347113       2.66606977
C        2.74022772       2.71686756      -1.29816561
C       -1.05661176      -1.58333821      -3.80697428
C        1.74211231      -0.33824650       2.45908812
C       -3.13869366       0.25454166       0.60197331
C        0.55445960       3.43112884      -0.87741977
C        2.57943466       1.60402778      -2.18079981
C        2.68717047       0.06644179      -0.30576157
C        2.23585864      -1.16227672       0.24760094
C       -0.67198646       1.96330783       3.27228720
C       -1.80353694       2.47790327      -0.36221226
C        0.63910035      -2.62773472       1.10537499
C        0.02403408      -0.47526977       4.55082773
C       -0.90545760      -0.89581829       5.51380759
C       -2.72805067      -1.49439166      -0.76194958
C        1.86942668      -2.03162881      -1.97892863
C       -1.60696071      -1.59221426       1.36965712
C        2.04480632      -2.23386029      -0.62927448
C       -2.22825820       0.39904648      -3.35794779
C        0.25408206      -3.43278921      -1.22502914
C       -1.20075933       0.22626773       4.77213011
C       -2.07315414      -1.89920536      -2.88507873
C        0.26068411       1.71581155      -3.20941755
C       -2.62925756       1.17204318       1.53564592
C        0.91923010       0.08430739       3.64062603
C       -1.89103794      -2.33135201      -1.49329762
C        2.06495466      -0.76718017      -2.56925750
C       -0.71052538       2.93590537      -1.22331650
C        1.04603797      -0.68418853      -3.56516468
60
Properties=species:S:1:pos:R:3 trajectory=trial0001_proposal001_step002_proposal_relax trajectory_step=5 pbc="F F F"
C       -0.74102032       2.59509403       1.96381535
C       -1.06732402      -0.41789089       2.06918005
C        1.53934672      -1.41573151       1.46674498
C        0.17040988       0.41789742      -3.83341786
C        1.48051221       2.27256963      -2.80901846
C        0.16935266       0.73007159       0.13263743
C        0.62209422       2.76815326       1.56795787
C        0.62165344       1.44751957       3.41253122
C        0.74855126      -2.75073907      -2.43576806
C       -1.11239217      -0.14858996      -4.04671968
C        2.61123892       0.26413187      -1.74339014
C        1.19143700      -3.22206900      -0.12761013
C       -1.81945755       2.26528661       1.06786537
C        0.26830432      -1.93528772      -3.52883624
C       -0.95122438      -2.99894238      -0.65600749
C        2.23155713       0.93141591       1.89536895
C       -0.75931024      -2.56985740       0.76003682
C       -2.06664670       1.53334931      -2.51728734
C       -0.84334498       2.23417764      -2.48906344
C       -1.69261324       1.15092742       3.83608870
C       -2.93546067      -0.71041308      -2.83741023
C       -3.42512912       0.63974093      -0.74011093
C        1.57294604       3.36707940      -1.88711352
C        1.19932400       3.07519273       0.32997702
C        2.45126570       2.46394122       0.05133299
C        2.69064181       1.17057466       0.58052824
C       -3.38713289      -0.54584755      -1.53046640
C        1.42937815       1.96279412       2.40063443
C       -2.65744989       1.69131796      -1.22498450
C       -0.23593313       0.21334824       1.19058706
C       -2.63407589      -1.08282984       0.56213155
C       -2.07609380       0.46387117       2.66612624
C        2.74082121       2.71714162      -1.29837010
C       -1.05691963      -1.58261320      -3.80759937
C        1.73997316      -0.33758668       2.46136035
C       -3.13858075       0.25526656       0.60269449
C        0.55395266       3.43081505      -0.87666346
C        2.57752393       1.60418837      -2.18048365
C        2.68689018       0.06614325      -0.30573484
C        2.23616680      -1.16427378       0.24687457
C       -0.67135126       1.96220857       3.27181597
C       -1.80179082       2.47867077      -0.36338780
C        0.63987807      -2.62885118       1.10315890
C        0.02460509      -0.47434543       4.55089978
C       -0.90466357      -0.89584403       5.51368697
C       -2.73262233      -1.49708968      -0.76163054
C        1.86950231      -2.03035708      -1.98217886
C       -1.60691723      -1.59326032       1.37044313
C        2.04996286      -2.23356174      -0.62531497
C       -2.22700094       0.39964614      -3.35931469
C        0.25281189      -3.43503549      -1.22296415
C       -1.20082436       0.22730390       4.77119651
C       -2.07403098      -1.90086886      -2.88629821
C        0.25985734       1.71576292      -3.20840638
C       -2.62945072       1.17213882       1.53650390
C        0.91720837       0.08408358       3.64090374
C       -1.89218143      -2.33074013      -1.49212350
C        2.06347358      -0.76770230      -2.56922092
C       -0.71008958       2.93521410      -1.22456784
C        1.04581847      -0.68309261      -3.56655291
60
Properties=species:S:1:pos:R:3 trajectory=trial0001_proposal001_step002_proposal_relax trajectory_step=6 pbc="F F F"
C       -0.74124099       2.59617951       1.96409131
C       -1.06544522      -0.41859497       2.07172925
C        1.54118330      -1.41811470       1.46852398
C        0.16886002       0.42040905      -3.83372207
C        1.48124911       2.27188807      -2.81167891
C        0.16764310       0.73077950       0.13036700
C        0.62252594       2.76872838       1.56902212
C        0.62079773       1.44602262       3.41240431
C        0.75036876      -2.75254980      -2.43167498
C       -1.11121787      -0.14682843      -4.04602999
C        2.60950724       0.26451815      -1.74402649
C        1.19338925      -3.21990827      -0.13085199
C       -1.81909718       2.26643353       1.06695287
C        0.26913503      -1.93493379      -3.52578759
C       -0.94977083      -2.99359299      -0.65607275
C        2.22850377       0.93202738       1.89476302
C       -0.75919961      -2.56851965       0.75561533
C       -2.06552226       1.53253768      -2.51783830
C       -0.84338554       2.23191416      -2.49011184
C       -1.69021582       1.14846263       3.83405002
C       -2.93435211      -0.70939291      -2.83923004
C       -3.42655730       0.64299187      -0.74101139
C        1.57329898       3.36520017      -1.88685785
C        1.19884221       3.07568061       0.33239733
C        2.44996026       2.46405063       0.05077506
C        2.69063855       1.17110679       0.58032862
C       -3.38968363      -0.54631498      -1.52940265
C        1.42897217       1.96316783       2.40197349
C       -2.65690213       1.69391065      -1.22568609
C       -0.23508288       0.21181660       1.19298532
C       -2.63583077      -1.08221178       0.56337004
C       -2.07717056       0.46337384       2.66604952
C        2.74207200       2.71779616      -1.29855277
C       -1.05656660      -1.58157977      -3.80712784
C        1.73615122      -0.33692022       2.46375119
C       -3.13724139       0.25701018       0.60272034
C        0.55396376       3.42930535      -0.87629071
C        2.57511741       1.60475804      -2.17995454
C        2.68494750       0.06563913      -0.30580576
C        2.24028620      -1.16722794       0.24780146
C       -0.67054013       1.96078392       3.27127212
C       -1.79907013       2.48020698      -0.36539720
C        0.64162673      -2.63048185       1.09768517
C        0.02505956      -0.47224184       4.55366804
C       -0.90338871      -0.89471514       5.51310594
C       -2.74562858      -1.50339765      -0.76046572
C        1.87238502      -2.03018038      -1.98248247
C       -1.60680511      -1.59483354       1.37035310
C        2.06409424      -2.23786225      -0.62413070
C       -2.22591397       0.40084469      -3.36119142
C        0.25238698      -3.43650886      -1.21994591
C       -1.20022095       0.22759783       4.77135547
C       -2.07516285      -1.90159278      -2.88642201
C        0.25936998       1.71501070      -3.20745413
C       -2.62907561       1.17289670       1.53679098
C        0.91426171       0.08365031       3.64092368
C       -1.89661342      -2.32970199      -1.48978093
C        2.05904686      -0.76694135      -2.56859136
C       -0.70858452       2.93353055      -1.22725582
C        1.04526885      -0.68146496      -3.56892787
60
Properties=species:S:1:pos:R:3 trajectory=trial0001_proposal001_step002_proposal_relax trajectory_step=7 pbc="F F F"
C       -0.74103865       2.59710344       1.96476368
C       -1.06309266      -0.42105866       2.07228422
C        1.54412913      -1.42216354       1.46925870
C        0.16887284       0.42192816      -3.83530519
C        1.48107411       2.27257592      -2.81407626
C        0.16380820       0.73043658       0.12962575
C        0.62203887       2.77042126       1.57155677
C        0.61964876       1.44561792       3.41273947
C        0.75267529      -2.75208935      -2.42827347
C       -1.11064613      -0.14603980      -4.04651034
C        2.60550551       0.26468493      -1.74360580
C        1.19850874      -3.21860933      -0.13376273
C       -1.81721527       2.26862667       1.06598962
C        0.26868278      -1.93485303      -3.52118462
C       -0.94893000      -2.98602577      -0.65714398
C        2.22481661       0.93159091       1.89447628
C       -0.75822733      -2.56493598       0.75171135
C       -2.06501274       1.53212931      -2.51854172
C       -0.84197784       2.23013857      -2.49089892
C       -1.68764335       1.14623939       3.83240120
C       -2.93362687      -0.70813532      -2.83772902
C       -3.42671767       0.64477551      -0.74223502
C        1.57306317       3.36264946      -1.88694426
C        1.19824560       3.07647644       0.33362200
C        2.44909331       2.46399471       0.05078609
C        2.68881946       1.17078138       0.58039279
C       -3.39462384      -0.54476272      -1.53027526
C        1.42829558       1.96403625       2.40362767
C       -2.65687680       1.69635088      -1.22745224
C       -0.23415264       0.20983437       1.19557039
C       -2.64014251      -1.08250726       0.56431989
C       -2.07770327       0.46106050       2.66523338
C        2.74283083       2.71810655      -1.29852020
C       -1.05532585      -1.58089393      -3.80462362
C        1.73166927      -0.33757728       2.46379586
C       -3.13511781       0.25934772       0.60121631
C        0.55534366       3.42687679      -0.87705795
C        2.57306505       1.60498269      -2.17934229
C        2.68236333       0.06498582      -0.30560893
C        2.24838791      -1.17024993       0.25068139
C       -0.67069630       1.95985284       3.26989442
C       -1.79688181       2.48149450      -0.36724229
C        0.64348465      -2.63109232       1.09106679
C        0.02732104      -0.46961706       4.55739312
C       -0.90296662      -0.89453735       5.51480062
C       -2.76423097      -1.51102056      -0.75746104
C        1.87762166      -2.03115998      -1.98124781
C       -1.60662965      -1.59471855       1.36957401
C        2.08308825      -2.24529279      -0.62518764
C       -2.22645423       0.40168685      -3.36258919
C        0.25416521      -3.43615440      -1.21863494
C       -1.20046248       0.22905463       4.77192622
C       -2.07639570      -1.90043171      -2.88587526
C        0.26021756       1.71460981      -3.20748372
C       -2.62809052       1.17512697       1.53576564
C        0.91154459       0.08324794       3.64091992
C       -1.90451121      -2.32924299      -1.48820998
C        2.05382468      -0.76549096      -2.56709438
C       -0.70605004       2.93179410      -1.23001088
C        1.04466186      -0.68034184      -3.57019875
60
Properties=species:S:1:pos:R:3 trajectory=trial0001_proposal001_step002_proposal_relax trajectory_step=8 pbc="F F F"
C       -0.74077712       2.59687384       1.96374137
C       -1.06090681      -0.42460206       2.07341733
C        1.54856350      -1.42845917       1.46921794
C        0.17057378       0.42309857      -3.83830223
C        1.48136463       2.27474674      -2.81445443
C        0.15751896       0.72976950       0.13199471
C        0.62279060       2.77382130       1.57209335
C        0.61879227       1.44741094       3.41348422
C        0.75637415      -2.75020129      -2.42617534
C       -1.11098284      -0.14550297      -4.04857194
C        2.60113761       0.26473579      -1.74257026
C        1.20510911      -3.21736976      -0.13740416
C       -1.81446395       2.27040774       1.06401832
C        0.26772201      -1.93339622      -3.51364350
C       -0.94879088      -2.97479561      -0.66103544
C        2.21923938       0.92967592       1.89411822
C       -0.75557511      -2.55841780       0.74746941
C       -2.06323863       1.53171611      -2.51983628
C       -0.84047405       2.22860323      -2.49083127
C       -1.68694785       1.14511950       3.82821409
C       -2.93144587      -0.70607356      -2.83692184
C       -3.42367230       0.64656579      -0.74401964
C        1.57371969       3.36232890      -1.88703020
C        1.19732696       3.07606006       0.33521226
C        2.44838863       2.46252467       0.05200758
C        2.68453308       1.16924669       0.58074275
C       -3.40005953      -0.54363640      -1.52935018
C        1.42777961       1.96451802       2.40532401
C       -2.65713923       1.69787161      -1.22897669
C       -0.23009125       0.20864862       1.19677431
C       -2.64775729      -1.08364166       0.56855015
C       -2.07669275       0.45869114       2.66233735
C        2.74234634       2.71648229      -1.29844525
C       -1.05466383      -1.57983592      -3.80099217
C        1.72524276      -0.33980379       2.46178640
C       -3.13289017       0.26183152       0.59931062
C        0.55630593       3.42466362      -0.87851272
C        2.56958807       1.60400894      -2.17873253
C        2.68134697       0.06402019      -0.30457343
C        2.25983464      -1.17654901       0.25342349
C       -0.67183078       1.95892692       3.26721758
C       -1.79478527       2.48234013      -0.36964172
C        0.64573740      -2.62900174       1.08501829
C        0.02394885      -0.46825150       4.56657305
C       -0.90184647      -0.88888408       5.51316337
C       -2.78578355      -1.52027340      -0.75492604
C        1.88477021      -2.03357417      -1.98005629
C       -1.60873066      -1.59167180       1.36780135
C        2.10268014      -2.25105842      -0.62620332
C       -2.22790321       0.40035580      -3.36393751
C        0.25705847      -3.43313739      -1.21859769
C       -1.19674031       0.22375226       4.77780324
C       -2.08044006      -1.89933964      -2.88377871
C        0.25989705       1.71522963      -3.20957594
C       -2.62583915       1.17769546       1.53468049
C        0.91048551       0.08446089       3.63938779
C       -1.91565546      -2.33124518      -1.48675170
C        2.05126318      -0.76483774      -2.56553564
C       -0.70331217       2.93072912      -1.23166587
C        1.04342380      -0.67975382      -3.56876733
60
Properties=species:S:1:pos:R:3 trajectory=trial0001_proposal001_step002_proposal_relax trajectory_step=9 pbc="F F F"
C       -0.74038832       2.59699088       1.96375034
C       -1.06107866      -0.42448889       2.07243251
C        1.54855974      -1.42810769       1.46869956
C        0.17058738       0.42249658      -3.83843018
C        1.48072077       2.27467067      -2.81454305
C        0.15792462       0.72993866       0.13152193
C        0.62230446       2.77347681       1.57289474
C        0.61887578       1.44735153       3.41369632
C        0.75618240      -2.74978618      -2.42661586
C       -1.11103395      -0.14600156      -4.04882480
C        2.60100645       0.26460485      -1.74205787
C        1.20505430      -3.21787990      -0.13656138
C       -1.81445050       2.27032937       1.06418822
C        0.26723802      -1.93339337      -3.51423344
C       -0.94863031      -2.97568838      -0.66075411
C        2.21979044       0.92953892       1.89419162
C       -0.75580905      -2.55822117       0.74787836
C       -2.06389201       1.53181139      -2.51974063
C       -0.84018400       2.22897066      -2.49090191
C       -1.68692743       1.14452939       3.82980875
C       -2.93237240      -0.70637264      -2.83529175
C       -3.42353479       0.64551131      -0.74358237
C        1.57355994       3.36257513      -1.88700727
C        1.19765777       3.07626553       0.33401229
C        2.44851942       2.46266212       0.05191815
C        2.68430899       1.16894248       0.58088011
C       -3.40018409      -0.54336071      -1.53054780
C        1.42781074       1.96481976       2.40490842
C       -2.65679723       1.69783497      -1.22940039
C       -0.23095276       0.20818905       1.19755353
C       -2.64816357      -1.08396482       0.56724985
C       -2.07648278       0.45870270       2.66257902
C        2.74219378       2.71641493      -1.29804993
C       -1.05476024      -1.58026974      -3.80056002
C        1.72583816      -0.33994299       2.46109388
C       -3.13292452       0.26174287       0.59928312
C        0.55671158       3.42485392      -0.87834835
C        2.57021227       1.60394818      -2.17875403
C        2.68143551       0.06374111      -0.30460932
C        2.26001875      -1.17521168       0.25389081
C       -0.67203014       1.95924114       3.26740847
C       -1.79535997       2.48214752      -0.36918368
C        0.64555460      -2.62873480       1.08549981
C        0.02768755      -0.46771570       4.56360139
C       -0.90297596      -0.89231396       5.51670454
C       -2.78438567      -1.51944358      -0.75407698
C        1.88507220      -2.03367539      -1.97923289
C       -1.60831262      -1.59174873       1.36764554
C        2.10084218      -2.25187639      -0.62781683
C       -2.22779549       0.40089843      -3.36360674
C        0.25726288      -3.43213757      -1.21930911
C       -1.19930879       0.22810550       4.77511139
C       -2.07985173      -1.89881237      -2.88382423
C        0.26064724       1.71547081      -3.20977307
C       -2.62582154       1.17745730       1.53412397
C        0.91000255       0.08385990       3.64055137
C       -1.91554944      -2.33137014      -1.48723626
C        2.05183232      -0.76479266      -2.56549637
C       -0.70363110       2.93085831      -1.23141648
C        1.04360305      -0.68002428      -3.56822515
60
Properties=species:S:1:pos:R:3 trajectory=trial0001_proposal001_step002_proposal_relax trajectory_step=10 pbc="F F F"
C       -0.74005977       2.59666593       1.96310353
C       -1.06107801      -0.42464144       2.07214928
C        1.54918329      -1.42863028       1.46831256
C        0.17086956       0.42228592      -3.83889397
C        1.48030515       2.27504024      -2.81408223
C        0.15745669       0.73019170       0.13198622
C        0.62239114       2.77362120       1.57284192
C        0.61895964       1.44788498       3.41392705
C        0.75663661      -2.74941890      -2.42708242
C       -1.11117525      -0.14632990      -4.04948341
C        2.60106276       0.26430571      -1.74163314
C        1.20514083      -3.21794058      -0.13636031
C       -1.81422063       2.27004600       1.06382288
C        0.26676950      -1.93275885      -3.51342557
C       -0.94842140      -2.97490887      -0.66129218
C        2.21933823       0.92894033       1.89413031
C       -0.75562996      -2.55687136       0.74766707
C       -2.06385476       1.53170895      -2.51983087
C       -0.84002652       2.22918408      -2.49080002
C       -1.68732589       1.14438422       3.82998976
C       -2.93261401      -0.70643718      -2.83448078
C       -3.42244266       0.64489862      -0.74344119
C        1.57382874       3.36349978      -1.88694677
C        1.19781236       3.07601187       0.33336213
C        2.44848414       2.46220788       0.05211102
C        2.68346117       1.16829539       0.58103316
C       -3.40020752      -0.54340582      -1.53067792
C        1.42784230       1.96493010       2.40470439
C       -2.65646105       1.69760306      -1.22966979
C       -0.23040366       0.20798105       1.19792312
C       -2.64962594      -1.08447251       0.56742889
C       -2.07582719       0.45883543       2.66217073
C        2.74172825       2.71572276      -1.29773244
C       -1.05516979      -1.58044889      -3.79991451
C        1.72528555      -0.34036422       2.46028949
C       -3.13302807       0.26173645       0.59929422
C        0.55683430       3.42517819      -0.87825979
C        2.56987523       1.60357178      -2.17864149
C        2.68213706       0.06324823      -0.30436531
C        2.26129501      -1.17544345       0.25405281
C       -0.67236816       1.95931754       3.26702868
C       -1.79561878       2.48198488      -0.36915476
C        0.64562281      -2.62782242       1.08570248
C        0.02818216      -0.46767077       4.56345261
C       -0.90335185      -0.89259032       5.51784869
C       -2.78473849      -1.51967684      -0.75348851
C        1.88599895      -2.03395384      -1.97942648
C       -1.60863333      -1.59112251       1.36734216
C        2.10001068      -2.25186171      -0.62831560
C       -2.22771018       0.40080212      -3.36352010
C        0.25750182      -3.43066798      -1.22000397
C       -1.19970375       0.22879118       4.77492998
C       -2.08041246      -1.89875210      -2.88367551
C        0.26078551       1.71608275      -3.21045908
C       -2.62542245       1.17733233       1.53372890
C        0.91000978       0.08394703       3.64086144
C       -1.91674605      -2.33220444      -1.48748730
C        2.05316333      -0.76520097      -2.56551318
C       -0.70379284       2.93111802      -1.23108862
C        1.04352466      -0.68014215      -3.56698255
60
Properties=species:S:1:pos:R:3 trajectory=trial0001_proposal001_step002_proposal_relax trajectory_step=11 pbc="F F F"
C       -0.73912890       2.59561933       1.96082816
C       -1.06071687      -0.42529680       2.07197530
C        1.55206938      -1.43089308       1.46756389
C        0.17149161       0.42241966      -3.84040088
C        1.47930572       2.27634046      -2.81291817
C        0.15537567       0.73139998       0.13331447
C        0.62306198       2.77413781       1.57238843
C        0.61899975       1.44929448       3.41460426
C        0.75881738      -2.74874207      -2.42785990
C       -1.11148752      -0.14694455      -4.05154401
C        2.60136641       0.26322180      -1.74042966
C        1.20532775      -3.21737366      -0.13661226
C       -1.81334542       2.26913034       1.06216286
C        0.26537321      -1.93027682      -3.50936927
C       -0.94760435      -2.97046049      -0.66316707
C        2.21677477       0.92705315       1.89374211
C       -0.75477742      -2.55156619       0.74536323
C       -2.06301075       1.53122210      -2.52037100
C       -0.83958227       2.22948725      -2.49082201
C       -1.68812889       1.14379761       3.82971460
C       -2.93289861      -0.70616906      -2.83287988
C       -3.41876215       0.64384431      -0.74333914
C        1.57495697       3.36634372      -1.88670097
C        1.19813546       3.07509621       0.33228824
C        2.44786707       2.46023467       0.05262896
C        2.68057259       1.16602538       0.58142670
C       -3.40074054      -0.54390201      -1.53009000
C        1.42790773       1.96519102       2.40455170
C       -2.65517350       1.69708899      -1.23054617
C       -0.22779072       0.20700239       1.19952731
C       -2.65500995      -1.08629540       0.56913158
C       -2.07371948       0.45938788       2.66072194
C        2.74040399       2.71342108      -1.29682415
C       -1.05649941      -1.58076630      -3.79770312
C        1.72208316      -0.34144748       2.45838071
C       -3.13339110       0.26183141       0.59938954
C        0.55699395       3.42627447      -0.87793204
C        2.56766780       1.60230672      -2.17786425
C        2.68460288       0.06132479      -0.30357899
C        2.26667238      -1.17766413       0.25462357
C       -0.67321142       1.95912178       3.26551203
C       -1.79575437       2.48193539      -0.36979440
C        0.64607233      -2.62497176       1.08497835
C        0.02860287      -0.46717098       4.56451196
C       -0.90398411      -0.89190521       5.52069870
C       -2.78928241      -1.52243407      -0.75167913
C        1.89024775      -2.03533633      -1.98058587
C       -1.61006658      -1.58929276       1.36617141
C        2.10044534      -2.25236975      -0.62932167
C       -2.22713296       0.40042043      -3.36367297
C        0.25807798      -3.42569418      -1.22151435
C       -1.20023580       0.22984232       4.77514613
C       -2.08309790      -1.89903548      -2.88306509
C        0.26070686       1.71807869      -3.21274690
C       -2.62380430       1.17694151       1.53252291
C        0.90948960       0.08436057       3.64161366
C       -1.92198677      -2.33516881      -1.48750331
C        2.05719385      -0.76640497      -2.56576502
C       -0.70383738       2.93176025      -1.23076628
C        1.04292454      -0.67975828      -3.56304904
60
Properties=species:S:1:pos:R:3 trajectory=trial0001_proposal001_step002_proposal_relax trajectory_step=12 pbc="F F F"
C       -0.73852503       2.59489725       1.95950006
C       -1.06100530      -0.42579840       2.07146418
C        1.55526927      -1.43201523       1.46740449
C        0.17115925       0.42313959      -3.84095774
C        1.47870844       2.27714651      -2.81263267
C        0.15402068       0.73292411       0.13417027
C        0.62347190       2.77344043       1.57228930
C        0.61872265       1.44940047       3.41494593
C        0.76114251      -2.74858506      -2.42822030
C       -1.11172482      -0.14740475      -4.05269118
C        2.60272516       0.26210467      -1.73956944
C        1.20440138      -3.21625090      -0.13729914
C       -1.81256546       2.26812428       1.06050355
C        0.26446002      -1.92776838      -3.50488153
C       -0.94728359      -2.96624589      -0.66417974
C        2.21458397       0.92601180       1.89348070
C       -0.75415375      -2.54619837       0.74173374
C       -2.06186679       1.53118551      -2.52110328
C       -0.83909142       2.23036017      -2.49192412
C       -1.68820321       1.14426786       3.82960198
C       -2.93352213      -0.70545550      -2.83177463
C       -3.41605980       0.64297982      -0.74327935
C        1.57572137       3.36808091      -1.88643410
C        1.19838271       3.07462129       0.33216141
C        2.44648637       2.45777651       0.05253752
C        2.67862588       1.16365024       0.58148539
C       -3.40169182      -0.54490781      -1.52910105
C        1.42803783       1.96525725       2.40511162
C       -2.65331116       1.69648822      -1.23136853
C       -0.22543824       0.20584567       1.20086587
C       -2.65972293      -1.08876609       0.57026693
C       -2.07214732       0.46026535       2.66019532
C        2.73969095       2.71206391      -1.29609078
C       -1.05775624      -1.58121648      -3.79565850
C        1.71897726      -0.34132494       2.45759372
C       -3.13431880       0.26096777       0.59976015
C        0.55719741       3.42810156      -0.87758779
C        2.56512742       1.60129100      -2.17626472
C        2.68762029       0.05879663      -0.30314422
C        2.27173300      -1.18062052       0.25472075
C       -0.67318829       1.95894319       3.26454786
C       -1.79557984       2.48262631      -0.37111299
C        0.64590381      -2.62259161       1.08333179
C        0.02787275      -0.46615131       4.56607525
C       -0.90410652      -0.88953973       5.52280523
C       -2.79501146      -1.52616235      -0.75024278
C        1.89600897      -2.03742955      -1.98299966
C       -1.61115612      -1.58870480       1.36487409
C        2.10223394      -2.25407173      -0.62940594
C       -2.22629597       0.40045316      -3.36362025
C        0.25754594      -3.42027615      -1.22222510
C       -1.20083084       0.23020677       4.77542658
C       -2.08553705      -1.89933856      -2.88223654
C        0.26067939       1.71984493      -3.21480233
C       -2.62216903       1.17582449       1.53106275
C        0.90850816       0.08437379       3.64235606
C       -1.92698350      -2.33775506      -1.48681667
C        2.06091848      -0.76759008      -2.56651249
C       -0.70340660       2.93254423      -1.23169432
C        1.04214270      -0.67821877      -3.55937493
60
Properties=species:S:1:pos:R:3 trajectory=trial0001_proposal001_step002_proposal_relax trajectory_step=13 pbc="F F F"
C       -0.73859354       2.59444086       1.95897809
C       -1.06136801      -0.42599168       2.07123645
C        1.55670776      -1.43284206       1.46736485
C        0.17102123       0.42377508      -3.84065879
C        1.47927276       2.27746799      -2.81215308
C        0.15379894       0.73402539       0.13467264
C        0.62395098       2.77312018       1.57156673
C        0.61877760       1.44923442       3.41515396
C        0.76286307      -2.74841035      -2.42819675
C       -1.11230388      -0.14747156      -4.05265890
C        2.60415507       0.26110038      -1.73966293
C        1.20349814      -3.21524744      -0.13817751
C       -1.81208587       2.26743834       1.05936062
C        0.26402348      -1.92584428      -3.50186366
C       -0.94856224      -2.96328553      -0.66531081
C        2.21387506       0.92561791       1.89345386
C       -0.75358283      -2.54334718       0.73984941
C       -2.06078026       1.53146916      -2.52178050
C       -0.83890497       2.23163088      -2.49304446
C       -1.68845283       1.14480403       3.82936727
C       -2.93320803      -0.70500641      -2.83190776
C       -3.41450933       0.64292086      -0.74349570
C        1.57630450       3.36861973      -1.88652079
C        1.19806252       3.07409787       0.33301924
C        2.44533091       2.45602630       0.05253683
C        2.67775333       1.16227660       0.58148020
C       -3.40297806      -0.54546293      -1.52808406
C        1.42826731       1.96508911       2.40569893
C       -2.65249948       1.69542471      -1.23134999
C       -0.22434767       0.20501473       1.20127253
C       -2.66225604      -1.09061864       0.57207681
C       -2.07144811       0.46075910       2.65983022
C        2.73934280       2.71156246      -1.29588141
C       -1.05802454      -1.58124877      -3.79441348
C        1.71762606      -0.34132106       2.45724517
C       -3.13511682       0.25977469       0.59963399
C        0.55689270       3.42933880      -0.87760425
C        2.56354166       1.60071645      -2.17525629
C        2.69014396       0.05708038      -0.30300260
C        2.27466831      -1.18296033       0.25490930
C       -0.67317925       1.95890945       3.26444917
C       -1.79483747       2.48324698      -0.37217427
C        0.64588283      -2.62058635       1.08238486
C        0.02737700      -0.46547836       4.56689684
C       -0.90428569      -0.88768833       5.52478265
C       -2.79954696      -1.52936121      -0.75020258
C        1.90045181      -2.04017163      -1.98394106
C       -1.61286046      -1.58792210       1.36387828
C        2.10487576      -2.25505579      -0.63066776
C       -2.22627752       0.40000206      -3.36341052
C        0.25737382      -3.41726301      -1.22283699
C       -1.20173758       0.23122817       4.77537800
C       -2.08734674      -1.89941164      -2.88123298
C        0.26002916       1.72096415      -3.21623958
C       -2.62103171       1.17508237       1.53058534
C        0.90775825       0.08427053       3.64264856
C       -1.93032285      -2.33920794      -1.48650889
C        2.06359172      -0.76807812      -2.56691459
C       -0.70274226       2.93372034      -1.23251125
C        1.04139940      -0.67735004      -3.55698096
60
Properties=species:S:1:pos:R:3 trajectory=trial0001_proposal001_step002_proposal_relax trajectory_step=14 pbc="F F F"
C       -0.73849975       2.59420471       1.95888150
C       -1.06182804      -0.42597843       2.07089417
C        1.55772523      -1.43292574       1.46744342
C        0.17037896       0.42435373      -3.83999195
C        1.47911560       2.27729610      -2.81236902
C        0.15411326       0.73487963       0.13499287
C        0.62372351       2.77217933       1.57197590
C        0.61862140       1.44881779       3.41518091
C        0.76403955      -2.74854188      -2.42819548
C       -1.11239482      -0.14750008      -4.05233335
C        2.60586918       0.26036702      -1.73974239
C        1.20265603      -3.21396441      -0.13895535
C       -1.81172990       2.26687111       1.05862755
C        0.26397707      -1.92452544      -3.49947736
C       -0.94903020      -2.96176321      -0.66568605
C        2.21369463       0.92547284       1.89356957
C       -0.75382894      -2.54126410       0.73831229
C       -2.06034385       1.53167112      -2.52207286
C       -0.83884029       2.23296725      -2.49423784
C       -1.68857252       1.14571695       3.82919355
C       -2.93360342      -0.70477056      -2.83137041
C       -3.41393063       0.64227383      -0.74329961
C        1.57640873       3.36887068      -1.88632844
C        1.19795534       3.07399395       0.33299488
C        2.44423652       2.45474975       0.05220584
C        2.67760733       1.16118604       0.58127138
C       -3.40380129      -0.54609759      -1.52798550
C        1.42847119       1.96501559       2.40609640
C       -2.65107942       1.69506340      -1.23166166
C       -0.22375627       0.20443287       1.20132308
C       -2.66445589      -1.09217039       0.57200075
C       -2.07114590       0.46119699       2.65994645
C        2.73930741       2.71144327      -1.29548864
C       -1.05845396      -1.58135032      -3.79344354
C        1.71695003      -0.34102412       2.45735633
C       -3.13579805       0.25886043       0.60004143
C        0.55717069       3.43055963      -0.87743995
C        2.56266825       1.60013604      -2.17426392
C        2.69227705       0.05556852      -0.30296818
C        2.27661929      -1.18441314       0.25467788
C       -0.67281273       1.95905061       3.26444442
C       -1.79434738       2.48369057      -0.37298707
C        0.64552089      -2.61938252       1.08133838
C        0.02605545      -0.46493845       4.56779518
C       -0.90421860      -0.88517406       5.52560409
C       -2.80307471      -1.53145265      -0.74945920
C        1.90421077      -2.04172575      -1.98600673
C       -1.61333902      -1.58804649       1.36358803
C        2.10669372      -2.25654202      -0.63041131
C       -2.22603168       0.40019010      -3.36317337
C        0.25639815      -3.41500094      -1.22300746
C       -1.20211096       0.23117684       4.77575221
C       -2.08817058      -1.89952652      -2.88099436
C        0.26015723       1.72199428      -3.21704011
C       -2.62056371       1.17414849       1.52977619
C        0.90723215       0.08404198       3.64270172
C       -1.93270780      -2.34004056      -1.48639084
C        2.06541583      -0.76907602      -2.56750051
C       -0.70246049       2.93468343      -1.23356880
C        1.04108731      -0.67631168      -3.55506949
