60
Properties=species:S:1:pos:R:3 trajectory=trial0001_proposal001_step004_proposal_relax trajectory_step=0 pbc="F F F"
C       -0.74897322       2.60817232       1.96989681
C       -1.02971393      -0.43588764       2.16695130
C        1.46180402      -1.44059026       1.57297416
C        0.14996817       0.44217081      -3.86135717
C        1.51058343       2.26647269      -2.83854995
C        0.09007333       0.66054467       0.12403156
C        0.61569620       2.78525303       1.57577489
C        0.60262669       1.45683503       3.42624145
C        0.67201547      -2.84162429      -2.52834041
C       -1.11175566      -0.12800372      -4.03564151
C        2.59424342       0.25410898      -1.74729771
C        1.09061386      -3.24861952      -0.12795935
C       -1.80340280       2.26128840       1.06105359
C        0.25254291      -1.96606007      -3.67438555
C       -0.89698558      -3.12154074      -0.66964448
C        2.20907374       0.92952095       1.91811318
C       -0.75217537      -2.69705686       0.81747091
C       -2.07050662       1.51920359      -2.53192052
C       -0.84497084       2.21248852      -2.51205383
C       -1.69903382       1.14211383       3.85112546
C       -2.95931104      -0.76622955      -2.93023198
C       -3.43063215       0.67863744      -0.72874716
C        1.59414061       3.34635797      -1.89552230
C        1.19165388       3.07881433       0.33288785
C        2.45201459       2.48000637       0.06197630
C        2.70998264       1.18465551       0.60781247
C       -3.12154419      -0.47699321      -1.54614401
C        1.40799557       1.96187490       2.40721582
C       -2.65356406       1.72787302      -1.22735428
C       -0.26329850       0.20345150       1.23290672
C       -2.37365570      -0.97626932       0.52225620
C       -2.08826112       0.45752265       2.68962675
C        2.76079935       2.71312951      -1.29250171
C       -1.07323337      -1.56941815      -3.91287679
C        1.75171361      -0.34578411       2.55553912
C       -3.07742328       0.27564767       0.61967010
C        0.56180269       3.40240296      -0.89580340
C        2.59550915       1.60251550      -2.18034550
C        2.59320272       0.08596491      -0.28320056
C        1.94654906      -1.06760082       0.27339010
C       -0.68664493       1.96227834       3.27871854
C       -1.77534539       2.46918706      -0.37397503
C        0.63350580      -2.79025426       1.20835816
C        0.04417957      -0.43921407       4.62940077
C       -0.86320237      -0.81776905       5.62650444
C       -2.23858642      -1.24334626      -0.84542889
C        1.57799663      -1.94629276      -1.96644498
C       -1.52646923      -1.63807453       1.43829087
C        1.65630697      -2.07099890      -0.60310573
C       -2.23946677       0.40111247      -3.39942922
C        0.23209398      -3.72653971      -1.25661180
C       -1.20156910       0.23239037       4.79750951
C       -2.06361417      -1.97725037      -3.00276517
C        0.26987474       1.72629929      -3.22883720
C       -2.62991289       1.18653530       1.56083558
C        0.91902161       0.10711678       3.70005988
C       -1.60673355      -2.21828736      -1.56419158
C        1.95934801      -0.75218594      -2.57661900
C       -0.69935119       2.91264898      -1.24832377
C        1.02783097      -0.67908710      -3.65591602
60
Properties=species:S:1:pos:R:3 trajectory=trial0001_proposal001_step004_proposal_relax trajectory_step=1 pbc="F F F"
C       -0.74778067       2.60758042       1.97098432
C       -1.03321258      -0.43807791       2.16117431
C        1.46570487      -1.43803634       1.56503166
C        0.15820785       0.43584618      -3.86251651
C        1.50792697       2.26826744      -2.83792066
C        0.08739657       0.66028092       0.12509561
C        0.61405344       2.78503830       1.57659841
C        0.60210011       1.45752570       3.42705377
C        0.67231932      -2.83116413      -2.52806815
C       -1.11724333      -0.13264726      -4.03957884
C        2.58549472       0.25360376      -1.74289689
C        1.09702353      -3.24677569      -0.13115983
C       -1.80387851       2.26294220       1.06449533
C        0.25487287      -1.97009858      -3.67414865
C       -0.90981773      -3.10943655      -0.66842064
C        2.21189941       0.92993916       1.91865438
C       -0.75024254      -2.69296295       0.81701304
C       -2.06859836       1.52665598      -2.53181039
C       -0.84225727       2.21460676      -2.50896967
C       -1.69797386       1.14358938       3.85418174
C       -2.95641268      -0.75796117      -2.91347232
C       -3.42230437       0.66842243      -0.73146952
C        1.59322927       3.34599592      -1.89572196
C        1.19210957       3.07852275       0.33043894
C        2.45642129       2.47628706       0.06332617
C        2.70369974       1.18291609       0.60683777
C       -3.13530515      -0.47577940      -1.55402820
C        1.40612804       1.96092791       2.40710239
C       -2.66002136       1.72403131      -1.22995792
C       -0.26149943       0.20360940       1.23749346
C       -2.37884219      -0.97882597       0.51627760
C       -2.08889808       0.45422503       2.68973107
C        2.75946660       2.71357194      -1.29224220
C       -1.06543471      -1.56815716      -3.91235991
C        1.75151308      -0.34798758       2.55033007
C       -3.07616385       0.26766541       0.60567461
C        0.56396681       3.40179111      -0.89645523
C        2.59745817       1.59761121      -2.18021401
C        2.59076635       0.08903196      -0.28513478
C        1.95648901      -1.07019990       0.28131504
C       -0.68774563       1.96292377       3.27874254
C       -1.77581088       2.47001830      -0.37302534
C        0.63024952      -2.78645263       1.20602818
C        0.04385440      -0.43869816       4.63141975
C       -0.86294549      -0.81625730       5.62773489
C       -2.25161357      -1.23877266      -0.83702142
C        1.58012256      -1.95567524      -1.95502560
C       -1.52942373      -1.63526670       1.42792444
C        1.66347531      -2.09078758      -0.61586927
C       -2.24554728       0.39491042      -3.39812366
C        0.24321930      -3.71143974      -1.25625372
C       -1.20078489       0.23119259       4.80020982
C       -2.06228222      -1.96727926      -2.99008674
C        0.27157583       1.72390176      -3.23034140
C       -2.62606418       1.19212680       1.56206794
C        0.92035206       0.10878280       3.70111865
C       -1.60673430      -2.23074334      -1.56378806
C        1.95616170      -0.74380395      -2.57852956
C       -0.69562445       2.91299966      -1.24894245
C        1.02863114      -0.68043763      -3.65543655
60
Properties=species:S:1:pos:R:3 trajectory=trial0001_proposal001_step004_proposal_relax trajectory_step=2 pbc="F F F"
C       -0.74686065       2.60722995       1.97289703
C       -1.03908203      -0.44151216       2.15417087
C        1.47007952      -1.43598548       1.55598659
C        0.16246231       0.42878186      -3.86526008
C        1.50697214       2.26885758      -2.83649674
C        0.08282266       0.65945491       0.12804532
C        0.61331607       2.78473543       1.57578927
C        0.60148475       1.45822609       3.42822336
C        0.67178257      -2.81996137      -2.52615712
C       -1.11959277      -0.13683943      -4.04520864
C        2.57271249       0.25417607      -1.73805668
C        1.10340382      -3.25008309      -0.13204746
C       -1.80426138       2.26575815       1.06771436
C        0.25986913      -1.97431462      -3.67409349
C       -0.91755760      -3.10019855      -0.66636334
C        2.21462161       0.93015470       1.92016324
C       -0.75043937      -2.68581719       0.81411199
C       -2.06884465       1.53271109      -2.53370345
C       -0.83789991       2.21615743      -2.50656979
C       -1.69715068       1.14388913       3.85703467
C       -2.95150651      -0.74965701      -2.89802562
C       -3.41376099       0.65878351      -0.73811255
C        1.59286280       3.34517387      -1.89606103
C        1.19366059       3.07706649       0.32940806
C        2.46011102       2.47377175       0.06445623
C        2.69575045       1.18054568       0.60553146
C       -3.15164324      -0.47832982      -1.55407502
C        1.40446690       1.95955042       2.40671346
C       -2.66516095       1.72217702      -1.23289560
C       -0.25801280       0.20471794       1.24218542
C       -2.38692151      -0.98182188       0.51053146
C       -2.08988113       0.45133952       2.69041218
C        2.75827861       2.71181162      -1.29296905
C       -1.06132570      -1.56911355      -3.90853702
C        1.75081894      -0.34870429       2.54438915
C       -3.07203404       0.26482488       0.59753123
C        0.56719144       3.40127764      -0.89696810
C        2.59830361       1.59539485      -2.18053634
C        2.58563891       0.08930800      -0.28536084
C        1.97038127      -1.08237784       0.27901242
C       -0.68876561       1.96351065       3.27974170
C       -1.77740313       2.47045274      -0.37246950
C        0.62829484      -2.78067417       1.20052770
C        0.04518438      -0.43752816       4.63333515
C       -0.86243515      -0.81547891       5.63123509
C       -2.26733767      -1.24284521      -0.83906735
C        1.58603538      -1.95715006      -1.95846253
C       -1.53237142      -1.63166594       1.41495466
C        1.68301101      -2.10307485      -0.61097585
C       -2.25055381       0.39283342      -3.39553542
C        0.24987842      -3.68916823      -1.25497995
C       -1.20067202       0.23176127       4.80284512
C       -2.05639706      -1.95411382      -2.97507092
C        0.27374220       1.71989270      -3.23219700
C       -2.62443550       1.19176860       1.55823866
C        0.92211439       0.10978132       3.70252419
C       -1.61641974      -2.23433525      -1.55874187
C        1.95024999      -0.74126425      -2.57486258
C       -0.69241754       2.91314668      -1.24820028
C        1.03106847      -0.68339075      -3.65458299
60
Properties=species:S:1:pos:R:3 trajectory=trial0001_proposal001_step004_proposal_relax trajectory_step=3 pbc="F F F"
C       -0.74730709       2.60790822       1.97737437
C       -1.05510563      -0.44892947       2.13941960
C        1.47768028      -1.43493577       1.53943961
C        0.16280566       0.41560855      -3.87415056
C        1.50749585       2.26524831      -2.83541844
C        0.07021839       0.65938234       0.13226796
C        0.61463010       2.78172385       1.57291685
C        0.60145420       1.45897210       3.43083179
C        0.67041632      -2.79758798      -2.51485800
C       -1.12178770      -0.14291871      -4.05774202
C        2.53781105       0.25956544      -1.72659094
C        1.12327292      -3.26273877      -0.12652261
C       -1.80727847       2.27216287       1.07111096
C        0.26909580      -1.98111831      -3.67861083
C       -0.91993704      -3.08634008      -0.65961211
C        2.21865985       0.92970479       1.92377137
C       -0.75343241      -2.66656793       0.79972734
C       -2.07220804       1.54233777      -2.54115264
C       -0.82862932       2.21436561      -2.50538236
C       -1.69762197       1.14122456       3.85837884
C       -2.93726013      -0.73491268      -2.88041224
C       -3.40024384       0.65132679      -0.75037989
C        1.59482271       3.34293631      -1.89694273
C        1.19999527       3.07263280       0.32911617
C        2.46436062       2.47169248       0.06458465
C        2.67663863       1.17233125       0.60334399
C       -3.19222100      -0.49408158      -1.54154311
C        1.40176434       1.95729037       2.40595868
C       -2.66934822       1.72489348      -1.24174606
C       -0.24951197       0.20398867       1.25912585
C       -2.40873429      -0.98984461       0.49558853
C       -2.09375090       0.44668857       2.69065446
C        2.75793991       2.70447654      -1.29401282
C       -1.05786881      -1.57611963      -3.89272388
C        1.74750920      -0.34683851       2.53048864
C       -3.06066010       0.26653020       0.58605686
C        0.57450394       3.40017161      -0.89529806
C        2.59629707       1.59392520      -2.18197950
C        2.56806607       0.08244375      -0.28537180
C        2.01573218      -1.10478169       0.27415612
C       -0.68989963       1.96415587       3.28446292
C       -1.78199288       2.47169748      -0.37205924
C        0.62540935      -2.76409830       1.18388721
C        0.04794258      -0.43386310       4.64052881
C       -0.85898999      -0.81157074       5.63973088
C       -2.31421303      -1.26386634      -0.84154510
C        1.61018969      -1.95672532      -1.94474058
C       -1.53871566      -1.62185782       1.38534850
C        1.74486963      -2.13472887      -0.62693791
C       -2.25028241       0.39922283      -3.39188244
C        0.24791958      -3.62761288      -1.25234995
C       -1.19859523       0.23250430       4.81146549
C       -2.03502009      -1.92232280      -2.94281249
C        0.27877180       1.70824467      -3.23494325
C       -2.62074619       1.18296475       1.54778969
C        0.92653669       0.11004826       3.70485290
C       -1.65058339      -2.23233692      -1.54761722
C        1.93588570      -0.73773777      -2.56144062
C       -0.68794621       2.91181143      -1.24347636
C        1.03662246      -0.69212846      -3.65705753
60
Properties=species:S:1:pos:R:3 trajectory=trial0001_proposal001_step004_proposal_relax trajectory_step=4 pbc="F F F"
C       -0.74930062       2.60967255       1.97765040
C       -1.06611628      -0.45262226       2.13866161
C        1.48123653      -1.43854258       1.52812159
C        0.16113606       0.41235390      -3.88201632
C        1.50745511       2.26039331      -2.83949670
C        0.05616553       0.65643412       0.14399652
C        0.61522254       2.77628526       1.57343635
C        0.60348740       1.45759749       3.43270072
C        0.67440727      -2.78422355      -2.49825671
C       -1.12244626      -0.14386652      -4.06409551
C        2.51277587       0.26616010      -1.72211657
C        1.14704362      -3.26763543      -0.12824049
C       -1.81232846       2.27256936       1.07008133
C        0.27266716      -1.98455232      -3.67878996
C       -0.92251751      -3.07026089      -0.65975704
C        2.21739681       0.92902432       1.92322259
C       -0.75033231      -2.65615170       0.78388345
C       -2.06969647       1.54778639      -2.54644673
C       -0.82642183       2.20820893      -2.50644031
C       -1.69843466       1.13475051       3.85505308
C       -2.92916960      -0.72654191      -2.87912403
C       -3.40060346       0.66593222      -0.74729497
C        1.59868267       3.34018020      -1.89790260
C        1.20413650       3.07196064       0.32977782
C        2.46471045       2.46617669       0.06452610
C        2.66602815       1.16805543       0.60240217
C       -3.22469847      -0.50298166      -1.54981878
C        1.40319071       1.95749586       2.40750399
C       -2.66652240       1.73072415      -1.24869029
C       -0.23880337       0.20428030       1.26169107
C       -2.42320557      -0.99234430       0.49830779
C       -2.09840748       0.44334076       2.68753943
C        2.76104542       2.70130134      -1.29345937
C       -1.05397210      -1.57758351      -3.88455647
C        1.74154944      -0.34406779       2.52510336
C       -3.05736755       0.27082571       0.57659807
C        0.57589712       3.39844239      -0.89209489
C        2.59140387       1.59132359      -2.18173912
C        2.55691812       0.08161222      -0.28567375
C        2.04874228      -1.13082372       0.26943516
C       -0.68992158       1.96371790       3.28794683
C       -1.78270011       2.47558509      -0.37389291
C        0.62504047      -2.74839080       1.16906993
C        0.05330226      -0.42953080       4.64502605
C       -0.85435301      -0.80898231       5.64893385
C       -2.36040063      -1.28798184      -0.82734695
C        1.62246193      -1.95526074      -1.96395681
C       -1.54414159      -1.61505863       1.37069201
C        1.80378884      -2.16081015      -0.59667772
C       -2.23952588       0.40596006      -3.39550017
C        0.23698934      -3.58913848      -1.25023967
C       -1.19823330       0.23672092       4.81500292
C       -2.02167826      -1.90671941      -2.93030849
C        0.27902632       1.69896133      -3.23389255
C       -2.61354826       1.18038085       1.54776228
C        0.92743245       0.10827600       3.70615071
C       -1.66702606      -2.24067212      -1.54122139
C        1.92666141      -0.73408857      -2.55203450
C       -0.68556624       2.90785328      -1.24118050
C        1.03686387      -0.69789429      -3.66294936
60
Properties=species:S:1:pos:R:3 trajectory=trial0001_proposal001_step004_proposal_relax trajectory_step=5 pbc="F F F"
C       -0.74931442       2.60936239       1.97699304
C       -1.06174794      -0.45085680       2.14088583
C        1.47959791      -1.43901761       1.53246211
C        0.16021384       0.41483307      -3.88162251
C        1.50781417       2.26096668      -2.83969019
C        0.05864949       0.65863856       0.13855693
C        0.61505050       2.77671474       1.57319999
C        0.60333161       1.45769319       3.43246629
C        0.67285378      -2.78902594      -2.50008294
C       -1.11916448      -0.14211013      -4.06310274
C        2.51761764       0.26552273      -1.72326421
C        1.14221823      -3.27011089      -0.12719167
C       -1.81121512       2.27182476       1.06919216
C        0.27132800      -1.98308410      -3.67762569
C       -0.92020816      -3.07278014      -0.66046854
C        2.21582448       0.92872826       1.92276090
C       -0.75062892      -2.65740905       0.78558827
C       -2.06929073       1.54468994      -2.54596795
C       -0.82694973       2.20840827      -2.50649610
C       -1.69801355       1.13461869       3.85397518
C       -2.93055409      -0.72905154      -2.88551356
C       -3.40449751       0.66718358      -0.74877528
C        1.59830594       3.33969199      -1.89770353
C        1.20299853       3.07234906       0.33123775
C        2.46297878       2.46681248       0.06411479
C        2.66922096       1.16898842       0.60254839
C       -3.21840875      -0.49879443      -1.54670186
C        1.40425883       1.95802873       2.40832389
C       -2.66470506       1.73167673      -1.24669977
C       -0.24260852       0.20010508       1.26617872
C       -2.42219883      -0.98986752       0.50240582
C       -2.09779270       0.44382466       2.68762386
C        2.76159352       2.70178135      -1.29369428
C       -1.05509965      -1.57630111      -3.88749699
C        1.74099785      -0.34469429       2.52714972
C       -3.05902624       0.27451295       0.58329897
C        0.57510792       3.39821560      -0.89292228
C        2.59045613       1.59334007      -2.18157543
C        2.55901444       0.08110287      -0.28534162
C        2.04437267      -1.12545154       0.27204559
C       -0.68952446       1.96335406       3.28683330
C       -1.78189110       2.47596482      -0.37464663
C        0.62668095      -2.75046717       1.16991003
C        0.05232018      -0.42980149       4.64507694
C       -0.85399161      -0.80816496       5.64744821
C       -2.35825416      -1.29000350      -0.83352036
C        1.62372562      -1.95566410      -1.95554462
C       -1.54151398      -1.61756961       1.37801429
C        1.79959985      -2.15442986      -0.60632527
C       -2.23918546       0.40621949      -3.39623839
C        0.23884935      -3.59832443      -1.25000502
C       -1.19794730       0.23595073       4.81414930
C       -2.02463446      -1.91309615      -2.93668089
C        0.27781242       1.70039960      -3.23317738
C       -2.61544589       1.18011272       1.54732656
C        0.92668268       0.10806131       3.70528922
C       -1.66706837      -2.23606713      -1.54090913
C        1.92723154      -0.73562763      -2.55561752
C       -0.68623490       2.90744420      -1.24202501
C        1.03583447      -0.69573371      -3.66336311
60
Properties=species:S:1:pos:R:3 trajectory=trial0001_proposal001_step004_proposal_relax trajectory_step=6 pbc="F F F"
C       -0.74956033       2.60895222       1.97630472
C       -1.05977980      -0.45089985       2.14483308
C        1.47874175      -1.44043986       1.53445906
C        0.16002977       0.41715208      -3.88338726
C        1.50747510       2.26089619      -2.84101581
C        0.05637086       0.65830316       0.14027195
C        0.61479479       2.77586113       1.57348916
C        0.60358636       1.45767992       3.43278864
C        0.67286538      -2.79042383      -2.49788659
C       -1.11607102      -0.14035300      -4.06403733
C        2.51689833       0.26590728      -1.72379197
C        1.14421165      -3.27293129      -0.12720823
C       -1.81053369       2.27134577       1.06806870
C        0.27058934      -1.98222510      -3.67568467
C       -0.91856271      -3.07090208      -0.66105919
C        2.21359007       0.92798128       1.92212420
C       -0.74975370      -2.65584140       0.78408523
C       -2.06785567       1.54269672      -2.54616765
C       -0.82668510       2.20731298      -2.50655472
C       -1.69729173       1.13311735       3.85205970
C       -2.93051666      -0.72927469      -2.89106766
C       -3.40874936       0.67125612      -0.74949424
C        1.59844183       3.33833813      -1.89751729
C        1.20246006       3.07267176       0.33252039
C        2.46111652       2.46621910       0.06353976
C        2.67019853       1.16892425       0.60261019
C       -3.21882578      -0.49539435      -1.54700444
C        1.40564375       1.95890191       2.40977525
C       -2.66255376       1.73369236      -1.24644409
C       -0.24169068       0.19780386       1.26631221
C       -2.42529829      -0.98855445       0.50549852
C       -2.09824944       0.44326352       2.68733513
C        2.76279181       2.70191244      -1.29353351
C       -1.05469143      -1.57510212      -3.88966327
C        1.73853823      -0.34513652       2.52803418
C       -3.06097632       0.27867134       0.58677968
C        0.57497217       3.39725880      -0.89327617
C        2.58823467       1.59450572      -2.18123346
C        2.55900189       0.08049970      -0.28503836
C        2.04795038      -1.12524915       0.27492709
C       -0.68921238       1.96269280       3.28598856
C       -1.78109754       2.47750358      -0.37577785
C        0.62823991      -2.74931582       1.16676666
C        0.05268059      -0.42888731       4.64631250
C       -0.85229453      -0.80610861       5.64832108
C       -2.37063866      -1.29555628      -0.83276379
C        1.62811989      -1.95676991      -1.94927791
C       -1.54040470      -1.61846354       1.38295457
C        1.80879885      -2.15622512      -0.61160210
C       -2.23653984       0.40711641      -3.39834950
C        0.23964349      -3.59995356      -1.24906779
C       -1.19750101       0.23595248       4.81396951
C       -2.02590626      -1.91657940      -2.94138592
C        0.27693802       1.70009606      -3.23222593
C       -2.61564317       1.18105916       1.54769491
C        0.92585882       0.10757618       3.70484268
C       -1.67118943      -2.23421174      -1.54063536
C        1.92562729      -0.73615919      -2.55761907
C       -0.68577131       2.90616726      -1.24280110
C        1.03486041      -0.69471391      -3.66502954
60
Properties=species:S:1:pos:R:3 trajectory=trial0001_proposal001_step004_proposal_relax trajectory_step=7 pbc="F F F"
C       -0.74944300       2.60777236       1.97555013
C       -1.05683772      -0.45208351       2.15006163
C        1.47876723      -1.44315300       1.53459832
C        0.16181510       0.42010652      -3.88799770
C        1.50622784       2.26109634      -2.84323550
C        0.05135038       0.65878025       0.14104625
C        0.61442529       2.77418512       1.57429669
C        0.60409399       1.45798996       3.43387103
C        0.67462145      -2.78886445      -2.49193611
C       -1.11232615      -0.13827044      -4.06796312
C        2.51131181       0.26662522      -1.72406413
C        1.15288321      -3.27728142      -0.12844529
C       -1.80912826       2.27158619       1.06661610
C        0.27041814      -1.98145931      -3.67147093
C       -0.91720429      -3.06370160      -0.66184051
C        2.21006999       0.92643674       1.92139819
C       -0.74746603      -2.65046331       0.78025227
C       -2.06480052       1.54093411      -2.54660383
C       -0.82512502       2.20514380      -2.50617213
C       -1.69556825       1.13049159       3.84955485
C       -2.92918819      -0.72722263      -2.89639158
C       -3.41405915       0.67784334      -0.75083051
C        1.59873132       3.33579388      -1.89727476
C        1.20182943       3.07271540       0.33381421
C        2.45861768       2.46440682       0.06292775
C        2.66928488       1.16801500       0.60267964
C       -3.22517370      -0.49008479      -1.55067593
C        1.40749735       1.96029474       2.41233218
C       -2.66049947       1.73639090      -1.24751055
C       -0.24074040       0.19153619       1.27247163
C       -2.43374746      -0.98801049       0.51052757
C       -2.09933870       0.44146120       2.68678666
C        2.76441908       2.70195441      -1.29314193
C       -1.05266304      -1.57370116      -3.89276405
C        1.73337878      -0.34604512       2.52808981
C       -3.06456136       0.28413852       0.58809040
C        0.57568855       3.39506784      -0.89360464
C        2.58425892       1.59510754      -2.18064934
C        2.55775104       0.07942801      -0.28456227
C        2.05952883      -1.13007765       0.27846891
C       -0.68889707       1.96139634       3.28454290
C       -1.77999319       2.48053711      -0.37748561
C        0.63038172      -2.74559089       1.15882537
C        0.05427591      -0.42661414       4.64914948
C       -0.84882213      -0.80171195       5.65197172
C       -2.40020762      -1.30705919      -0.82834987
C        1.63640756      -1.95854826      -1.94589585
C       -1.54128158      -1.61768387       1.38707352
C        1.83273326      -2.16552976      -0.61198065
C       -2.23216108       0.40805292      -3.40223734
C        0.24176709      -3.59665234      -1.24696031
C       -1.19676438       0.23648011       4.81421884
C       -2.02769136      -1.91830018      -2.94624722
C        0.27661157       1.69879546      -3.23131119
C       -2.61480098       1.18410749       1.54874210
C        0.92454685       0.10713190       3.70457924
C       -1.68223589      -2.23325118      -1.54004564
C        1.92194476      -0.73643447      -2.55841596
C       -0.68362912       2.90407492      -1.24398329
C        1.03414231      -0.69446617      -3.66742410
60
Properties=species:S:1:pos:R:3 trajectory=trial0001_proposal001_step004_proposal_relax trajectory_step=8 pbc="F F F"
C       -0.74673614       2.60477929       1.97505194
C       -1.05528551      -0.45791341       2.15925802
C        1.48035831      -1.44641368       1.53288257
C        0.16739653       0.42267151      -3.89457444
C        1.50513882       2.26362174      -2.84383942
C        0.04273725       0.65436317       0.15253161
C        0.61482515       2.77394946       1.57540393
C        0.60450247       1.45971609       3.43590397
C        0.67800127      -2.78607460      -2.48700704
C       -1.10899495      -0.13689627      -4.07595120
C        2.50652750       0.26578085      -1.72417259
C        1.16336166      -3.28239395      -0.12951815
C       -1.80507727       2.27354985       1.06565434
C        0.27017730      -1.97934914      -3.66463344
C       -0.91482387      -3.05274277      -0.66392177
C        2.20619539       0.92440909       1.92180170
C       -0.74522799      -2.64186917       0.77789302
C       -2.06072679       1.53845808      -2.54586317
C       -0.82218554       2.20340753      -2.50491313
C       -1.69273560       1.12959845       3.84891746
C       -2.92763380      -0.72347498      -2.89884134
C       -3.41734910       0.68166573      -0.75390193
C        1.59836438       3.33426563      -1.89686915
C        1.20022175       3.07141238       0.33399086
C        2.45655852       2.46309856       0.06318813
C        2.66693626       1.16677476       0.60328975
C       -3.23256240      -0.48299385      -1.55533395
C        1.40874151       1.96148414       2.41467019
C       -2.66076488       1.73756601      -1.24902267
C       -0.23423335       0.19003334       1.26746331
C       -2.44797831      -0.98937604       0.51548422
C       -2.09948542       0.44051024       2.68734913
C        2.76410208       2.70188960      -1.29292122
C       -1.05156141      -1.57361348      -3.89751397
C        1.72705381      -0.34781633       2.52727343
C       -3.07005895       0.28851930       0.58878791
C        0.57726163       3.39240502      -0.89431375
C        2.58012027       1.59466836      -2.18021036
C        2.55858443       0.07695496      -0.28419536
C        2.07229392      -1.13598597       0.28142517
C       -0.68857669       1.95942012       3.28200176
C       -1.77880095       2.48329529      -0.37912160
C        0.63314896      -2.74375560       1.15029390
C        0.05640781      -0.42397671       4.65253849
C       -0.84490973      -0.79484697       5.65837262
C       -2.43397231      -1.32024142      -0.82551341
C        1.64609436      -1.96171840      -1.94328695
C       -1.54580426      -1.61534671       1.38904020
C        1.85733064      -2.17584950      -0.61323532
C       -2.22980387       0.40774449      -3.40621120
C        0.24758472      -3.59493479      -1.24386271
C       -1.19598329       0.23700733       4.81429073
C       -2.03439757      -1.91732098      -2.95226334
C        0.27827832       1.69991488      -3.23300857
C       -2.61557186       1.18840205       1.54883296
C        0.92284153       0.10812346       3.70535751
C       -1.69983184      -2.23261723      -1.53981904
C        1.92061954      -0.73710189      -2.55752550
C       -0.68057475       2.90333035      -1.24569551
C        1.03530854      -0.69455032      -3.66682215
60
Properties=species:S:1:pos:R:3 trajectory=trial0001_proposal001_step004_proposal_relax trajectory_step=9 pbc="F F F"
C       -0.74649154       2.60473362       1.97506312
C       -1.05505873      -0.45766780       2.15757038
C        1.48109003      -1.44662471       1.53169190
C        0.16775205       0.42205081      -3.89513894
C        1.50518711       2.26363937      -2.84383547
C        0.04345245       0.65617851       0.14818977
C        0.61522396       2.77405144       1.57551596
C        0.60472920       1.45987810       3.43613553
C        0.67856547      -2.78509281      -2.48650630
C       -1.10951915      -0.13723600      -4.07694255
C        2.50566903       0.26599279      -1.72362019
C        1.16496599      -3.28204570      -0.12977196
C       -1.80531483       2.27368337       1.06570622
C        0.27026623      -1.97941084      -3.66430128
C       -0.91495322      -3.05121563      -0.66412096
C        2.20645947       0.92435166       1.92190202
C       -0.74511057      -2.64102838       0.77691645
C       -2.06050607       1.53889455      -2.54600778
C       -0.82180099       2.20317378      -2.50496490
C       -1.69293317       1.12981068       3.84933054
C       -2.92742825      -0.72225334      -2.89745493
C       -3.41637913       0.68135720      -0.75346163
C        1.59854630       3.33487770      -1.89684739
C        1.20044186       3.07104583       0.33365965
C        2.45690717       2.46275846       0.06337374
C        2.66586500       1.16629164       0.60321501
C       -3.23459366      -0.48434092      -1.55615786
C        1.40857345       1.96137416       2.41460603
C       -2.66090560       1.73762030      -1.24953046
C       -0.23646769       0.18707865       1.27408382
C       -2.44968112      -0.99044558       0.51407384
C       -2.09929231       0.44068237       2.68716556
C        2.76380333       2.70153381      -1.29276717
C       -1.05165453      -1.57395605      -3.89699319
C        1.72685196      -0.34768749       2.52673357
C       -3.07010774       0.28779014       0.58723530
C        0.57730708       3.39246557      -0.89403672
C        2.58022132       1.59413831      -2.18013800
C        2.55854963       0.07702584      -0.28408209
C        2.07384792      -1.13782967       0.28037491
C       -0.68844764       1.95945823       3.28221471
C       -1.77887997       2.48327616      -0.37904858
C        0.63287824      -2.74319954       1.15012742
C        0.05656915      -0.42381377       4.65290413
C       -0.84472818      -0.79430873       5.65939755
C       -2.43633522      -1.31986692      -0.82332526
C        1.64658913      -1.96180527      -1.94548940
C       -1.54692255      -1.61454452       1.38733354
C        1.85898709      -2.17763032      -0.61050598
C       -2.22945322       0.40791031      -3.40633545
C        0.24703048      -3.59251255      -1.24378229
C       -1.19594324       0.23726424       4.81464821
C       -2.03433531      -1.91555774      -2.95114210
C        0.27872049       1.69990776      -3.23372871
C       -2.61491999       1.18843434       1.54896294
C        0.92300369       0.10828106       3.70552700
C       -1.70052630      -2.23473701      -1.54029419
C        1.92096452      -0.73707796      -2.55650560
C       -0.68061574       2.90344444      -1.24552870
C        1.03571300      -0.69494898      -3.66622732
60
Properties=species:S:1:pos:R:3 trajectory=trial0001_proposal001_step004_proposal_relax trajectory_step=10 pbc="F F F"
C       -0.74571689       2.60432064       1.97498997
C       -1.05530329      -0.45841672       2.15727789
C        1.48193597      -1.44697013       1.53070383
C        0.16867479       0.42161990      -3.89590338
C        1.50541617       2.26421774      -2.84348096
C        0.04325537       0.65609515       0.14796394
C        0.61581815       2.77453452       1.57569331
C        0.60498224       1.46032652       3.43654317
C        0.67925583      -2.78467071      -2.48666290
C       -1.10985577      -0.13754273      -4.07857636
C        2.50607510       0.26577263      -1.72315287
C        1.16586863      -3.28200541      -0.12973158
C       -1.80493738       2.27394763       1.06574413
C        0.27002129      -1.97894473      -3.66330470
C       -0.91452548      -3.04942256      -0.66471184
C        2.20653697       0.92419235       1.92216616
C       -0.74511809      -2.63982590       0.77642786
C       -2.06000968       1.53881580      -2.54584408
C       -0.82126334       2.20308387      -2.50495366
C       -1.69297697       1.13052294       3.85004755
C       -2.92743104      -0.72103330      -2.89628486
C       -3.41529516       0.68059214      -0.75348165
C        1.59858961       3.33586973      -1.89676755
C        1.20038203       3.07044551       0.33322753
C        2.45720375       2.46261499       0.06368747
C        2.66497648       1.16587103       0.60332530
C       -3.23595301      -0.48495410      -1.55659589
C        1.40845460       1.96126432       2.41452293
C       -2.66129883       1.73732387      -1.24981010
C       -0.23690468       0.18612380       1.27576310
C       -2.45219052      -0.99163199       0.51356405
C       -2.09875174       0.44129555       2.68725566
C        2.76308658       2.70118042      -1.29262432
C       -1.05220755      -1.57439513      -3.89710711
C        1.72649423      -0.34774019       2.52624235
C       -3.07074264       0.28712023       0.58641448
C        0.57729967       3.39256862      -0.89389153
C        2.58030471       1.59365042      -2.18004015
C        2.55940503       0.07668573      -0.28397417
C        2.07461613      -1.13885248       0.27949766
C       -0.68824307       1.95940001       3.28216502
C       -1.77887155       2.48314227      -0.37900635
C        0.63285743      -2.74345037       1.15036030
C        0.05665163      -0.42366538       4.65331920
C       -0.84448572      -0.79314297       5.66083176
C       -2.43797058      -1.32031480      -0.82297160
C        1.64740123      -1.96237156      -1.94670349
C       -1.54858713      -1.61382233       1.38577878
C        1.85911851      -2.17850876      -0.60951678
C       -2.22943386       0.40792829      -3.40652641
C        0.24733075      -3.59170753      -1.24362228
C       -1.19587692       0.23746523       4.81488809
C       -2.03570142      -1.91406049      -2.95091585
C        0.27940424       1.70068989      -3.23507581
C       -2.61480244       1.18849309       1.54881721
C        0.92306516       0.10869065       3.70589762
C       -1.70248530      -2.23624202      -1.54078168
C        1.92226421      -0.73734457      -2.55557278
C       -0.68067515       2.90389095      -1.24558617
C        1.03629494      -0.69510266      -3.66487195
60
Properties=species:S:1:pos:R:3 trajectory=trial0001_proposal001_step004_proposal_relax trajectory_step=11 pbc="F F F"
C       -0.74402986       2.60334328       1.97444444
C       -1.05610119      -0.46018358       2.15791373
C        1.48358024      -1.44817120       1.52941479
C        0.17049791       0.42144301      -3.89790137
C        1.50606260       2.26562602      -2.84304507
C        0.04230017       0.65513983       0.14910663
C        0.61723522       2.77546695       1.57623694
C        0.60583399       1.46131486       3.43760817
C        0.68074953      -2.78492433      -2.48689027
C       -1.10976805      -0.13765398      -4.08252121
C        2.50825674       0.26523273      -1.72227410
C        1.16725068      -3.28269305      -0.12934557
C       -1.80394940       2.27402385       1.06539146
C        0.26880695      -1.97736756      -3.66016791
C       -0.91281204      -3.04515239      -0.66641156
C        2.20610165       0.92360581       1.92249497
C       -0.74499014      -2.63684927       0.77466227
C       -2.05827321       1.53790307      -2.54551213
C       -0.82004630       2.20265564      -2.50520861
C       -1.69308202       1.13206328       3.85123669
C       -2.92771247      -0.71832382      -2.89577280
C       -3.41395255       0.68001652      -0.75357720
C        1.59881994       3.33824021      -1.89652973
C        1.20013959       3.06917125       0.33264113
C        2.45730647       2.46201587       0.06423228
C        2.66359820       1.16491347       0.60368931
C       -3.23876597      -0.48546318      -1.55731696
C        1.40883519       1.96128105       2.41476386
C       -2.66127337       1.73699866      -1.25018068
C       -0.23728300       0.18396826       1.27796356
C       -2.45861474      -0.99411136       0.51366946
C       -2.09735039       0.44297772       2.68738291
C        2.76166550       2.70039071      -1.29212336
C       -1.05376397      -1.57488994      -3.89800276
C        1.72518133      -0.34791104       2.52545985
C       -3.07293005       0.28661486       0.58603699
C        0.57693355       3.39290255      -0.89358705
C        2.58003661       1.59301305      -2.17955624
C        2.56205059       0.07565849      -0.28359690
C        2.07619569      -1.14038793       0.27826477
C       -0.68755967       1.95928748       3.28193970
C       -1.77863041       2.48312699      -0.37922573
C        0.63309229      -2.74402497       1.15088745
C        0.05678154      -0.42311835       4.65453932
C       -0.84347478      -0.78957130       5.66465166
C       -2.44340285      -1.32318011      -0.82277558
C        1.65044577      -1.96426664      -1.94791822
C       -1.55206711      -1.61283752       1.38371912
C        1.85980633      -2.18000892      -0.60895422
C       -2.22841224       0.40841281      -3.40760425
C        0.24797086      -3.59104560      -1.24334963
C       -1.19566781       0.23814436       4.81539076
C       -2.03949820      -1.91207445      -2.95212160
C        0.28065162       1.70274852      -3.23829464
C       -2.61449306       1.18852409       1.54851404
C        0.92307153       0.10938145       3.70672991
C       -1.70776540      -2.23920231      -1.54215269
C        1.92574424      -0.73834274      -2.55423287
C       -0.68094182       2.90468527      -1.24606494
C        1.03703573      -0.69491955      -3.66170488
60
Properties=species:S:1:pos:R:3 trajectory=trial0001_proposal001_step004_proposal_relax trajectory_step=12 pbc="F F F"
C       -0.74223459       2.60232505       1.97339554
C       -1.05912577      -0.46225299       2.15867011
C        1.48546895      -1.44982657       1.52906858
C        0.17217195       0.42196168      -3.90044229
C        1.50715330       2.26757425      -2.84299777
C        0.04117809       0.65301569       0.15188855
C        0.61908872       2.77610177       1.57705083
C        0.60756037       1.46232712       3.43924119
C        0.68260155      -2.78680121      -2.48729686
C       -1.10902075      -0.13707466      -4.08799706
C        2.51373289       0.26417247      -1.72140673
C        1.16696148      -3.28442640      -0.12815088
C       -1.80272490       2.27296766       1.06433861
C        0.26610677      -1.97479871      -3.65449982
C       -0.91062546      -3.03973599      -0.66910667
C        2.20517732       0.92253541       1.92251105
C       -0.74470099      -2.63227177       0.77059939
C       -2.05509841       1.53644418      -2.54549660
C       -0.81807705       2.20240465      -2.50630435
C       -1.69333109       1.13450973       3.85247471
C       -2.92842138      -0.71428080      -2.89711693
C       -3.41279364       0.68017421      -0.75378581
C        1.59942565       3.34173043      -1.89625266
C        1.20003979       3.06776307       0.33248747
C        2.45668096       2.46032266       0.06468664
C        2.66279014       1.16333794       0.60428627
C       -3.24280514      -0.48623902      -1.55771504
C        1.41057772       1.96167784       2.41585831
C       -2.65957654       1.73626521      -1.25064548
C       -0.23768606       0.18054125       1.28049287
C       -2.46771294      -0.99813090       0.51402818
C       -2.09526633       0.44559608       2.68754525
C        2.76007776       2.69947183      -1.29107782
C       -1.05605448      -1.57469439      -3.89912886
C        1.72324662      -0.34815634       2.52445103
C       -3.07637095       0.28614990       0.58691589
C        0.57620911       3.39423868      -0.89310127
C        2.57948698       1.59289462      -2.17824480
C        2.56674545       0.07383229      -0.28282740
C        2.07759286      -1.14178693       0.27735567
C       -0.68626867       1.95981361       3.28197154
C       -1.77833949       2.48327809      -0.37994286
C        0.63263846      -2.74427594       1.15222761
C        0.05661173      -0.42194510       4.65661213
C       -0.84143336      -0.78268816       5.67126488
C       -2.45246589      -1.32885041      -0.82330168
C        1.65629073      -1.96796202      -1.94939514
C       -1.55614827      -1.61300097       1.38192479
C        1.85976879      -2.18146602      -0.60885180
C       -2.22582685       0.40989666      -3.40957590
C        0.24809980      -3.58965044      -1.24394939
C       -1.19544453       0.23996240       4.81659195
C       -2.04440481      -1.91055667      -2.95499405
C        0.28213220       1.70565954      -3.24308802
C       -2.61335538       1.18776155       1.54771500
C        0.92337825       0.10959824       3.70801010
C       -1.71537043      -2.24282968      -1.54466812
C        1.93173997      -0.74039862      -2.55357164
C       -0.68117363       2.90554006      -1.24718400
C        1.03654953      -0.69412823      -3.65648098
60
Properties=species:S:1:pos:R:3 trajectory=trial0001_proposal001_step004_proposal_relax trajectory_step=13 pbc="F F F"
C       -0.74021990       2.60135461       1.97313583
C       -1.06497485      -0.46534928       2.15868774
C        1.48554742      -1.45120763       1.53054655
C        0.17408411       0.42345617      -3.90202538
C        1.50906566       2.26958110      -2.84277263
C        0.04185549       0.64931209       0.15651248
C        0.62055596       2.77464639       1.57835036
C        0.60987078       1.46278408       3.44099281
C        0.68609993      -2.78905872      -2.48801838
C       -1.10889360      -0.13471402      -4.09376965
C        2.52404168       0.26150250      -1.72303241
C        1.16472971      -3.28364696      -0.12763833
C       -1.80023345       2.27076059       1.06189012
C        0.26216802      -1.97091559      -3.64562698
C       -0.91287184      -3.03483684      -0.67522408
C        2.20471865       0.92109901       1.92283182
C       -0.74460917      -2.62654912       0.76554462
C       -2.05016030       1.53603864      -2.54638607
C       -0.81505750       2.20475358      -2.50872708
C       -1.69206911       1.13809141       3.85328361
C       -2.92863745      -0.71115459      -2.89816405
C       -3.41179265       0.67915066      -0.75314928
C        1.60031395       3.34447473      -1.89604978
C        1.19976809       3.06715306       0.33293456
C        2.45424417       2.45758520       0.06490723
C        2.66447565       1.16080511       0.60522031
C       -3.24893440      -0.48463620      -1.56346241
C        1.41352441       1.96273944       2.41817760
C       -2.65482622       1.73277858      -1.25219956
C       -0.23833530       0.17536189       1.28389347
C       -2.47602119      -1.00501138       0.51581700
C       -2.09519317       0.44771219       2.68879436
C        2.75913814       2.70032967      -1.28953966
C       -1.05755194      -1.57330369      -3.90026599
C        1.72111527      -0.34883268       2.52458961
C       -3.08022699       0.28245868       0.58549420
C        0.57703348       3.39750645      -0.89254098
C        2.57887441       1.59193705      -2.17617418
C        2.57398859       0.06946937      -0.28253465
C        2.07715142      -1.14333611       0.27832126
C       -0.68385311       1.96127620       3.28262235
C       -1.77669519       2.48341068      -0.38237475
C        0.62939225      -2.74356460       1.15337565
C        0.05620250      -0.41913862       4.65920459
C       -0.83764454      -0.76865887       5.68307520
C       -2.46661640      -1.33845489      -0.82379195
C        1.66677962      -1.97584289      -1.94806969
C       -1.56370091      -1.61402847       1.37861589
C        1.85648409      -2.18468961      -0.61143305
C       -2.22360648       0.41189236      -3.41174854
C        0.24532193      -3.58657481      -1.24577272
C       -1.19573305       0.24558617       4.81922744
C       -2.05022065      -1.90758551      -2.95949436
C        0.28477379       1.71003398      -3.24741743
C       -2.61149700       1.18591904       1.54627470
C        0.92351470       0.10927951       3.70993001
C       -1.72424639      -2.24534300      -1.54814649
C        1.94052864      -0.74371563      -2.55543511
C       -0.67888714       2.90689556      -1.24839356
C        1.03337367      -0.69336914      -3.64780703
60
Properties=species:S:1:pos:R:3 trajectory=trial0001_proposal001_step004_proposal_relax trajectory_step=14 pbc="F F F"
C       -0.74023667       2.60120570       1.97282769
C       -1.06670667      -0.46584762       2.15901180
C        1.48519887      -1.45146092       1.53099866
C        0.17389269       0.42408029      -3.90201627
C        1.50964996       2.26966587      -2.84275438
C        0.04206340       0.64832067       0.15805920
C        0.62084823       2.77443811       1.57824340
C        0.61045048       1.46288179       3.44139719
C        0.68620585      -2.79010029      -2.48786986
C       -1.10829275      -0.13413267      -4.09476177
C        2.52606267       0.26060890      -1.72303919
C        1.16223241      -3.28517339      -0.12715233
C       -1.79987109       2.26989452       1.06151523
C        0.26164162      -1.97025014      -3.64356395
C       -0.91293160      -3.03437239      -0.67543839
C        2.20465840       0.92075117       1.92285237
C       -0.74571108      -2.62562313       0.76381202
C       -2.04936330       1.53576693      -2.54684655
C       -0.81422532       2.20549895      -2.50925456
C       -1.69207245       1.13870851       3.85289798
C       -2.92843321      -0.70968058      -2.90074779
C       -3.41162274       0.67953642      -0.75481961
C        1.60078384       3.34511947      -1.89596891
C        1.19988401       3.06696872       0.33358939
C        2.45389104       2.45670305       0.06484583
C        2.66481410       1.16016674       0.60514094
C       -3.24967479      -0.48591922      -1.56069603
C        1.41454333       1.96263772       2.41866583
C       -2.65350669       1.73226031      -1.25199576
C       -0.23819393       0.17449476       1.28417796
C       -2.47930269      -1.00563766       0.51362816
C       -2.09528539       0.44790620       2.68889193
C        2.75927945       2.69984135      -1.28942499
C       -1.05827950      -1.57257089      -3.90047690
C        1.72072962      -0.34887435       2.52469588
C       -3.08026239       0.28271371       0.58727627
C        0.57696500       3.39829266      -0.89248596
C        2.57894896       1.59263582      -2.17561141
C        2.57536531       0.06872634      -0.28225324
C        2.07728767      -1.14394473       0.27787432
C       -0.68340122       1.96167425       3.28280234
C       -1.77617100       2.48329904      -0.38272859
C        0.62880668      -2.74304269       1.15327999
C        0.05542466      -0.41848521       4.66037187
C       -0.83651648      -0.76481797       5.68526638
C       -2.47104073      -1.33967732      -0.82506492
C        1.66909473      -1.97609215      -1.95050129
C       -1.56324565      -1.61537423       1.37962373
C        1.85770167      -2.18356309      -0.60978438
C       -2.22289165       0.41256411      -3.41237979
C        0.24509897      -3.58559484      -1.24649006
C       -1.19533236       0.24647231       4.82031516
C       -2.05045516      -1.90785567      -2.96020204
C        0.28498044       1.71038711      -3.24826669
C       -2.61132521       1.18489991       1.54511135
C        0.92366678       0.10913657       3.71015532
C       -1.72670483      -2.24520094      -1.54922859
C        1.94225817      -0.74541464      -2.55535170
C       -0.67859432       2.90705760      -1.24890477
C        1.03264820      -0.69299201      -3.64618232
60
Properties=species:S:1:pos:R:3 trajectory=trial0001_proposal001_step004_proposal_relax trajectory_step=15 pbc="F F F"
C       -0.74072605       2.60134457       1.97294644
C       -1.06713940      -0.46571586       2.15896081
C        1.48408516      -1.45107458       1.53138007
C        0.17329898       0.42433781      -3.90092890
C        1.50978934       2.26908463      -2.84268368
C        0.04296295       0.64817307       0.15834209
C        0.62051377       2.77391456       1.57810568
C        0.61043752       1.46263129       3.44120336
C        0.68597323      -2.79019980      -2.48763914
C       -1.10818063      -0.13374600      -4.09381218
C        2.52632444       0.26021307      -1.72343552
C        1.16070967      -3.28482851      -0.12745880
C       -1.79990425       2.26943059       1.06144741
C        0.26177813      -1.97034628      -3.64369837
C       -0.91433998      -3.03560415      -0.67518583
C        2.20512613       0.92073854       1.92286490
C       -0.74669841      -2.62659497       0.76388459
C       -2.04961142       1.53624671      -2.54718579
C       -0.81430274       2.20632050      -2.50948538
C       -1.69192036       1.13839245       3.85226194
C       -2.92843524      -0.71000493      -2.90115586
C       -3.41175458       0.67967444      -0.75526229
C        1.60107759       3.34457094      -1.89596876
C        1.20009371       3.06730124       0.33390025
C        2.45384263       2.45646785       0.06463708
C        2.66541715       1.16007555       0.60495730
C       -3.24954205      -0.48620767      -1.56079065
C        1.41472845       1.96246577       2.41860924
C       -2.65266264       1.73191049      -1.25197251
C       -0.23819230       0.17461126       1.28397285
C       -2.47826318      -1.00539935       0.51313037
C       -2.09628692       0.44712401       2.68894994
C        2.75994061       2.69986097      -1.28946245
C       -1.05784262      -1.57211192      -3.90029565
C        1.72109920      -0.34890976       2.52523807
C       -3.07949239       0.28274832       0.58715757
C        0.57731970       3.39862907      -0.89246589
C        2.57939316       1.59263601      -2.17556781
C        2.57521600       0.06861030      -0.28241280
C        2.07674205      -1.14355158       0.27828745
C       -0.68340343       1.96186642       3.28291448
C       -1.77561808       2.48295736      -0.38273281
C        0.62792183      -2.74262369       1.15278714
C        0.05533657      -0.41808309       4.66028697
C       -0.83621420      -0.76354645       5.68599182
C       -2.47116099      -1.33965323      -0.82568783
C        1.66934335      -1.97607011      -1.95082957
C       -1.56278937      -1.61596249       1.38007359
C        1.85770073      -2.18321188      -0.60957235
C       -2.22308563       0.41283770      -3.41235068
C        0.24440125      -3.58518692      -1.24695049
C       -1.19546103       0.24755267       4.82051610
C       -2.04921434      -1.90817052      -2.96005295
C        0.28487680       1.70998021      -3.24728834
C       -2.61129786       1.18447679       1.54479659
C        0.92348033       0.10893285       3.71017949
C       -1.72616912      -2.24415356      -1.54930920
C        1.94215368      -0.74567402      -2.55586579
C       -0.67813687       2.90707894      -1.24893653
C        1.03218830      -0.69294875      -3.64627372
60
Properties=species:S:1:pos:R:3 trajectory=trial0001_proposal001_step004_proposal_relax trajectory_step=16 pbc="F F F"
C       -0.74121143       2.60109404       1.97302605
C       -1.06884678      -0.46651030       2.15934510
C        1.48088996      -1.45017251       1.53183339
C        0.17273723       0.42500324      -3.89801229
C        1.51082762       2.26795410      -2.84184140
C        0.04574340       0.64707762       0.16021079
C        0.62031504       2.77268872       1.57787744
C        0.61076947       1.46254632       3.44101934
C        0.68591803      -2.79046909      -2.48722799
C       -1.10797234      -0.13246123      -4.09269296
C        2.52863408       0.25873290      -1.72420773
C        1.15674958      -3.28323184      -0.12847677
C       -1.79933022       2.26784719       1.06115209
C        0.26169562      -1.96976695      -3.64252007
C       -0.91841599      -3.03745001      -0.67572260
C        2.20649832       0.92015149       1.92312679
C       -0.75026033      -2.62872056       0.76357512
C       -2.04922406       1.53764017      -2.54812314
C       -0.81413431       2.20886987      -2.51046032
C       -1.69166515       1.13844926       3.85033090
C       -2.92843866      -0.70977558      -2.90278630
C       -3.41135672       0.67961097      -0.75669043
C        1.60244871       3.34388203      -1.89578718
C        1.20082302       3.06759258       0.33443259
C        2.45390670       2.45531714       0.06435622
C        2.66672918       1.15935507       0.60467059
C       -3.25125948      -0.48644791      -1.56208694
C        1.41541890       1.96179984       2.41843261
C       -2.64977213       1.73054252      -1.25214941
C       -0.23847472       0.17369275       1.28452220
C       -2.47816422      -1.00596215       0.51163359
C       -2.09899800       0.44521298       2.68913988
C        2.76145278       2.69934494      -1.28930885
C       -1.05710303      -1.57083951      -3.90039314
C        1.72163610      -0.34930238       2.52673220
C       -3.07833802       0.28238498       0.58564463
C        0.57851806       3.39985524      -0.89232077
C        2.58093756       1.59183389      -2.17525497
C        2.57625857       0.06773658      -0.28270719
C        2.07548714      -1.14322901       0.27902912
C       -0.68313321       1.96238170       3.28287106
C       -1.77329228       2.48150733      -0.38281635
C        0.62450302      -2.74179121       1.15127949
C        0.05420588      -0.41633354       4.66151794
C       -0.83435201      -0.75577271       5.69031941
C       -2.47430691      -1.34101080      -0.82650703
C        1.67190757      -1.97766739      -1.95144310
C       -1.56392272      -1.61712342       1.38016977
C        1.85758135      -2.18316838      -0.60937337
C       -2.22335091       0.41394432      -3.41286849
C        0.24189297      -3.58373154      -1.24822496
C       -1.19522509       0.25089166       4.82218239
C       -2.04770585      -1.90777796      -2.96062988
C        0.28522710       1.70992875      -3.24549204
C       -2.61098458       1.18341496       1.54400230
C        0.92312109       0.10889691       3.71038883
C       -1.72670852      -2.24322057      -1.55044935
C        1.94395865      -0.74684140      -2.55709572
C       -0.67672107       2.90779595      -1.24916992
C        1.03130248      -0.69258301      -3.64491617
60
Properties=species:S:1:pos:R:3 trajectory=trial0001_proposal001_step004_proposal_relax trajectory_step=17 pbc="F F F"
C       -0.74048726       2.59988548       1.97257913
C       -1.07165459      -0.46961020       2.16067172
C        1.47527168      -1.44903474       1.53126372
C        0.17311697       0.42591658      -3.89357264
C        1.51301485       2.26650390      -2.83964594
C        0.05044888       0.64490214       0.16436576
C        0.62117733       2.77111669       1.57735786
C        0.61149693       1.46296985       3.44111655
C        0.68614411      -2.79048866      -2.48669483
C       -1.10687599      -0.13019702      -4.09283899
C        2.53327635       0.25599923      -1.72469045
C        1.15074848      -3.28075870      -0.13011797
C       -1.79737377       2.26529344       1.06091751
C        0.26147616      -1.96783819      -3.63950254
C       -0.92452394      -3.03901369      -0.67774045
C        2.20832892       0.91858107       1.92393039
C       -0.75772727      -2.63159617       0.76301031
C       -2.04798154       1.53961153      -2.54962206
C       -0.81306845       2.21322113      -2.51204373
C       -1.69130545       1.13857415       3.84806542
C       -2.92890801      -0.70786379      -2.90504358
C       -3.41013373       0.68014957      -0.75978459
C        1.60553640       3.34349526      -1.89503840
C        1.20236944       3.06706889       0.33460600
C        2.45460739       2.45325948       0.06428554
C        2.66821348       1.15750186       0.60480650
C       -3.25540878      -0.48750138      -1.56545965
C        1.41663590       1.96045017       2.41773761
C       -2.64489505       1.72858294      -1.25271753
C       -0.23943807       0.17031089       1.28733264
C       -2.48162819      -1.00714701       0.51031132
C       -2.10290267       0.44235560       2.68944518
C        2.76379771       2.69730767      -1.28875394
C       -1.05634677      -1.56903418      -3.90154216
C        1.72180052      -0.35047041       2.52874464
C       -3.07753039       0.28264354       0.58321309
C        0.58103989       3.40151431      -0.89219553
C        2.58387736       1.58976225      -2.17478161
C        2.57890656       0.06555337      -0.28264818
C        2.07452925      -1.14368376       0.27939040
C       -0.68276705       1.96282487       3.28198103
C       -1.76865675       2.47837262      -0.38283875
C        0.61811754      -2.74091143       1.14828833
C        0.05518101      -0.41184173       4.66256414
C       -0.83071960      -0.74074053       5.70383786
C       -2.48268133      -1.34536021      -0.83009942
C        1.67762843      -1.98087535      -1.95321756
C       -1.56851012      -1.61838336       1.37923811
C        1.85875416      -2.18400490      -0.60911739
C       -2.22323450       0.41651074      -3.41453696
C        0.23793307      -3.58130256      -1.24980878
C       -1.19674903       0.26022192       4.82286725
C       -2.04782262      -1.90581636      -2.96280384
C        0.28686422       1.71098302      -3.24323289
C       -2.61107652       1.18132798       1.54216700
C        0.92167003       0.10913766       3.71214448
C       -1.73192388      -2.24282375      -1.55231834
C        1.94883191      -0.74983813      -2.55787660
C       -0.67439150       2.90974833      -1.24947443
C        1.03135443      -0.69190476      -3.64141494
60
Properties=species:S:1:pos:R:3 trajectory=trial0001_proposal001_step004_proposal_relax trajectory_step=18 pbc="F F F"
C       -0.74011424       2.59954087       1.97237018
C       -1.07197551      -0.47039822       2.16096017
C        1.47441165      -1.44889571       1.53068863
C        0.17362136       0.42584905      -3.89291246
C        1.51348153       2.26636107      -2.83910251
C        0.05113743       0.64463972       0.16514755
C        0.62162478       2.77108823       1.57719844
C        0.61150607       1.46329586       3.44100765
C        0.68614603      -2.79021086      -2.48672761
C       -1.10675812      -0.13001909      -4.09306509
C        2.53378500       0.25562720      -1.72439134
C        1.15031634      -3.28014716      -0.13038833
C       -1.79706828       2.26498031       1.06095920
C        0.26152033      -1.96749286      -3.63932104
C       -0.92544355      -3.03892747      -0.67808397
C        2.20855819       0.91820125       1.92413872
C       -0.75910802      -2.63223184       0.76305942
C       -2.04770799       1.54003018      -2.54980149
C       -0.81295025       2.21373035      -2.51213051
C       -1.69168376       1.13912408       3.84727327
C       -2.92900861      -0.70728959      -2.90525972
C       -3.40971999       0.67990363      -0.76009323
C        1.60621900       3.34358820      -1.89486910
C        1.20274658       3.06673909       0.33431907
C        2.45514051       2.45294314       0.06444333
C        2.66814761       1.15716441       0.60493019
C       -3.25640335      -0.48740318      -1.56621476
C        1.41657507       1.96009204       2.41753121
C       -2.64442351       1.72854881      -1.25291841
C       -0.23957688       0.16964643       1.28802531
C       -2.48268383      -1.00740248       0.50952409
C       -2.10328250       0.44201794       2.68931388
C        2.76413331       2.69670706      -1.28861095
C       -1.05636894      -1.56894577      -3.90175032
C        1.72171129      -0.35066709       2.52890627
C       -3.07771604       0.28259794       0.58215172
C        0.58147876       3.40152996      -0.89214026
C        2.58451036       1.58911540      -2.17480311
C        2.57925671       0.06535576      -0.28253899
C        2.07454680      -1.14389758       0.27923565
C       -0.68270512       1.96274241       3.28159190
C       -1.76784738       2.47775657      -0.38261932
C        0.61700770      -2.74096279       1.14790239
C        0.05367148      -0.41125396       4.66431839
C       -0.82979917      -0.73667009       5.70462419
C       -2.48373174      -1.34541771      -0.82950544
C        1.67821060      -1.98156777      -1.95316323
C       -1.56986487      -1.61824778       1.37863948
C        1.85879085      -2.18454980      -0.60939503
C       -2.22318380       0.41686364      -3.41484484
C        0.23743195      -3.58095548      -1.24989845
C       -1.19584367       0.25974839       4.82431452
C       -2.04828472      -1.90514005      -2.96322063
C        0.28724780       1.71122782      -3.24298660
C       -2.61100263       1.18137295       1.54231672
C        0.92193343       0.10963553       3.71189889
C       -1.73277688      -2.24381339      -1.55291079
C        1.94980357      -0.74998477      -2.55771462
C       -0.67416923       2.91018128      -1.24942349
C        1.03195706      -0.69183693      -3.64092004
60
Properties=species:S:1:pos:R:3 trajectory=trial0001_proposal001_step004_proposal_relax trajectory_step=19 pbc="F F F"
C       -0.73906243       2.59877586       1.97177945
C       -1.07284946      -0.47234200       2.16164512
C        1.47265721      -1.44877818       1.52947523
C        0.17486127       0.42581097      -3.89183933
C        1.51454132       2.26620590      -2.83797997
C        0.05237465       0.64395449       0.16715581
C        0.62270136       2.77100824       1.57684536
C        0.61163213       1.46384954       3.44097023
C        0.68619387      -2.78974993      -2.48682888
C       -1.10623575      -0.12953396      -4.09397270
C        2.53519572       0.25481332      -1.72373508
C        1.14936715      -3.27930071      -0.13077371
C       -1.79620595       2.26431070       1.06101977
C        0.26154493      -1.96658760      -3.63851331
C       -0.92703589      -3.03852544      -0.67911319
C        2.20877260       0.91734287       1.92455981
C       -0.76203181      -2.63306627       0.76290986
C       -2.04690385       1.54072306      -2.55020563
C       -0.81241360       2.21475970      -2.51234413
C       -1.69218980       1.13987180       3.84641369
C       -2.92918860      -0.70581978      -2.90603756
C       -3.40897057       0.67984337      -0.76108462
C        1.60772959       3.34386127      -1.89445725
C        1.20358085       3.06591357       0.33377063
C        2.45616204       2.45219820       0.06481666
C        2.66805405       1.15634020       0.60537064
C       -3.25851427      -0.48724806      -1.56753301
C        1.41670330       1.95949068       2.41713827
C       -2.64343575       1.72845585      -1.25331238
C       -0.23986776       0.16783524       1.28966440
C       -2.48561027      -1.00790057       0.50853181
C       -2.10381314       0.44152541       2.68913750
C        2.76483397       2.69536939      -1.28827167
C       -1.05652095      -1.56867406      -3.90240293
C        1.72124658      -0.35118667       2.52908369
C       -3.07837108       0.28281023       0.58064053
C        0.58246542       3.40153069      -0.89209897
C        2.58569436       1.58788820      -2.17474417
C        2.58022468       0.06467851      -0.28215805
C        2.07477397      -1.14473804       0.27874190
C       -0.68261809       1.96254897       3.28071378
C       -1.76619046       2.47655313      -0.38235116
C        0.61473411      -2.74104062       1.14707539
C        0.05285409      -0.40943987       4.66638725
C       -0.82802575      -0.72917015       5.70919056
C       -2.48687564      -1.34645791      -0.82955039
C        1.67986619      -1.98295324      -1.95347461
C       -1.57296054      -1.61811107       1.37744269
C        1.85933812      -2.18558201      -0.60963392
C       -2.22282517       0.41774406      -3.41566427
C        0.23644333      -3.58022044      -1.25001292
C       -1.19558555       0.26129870       4.82542652
C       -2.04982286      -1.90375082      -2.96441239
C        0.28820007       1.71193992      -3.24270539
C       -2.61103636       1.18118448       1.54223607
C        0.92185973       0.11032519       3.71227290
C       -1.73573864      -2.24564488      -1.55396395
C        1.95211551      -0.75077427      -2.55721248
C       -0.67363096       2.91109521      -1.24933246
C        1.03323538      -0.69164317      -3.63963036
60
Properties=species:S:1:pos:R:3 trajectory=trial0001_proposal001_step004_proposal_relax trajectory_step=20 pbc="F F F"
C       -0.73796311       2.59809900       1.97095026
C       -1.07419051      -0.47461256       2.16218006
C        1.47029145      -1.44866375       1.52821384
C        0.17625744       0.42583059      -3.89055477
C        1.51583486       2.26583095      -2.83687246
C        0.05373454       0.64336088       0.16972216
C        0.62386715       2.77067456       1.57624924
C        0.61161470       1.46416894       3.44070881
C        0.68589894      -2.78920109      -2.48698505
C       -1.10531741      -0.12891009      -4.09452267
C        2.53662261       0.25391517      -1.72295755
C        1.14794637      -3.27864332      -0.13100603
C       -1.79530977       2.26349732       1.06100634
C        0.26173660      -1.96574918      -3.63814018
C       -0.92916610      -3.03880926      -0.68018432
C        2.20880338       0.91636939       1.92498716
C       -0.76545927      -2.63420641       0.76268111
C       -2.04609186       1.54170233      -2.55080837
C       -0.81168864       2.21590120      -2.51245201
C       -1.69278283       1.14053097       3.84551655
C       -2.92932718      -0.70426913      -2.90712835
C       -3.40851593       0.68022963      -0.76231632
C        1.60965138       3.34375129      -1.89398465
C        1.20484588       3.06501748       0.33323749
C        2.45753699       2.45128682       0.06524673
C        2.66829604       1.15536162       0.60602230
C       -3.26031331      -0.48683166      -1.56886954
C        1.41696979       1.95891476       2.41677876
C       -2.64246753       1.72857769      -1.25379802
C       -0.24001023       0.16560959       1.29147159
C       -2.48833122      -1.00800638       0.50753038
C       -2.10430846       0.44098055       2.68886855
C        2.76612410       2.69389187      -1.28786893
C       -1.05648387      -1.56816685      -3.90297588
C        1.72052025      -0.35178888       2.52917471
C       -3.07912475       0.28329670       0.57937048
C        0.58384657       3.40130963      -0.89210258
C        2.58709140       1.58662150      -2.17459859
C        2.58088399       0.06385725      -0.28159510
C        2.07483952      -1.14574263       0.27831303
C       -0.68260516       1.96232509       3.27961683
C       -1.76452674       2.47538347      -0.38214700
C        0.61201546      -2.74091033       1.14620865
C        0.05260561      -0.40698488       4.66844786
C       -0.82594189      -0.72063419       5.71519685
C       -2.48986194      -1.34743222      -0.83037938
C        1.68121602      -1.98415852      -1.95378059
C       -1.57634535      -1.61837391       1.37626056
C        1.85987467      -2.18665287      -0.60986365
C       -2.22219826       0.41882096      -3.41652867
C        0.23520908      -3.57928510      -1.25018392
C       -1.19596448       0.26364407       4.82601052
C       -2.05132102      -1.90256983      -2.96577028
C        0.28929423       1.71239954      -3.24195251
C       -2.61113783       1.18084938       1.54201435
C        0.92163997       0.11085455       3.71291069
C       -1.73914209      -2.24734589      -1.55500906
C        1.95433095      -0.75171587      -2.55672637
C       -0.67283099       2.91189043      -1.24907503
C        1.03475435      -0.69147312      -3.63869346
60
Properties=species:S:1:pos:R:3 trajectory=trial0001_proposal001_step004_proposal_relax trajectory_step=21 pbc="F F F"
C       -0.73629961       2.59728216       1.96892853
C       -1.07799676      -0.47919398       2.16251542
C        1.46519395      -1.44886179       1.52648809
C        0.17915722       0.42612072      -3.88866255
C        1.51879455       2.26468849      -2.83549321
C        0.05576949       0.64298104       0.17533189
C        0.62589576       2.76939091       1.57490846
C        0.61125762       1.46405271       3.43964666
C        0.68460110      -2.78821548      -2.48735248
C       -1.10274950      -0.12754794      -4.09439009
C        2.53892848       0.25205832      -1.72150386
C        1.14450356      -3.27836585      -0.13090937
C       -1.79389866       2.26198048       1.06023897
C        0.26231752      -1.96477005      -3.63868191
C       -0.93423008      -3.04086230      -0.68214189
C        2.20841960       0.91449068       1.92568571
C       -0.77159349      -2.63625831       0.76150386
C       -2.04466074       1.54400679      -2.55212711
C       -0.80965610       2.21752711      -2.51221122
C       -1.69395717       1.14188989       3.84376096
C       -2.92934728      -0.70131037      -2.90934290
C       -3.40886834       0.68205618      -0.76418839
C        1.61384707       3.34257673      -1.89313326
C        1.20826735       3.06330037       0.33259681
C        2.46094899       2.44927808       0.06612968
C        2.66971999       1.15311543       0.60754104
C       -3.26179004      -0.48488491      -1.57184626
C        1.41783117       1.95820891       2.41660870
C       -2.64117889       1.72979100      -1.25512504
C       -0.23968917       0.16028890       1.29533418
C       -2.49235153      -1.00771801       0.50486591
C       -2.10488479       0.44048203       2.68803530
C        2.76994883       2.69150202      -1.28691280
C       -1.05592880      -1.56671478      -3.90337691
C        1.71794238      -0.35294456       2.52894784
C       -3.08109194       0.28430538       0.57761940
C        0.58736710       3.40017622      -0.89197495
C        2.58990328       1.58445250      -2.17373246
C        2.58124247       0.06187800      -0.28022877
C        2.07419397      -1.14772086       0.27815026
C       -0.68262505       1.96203456       3.27723996
C       -1.76253242       2.47435551      -0.38234019
C        0.60650979      -2.74023588       1.14500028
C        0.05259605      -0.40145366       4.67296398
C       -0.82134187      -0.70282823       5.72779676
C       -2.49420882      -1.34767137      -0.83236586
C        1.68205739      -1.98569788      -1.95411480
C       -1.58271975      -1.62009571       1.37440148
C        1.85975957      -2.18893495      -0.60983419
C       -2.22010331       0.42108042      -3.41792325
C        0.23234887      -3.57732217      -1.25070129
C       -1.19751374       0.26794104       4.82657672
C       -2.05369926      -1.90135768      -2.96870704
C        0.29186014       1.71244329      -3.23992037
C       -2.61107918       1.18041277       1.54125742
C        0.92104139       0.11129528       3.71434324
C       -1.74536266      -2.25041319      -1.55733225
C        1.95741144      -0.75340361      -2.55617114
C       -0.67059306       2.91240094      -1.24826763
C        1.03774254      -0.69144410      -3.63833976
60
Properties=species:S:1:pos:R:3 trajectory=trial0001_proposal001_step004_proposal_relax trajectory_step=22 pbc="F F F"
C       -0.73465732       2.59650357       1.96644376
C       -1.08245884      -0.48464944       2.16341111
C        1.45923800      -1.44936211       1.52502914
C        0.18298560       0.42619956      -3.88719968
C        1.52309168       2.26309554      -2.83385935
C        0.05700544       0.64276899       0.18319768
C        0.62814984       2.76799402       1.57337843
C        0.61044711       1.46400987       3.43839382
C        0.68244205      -2.78698189      -2.48762865
C       -1.09980506      -0.12615824      -4.09317536
C        2.54014094       0.24997782      -1.71978452
C        1.14041862      -3.27856528      -0.13096046
C       -1.79271748       2.26090490       1.05888380
C        0.26345873      -1.96446044      -3.64047869
C       -0.94051585      -3.04361821      -0.68418357
C        2.20826541       0.91234768       1.92659868
C       -0.77844744      -2.63874021       0.76052764
C       -2.04275217       1.54707328      -2.55354388
C       -0.80712085       2.21822007      -2.51143418
C       -1.69526979       1.14308747       3.84132866
C       -2.92832678      -0.69838770      -2.91310834
C       -3.40956448       0.68483993      -0.76712006
C        1.61905529       3.34055825      -1.89222231
C        1.21269299       3.06123382       0.33233838
C        2.46577653       2.44702917       0.06751696
C        2.67143855       1.15053525       0.60905232
C       -3.26242949      -0.48060075      -1.57359836
C        1.41866260       1.95711493       2.41624626
C       -2.64143301       1.73185950      -1.25627262
C       -0.23841774       0.15455717       1.29842099
C       -2.49547488      -1.00647239       0.50393740
C       -2.10601468       0.44011526       2.68658590
C        2.77498256       2.68894043      -1.28598301
C       -1.05463497      -1.56500662      -3.90373121
C        1.71421090      -0.35413628       2.52888290
C       -3.08321694       0.28582058       0.57534458
C        0.59163648       3.39783627      -0.89168327
C        2.59345852       1.58181532      -2.17259474
C        2.58088976       0.05966548      -0.27885787
C        2.07257176      -1.15043792       0.27845722
C       -0.68291255       1.96159876       3.27436431
C       -1.76077580       2.47458544      -0.38301271
C        0.60021895      -2.74014758       1.14340610
C        0.05222577      -0.39538275       4.67879142
C       -0.81584295      -0.68221772       5.74190513
C       -2.49564311      -1.34789907      -0.83756845
C        1.68097949      -1.98698703      -1.95280381
C       -1.59022112      -1.62199050       1.37188503
C        1.85875347      -2.19085922      -0.61014879
C       -2.21790237       0.42346623      -3.41903646
C        0.22881271      -3.57613296      -1.25129461
C       -1.19913342       0.27214183       4.82726996
C       -2.05611769      -1.90031784      -2.97151323
C        0.29496353       1.71182586      -3.23750634
C       -2.61104599       1.18021921       1.53994146
C        0.92005617       0.11204253       3.71553175
C       -1.75201718      -2.25258361      -1.55911445
C        1.95919229      -0.75476882      -2.55572706
C       -0.66740270       2.91231358      -1.24710651
C        1.04147771      -0.69181582      -3.63975421
60
Properties=species:S:1:pos:R:3 trajectory=trial0001_proposal001_step004_proposal_relax trajectory_step=23 pbc="F F F"
C       -0.73388873       2.59631261       1.96450128
C       -1.08627597      -0.48820998       2.16322589
C        1.45474592      -1.45005071       1.52467749
C        0.18532301       0.42663745      -3.88652633
C        1.52600609       2.26166381      -2.83346074
C        0.05804882       0.64349977       0.18758856
C        0.62951891       2.76646029       1.57232166
C        0.60993876       1.46346430       3.43726034
C        0.68062571      -2.78650006      -2.48775115
C       -1.09704609      -0.12491281      -4.09187036
C        2.54125424       0.24828416      -1.71879548
C        1.13670072      -3.27939409      -0.13065956
C       -1.79196780       2.26000664       1.05746269
C        0.26417222      -1.96446597      -3.64195664
C       -0.94526599      -3.04647896      -0.68547930
C        2.20785725       0.91083511       1.92708167
C       -0.78297312      -2.64021359       0.75889355
C       -2.04176848       1.54917782      -2.55456945
C       -0.80468713       2.21866302      -2.51081537
C       -1.69608093       1.14391540       3.83976806
C       -2.92812746      -0.69607921      -2.91495504
C       -3.41091275       0.68733542      -0.76826026
C        1.62283108       3.33877976      -1.89152636
C        1.21628056       3.05994582       0.33239906
C        2.46917719       2.44527529       0.06828973
C        2.67337777       1.14834502       0.61027403
C       -3.26137595      -0.47822933      -1.57638348
C        1.41964322       1.95672966       2.41651805
C       -2.64091535       1.73418915      -1.25772757
C       -0.23808534       0.14903389       1.30274258
C       -2.49766565      -1.00582448       0.50043501
C       -2.10657215       0.44011648       2.68551963
C        2.77926238       2.68744814      -1.28501926
C       -1.05374770      -1.56347937      -3.90340472
C        1.71109537      -0.35496231       2.52863308
C       -3.08484742       0.28679118       0.57456628
C        0.59526497       3.39613498      -0.89135579
C        2.59597138       1.58034732      -2.17134249
C        2.58032607       0.05760002      -0.27763759
C        2.07114395      -1.15190609       0.27909092
C       -0.68304198       1.96157208       3.27234691
C       -1.76036940       2.47530857      -0.38384336
C        0.59561316      -2.73962892       1.14267690
C        0.05275435      -0.39054120       4.68259271
C       -0.81171007      -0.66716754       5.75302809
C       -2.49765442      -1.34577412      -0.83891238
C        1.67974489      -1.98713963      -1.95298183
C       -1.59465171      -1.62437321       1.37119481
C        1.85734807      -2.19254712      -0.60929814
C       -2.21547953       0.42548154      -3.41987992
C        0.22585000      -3.57490479      -1.25200403
C       -1.20104023       0.27568657       4.82721417
C       -2.05716165      -1.90033138      -2.97415344
C        0.29760813       1.71101781      -3.23560412
C       -2.61078080       1.18006569       1.53859389
C        0.91906484       0.11193444       3.71683929
C       -1.75597076      -2.25448424      -1.56150657
C        1.96005525      -0.75619106      -2.55561119
C       -0.66489721       2.91159441      -1.24631618
C        1.04378445      -0.69224635      -3.64106445
60
Properties=species:S:1:pos:R:3 trajectory=trial0001_proposal001_step004_proposal_relax trajectory_step=24 pbc="F F F"
C       -0.73398485       2.59655083       1.96357003
C       -1.08829710      -0.48960957       2.16337828
C        1.45299093      -1.45088269       1.52544598
C        0.18639591       0.42676530      -3.88740060
C        1.52766573       2.26077720      -2.83378775
C        0.05721828       0.64413652       0.19027028
C        0.62989655       2.76568004       1.57211934
C        0.60954904       1.46318394       3.43681974
C        0.67931052      -2.78656744      -2.48760795
C       -1.09561793      -0.12449718      -4.09053739
C        2.54062860       0.24749775      -1.71854527
C        1.13482690      -3.28051088      -0.13059071
C       -1.79202632       2.26032584       1.05624757
C        0.26462387      -1.96530129      -3.64343300
C       -0.94730205      -3.04805643      -0.68579411
C        2.20776622       0.91024774       1.92727375
C       -0.78417507      -2.64054188       0.75795616
C       -2.04139428       1.55007672      -2.55475439
C       -0.80300661       2.21762596      -2.51013855
C       -1.69624262       1.14388263       3.83898299
C       -2.92779090      -0.69535007      -2.91557116
C       -3.41200981       0.68918120      -0.76847624
C        1.62456007       3.33750229      -1.89121592
C        1.21825170       3.05950009       0.33289434
C        2.47109545       2.44462690       0.06876793
C        2.67448498       1.14722630       0.61064695
C       -3.25905831      -0.47641090      -1.57775233
C        1.42006938       1.95658804       2.41683569
C       -2.64161598       1.73645796      -1.25858162
C       -0.23732514       0.14680328       1.30399031
C       -2.49745642      -1.00517306       0.49889420
C       -2.10706881       0.44047880       2.68469515
C        2.78167380       2.68717549      -1.28447806
C       -1.05300761      -1.56281083      -3.90289831
C        1.70907212      -0.35514561       2.52863244
C       -3.08543449       0.28733458       0.57429105
C        0.59721449       3.39459935      -0.89099271
C        2.59720670       1.57985936      -2.17047824
C        2.57937091       0.05648524      -0.27718242
C        2.06972796      -1.15240412       0.28003819
C       -0.68328149       1.96171420       3.27150889
C       -1.76129844       2.47722844      -0.38474135
C        0.59387480      -2.74001701       1.14257379
C        0.05308935      -0.38876795       4.68423988
C       -0.80992836      -0.66114616       5.75737573
C       -2.49621376      -1.34316763      -0.83974789
C        1.67715080      -1.98633107      -1.95257668
C       -1.59592300      -1.62559531       1.37126445
C        1.85531237      -2.19300995      -0.60836709
C       -2.21412352       0.42631687      -3.41991738
C        0.22419993      -3.57533646      -1.25244995
C       -1.20188483       0.27661592       4.82714633
C       -2.05694148      -1.90089830      -2.97519650
C        0.29924680       1.71005327      -3.23505369
C       -2.61049190       1.18041140       1.53741744
C        0.91813092       0.11174794       3.71737128
C       -1.75631453      -2.25432946      -1.56253899
C        1.95869742      -0.75653580      -2.55569960
C       -0.66334353       2.91034383      -1.24596384
C        1.04468370      -0.69298714      -3.64311485
60
Properties=species:S:1:pos:R:3 trajectory=trial0001_proposal001_step004_proposal_relax trajectory_step=25 pbc="F F F"
C       -0.73413773       2.59686530       1.96218354
C       -1.09109992      -0.49168158       2.16405749
C        1.45004696      -1.45242195       1.52718641
C        0.18839664       0.42672061      -3.88926983
C        1.53100505       2.25926957      -2.83398178
C        0.05585637       0.64559029       0.19358972
C        0.63065927       2.76461175       1.57198396
C        0.60890632       1.46329092       3.43656656
C        0.67691120      -2.78700368      -2.48726609
C       -1.09353507      -0.12387065      -4.08848373
C        2.53923556       0.24593252      -1.71815939
C        1.13106566      -3.28244735      -0.13091272
C       -1.79212669       2.26132806       1.05411003
C        0.26525622      -1.96699838      -3.64568877
C       -0.95075000      -3.04995294      -0.68640730
C        2.20807411       0.90911785       1.92780769
C       -0.78654762      -2.64122228       0.75666702
C       -2.04019485       1.55157171      -2.55507050
C       -0.79987974       2.21536126      -2.50903386
C       -1.69636926       1.14353315       3.83718735
C       -2.92683478      -0.69421698      -2.91762008
C       -3.41311948       0.69223496      -0.76985719
C        1.62768113       3.33533102      -1.89063910
C        1.22143394       3.05877934       0.33406029
C        2.47432920       2.44342204       0.06981258
C        2.67603713       1.14526387       0.61100393
C       -3.25545771      -0.47273164      -1.57903611
C        1.42069091       1.95593058       2.41723439
C       -2.64309909       1.74052970      -1.25989813
C       -0.23715025       0.14248177       1.30807715
C       -2.49697392      -1.00386110       0.49726176
C       -2.10882247       0.44073045       2.68316276
C        2.78558827       2.68643118      -1.28357328
C       -1.05168954      -1.56177068      -3.90241285
C        1.70592574      -0.35549301       2.52933165
C       -3.08584153       0.28851914       0.57300551
C        0.60039558       3.39184904      -0.89028967
C        2.59961853       1.57879634      -2.16910335
C        2.57786560       0.05458084      -0.27662580
C        2.06684418      -1.15333186       0.28193496
C       -0.68377417       1.96202523       3.27025610
C       -1.76250266       2.48108504      -0.38638740
C        0.59069743      -2.74158762       1.14216481
C        0.05297692      -0.38639775       4.68717111
C       -0.80686400      -0.65074529       5.76469659
C       -2.49276096      -1.33922966      -0.84234229
C        1.67236393      -1.98531230      -1.95094387
C       -1.59806685      -1.62710037       1.37117332
C        1.85120012      -2.19316348      -0.60727138
C       -2.21227125       0.42768246      -3.41999701
C        0.22117966      -3.57703101      -1.25346970
C       -1.20274387       0.27848548       4.82765628
C       -2.05633622      -1.90140471      -2.97661210
C        0.30224264       1.70837222      -3.23470598
C       -2.60988200       1.18111507       1.53502302
C        0.91637840       0.11188131       3.71793772
C       -1.75618346      -2.25281844      -1.56396964
C        1.95594457      -0.75700502      -2.55590355
C       -0.66039068       2.90822417      -1.24558460
C        1.04602578      -0.69452763      -3.64672326
60
Properties=species:S:1:pos:R:3 trajectory=trial0001_proposal001_step004_proposal_relax trajectory_step=26 pbc="F F F"
C       -0.73374422       2.59690371       1.96107649
C       -1.09395376      -0.49422312       2.16602430
C        1.44735467      -1.45397389       1.52869997
C        0.19056862       0.42628794      -3.89135106
C        1.53432355       2.25799452      -2.83376310
C        0.05380066       0.64534658       0.19888358
C        0.63173618       2.76393479       1.57218232
C        0.60850820       1.46408647       3.43693009
C        0.67478398      -2.78766947      -2.48706669
C       -1.09189891      -0.12335645      -4.08768549
C        2.53815803       0.24434891      -1.71765925
C        1.12755215      -3.28377456      -0.13169362
C       -1.79182977       2.26262083       1.05239483
C        0.26555375      -1.96847857      -3.64711862
C       -0.95339313      -3.05042679      -0.68740884
C        2.20853303       0.90778730       1.92860197
C       -0.78936387      -2.64196964       0.75575920
C       -2.03847990       1.55274312      -2.55531560
C       -0.79657916       2.21300736      -2.50825481
C       -1.69649075       1.14318399       3.83529140
C       -2.92629754      -0.69284498      -2.91933712
C       -3.41298442       0.69480248      -0.77160909
C        1.63076055       3.33369346      -1.88984958
C        1.22414086       3.05801921       0.33493856
C        2.47713479       2.44221143       0.07098119
C        2.67687990       1.14331231       0.61142292
C       -3.25297748      -0.46973063      -1.58108660
C        1.42110681       1.95500571       2.41743245
C       -2.64404382       1.74464147      -1.26149279
C       -0.23643376       0.14010249       1.31011084
C       -2.49743942      -1.00283237       0.49545144
C       -2.11119661       0.44065417       2.68189847
C        2.78871219       2.68508638      -1.28249478
C       -1.05083433      -1.56111088      -3.90259109
C        1.70360119      -0.35600471       2.53055520
C       -3.08574760       0.28988027       0.57076703
C        0.60334664       3.38945500      -0.88964868
C        2.60219671       1.57722266      -2.16804764
C        2.57685731       0.05268309      -0.27608074
C        2.06402054      -1.15444720       0.28346762
C       -0.68431258       1.96235234       3.26917602
C       -1.76294976       2.48464188      -0.38785721
C        0.58736116      -2.74402926       1.14175507
C        0.05256969      -0.38458486       4.68964435
C       -0.80401657      -0.64060410       5.77235644
C       -2.49014114      -1.33545119      -0.84377834
C        1.66803751      -1.98475466      -1.94967497
C       -1.60054349      -1.62766881       1.37059937
C        1.84668438      -2.19340698      -0.60598356
C       -2.21074165       0.42900166      -3.42052510
C        0.21801776      -3.57939662      -1.25450710
C       -1.20319357       0.28105045       4.82852886
C       -2.05617889      -1.90077580      -2.97802571
C        0.30550800       1.70723238      -3.23519458
C       -2.60929309       1.18196532       1.53265273
C        0.91464210       0.11249616       3.71867984
C       -1.75544596      -2.25128112      -1.56561172
C        1.95375285      -0.75780337      -2.55564726
C       -0.65762602       2.90667203      -1.24550794
C        1.04735482      -0.69621106      -3.64933074
60
Properties=species:S:1:pos:R:3 trajectory=trial0001_proposal001_step004_proposal_relax trajectory_step=27 pbc="F F F"
C       -0.73289338       2.59674027       1.96033078
C       -1.09619898      -0.49661572       2.16817083
C        1.44483317      -1.45528815       1.52982341
C        0.19264667       0.42563056      -3.89306805
C        1.53739649       2.25699714      -2.83316265
C        0.05234425       0.64460860       0.20294894
C        0.63306970       2.76360894       1.57246174
C        0.60839017       1.46526493       3.43774513
C        0.67307822      -2.78853346      -2.48713570
C       -1.09065617      -0.12289295      -4.08823578
C        2.53781849       0.24267878      -1.71700976
C        1.12405092      -3.28457319      -0.13259757
C       -1.79108422       2.26381963       1.05125586
C        0.26540100      -1.96947122      -3.64766014
C       -0.95533066      -3.04982808      -0.68872139
C        2.20899666       0.90634860       1.92958057
C       -0.79267259      -2.64285377       0.75523637
C       -2.03636134       1.55357477      -2.55580390
C       -0.79337634       2.21122070      -2.50796249
C       -1.69667893       1.14307842       3.83345301
C       -2.92615893      -0.69130868      -2.92103710
C       -3.41164359       0.69690782      -0.77393882
C        1.63370226       3.33255403      -1.88899199
C        1.22620416       3.05724944       0.33554315
C        2.47918647       2.44089070       0.07214193
C        2.67709500       1.14144457       0.61200341
C       -3.25203077      -0.46767587      -1.58314856
C        1.42143261       1.95397442       2.41754645
C       -2.64407016       1.74800066      -1.26313934
C       -0.23695931       0.13790605       1.31357814
C       -2.49857034      -1.00188495       0.49441202
C       -2.11391947       0.44013484       2.68100194
C        2.79096942       2.68314336      -1.28139760
C       -1.05047246      -1.56067599      -3.90349513
C        1.70238689      -0.35675580       2.53219624
C       -3.08518695       0.29149217       0.56803890
C        0.60585507       3.38783673      -0.88920170
C        2.60471331       1.57540564      -2.16736663
C        2.57640843       0.05089951      -0.27548162
C        2.06149819      -1.15555148       0.28460556
C       -0.68471859       1.96272826       3.26830406
C       -1.76234231       2.48727232      -0.38897097
C        0.58392255      -2.74675004       1.14144544
C        0.05156109      -0.38310721       4.69180829
C       -0.80143407      -0.63051702       5.77957169
C       -2.48879770      -1.33321205      -0.84572001
C        1.66489410      -1.98508329      -1.94865138
C       -1.60331840      -1.62750197       1.36955550
C        1.84238955      -2.19365842      -0.60520888
C       -2.20959111       0.43031885      -3.42154160
C        0.21509589      -3.58182200      -1.25556599
C       -1.20309988       0.28389435       4.83002151
C       -2.05639107      -1.89922267      -2.97925666
C        0.30865191       1.70662782      -3.23617549
C       -2.60875721       1.18264131       1.53057934
C        0.91320606       0.11338380       3.71960100
C       -1.75500009      -2.24918536      -1.56697732
C        1.95267816      -0.75886553      -2.55505544
C       -0.65516163       2.90593217      -1.24571386
C        1.04842721      -0.69775856      -3.65050467
60
Properties=species:S:1:pos:R:3 trajectory=trial0001_proposal001_step004_proposal_relax trajectory_step=28 pbc="F F F"
C       -0.73036152       2.59700513       1.95870116
C       -1.10287893      -0.50255546       2.17292919
C        1.43846277      -1.45830206       1.53229457
C        0.19791389       0.42394160      -3.89684857
C        1.54492523       2.25470368      -2.83226623
C        0.04861621       0.64147237       0.21263934
C        0.63657317       2.76285252       1.57274620
C        0.60812099       1.46719499       3.43971601
C        0.66863763      -2.79128845      -2.48869961
C       -1.08762967      -0.12180709      -4.09150449
C        2.53813055       0.23829596      -1.71461293
C        1.11478043      -3.28744339      -0.13321247
C       -1.78868453       2.26615180       1.04902194
C        0.26433564      -1.97150607      -3.64946225
C       -0.95966577      -3.04807650      -0.69209218
C        2.20863577       0.90272905       1.93236121
C       -0.80068029      -2.64514734       0.75368962
C       -2.03010221       1.55550619      -2.55850858
C       -0.78536597       2.20791026      -2.50783852
C       -1.69751544       1.14375610       3.83006819
C       -2.92571535      -0.68701701      -2.92726513
C       -3.40744377       0.70178205      -0.78033458
C        1.64118202       3.32923747      -1.88726487
C        1.23091728       3.05529330       0.33669315
C        2.48332702       2.43670981       0.07503275
C        2.67738319       1.13675659       0.61460768
C       -3.25110739      -0.46220312      -1.58647660
C        1.42266788       1.95215676       2.41881882
C       -2.64238031       1.75508514      -1.26776474
C       -0.23905144       0.13324940       1.32326978
C       -2.50128835      -0.99843241       0.48971373
C       -2.11990475       0.43926129       2.67984806
C        2.79622425       2.67754440      -1.27858841
C       -1.05059803      -1.55944467      -3.90657878
C        1.70042754      -0.35923855       2.53637149
C       -3.08345366       0.29615989       0.56200259
C        0.61185273       3.38514593      -0.88865289
C        2.61033105       1.57094916      -2.16582412
C        2.57479083       0.04665499      -0.27304810
C        2.05483872      -1.15879649       0.28691841
C       -0.68519851       1.96363875       3.26660795
C       -1.75978294       2.49256567      -0.39151221
C        0.57550800      -2.75259170       1.14243404
C        0.04890930      -0.37889038       4.69694163
C       -0.79521846      -0.60522491       5.79661940
C       -2.48746355      -1.32757496      -0.84933774
C        1.65752050      -1.98706443      -1.94617874
C       -1.60990662      -1.62770571       1.36690451
C        1.83145092      -2.19435827      -0.60425887
C       -2.20632570       0.43316370      -3.42496767
C        0.20886816      -3.58704884      -1.25825969
C       -1.20407875       0.29108876       4.83288035
C       -2.05715414      -1.89501685      -2.98242941
C        0.31598186       1.70483424      -3.23852966
C       -2.60716771       1.18475731       1.52697087
C        0.91103725       0.11486712       3.72281981
C       -1.75339481      -2.24384856      -1.57069967
C        1.95111895      -0.76175433      -2.55325480
C       -0.64896911       2.90479082      -1.24648871
C        1.05044569      -0.70125804      -3.65179889
60
Properties=species:S:1:pos:R:3 trajectory=trial0001_proposal001_step004_proposal_relax trajectory_step=29 pbc="F F F"
C       -0.72703017       2.59771646       1.95704175
C       -1.11160380      -0.50966267       2.17803642
C        1.43045652      -1.46181429       1.53499612
C        0.20372411       0.42191954      -3.90077166
C        1.55348558       2.25146473      -2.83209689
C        0.04435002       0.63710635       0.22364335
C        0.64067501       2.76181764       1.57331207
C        0.60790222       1.46855596       3.44173004
C        0.66366955      -2.79466943      -2.49110617
C       -1.08345789      -0.12030609      -4.09665253
C        2.53904679       0.23307739      -1.71137028
C        1.10470802      -3.29038048      -0.13336384
C       -1.78522138       2.26851830       1.04658232
C        0.26277512      -1.97345841      -3.65223869
C       -0.96456351      -3.04651994      -0.69640357
C        2.20756472       0.89827987       1.93588512
C       -0.81002621      -2.64768079       0.75185286
C       -2.02276404       1.55788595      -2.56230366
C       -0.77565120       2.20501860      -2.50843883
C       -1.69895568       1.14578161       3.82654510
C       -2.92647098      -0.68149596      -2.93149275
C       -3.40266466       0.70924356      -0.78646137
C        1.65022382       3.32507020      -1.88533993
C        1.23660893       3.05277692       0.33746607
C        2.48783783       2.43127733       0.07819191
C        2.67756543       1.13082842       0.61859509
C       -3.25003843      -0.45663369      -1.59499675
C        1.42415448       1.95058439       2.42094888
C       -2.63860966       1.76249800      -1.27399137
C       -0.24221815       0.12728538       1.33602250
C       -2.50282999      -0.99379840       0.48660021
C       -2.12643701       0.43891343       2.67917183
C        2.80260143       2.67051058      -1.27494779
C       -1.05054942      -1.55800539      -3.91116528
C        1.69817014      -0.36259931       2.54127117
C       -3.08150614       0.30260651       0.55547411
C        0.61957920       3.38273255      -0.88840130
C        2.61692560       1.56482178      -2.16373089
C        2.57234769       0.04130623      -0.26944484
C        2.04653121      -1.16261928       0.28925434
C       -0.68536336       1.96462604       3.26472722
C       -1.75594216       2.49740211      -0.39460570
C        0.56523849      -2.75868118       1.14452568
C        0.04583857      -0.37298493       4.70331954
C       -0.78796991      -0.57401296       5.81638867
C       -2.48642634      -1.32219533      -0.85620129
C        1.64882365      -1.98933443      -1.94568687
C       -1.61907946      -1.62787195       1.36257152
C        1.81785357      -2.19710124      -0.60107391
C       -2.20137162       0.43708623      -3.43015755
C        0.20107348      -3.59256279      -1.26096928
C       -1.20612738       0.29915023       4.83597672
C       -2.05821242      -1.88989949      -2.98661832
C        0.32495089       1.70279527      -3.24062785
C       -2.60547610       1.18735407       1.52350229
C        0.90932793       0.11602908       3.72731122
C       -1.75290071      -2.23669455      -1.57477755
C        1.94977672      -0.76613690      -2.55061077
C       -0.64151879       2.90387352      -1.24753226
C        1.05262798      -0.70517780      -3.65230296
60
Properties=species:S:1:pos:R:3 trajectory=trial0001_proposal001_step004_proposal_relax trajectory_step=30 pbc="F F F"
C       -0.72643654       2.59814980       1.95711614
C       -1.11348982      -0.51052607       2.17843368
C        1.42908090      -1.46203543       1.53528331
C        0.20437547       0.42178335      -3.90059778
C        1.55473146       2.25079899      -2.83242767
C        0.04384437       0.63572342       0.22499169
C        0.64125373       2.76172241       1.57325730
C        0.60791875       1.46789893       3.44180661
C        0.66300171      -2.79529557      -2.49209569
C       -1.08284380      -0.12007259      -4.09831955
C        2.53958936       0.23203092      -1.71047054
C        1.10326777      -3.29136210      -0.13227156
C       -1.78430963       2.26835665       1.04652184
C        0.26250989      -1.97338104      -3.65308761
C       -0.96524905      -3.04646239      -0.69693768
C        2.20681116       0.89769957       1.93659889
C       -0.81118834      -2.64783335       0.75145267
C       -2.02150899       1.55827422      -2.56368648
C       -0.77452179       2.20576944      -2.50906366
C       -1.69944324       1.14694200       3.82681012
C       -2.92615388      -0.68033173      -2.93313006
C       -3.40213846       0.71017616      -0.78719813
C        1.65161600       3.32414474      -1.88551407
C        1.23720414       3.05224430       0.33741579
C        2.48795856       2.43006378       0.07849059
C        2.67741896       1.12985291       0.61974202
C       -3.25057784      -0.45552074      -1.59521568
C        1.42452791       1.95073341       2.42169591
C       -2.63665647       1.76236517      -1.27494793
C       -0.24286309       0.12655179       1.33803784
C       -2.50299238      -0.99238047       0.48456184
C       -2.12675896       0.43949730       2.67964846
C        2.80338862       2.66916219      -1.27460604
C       -1.05090012      -1.55774191      -3.91244043
C        1.69799896      -0.36336675       2.54177739
C       -3.08110377       0.30370256       0.55540358
C        0.62071911       3.38313826      -0.88879314
C        2.61743509       1.56383993      -2.16334211
C        2.57160005       0.04046165      -0.26850891
C        2.04504692      -1.16317109       0.28947724
C       -0.68500150       1.96466168       3.26470651
C       -1.75441367       2.49675558      -0.39502959
C        0.56390946      -2.75861029       1.14561489
C        0.04560417      -0.37148865       4.70426109
C       -0.78727758      -0.56945387       5.81825658
C       -2.48773063      -1.32107513      -0.85660109
C        1.64828290      -1.99058028      -1.94512290
C       -1.62018920      -1.62828841       1.36214507
C        1.81641439      -2.19768619      -0.60174556
C       -2.20048259       0.43759765      -3.43143778
C        0.20041963      -3.59251177      -1.26100746
C       -1.20725593       0.29993317       4.83582825
C       -2.05843553      -1.88912184      -2.98755517
C        0.32584968       1.70238963      -3.24047345
C       -2.60534072       1.18805203       1.52399442
C        0.90979845       0.11561139       3.72853969
C       -1.75317327      -2.23623919      -1.57561680
C        1.95017077      -0.76685732      -2.55014619
C       -0.64043124       2.90421245      -1.24786548
C        1.05254791      -0.70528676      -3.65155195
60
Properties=species:S:1:pos:R:3 trajectory=trial0001_proposal001_step004_proposal_relax trajectory_step=31 pbc="F F F"
C       -0.72472729       2.59941800       1.95707270
C       -1.11967184      -0.51351817       2.18064421
C        1.42422125      -1.46343811       1.53694084
C        0.20678974       0.42122534      -3.90110883
C        1.55961102       2.24814545      -2.83334675
C        0.04138177       0.63183473       0.23038122
C        0.64317423       2.76129540       1.57353258
C        0.60779695       1.46651997       3.44234719
C        0.66036853      -2.79747584      -2.49440798
C       -1.08059432      -0.11913829      -4.10269907
C        2.54011542       0.22835268      -1.70790928
C        1.09821570      -3.29445733      -0.12992228
C       -1.78159562       2.26868040       1.04555657
C        0.26202932      -1.97395650      -3.65602080
C       -0.96831931      -3.04619373      -0.69864831
C        2.20523962       0.89551822       1.93899402
C       -0.81526085      -2.64820338       0.75012532
C       -2.01728244       1.55990560      -2.56752195
C       -0.76999271       2.20686893      -2.51076905
C       -1.70078882       1.14991308       3.82686955
C       -2.92500419      -0.67656019      -2.93753423
C       -3.40076769       0.71434471      -0.78971540
C        1.65672314       3.32090356      -1.88581759
C        1.23982143       3.05051296       0.33766069
C        2.48935999       2.42611011       0.07975596
C        2.67718790       1.12632160       0.62274886
C       -3.25083966      -0.45087901      -1.59768982
C        1.42566994       1.95052573       2.42381546
C       -2.63161942       1.76335124      -1.27801490
C       -0.24459065       0.12332289       1.34479447
C       -2.50268278      -0.98804540       0.47979976
C       -2.12894372       0.44136320       2.68044167
C        2.80681655       2.66489113      -1.27314458
C       -1.05121364      -1.55689218      -3.91639328
C        1.69637266      -0.36557784       2.54395586
C       -3.07988095       0.30757154       0.55405419
C        0.62513107       3.38311102      -0.88961274
C        2.61999878       1.56008257      -2.16171112
C        2.56892873       0.03731962      -0.26568954
C        2.03930944      -1.16552355       0.29051052
C       -0.68417050       1.96490809       3.26447236
C       -1.75001834       2.49634502      -0.39683227
C        0.55897541      -2.75960381       1.14829210
C        0.04492328      -0.36689762       4.70776398
C       -0.78460862      -0.55368317       5.82635097
C       -2.48910682      -1.31698513      -0.85961654
C        1.64459515      -1.99318326      -1.94470051
C       -1.62449803      -1.62904301       1.36039322
C        1.81047264      -2.19950443      -0.60062995
C       -2.19741078       0.43968783      -3.43542273
C        0.19713278      -3.59377865      -1.26136751
C       -1.21073395       0.30336897       4.83541480
C       -2.05862263      -1.88669061      -2.99069768
C        0.32978429       1.70079571      -3.24038644
C       -2.60475347       1.19060670       1.52420017
C        0.91028796       0.11478415       3.73206489
C       -1.75380187      -2.23350781      -1.57834805
C        1.94970562      -0.76962621      -2.54853839
C       -0.63595917       2.90451209      -1.24907559
C        1.05274821      -0.70643855      -3.65060022
60
Properties=species:S:1:pos:R:3 trajectory=trial0001_proposal001_step004_proposal_relax trajectory_step=32 pbc="F F F"
C       -0.72307676       2.60047114       1.95728479
C       -1.12559746      -0.51595975       2.18403183
C        1.41913255      -1.46522118       1.53934072
C        0.20901586       0.42049156      -3.90211308
C        1.56485887       2.24493334      -2.83399134
C        0.03833034       0.62794314       0.23598943
C        0.64512597       2.76094419       1.57441370
C        0.60777814       1.46597977       3.44335880
C        0.65766262      -2.79987733      -2.49572321
C       -1.07838124      -0.11803708      -4.10686161
C        2.53953196       0.22426063      -1.70555000
C        1.09319632      -3.29734073      -0.12833245
C       -1.77871303       2.26969041       1.04427585
C        0.26167314      -1.97501841      -3.65870681
C       -0.97171180      -3.04522253      -0.70012648
C        2.20474250       0.89307431       1.94133569
C       -0.81943854      -2.64782998       0.74892849
C       -2.01312875       1.56172082      -2.57069640
C       -0.76509204       2.20763981      -2.51285230
C       -1.70207485       1.15263013       3.82620540
C       -2.92368583      -0.67261579      -2.94070573
C       -3.39979719       0.71906738      -0.79198647
C        1.66211073       3.31777303      -1.88605448
C        1.24245546       3.04880526       0.33815636
C        2.49089156       2.42223232       0.08097788
C        2.67674441       1.12248767       0.62498018
C       -3.25013524      -0.44623202      -1.60183299
C        1.42659772       1.94957951       2.42553789
C       -2.62652911       1.76483847      -1.28076998
C       -0.24605938       0.11970699       1.35136406
C       -2.50204890      -0.98396926       0.47592899
C       -2.13223439       0.44351370       2.68072845
C        2.81041217       2.66050393      -1.27151421
C       -1.05077065      -1.55628462      -3.92061488
C        1.69413249      -0.36751350       2.54653820
C       -3.07857974       0.31157057       0.55189654
C        0.63002408       3.38226568      -0.89034081
C        2.62304599       1.55556463      -2.15983219
C        2.56604878       0.03366358      -0.26335592
C        2.03309273      -1.16716599       0.29268266
C       -0.68356829       1.96539100       3.26446883
C       -1.74507833       2.49622164      -0.39880861
C        0.55369925      -2.76154221       1.15017933
C        0.04338398      -0.36290694       4.71203677
C       -0.78248766      -0.53831952       5.83385789
C       -2.48908955      -1.31209367      -0.86313047
C        1.64068082      -1.99594696      -1.94290172
C       -1.62877482      -1.62862462       1.35874692
C        1.80397838      -2.20187511      -0.59998242
C       -2.19448430       0.44235047      -3.43959757
C        0.19306362      -3.59586887      -1.26155732
C       -1.21303322       0.30640023       4.83605587
C       -2.05821891      -1.88398680      -2.99403034
C        0.33431895       1.69936777      -3.24091155
C       -2.60423035       1.19353817       1.52327623
C        0.91000638       0.11458348       3.73501029
C       -1.75418204      -2.23027453      -1.58139612
C        1.94801504      -0.77238591      -2.54708312
C       -0.63098212       2.90453835      -1.25084888
C        1.05286242      -0.70801339      -3.65031827
60
Properties=species:S:1:pos:R:3 trajectory=trial0001_proposal001_step004_proposal_relax trajectory_step=33 pbc="F F F"
C       -0.71975648       2.60217750       1.95760662
C       -1.13678503      -0.52040339       2.19130772
C        1.40874186      -1.46892718       1.54408817
C        0.21375311       0.41905829      -3.90437366
C        1.57572024       2.23838889      -2.83442500
C        0.03222043       0.62078118       0.24737851
C        0.64919681       2.76011307       1.57612134
C        0.60769727       1.46570517       3.44565654
C        0.65231066      -2.80424761      -2.49722581
C       -1.07414329      -0.11581372      -4.11413055
C        2.53738961       0.21595905      -1.70126932
C        1.08305138      -3.30290343      -0.12609208
C       -1.77301614       2.27206884       1.04150889
C        0.26165608      -1.97768151      -3.66329968
C       -0.97902628      -3.04307409      -0.70303330
C        2.20454933       0.88809991       1.94566516
C       -0.82812937      -2.64663389       0.74668110
C       -2.00496918       1.56570582      -2.57638101
C       -0.75550382       2.20887246      -2.51695356
C       -1.70431615       1.15714524       3.82471431
C       -2.92003146      -0.66493334      -2.94802162
C       -3.39834104       0.72817000      -0.79728640
C        1.67325719       3.31154938      -1.88640705
C        1.24793455       3.04535445       0.33940013
C        2.49442610       2.41471817       0.08356166
C        2.67601042       1.11491833       0.62860906
C       -3.24827777      -0.43612517      -1.60858371
C        1.42839023       1.94704584       2.42814416
C       -2.61737372       1.76819877      -1.28544801
C       -0.24846575       0.11204613       1.36388810
C       -2.50129342      -0.97587798       0.46917357
C       -2.13946537       0.44780321       2.68051968
C        2.81788250       2.65177339      -1.26854176
C       -1.04960891      -1.55493125      -3.92856710
C        1.68898151      -0.37095946       2.55169642
C       -3.07651434       0.31907082       0.54684794
C        0.63985782       3.37951552      -0.89172076
C        2.62937301       1.54653567      -2.15604531
C        2.56033975       0.02641130      -0.25911395
C        2.02070902      -1.17193443       0.29634783
C       -0.68286695       1.96661331       3.26435569
C       -1.73498192       2.49640170      -0.40276965
C        0.54291266      -2.76593398       1.15275533
C        0.04128367      -0.35528847       4.71984440
C       -0.77887561      -0.50935884       5.85057551
C       -2.48731250      -1.30258200      -0.87102911
C        1.63241032      -2.00067074      -1.94095236
C       -1.63726367      -1.62694848       1.35573825
C        1.79223194      -2.20545833      -0.59542143
C       -2.18925195       0.44798069      -3.44732721
C        0.18411231      -3.60033582      -1.26173177
C       -1.21763809       0.31372953       4.83671795
C       -2.05733530      -1.87847925      -3.00053014
C        0.34343422       1.69666508      -3.24244152
C       -2.60319950       1.19930607       1.52039419
C        0.90797390       0.11467960       3.74081164
C       -1.75526161      -2.22398848      -1.58715356
C        1.94390355      -0.77813946      -2.54386507
C       -0.62077000       2.90431725      -1.25439161
C        1.05349226      -0.71163305      -3.65051745
60
Properties=species:S:1:pos:R:3 trajectory=trial0001_proposal001_step004_proposal_relax trajectory_step=34 pbc="F F F"
C       -0.71735143       2.60296565       1.95799787
C       -1.14275105      -0.52134122       2.19609367
C        1.40190988      -1.47117796       1.54668567
C        0.21666737       0.41790648      -3.90580258
C        1.58181128       2.23396091      -2.83405479
C        0.02855975       0.61665459       0.25311712
C        0.65188265       2.75931894       1.57699501
C        0.60751233       1.46677570       3.44733131
C        0.64892242      -2.80667047      -2.49654681
C       -1.07165988      -0.11417001      -4.11816011
C        2.53470328       0.21088046      -1.69863325
C        1.07722599      -3.30584126      -0.12500115
C       -1.76890272       2.27361873       1.04000880
C        0.26172883      -1.97968245      -3.66502490
C       -0.98384296      -3.04092151      -0.70417909
C        2.20471969       0.88480612       1.94792444
C       -0.83351005      -2.64444448       0.74553667
C       -2.00042400       1.56862393      -2.57918859
C       -0.75022854       2.21046487      -2.52040591
C       -1.70567219       1.15963035       3.82365859
C       -2.91736930      -0.65993709      -2.95144782
C       -3.39819827       0.73363909      -0.80066178
C        1.68045875       3.30781918      -1.88662839
C        1.25117332       3.04315677       0.33963672
C        2.49656597       2.41018227       0.08477622
C        2.67542397       1.11022990       0.62979938
C       -3.24630523      -0.43033287      -1.61356764
C        1.42937421       1.94465335       2.42904671
C       -2.61148169       1.76982433      -1.28734955
C       -0.24930945       0.10738414       1.37112247
C       -2.50106275      -0.97099626       0.46513358
C       -2.14420391       0.45123440       2.67984016
C        2.82263890       2.64594030      -1.26670897
C       -1.04851826      -1.55421906      -3.93281375
C        1.68521014      -0.37259862       2.55463970
C       -3.07642225       0.32372257       0.54339894
C        0.64609554       3.37689962      -0.89289575
C        2.63293404       1.54030540      -2.15387947
C        2.55611816       0.02182953      -0.25687080
C        2.01416874      -1.17491025       0.29892848
C       -0.68263669       1.96799635       3.26474231
C       -1.72734099       2.49530586      -0.40468386
C        0.53596568      -2.76868016       1.15340036
C        0.03846570      -0.35162120       4.72571635
C       -0.77896858      -0.49557448       5.85747045
C       -2.48474781      -1.29617408      -0.87434886
C        1.62843178      -2.00338645      -1.93925624
C       -1.64196603      -1.62368088       1.35441745
C        1.78685775      -2.20888917      -0.59232292
C       -2.18636283       0.45204485      -3.45197930
C        0.17827288      -3.60232417      -1.26105054
C       -1.21900404       0.31704001       4.83845535
C       -2.05650465      -1.87470997      -3.00448361
C        0.34881127       1.69566127      -3.24426656
C       -2.60266436       1.20300500       1.51767386
C        0.90584236       0.11566083       3.74352328
C       -1.75611464      -2.22087060      -1.59077145
C        1.94059704      -0.78216658      -2.54144003
C       -0.61422430       2.90425482      -1.25710612
C        1.05412855      -0.71445914      -3.65048153
60
Properties=species:S:1:pos:R:3 trajectory=trial0001_proposal001_step004_proposal_relax trajectory_step=35 pbc="F F F"
C       -0.71448093       2.60357385       1.95777178
C       -1.14916290      -0.52259754       2.20127582
C        1.39396425      -1.47379938       1.54916681
C        0.22077688       0.41635887      -3.90803885
C        1.58862782       2.22939348      -2.83323652
C        0.02459172       0.61268453       0.26014546
C        0.65527112       2.75800107       1.57737885
C        0.60727701       1.46856463       3.44936766
C        0.64482985      -2.80888810      -2.49522619
C       -1.06840751      -0.11239964      -4.12158474
C        2.53146842       0.20533029      -1.69571422
C        1.06990231      -3.30902170      -0.12420670
C       -1.76447879       2.27539135       1.03805477
C        0.26144535      -1.98223219      -3.66635440
C       -0.98948927      -3.03870589      -0.70555756
C        2.20496242       0.88084487       1.94994395
C       -0.84048666      -2.64223406       0.74435108
C       -1.99544672       1.57206360      -2.58187174
C       -0.74396637       2.21143722      -2.52370541
C       -1.70678717       1.16158627       3.82210337
C       -2.91476158      -0.65455248      -2.95531027
C       -3.39779010       0.73969205      -0.80526798
C        1.68893217       3.30359746      -1.88628906
C        1.25547368       3.04050661       0.33994875
C        2.49994112       2.40525752       0.08636924
C        2.67503359       1.10492347       0.63130943
C       -3.24317132      -0.42432194      -1.61855761
C        1.43032195       1.94203608       2.42963166
C       -2.60606464       1.77319584      -1.28970312
C       -0.24956809       0.10240136       1.37882084
C       -2.50149343      -0.96540324       0.46233465
C       -2.14963081       0.45441745       2.67860452
C        2.82862087       2.63929845      -1.26469589
C       -1.04709814      -1.55304321      -3.93643627
C        1.68061467      -0.37441097       2.55783720
C       -3.07709088       0.32891623       0.53875429
C        0.65344059       3.37324978      -0.89397590
C        2.63714551       1.53362518      -2.15166940
C        2.55158457       0.01677038      -0.25474234
C        2.00773594      -1.17848713       0.30236866
C       -0.68295826       1.96990443       3.26475953
C       -1.71967826       2.49519899      -0.40680727
C        0.52751300      -2.77218973       1.15364270
C        0.03654519      -0.34767931       4.73092161
C       -0.77933283      -0.48125164       5.86794424
C       -2.48093262      -1.28927059      -0.87980104
C        1.62340490      -2.00702550      -1.93541783
C       -1.64753897      -1.61990519       1.35269533
C        1.78093660      -2.21278371      -0.59046473
C       -2.18300342       0.45679514      -3.45650435
C        0.17137266      -3.60458289      -1.26065860
C       -1.22118936       0.32262392       4.83976390
C       -2.05606182      -1.87054691      -3.00820425
C        0.35509531       1.69460751      -3.24688343
C       -2.60185818       1.20671921       1.51377517
C        0.90219927       0.11716548       3.74688615
C       -1.75718472      -2.21671576      -1.59423921
C        1.93711635      -0.78589709      -2.53882607
C       -0.60697590       2.90360336      -1.25975038
C        1.05537425      -0.71817405      -3.65116785
60
Properties=species:S:1:pos:R:3 trajectory=trial0001_proposal001_step004_proposal_relax trajectory_step=36 pbc="F F F"
C       -0.71373377       2.60351685       1.95759046
C       -1.14916919      -0.52112356       2.20132395
C        1.39254692      -1.47382344       1.54852509
C        0.22174897       0.41604000      -3.90819792
C        1.58875167       2.22891486      -2.83286111
C        0.02461825       0.61244824       0.25973127
C        0.65590637       2.75734902       1.57663362
C        0.60716085       1.46940510       3.44970378
C        0.64428737      -2.80853591      -2.49384530
C       -1.06780666      -0.11216641      -4.12135097
C        2.53023093       0.20480261      -1.69515144
C        1.06916686      -3.30919050      -0.12380881
C       -1.76340591       2.27501416       1.03796756
C        0.26121072      -1.98264929      -3.66508672
C       -0.99041288      -3.03808895      -0.70510580
C        2.20455229       0.88013230       1.94971690
C       -0.84175502      -2.64097811       0.74450057
C       -1.99517188       1.57298293      -2.58210737
C       -0.74387267       2.21250791      -2.52478650
C       -1.70681882       1.16209600       3.82199203
C       -2.91422125      -0.65381034      -2.95577012
C       -3.39809271       0.73995407      -0.80626625
C        1.69036885       3.30291385      -1.88623848
C        1.25625250       3.03971261       0.33937998
C        2.50074819       2.40448246       0.08634140
C        2.67482845       1.10425303       0.63138253
C       -3.24231705      -0.42379057      -1.61828486
C        1.43026627       1.94164522       2.42927298
C       -2.60516884       1.77330108      -1.28954009
C       -0.24854156       0.10272275       1.37883663
C       -2.50218157      -0.96400577       0.46251322
C       -2.14967663       0.45534961       2.67824455
C        2.82976044       2.63794346      -1.26487975
C       -1.04707825      -1.55258914      -3.93567999
C        1.67936615      -0.37440088       2.55774370
C       -3.07865312       0.32966295       0.53820465
C        0.65454269       3.37241667      -0.89451772
C        2.63691486       1.53263445      -2.15176002
C        2.55055356       0.01634261      -0.25457204
C        2.00854242      -1.18015097       0.30240451
C       -0.68313088       1.97087478       3.26497945
C       -1.71782148       2.49399184      -0.40669192
C        0.52614353      -2.77171937       1.15326919
C        0.03559438      -0.34778636       4.73143318
C       -0.78220622      -0.48470600       5.86604982
C       -2.47988628      -1.28825313      -0.87992420
C        1.62370199      -2.00793707      -1.93511303
C       -1.64785166      -1.61797332       1.35273388
C        1.78289067      -2.21415417      -0.58919115
C       -2.18260528       0.45763047      -3.45667493
C        0.17039457      -3.60354169      -1.25987549
C       -1.22120158       0.32261397       4.84059578
C       -2.05642099      -1.86991623      -3.00800908
C        0.35526942       1.69499334      -3.24801340
C       -2.60178394       1.20726500       1.51317982
C        0.90114291       0.11785193       3.74700272
C       -1.75768392      -2.21665924      -1.59410112
C        1.93694338      -0.78665622      -2.53789935
C       -0.60610788       2.90352165      -1.26021139
C        1.05580119      -0.71906503      -3.65067863
60
Properties=species:S:1:pos:R:3 trajectory=trial0001_proposal001_step004_proposal_relax trajectory_step=37 pbc="F F F"
C       -0.71123844       2.60379152       1.95646941
C       -1.15155668      -0.51958933       2.20221041
C        1.38680511      -1.47486383       1.54794517
C        0.22569095       0.41489594      -3.90954781
C        1.59162107       2.22688570      -2.83265174
C        0.02383107       0.61076208       0.26117829
C        0.65830606       2.75550594       1.57500174
C        0.60675145       1.47133923       3.45090943
C        0.64118855      -2.80903055      -2.49151183
C       -1.06503945      -0.11120216      -4.12207164
C        2.52783602       0.20201178      -1.69266886
C        1.06443001      -3.31080235      -0.12208040
C       -1.75989773       2.27438873       1.03680362
C        0.26002029      -1.98377579      -3.66293282
C       -0.99436710      -3.03638805      -0.70497763
C        2.20275763       0.87742024       1.95082703
C       -0.84736770      -2.63902502       0.74427781
C       -1.99230671       1.57586789      -2.58435949
C       -0.74072464       2.21436169      -2.52755738
C       -1.70720694       1.16434942       3.82133010
C       -2.91339060      -0.65028751      -2.95825342
C       -3.39735475       0.74326975      -0.81003075
C        1.69632815       3.29989876      -1.88590863
C        1.26006434       3.03678835       0.33813379
C        2.50429463       2.40084748       0.08705407
C        2.67440355       1.10057522       0.63290342
C       -3.24039374      -0.42013550      -1.62048019
C        1.43080887       1.94046314       2.42942272
C       -2.60190062       1.77535307      -1.29136583
C       -0.24695822       0.10191259       1.38273908
C       -2.50437333      -0.95929308       0.46027851
C       -2.15107467       0.45771721       2.67756481
C        2.83457947       2.63279502      -1.26423746
C       -1.04723938      -1.55118942      -3.93484781
C        1.67530400      -0.37550774       2.55863524
C       -3.08151551       0.33372739       0.53601259
C        0.65948450       3.37010476      -0.89562246
C        2.63801776       1.52848798      -2.15141481
C        2.54750747       0.01337516      -0.25275690
C        2.00833082      -1.18452256       0.30365974
C       -0.68307662       1.97345723       3.26490606
C       -1.71256057       2.49247452      -0.40769276
C        0.51993878      -2.77147888       1.15338396
C        0.03301315      -0.34597735       4.73364365
C       -0.78759367      -0.48562860       5.86716651
C       -2.47799565      -1.28349702      -0.88032837
C        1.62270804      -2.01072971      -1.93331402
C       -1.65132056      -1.61387579       1.35178453
C        1.78363869      -2.21912149      -0.58661197
C       -2.17988371       0.46033653      -3.45858535
C        0.16607282      -3.60248868      -1.25859426
C       -1.22334755       0.32579466       4.84197659
C       -2.05766479      -1.86728235      -3.00892652
C        0.35827560       1.69528650      -3.25099911
C       -2.60136437       1.20951079       1.51133364
C        0.89858404       0.11922659       3.74886070
C       -1.75859947      -2.21451290      -1.59506916
C        1.93630109      -0.79029348      -2.53509200
C       -0.60153696       2.90309419      -1.26156266
C        1.05738609      -0.72196200      -3.64930050
60
Properties=species:S:1:pos:R:3 trajectory=trial0001_proposal001_step004_proposal_relax trajectory_step=38 pbc="F F F"
C       -0.70740271       2.60477117       1.95444911
C       -1.15780619      -0.51920585       2.20411254
C        1.37674323      -1.47713059       1.54853623
C        0.23217583       0.41330907      -3.91166534
C        1.59869854       2.22297906      -2.83361581
C        0.02168557       0.60640360       0.26648996
C        0.66258896       2.75285446       1.57299961
C        0.60648020       1.47309367       3.45289791
C        0.63588510      -2.81096264      -2.48903223
C       -1.06002001      -0.10969040      -4.12441020
C        2.52503102       0.19577108      -1.68833141
C        1.05506926      -3.31503591      -0.11814470
C       -1.75414891       2.27377038       1.03386011
C        0.25792298      -1.98521797      -3.66084556
C       -1.00183449      -3.03409909      -0.70547939
C        2.20004469       0.87271557       1.95373468
C       -0.85732798      -2.63670128       0.74362859
C       -1.98616603       1.58050473      -2.58974696
C       -0.73353898       2.21687227      -2.53190376
C       -1.70826600       1.16954241       3.82011043
C       -2.91204718      -0.64365184      -2.96386547
C       -3.39569263       0.75110937      -0.81577145
C        1.70703239       3.29417059      -1.88584637
C        1.26693751       3.03161966       0.33703196
C        2.51048215       2.39356308       0.08866639
C        2.67381590       1.09341254       0.63677005
C       -3.23808341      -0.41213718      -1.62436765
C        1.43209178       1.93905678       2.43113932
C       -2.59523556       1.77934560      -1.29607538
C       -0.24469428       0.10016884       1.38918635
C       -2.50691990      -0.95067088       0.45702391
C       -2.15378945       0.46214414       2.67707310
C        2.84307964       2.62401300      -1.26283467
C       -1.04720499      -1.54898288      -3.93524590
C        1.66797351      -0.37799397       2.56079176
C       -3.08443109       0.34149167       0.53241310
C        0.66899283       3.36691658      -0.89716130
C        2.64082520       1.52091029      -2.14998402
C        2.54297248       0.00709026      -0.24885732
C        2.00511559      -1.19179250       0.30669161
C       -0.68231146       1.97717747       3.26437954
C       -1.70400070       2.49122613      -0.41078308
C        0.50892558      -2.77105680       1.15478966
C        0.02746447      -0.34100275       4.73863997
C       -0.79476803      -0.48045080       5.86954396
C       -2.47684742      -1.27502484      -0.88506771
C        1.61970487      -2.01718481      -1.92938017
C       -1.65876704      -1.60889352       1.34941690
C        1.78183179      -2.22669009      -0.58330336
C       -2.17441419       0.46477376      -3.46291245
C        0.15821180      -3.60227281      -1.25666443
C       -1.22762223       0.33110325       4.84433193
C       -2.05980024      -1.86295142      -3.01125112
C        0.36478179       1.69492909      -3.25502612
C       -2.60069380       1.21407364       1.50940869
C        0.89539484       0.12046313       3.75301473
C       -1.76087658      -2.20858095      -1.59672569
C        1.93559373      -0.79636892      -2.53073427
C       -0.59274514       2.90231060      -1.26407750
C        1.05933379      -0.72629040      -3.64696371
60
Properties=species:S:1:pos:R:3 trajectory=trial0001_proposal001_step004_proposal_relax trajectory_step=39 pbc="F F F"
C       -0.70199470       2.60631655       1.95151065
C       -1.16800242      -0.52059357       2.20786241
C        1.36219083      -1.48142340       1.55135609
C        0.24114617       0.41108558      -3.91505553
C        1.61118715       2.21663074      -2.83543873
C        0.01814173       0.60060316       0.27463789
C        0.66888766       2.74963984       1.57180362
C        0.60632609       1.47491504       3.45612149
C        0.62814148      -2.81502132      -2.48652804
C       -1.05268540      -0.10752426      -4.12871361
C        2.52200025       0.18580521      -1.68218928
C        1.04094284      -3.32124921      -0.11336746
C       -1.74645762       2.27443660       1.02884439
C        0.25554895      -1.98760599      -3.65948529
C       -1.01324240      -3.03083930      -0.70712712
C        2.19750703       0.86573268       1.95871105
C       -0.87204529      -2.63440126       0.74223411
C       -1.97621409       1.58690689      -2.59761129
C       -0.72109965       2.21870819      -2.53740171
C       -1.70989896       1.17677131       3.81778827
C       -2.91051885      -0.63364142      -2.97162147
C       -3.39300351       0.76393127      -0.82330674
C        1.72297947       3.28588917      -1.88561232
C        1.27729077       3.02455747       0.33658723
C        2.51918434       2.38271297       0.09159560
C        2.67339595       1.08235152       0.64248589
C       -3.23530828      -0.39916242      -1.63283098
C        1.43441479       1.93687057       2.43416220
C       -2.58532341       1.78690149      -1.30410064
C       -0.24415106       0.09421890       1.40254104
C       -2.51020773      -0.93881251       0.45027771
C       -2.15908207       0.46820414       2.67631349
C        2.85535042       2.61141412      -1.26003237
C       -1.04671626      -1.54623054      -3.93777888
C        1.65741700      -0.38183927       2.56513377
C       -3.08619102       0.35292861       0.52635690
C        0.68348236       3.36207372      -0.89887954
C        2.64678403       1.50921575      -2.14684229
C        2.53725781      -0.00312240      -0.24296878
C        1.99728088      -1.20114796       0.31205163
C       -0.68126307       1.98153093       3.26313297
C       -1.69245393       2.49192389      -0.41634899
C        0.49234730      -2.77234452       1.15715255
C        0.02061153      -0.33262292       4.74573301
C       -0.80200899      -0.46473346       5.87819841
C       -2.47622760      -1.26102377      -0.89153617
C        1.61338491      -2.02610700      -1.92420865
C       -1.67054304      -1.60355192       1.34591076
C        1.77415183      -2.23719282      -0.57784252
C       -2.16616128       0.47137633      -3.47017278
C        0.14556468      -3.60457039      -1.25463741
C       -1.23463715       0.34081080       4.84668831
C       -2.06225429      -1.85636105      -3.01602708
C        0.37621315       1.69352655      -3.26003201
C       -2.59952319       1.22129751       1.50611138
C        0.89058295       0.12181012       3.75984445
C       -1.76338979      -2.19944407      -1.60087740
C        1.93356047      -0.80545220      -2.52517933
C       -0.57911280       2.90087715      -1.26786229
C        1.06187411      -0.73234013      -3.64447380
60
Properties=species:S:1:pos:R:3 trajectory=trial0001_proposal001_step004_proposal_relax trajectory_step=40 pbc="F F F"
C       -0.69154453       2.60903819       1.94534295
C       -1.18928351      -0.52464592       2.21584835
C        1.33410794      -1.49058346       1.55858715
C        0.25824036       0.40669099      -3.92136425
C        1.63761697       2.20392381      -2.83930766
C        0.01076144       0.58859518       0.29416284
C        0.68130014       2.74391553       1.57075441
C        0.60593072       1.47875772       3.46236672
C        0.61274718      -2.82436314      -2.48177370
C       -1.03866976      -0.10358579      -4.13658344
C        2.51740390       0.16578163      -1.67053665
C        1.01246360      -3.33375794      -0.10411022
C       -1.73223853       2.27739504       1.01832462
C        0.25157852      -1.99236803      -3.65693107
C       -1.03657661      -3.02421568      -0.71056718
C        2.19356184       0.85243143       1.96947629
C       -0.90081293      -2.63054247       0.73943982
C       -1.95585269       1.59917358      -2.61284285
C       -0.69536454       2.22054098      -2.54731061
C       -1.71312375       1.19068110       3.81275373
C       -2.90775615      -0.61390544      -2.98692662
C       -3.38760806       0.79105425      -0.83786047
C        1.75437316       3.26999033      -1.88537439
C        1.29801019       3.01118651       0.33658093
C        2.53612057       2.36134149       0.09750277
C        2.67371100       1.06022086       0.65286049
C       -3.23143358      -0.37160571      -1.65004216
C        1.43993580       1.93186951       2.44053579
C       -2.56740771       1.80285475      -1.32003688
C       -0.24210000       0.08295705       1.42421666
C       -2.51670762      -0.91662243       0.43623371
C       -2.16955530       0.48031560       2.67426935
C        2.87902812       2.58699364      -1.25380020
C       -1.04542007      -1.54159735      -3.94292975
C        1.63612379      -0.38881084       2.57388347
C       -3.08767006       0.37581165       0.51485256
C        0.71192931       3.35191254      -0.90169797
C        2.65968411       1.48592729      -2.13994157
C        2.52784905      -0.02435558      -0.23129148
C        1.98065540      -1.21847901       0.32326864
C       -0.67878179       1.98917762       3.25991802
C       -1.67116114       2.49611045      -0.42823621
C        0.45973354      -2.77595770       1.16156006
C        0.00663925      -0.31616653       4.75924697
C       -0.81624133      -0.43221621       5.89468031
C       -2.47558480      -1.23356780      -0.90347962
C        1.60147145      -2.04255897      -1.91386019
C       -1.69441100      -1.59403426       1.33938945
C        1.75656427      -2.25699000      -0.56733407
C       -2.15040360       0.48386009      -3.48430695
C        0.11999911      -3.61073224      -1.25054523
C       -1.24885548       0.36087530       4.85026530
C       -2.06686879      -1.84342560      -3.02585153
C        0.40009792       1.69034599      -3.26910527
C       -2.59725971       1.23578604       1.49899019
C        0.88112232       0.12436108       3.77275292
C       -1.76890877      -2.18094501      -1.60921311
C        1.92898921      -0.82430634      -2.51481759
C       -0.55140586       2.89788308      -1.27525616
C        1.06669000      -0.74380527      -3.63977441
60
Properties=species:S:1:pos:R:3 trajectory=trial0001_proposal001_step004_proposal_relax trajectory_step=41 pbc="F F F"
C       -0.68261964       2.61085140       1.93964703
C       -1.20663929      -0.52777583       2.22087978
C        1.31122344      -1.49885720       1.56586420
C        0.27232389       0.40273829      -3.92569090
C        1.66182094       2.19299387      -2.84259569
C        0.00623837       0.58098527       0.30780723
C        0.69262371       2.73961370       1.57060351
C        0.60585682       1.48218171       3.46736986
C        0.60039020      -2.83301865      -2.47738729
C       -1.02723082      -0.10088525      -4.14223226
C        2.51522358       0.14794658      -1.66127466
C        0.98743245      -3.34462215      -0.09627512
C       -1.72111709       2.28193917       1.00876236
C        0.24850636      -1.99665354      -3.65423223
C       -1.05711385      -3.01844084      -0.71355159
C        2.19165789       0.84132389       1.97853058
C       -0.92529525      -2.62746634       0.73726776
C       -1.93809154       1.60907759      -2.62527935
C       -0.67240113       2.22043104      -2.55454561
C       -1.71604489       1.20266458       3.80762225
C       -2.90575972      -0.59710670      -2.99992057
C       -3.38324937       0.81560860      -0.84959739
C        1.78109228       3.25685988      -1.88534267
C        1.31558281       3.00035714       0.33769637
C        2.55025588       2.34286960       0.10271203
C        2.67528797       1.04140394       0.66149983
C       -3.22943007      -0.34742065      -1.66316857
C        1.44519532       1.92754111       2.44640117
C       -2.55341452       1.81825058      -1.33367714
C       -0.24238501       0.07039508       1.44379469
C       -2.52217027      -0.89848240       0.42658876
C       -2.17761706       0.49100402       2.67133224
C        2.89842044       2.56647215      -1.24813946
C       -1.04378484      -1.53836835      -3.94691024
C        1.61740671      -0.39388435       2.58119803
C       -3.08768049       0.39552820       0.50467907
C        0.73630510       3.34262184      -0.90358948
C        2.67162077       1.46613311      -2.13332601
C        2.52233912      -0.04310532      -0.22149644
C        1.96591070      -1.23322905       0.33322296
C       -0.67646323       1.99485963       3.25601655
C       -1.65474371       2.50270325      -0.43890163
C        0.43218935      -2.77978155       1.16526321
C       -0.00663209      -0.30258905       4.76989060
C       -0.83001684      -0.40554457       5.90506355
C       -2.47645629      -1.21100118      -0.91614817
C        1.59153241      -2.05735713      -1.90478704
C       -1.71559383      -1.58656488       1.33411064
C        1.74031019      -2.27202812      -0.55836037
C       -2.13760992       0.49407461      -3.49571466
C        0.09757704      -3.61672557      -1.24669511
C       -1.26092599       0.37789945       4.85267553
C       -2.07116821      -1.83246256      -3.03358542
C        0.42165395       1.68714464      -3.27593602
C       -2.59478958       1.24866521       1.49268019
C        0.87283099       0.12672895       3.78275819
C       -1.77538486      -2.16452078      -1.61533120
C        1.92582537      -0.83989371      -2.50627959
C       -0.52779500       2.89491764      -1.28138110
C        1.07042403      -0.75338460      -3.63553162
60
Properties=species:S:1:pos:R:3 trajectory=trial0001_proposal001_step004_proposal_relax trajectory_step=42 pbc="F F F"
C       -0.67014730       2.61246766       1.93182136
C       -1.22865532      -0.53059239       2.22615484
C        1.28277320      -1.50960515       1.57512549
C        0.29005587       0.39687083      -3.92964259
C        1.69344076       2.17854981      -2.84581445
C        0.00173794       0.57252364       0.32578208
C        0.70805181       2.73420664       1.57094893
C        0.60608734       1.48733220       3.47361070
C        0.58556541      -2.84409303      -2.47025525
C       -1.01303446      -0.09806204      -4.14780302
C        2.51401657       0.12481276      -1.64988429
C        0.95559833      -3.35714467      -0.08707863
C       -1.70728932       2.29012481       0.99661398
C        0.24491008      -2.00298858      -3.64898399
C       -1.08383528      -3.01028932      -0.71688181
C        2.19061159       0.82706774       1.98902237
C       -0.95687807      -2.62269165       0.73485829
C       -1.91563923       1.62142948      -2.63936731
C       -0.64284781       2.21907547      -2.56281159
C       -1.71997064       1.21785179       3.79979864
C       -2.90384088      -0.57552716      -3.01465774
C       -3.37842923       0.84699534      -0.86377007
C        1.81539511       3.24059053      -1.88486508
C        1.33806789       2.98710878       0.33940618
C        2.56784757       2.31932877       0.10950478
C        2.67879113       1.01772671       0.67211114
C       -3.22752462      -0.31715282      -1.67951413
C        1.45245039       1.92194437       2.45312888
C       -2.53640941       1.84032393      -1.35064125
C       -0.24108979       0.05436708       1.46326065
C       -2.53050872      -0.87584134       0.41454076
C       -2.18673729       0.50559828       2.66562135
C        2.92236857       2.53994968      -1.24059250
C       -1.04163062      -1.53482654      -3.95030950
C        1.59285601      -0.39901820       2.58967005
C       -3.08762189       0.42068028       0.49081325
C        0.76745121       3.32956041      -0.90590959
C        2.68770092       1.44055812      -2.12438814
C        2.51768732      -0.06727931      -0.20944128
C        1.94811556      -1.25222410       0.34601944
C       -0.67402862       2.00177710       3.24990689
C       -1.63483474       2.51364588      -0.45213759
C        0.39688811      -2.78555317       1.16962389
C       -0.02438478      -0.28666099       4.78098967
C       -0.85197135      -0.37756153       5.91324908
C       -2.47898889      -1.18187071      -0.93013608
C        1.57961354      -2.07666808      -1.89391574
C       -1.74266194      -1.57646540       1.32820381
C        1.71945530      -2.29103330      -0.54529521
C       -2.12202711       0.50724385      -3.50916993
C        0.06787166      -3.62357632      -1.24112509
C       -1.27622274       0.39970363       4.85455171
C       -2.07718374      -1.81799425      -3.04247166
C        0.45000848       1.68271568      -3.28409277
C       -2.59070854       1.26600021       1.48332653
C        0.86056094       0.13069250       3.79460062
C       -1.78527900      -2.14536248      -1.62289472
C        1.92266740      -0.85962698      -2.49518742
C       -0.49813876       2.89079758      -1.28898036
C        1.07530919      -0.76629677      -3.62919466
60
Properties=species:S:1:pos:R:3 trajectory=trial0001_proposal001_step004_proposal_relax trajectory_step=43 pbc="F F F"
C       -0.61718506       2.62019718       1.90213917
C       -1.31720754      -0.53836879       2.24563412
C        1.16777634      -1.55080804       1.60960171
C        0.36119978       0.37013473      -3.94151606
C        1.81733863       2.11757102      -2.85375495
C       -0.01507949       0.53996513       0.39590415
C        0.76987312       2.71321289       1.57089370
C        0.60593438       1.50918234       3.49684318
C        0.52392748      -2.88861423      -2.44320632
C       -0.95657434      -0.08609633      -4.17115894
C        2.51192658       0.03332945      -1.60184654
C        0.82644951      -3.40626275      -0.04959080
C       -1.64872031       2.32573084       0.95141633
C        0.22999366      -2.03073055      -3.62851395
C       -1.18958341      -2.97569629      -0.72960344
C        2.18360881       0.77047578       2.03084792
C       -1.08235123      -2.60096989       0.72470732
C       -1.82554412       1.67096204      -2.69283555
C       -0.52785466       2.21570474      -2.59575681
C       -1.73744918       1.27950283       3.76691848
C       -2.89269820      -0.48856837      -3.07491143
C       -3.35808590       0.96933847      -0.92595606
C        1.95274684       3.17360582      -1.88186272
C        1.42693037       2.93453881       0.34459286
C        2.63554445       2.22626243       0.13713329
C        2.69352223       0.92410869       0.71316624
C       -3.22031603      -0.19694357      -1.73944636
C        1.48305917       1.89774813       2.47832536
C       -2.46912245       1.92397401      -1.41279031
C       -0.23290261      -0.01172549       1.54084447
C       -2.56579612      -0.78282479       0.36461512
C       -2.22274251       0.56644957       2.63914020
C        3.01738012       2.43135659      -1.20919483
C       -1.03560486      -1.52010968      -3.96330137
C        1.49701034      -0.41884392       2.62140626
C       -3.08867437       0.52339120       0.43741781
C        0.88868396       3.27805122      -0.91679177
C        2.75286054       1.33749249      -2.08908761
C        2.49754477      -0.16207933      -0.16028837
C        1.87880643      -1.32687450       0.39479855
C       -0.66339068       2.03002714       3.22584450
C       -1.55110719       2.55610254      -0.50136546
C        0.25618852      -2.80975155       1.18884938
C       -0.09608480      -0.22572988       4.82338947
C       -0.94375080      -0.27195103       5.94294373
C       -2.48659016      -1.07340256      -0.98297365
C        1.53455025      -2.15029252      -1.84865709
C       -1.84961953      -1.53360640       1.30421404
C        1.63788660      -2.36490828      -0.49586363
C       -2.06072767       0.56141222      -3.56182453
C       -0.04865240      -3.64515165      -1.22052873
C       -1.33747236       0.48488122       4.85802607
C       -2.10074645      -1.75863395      -3.07690405
C        0.56064216       1.66208325      -3.31378476
C       -2.57254228       1.33647315       1.44113729
C        0.81199910       0.14726307       3.83955304
C       -1.82904891      -2.07289775      -1.65272093
C        1.91035527      -0.94168058      -2.44951208
C       -0.38002140       2.87670376      -1.31835229
C        1.09494822      -0.82009519      -3.60135682
60
Properties=species:S:1:pos:R:3 trajectory=trial0001_proposal001_step004_proposal_relax trajectory_step=44 pbc="F F F"
C       -0.54612188       2.63049771       1.86325311
C       -1.43078789      -0.54305202       2.26467876
C        1.01689101      -1.60283787       1.65085370
C        0.45447361       0.33275443      -3.95339879
C        1.97647441       2.03592794      -2.86126321
C       -0.03427165       0.50003129       0.48474720
C        0.85231800       2.68504971       1.56912296
C        0.60645917       1.53828944       3.52560580
C        0.44465953      -2.94447004      -2.40542407
C       -0.88306264      -0.07125055      -4.19859607
C        2.51137747      -0.08556657      -1.53958603
C        0.65847200      -3.46686976      -0.00077199
C       -1.57093312       2.37344365       0.89324275
C        0.20785602      -2.06708445      -3.59857930
C       -1.32676757      -2.92939304      -0.74557394
C        2.17341483       0.69655447       2.08322508
C       -1.24623515      -2.57048534       0.71185434
C       -1.70917528       1.73560897      -2.75981033
C       -0.38014465       2.21205637      -2.63789667
C       -1.75992537       1.36080935       3.72286688
C       -2.87845131      -0.37436197      -3.14940211
C       -3.33124449       1.12794692      -1.00583622
C        2.13179680       3.08464006      -1.87674351
C        1.54237413       2.86549645       0.34982154
C        2.72398113       2.10444196       0.17291106
C        2.71304560       0.80338386       0.76799926
C       -3.20958913      -0.04490847      -1.81784723
C        1.52212381       1.86636951       2.51048274
C       -2.37988055       2.03381859      -1.49227311
C       -0.21652323      -0.09896429       1.63815665
C       -2.61248797      -0.66252956       0.30353466
C       -2.26574600       0.64785518       2.60080352
C        3.14051581       2.28858002      -1.16823481
C       -1.02805501      -1.50077167      -3.97580639
C        1.36942251      -0.44164624       2.65961187
C       -3.09311894       0.65830259       0.36603133
C        1.04729151       3.21111103      -0.93071110
C        2.83666272       1.20236811      -2.04347068
C        2.47275696      -0.28457679      -0.09614619
C        1.79258691      -1.42516724       0.45761889
C       -0.64875444       2.06807062       3.19362576
C       -1.44188449       2.61133040      -0.56371194
C        0.07229597      -2.83946783       1.21380644
C       -0.19201661      -0.14860614       4.87405791
C       -1.07256309      -0.14975130       5.96995708
C       -2.49993900      -0.93345999      -1.04859235
C        1.47692705      -2.24838719      -1.79071403
C       -1.98932573      -1.47253518       1.27180357
C        1.53503677      -2.46297140      -0.42953720
C       -1.98000186       0.63170082      -3.62812385
C       -0.20127424      -3.66728471      -1.19305263
C       -1.41784127       0.59414327       4.85954821
C       -2.13295920      -1.68024497      -3.11948741
C        0.70393949       1.63397706      -3.35050883
C       -2.54645615       1.43009040       1.38568110
C        0.74725818       0.17007910       3.89679760
C       -1.88899128      -1.98268711      -1.68935426
C        1.89783540      -1.04822484      -2.38837009
C       -0.22854527       2.85859360      -1.35581063
C        1.12027542      -0.89215193      -3.56202729
60
Properties=species:S:1:pos:R:3 trajectory=trial0001_proposal001_step004_proposal_relax trajectory_step=45 pbc="F F F"
C       -0.46712808       2.63752507       1.81974253
C       -1.53468457      -0.52829707       2.25528255
C        0.86992626      -1.65229074       1.68753187
C        0.54505196       0.28664092      -3.94681616
C        2.13744630       1.94769492      -2.86059287
C       -0.03602958       0.47793907       0.55818734
C        0.94098276       2.65778066       1.56779553
C        0.60909827       1.56952923       3.54842409
C        0.36948006      -3.00002657      -2.35915817
C       -0.81227201      -0.06357254      -4.20900536
C        2.53046173      -0.20386637      -1.47999070
C        0.48862695      -3.51668665       0.04831102
C       -1.49567066       2.43622956       0.83504043
C        0.18228840      -2.10411251      -3.55242594
C       -1.46604925      -2.87693093      -0.75799849
C        2.16496698       0.62631767       2.13151346
C       -1.41035676      -2.53393482       0.70210198
C       -1.59284622       1.79678012      -2.81585371
C       -0.23504302       2.20076690      -2.67074251
C       -1.78151734       1.44545824       3.67126227
C       -2.86607543      -0.25980372      -3.21366953
C       -3.30284764       1.29049449      -1.08188640
C        2.30993701       2.99409279      -1.86854249
C        1.65925557       2.79681347       0.35622444
C        2.80896472       1.98167653       0.20936648
C        2.74228121       0.68582663       0.82221777
C       -3.20827953       0.10539354      -1.88558855
C        1.56517962       1.83361280       2.54088319
C       -2.29762696       2.15321923      -1.56621559
C       -0.18531674      -0.19741003       1.71151759
C       -2.66780771      -0.54651929       0.25361926
C       -2.28839314       0.73779386       2.54593863
C        3.25536392       2.14376361      -1.12608527
C       -1.02305740      -1.48462340      -3.96926566
C        1.22824248      -0.44831159       2.68380140
C       -3.09621869       0.79816886       0.29672687
C        1.20262513       3.14104133      -0.94267468
C        2.92077629       1.06662890      -1.99601676
C        2.46865495      -0.40818066      -0.03159884
C        1.71878822      -1.52258601       0.51962972
C       -0.63002779       2.10372459       3.15278606
C       -1.34231805       2.68426013      -0.62391472
C       -0.11079164      -2.86598767       1.23752908
C       -0.29979462      -0.08134494       4.89947347
C       -1.24346957      -0.09223759       5.93748491
C       -2.53000248      -0.80828286      -1.10242374
C        1.43242832      -2.35062644      -1.73188745
C       -2.12863791      -1.40307256       1.24100361
C        1.43633557      -2.55955271      -0.36073107
C       -1.90195172       0.69676720      -3.68189901
C       -0.35681566      -3.67420448      -1.16103341
C       -1.50214085       0.70028546       4.84367520
C       -2.17090110      -1.59974683      -3.15135717
C        0.84977734       1.59934439      -3.37648865
C       -2.51309095       1.52953734       1.32436075
C        0.67630460       0.19779138       3.94613957
C       -1.96854924      -1.90240188      -1.71432433
C        1.89757655      -1.15851596      -2.32675999
C       -0.08241905       2.84041989      -1.38807946
C        1.14276486      -0.96657741      -3.50951335
60
Properties=species:S:1:pos:R:3 trajectory=trial0001_proposal001_step004_proposal_relax trajectory_step=46 pbc="F F F"
C       -0.46645383       2.62986638       1.81796703
C       -1.49144072      -0.49382486       2.20317274
C        0.90742076      -1.63799030       1.66881889
C        0.52224521       0.27698834      -3.90687353
C        2.10718090       1.95180926      -2.84377603
C        0.00490636       0.51783277       0.51101045
C        0.93978773       2.66593383       1.56769899
C        0.61210818       1.56845446       3.53081255
C        0.39337984      -2.98846902      -2.35134697
C       -0.83226945      -0.07835745      -4.17270468
C        2.57049443      -0.18873554      -1.49535599
C        0.51574407      -3.48450861       0.03909244
C       -1.51272889       2.46206451       0.84634101
C        0.17833334      -2.10153092      -3.52772697
C       -1.44335962      -2.87670186      -0.74553686
C        2.17120852       0.64532033       2.11078910
C       -1.37929687      -2.53011342       0.71030847
C       -1.61724912       1.77663588      -2.77997466
C       -0.26603407       2.18694670      -2.64203191
C       -1.77703827       1.44039882       3.66078274
C       -2.87578172      -0.28015053      -3.17376291
C       -3.30567187       1.26332307      -1.05741102
C        2.27177897       3.00862366      -1.86298173
C        1.63717686       2.81336869       0.35608556
C        2.78627579       2.00389486       0.20313910
C        2.75869023       0.71513046       0.81324957
C       -3.22513352       0.06434783      -1.85065706
C        1.56567984       1.84228145       2.53252338
C       -2.32622013       2.15257238      -1.54187092
C       -0.16859827      -0.19074938       1.64015007
C       -2.67826014      -0.57408434       0.28597014
C       -2.24391273       0.73835143       2.52062948
C        3.21836527       2.16693620      -1.12750544
C       -1.03023473      -1.49534472      -3.93138637
C        1.23654705      -0.41913231       2.65432072
C       -3.09349753       0.78081058       0.30826423
C        1.16746052       3.14938506      -0.93490377
C        2.91228713       1.08969139      -2.00069168
C        2.51407543      -0.38621303      -0.04346950
C        1.75889918      -1.50387431       0.50362134
C       -0.62498347       2.09250719       3.14129154
C       -1.37981921       2.71075415      -0.60453271
C       -0.07420472      -2.85601256       1.23443698
C       -0.30504643      -0.11821364       4.83969960
C       -1.30385023      -0.24306914       5.82084864
C       -2.56933697      -0.85505568      -1.06967434
C        1.46480471      -2.34093249      -1.74457339
C       -2.10321968      -1.40247832       1.24939366
C        1.46311291      -2.53278516      -0.36574629
C       -1.92124224       0.67629749      -3.64446923
C       -0.33065522      -3.64074010      -1.16066165
C       -1.49752800       0.67376100       4.80557270
C       -2.17794262      -1.61205145      -3.11971379
C        0.82470994       1.58862475      -3.34447521
C       -2.50031506       1.52930141       1.32183837
C        0.68111923       0.20168230       3.91487440
C       -1.99702415      -1.94038934      -1.68986988
C        1.92971708      -1.14329913      -2.33216270
C       -0.12348731       2.84557601      -1.37101330
C        1.13378006      -0.96104940      -3.49080789
60
Properties=species:S:1:pos:R:3 trajectory=trial0001_proposal001_step004_proposal_relax trajectory_step=47 pbc="F F F"
C       -0.41104137       2.63895512       1.79195466
C       -1.51826798      -0.45249403       2.17754224
C        0.79663124      -1.64736934       1.66599364
C        0.57175561       0.24005667      -3.88027104
C        2.17705278       1.88135092      -2.82474298
C        0.01551327       0.49801913       0.54840674
C        0.99433065       2.64686662       1.56112997
C        0.61350133       1.57920532       3.54254070
C        0.34091727      -3.00658626      -2.32118281
C       -0.78808056      -0.07573777      -4.16682405
C        2.59401556      -0.27802790      -1.45092972
C        0.41852487      -3.49072169       0.06235253
C       -1.45236378       2.51090443       0.81376882
C        0.15168760      -2.11968382      -3.48468456
C       -1.52035209      -2.84471644      -0.74560908
C        2.15062392       0.60563336       2.13370427
C       -1.48016431      -2.49711525       0.70674979
C       -1.55536285       1.80961108      -2.80329920
C       -0.19364051       2.19136550      -2.65258273
C       -1.77759163       1.50688414       3.61125855
C       -2.85390644      -0.21443541      -3.19970167
C       -3.27445353       1.33133351      -1.10275947
C        2.36972165       2.93707767      -1.84762387
C        1.70800327       2.76427079       0.35179806
C        2.83676547       1.93339340       0.22628614
C        2.76558256       0.64645759       0.85534584
C       -3.21328271       0.14113121      -1.88543561
C        1.58735500       1.83154695       2.54390436
C       -2.25108458       2.21091504      -1.58241745
C       -0.11033780      -0.24211783       1.68795518
C       -2.73421823      -0.48136874       0.24146315
C       -2.23998186       0.79919723       2.47630257
C        3.29093788       2.07493366      -1.10285258
C       -1.04293330      -1.47989036      -3.91332606
C        1.12978576      -0.41276452       2.64432664
C       -3.09829968       0.86670496       0.26769802
C        1.25208541       3.11838001      -0.94047972
C        2.96609326       1.00130204      -1.97501760
C        2.50808552      -0.45522679      -0.00276716
C        1.72205177      -1.56147094       0.53445746
C       -0.60628588       2.12368183       3.12033779
C       -1.29669323       2.74550399      -0.63117829
C       -0.18629960      -2.85437528       1.24743685
C       -0.39067391      -0.08425058       4.83521820
C       -1.44835941      -0.26448983       5.73641934
C       -2.61612090      -0.79540384      -1.08575329
C        1.43630077      -2.40931696      -1.70410267
C       -2.16517592      -1.34842660       1.22536469
C        1.41392081      -2.59478109      -0.32391338
C       -1.86352494       0.71636517      -3.66039691
C       -0.40794825      -3.61810326      -1.15008996
C       -1.54806482       0.71046293       4.78482356
C       -2.20385029      -1.56578872      -3.13020905
C        0.89130751       1.54606861      -3.33417000
C       -2.47364777       1.60174128       1.27019786
C        0.64504021       0.22121825       3.93996633
C       -2.06555788      -1.89567693      -1.70468766
C        1.94361778      -1.22105565      -2.28814073
C       -0.04360142       2.85077834      -1.38066143
C        1.14541611      -1.01630474      -3.44386110
60
Properties=species:S:1:pos:R:3 trajectory=trial0001_proposal001_step004_proposal_relax trajectory_step=48 pbc="F F F"
C       -0.42355870       2.64824683       1.80680770
C       -1.47230500      -0.44185233       2.17320215
C        0.80568100      -1.62325196       1.63222190
C        0.54855532       0.24108196      -3.87110677
C        2.11630225       1.88342892      -2.80604463
C        0.01481085       0.48663130       0.53496081
C        0.96902328       2.65125733       1.55281040
C        0.61574951       1.56901507       3.53723587
C        0.34495873      -2.98087439      -2.33427149
C       -0.80110120      -0.07439748      -4.16239672
C        2.59288691      -0.25995154      -1.45555698
C        0.45551985      -3.46802044       0.05100485
C       -1.45423256       2.49412437       0.82778117
C        0.14481542      -2.10330709      -3.49392202
C       -1.48642380      -2.85506253      -0.74696566
C        2.13561647       0.62538867       2.12393789
C       -1.44405046      -2.49923614       0.70553346
C       -1.57934187       1.79982546      -2.78678913
C       -0.23688831       2.20808174      -2.64399449
C       -1.76303591       1.49158341       3.62080610
C       -2.83874369      -0.24167574      -3.18472034
C       -3.25818891       1.28240017      -1.09673564
C        2.31906067       2.93788804      -1.84359089
C        1.67951356       2.77271281       0.34450470
C        2.82232325       1.95967523       0.21985888
C        2.74158979       0.67407516       0.84614803
C       -3.20073044       0.10026691      -1.87646196
C        1.57256248       1.84023314       2.53691739
C       -2.25260872       2.15551591      -1.55438718
C       -0.09321244      -0.20212493       1.68968235
C       -2.72663253      -0.50656719       0.25618826
C       -2.22911410       0.78666935       2.48273031
C        3.27549279       2.10151183      -1.11380538
C       -1.04897269      -1.47850021      -3.91543885
C        1.15367916      -0.40662383       2.63285630
C       -3.10128888       0.84744479       0.28398089
C        1.21693881       3.14779779      -0.93420386
C        2.94813303       1.01890307      -1.98601546
C        2.48898877      -0.42450914      -0.01261646
C        1.73289621      -1.53411589       0.52157871
C       -0.60156622       2.13013150       3.13719519
C       -1.29573666       2.70837276      -0.61218993
C       -0.14580194      -2.83191528       1.23877378
C       -0.36486119      -0.10027214       4.81755909
C       -1.42706597      -0.29805626       5.72362824
C       -2.62436502      -0.83875325      -1.07542427
C        1.44075251      -2.38618521      -1.70916742
C       -2.11481203      -1.33821026       1.22088143
C        1.44491577      -2.57684589      -0.34945843
C       -1.87149324       0.70089327      -3.64164355
C       -0.36215843      -3.60046825      -1.16584603
C       -1.53723696       0.68056236       4.76859267
C       -2.19780540      -1.58661143      -3.12298957
C        0.83419599       1.53888764      -3.30340431
C       -2.47769127       1.58626262       1.27636374
C        0.66424109       0.20721367       3.93687469
C       -2.05016026      -1.91621561      -1.69557004
C        1.94260168      -1.21315292      -2.29914135
C       -0.07472954       2.87096283      -1.37088717
C        1.13956562      -1.00667234      -3.45083767
60
Properties=species:S:1:pos:R:3 trajectory=trial0001_proposal001_step004_proposal_relax trajectory_step=49 pbc="F F F"
C       -0.38860094       2.65990694       1.79247794
C       -1.50826351      -0.42556426       2.16717815
C        0.72652624      -1.64164381       1.63522843
C        0.58501466       0.21583273      -3.86076660
C        2.17189381       1.82716550      -2.78967072
C        0.01039457       0.46864048       0.56725180
C        1.00576098       2.63698348       1.54933774
C        0.61849807       1.58351269       3.54977506
C        0.30281071      -2.99890575      -2.31606495
C       -0.76925302      -0.07058012      -4.16630978
C        2.60092186      -0.31895137      -1.42854060
C        0.37683211      -3.48704576       0.07231505
C       -1.41316954       2.51692480       0.80133644
C        0.12626263      -2.11339910      -3.47587971
C       -1.54719525      -2.82984666      -0.75808550
C        2.12503007       0.59958232       2.14760141
C       -1.51484628      -2.47782546       0.69525273
C       -1.52446923       1.82944200      -2.81174841
C       -0.17478463       2.21210867      -2.65836308
C       -1.76685757       1.52672521       3.59751707
C       -2.82115404      -0.19194065      -3.21570433
C       -3.22822819       1.35524501      -1.13511196
C        2.38969352       2.88283319      -1.83673603
C        1.72901981       2.73898941       0.34749328
C        2.86211183       1.90302949       0.23546445
C        2.74132732       0.62366264       0.86732613
C       -3.19390312       0.16259328      -1.91414464
C        1.58776833       1.82475332       2.55240025
C       -2.20426053       2.18823256      -1.57648898
C       -0.06455089      -0.23676177       1.74002441
C       -2.75035243      -0.45983064       0.23604208
C       -2.23319940       0.83319327       2.45446775
C        3.33154269       2.03306644      -1.09506512
C       -1.04627842      -1.47035284      -3.91720479
C        1.07969943      -0.40379715       2.64403196
C       -3.10195690       0.91216507       0.24994072
C        1.28948140       3.12538859      -0.93461212
C        2.98392924       0.94861904      -1.96182610
C        2.47208011      -0.47653527       0.01986644
C        1.68736420      -1.57233946       0.54725121
C       -0.58350159       2.15358353       3.12636744
C       -1.24276629       2.72620678      -0.63475531
C       -0.22699427      -2.83244956       1.24069487
C       -0.40963588      -0.07206786       4.82241225
C       -1.50667020      -0.27940710       5.70519491
C       -2.64853820      -0.79250389      -1.09508294
C        1.41647365      -2.42696201      -1.68547384
C       -2.15678429      -1.28844941       1.19905176
C        1.40426359      -2.61676350      -0.31805278
C       -1.82995745       0.72868185      -3.66269126
C       -0.43174073      -3.59668771      -1.15465455
C       -1.58383855       0.73101762       4.73968478
C       -2.21278193      -1.55462672      -3.14096501
C        0.88596795       1.51240238      -3.29487204
C       -2.45819447       1.63510252       1.24924737
C        0.63850068       0.21634286       3.96518234
C       -2.08183202      -1.88577376      -1.70628823
C        1.94072091      -1.26924073      -2.27086125
C       -0.00600187       2.87417318      -1.38709623
C        1.14613117      -1.04223818      -3.42926921
60
Properties=species:S:1:pos:R:3 trajectory=trial0001_proposal001_step004_proposal_relax trajectory_step=50 pbc="F F F"
C       -0.41497576       2.66725930       1.81103666
C       -1.49376279      -0.43508015       2.18458256
C        0.76215025      -1.63857477       1.62865142
C        0.55950038       0.23114813      -3.86930442
C        2.12668188       1.83749208      -2.78106614
C       -0.00508021       0.46867182       0.55276994
C        0.97880047       2.64150091       1.55395993
C        0.61974495       1.57854066       3.55282652
C        0.31732913      -2.98530232      -2.33366194
C       -0.78683251      -0.07121084      -4.17473715
C        2.58249283      -0.28856826      -1.44800408
C        0.41922195      -3.48430234       0.05776571
C       -1.43108677       2.48502979       0.81597622
C        0.13480101      -2.10139621      -3.50291098
C       -1.51215854      -2.84335981      -0.76431387
C        2.13130906       0.61981666       2.14127845
C       -1.46907179      -2.48495441       0.68838228
C       -1.54906088       1.81768261      -2.80532701
C       -0.20532095       2.22146708      -2.65565788
C       -1.76087605       1.49699533       3.61425789
C       -2.81878444      -0.22243423      -3.21030228
C       -3.22926246       1.32188955      -1.11586544
C        2.34175614       2.89806103      -1.83958773
C        1.69807701       2.75710656       0.35104796
C        2.84044112       1.93218186       0.22432215
C        2.72089086       0.65473228       0.84637353
C       -3.19206918       0.12622237      -1.90989986
C        1.57373582       1.82996101       2.54790018
C       -2.21410295       2.14575455      -1.55242826
C       -0.09215956      -0.20720765       1.74287670
C       -2.72455950      -0.49631499       0.24281120
C       -2.23325777       0.81200082       2.47334761
C        3.30534811       2.06801359      -1.10653832
C       -1.04139198      -1.47579648      -3.93793958
C        1.12629014      -0.40371193       2.66256388
C       -3.09621445       0.87004875       0.26324832
C        1.25740617       3.14742011      -0.92870348
C        2.95777910       0.97702851      -1.96781824
C        2.45290414      -0.44236421       0.00458550
C        1.68233628      -1.54069711       0.53117605
C       -0.58489073       2.14679680       3.14624511
C       -1.26929516       2.69251565      -0.61993444
C       -0.18096654      -2.82333124       1.22373739
C       -0.37946132      -0.08443774       4.83256149
C       -1.42582549      -0.24132911       5.74531888
C       -2.63330572      -0.82363035      -1.08055633
C        1.41726349      -2.39276939      -1.70804163
C       -2.10454826      -1.30165241       1.20349532
C        1.42034140      -2.59029564      -0.33287228
C       -1.84582888       0.71399392      -3.65809124
C       -0.40346485      -3.60603709      -1.16186061
C       -1.56406053       0.70457058       4.74430925
C       -2.19410797      -1.57941367      -3.14684820
C        0.84896018       1.51908052      -3.28204510
C       -2.46671604       1.60546257       1.27282686
C        0.66386583       0.20815272       3.96148753
C       -2.04315248      -1.90715809      -1.70701349
C        1.92935863      -1.23514898      -2.29271681
C       -0.03518591       2.88354475      -1.38578630
C        1.13751036      -1.02004749      -3.45685855
60
Properties=species:S:1:pos:R:3 trajectory=trial0001_proposal001_step004_proposal_relax trajectory_step=51 pbc="F F F"
C       -0.39966237       2.67140397       1.80993532
C       -1.50912946      -0.42430787       2.18351083
C        0.73564132      -1.65040291       1.63864891
C        0.57004326       0.22249053      -3.86393380
C        2.14968944       1.80981300      -2.76806991
C       -0.01026041       0.46487051       0.56737552
C        0.99340922       2.63582885       1.55779619
C        0.62535798       1.58526425       3.56297765
C        0.30468538      -2.99129480      -2.32682936
C       -0.77487125      -0.07113471      -4.17985888
C        2.58272862      -0.31039015      -1.43695921
C        0.39192042      -3.49307234       0.05977911
C       -1.41674120       2.49189678       0.81066688
C        0.13241574      -2.11057770      -3.50009777
C       -1.53472200      -2.83354550      -0.76714519
C        2.13296928       0.60703829       2.14830171
C       -1.49080126      -2.47052202       0.68146788
C       -1.52691763       1.82860342      -2.81264049
C       -0.18130854       2.22360041      -2.66028986
C       -1.76026373       1.51375063       3.60031511
C       -2.81259417      -0.20612795      -3.22078807
C       -3.22644248       1.33759810      -1.12528656
C        2.37182671       2.87648505      -1.83435542
C        1.71798116       2.74746655       0.35564992
C        2.84852947       1.91255244       0.22967113
C        2.71863497       0.63868240       0.85598149
C       -3.18999457       0.14417605      -1.91480619
C        1.57875310       1.82632674       2.55369932
C       -2.18518757       2.16485405      -1.56575079
C       -0.10138660      -0.21949330       1.75362817
C       -2.72894895      -0.47561241       0.24173156
C       -2.23327024       0.82868078       2.45970720
C        3.32085729       2.04041027      -1.09939230
C       -1.03992674      -1.47496260      -3.94522417
C        1.11045609      -0.39901223       2.67620361
C       -3.09079255       0.89139294       0.25332798
C        1.28217924       3.13705688      -0.92932029
C        2.96855045       0.95027214      -1.95486777
C        2.44303974      -0.45950732       0.00970258
C        1.65874147      -1.54968273       0.53885161
C       -0.58503755       2.15335990       3.14314712
C       -1.24591966       2.70211411      -0.62780030
C       -0.21308859      -2.82738470       1.21910878
C       -0.39429000      -0.07251235       4.83211201
C       -1.44712045      -0.21773092       5.74236856
C       -2.64016183      -0.81183928      -1.10780425
C        1.40102773      -2.41285471      -1.69344062
C       -2.11553346      -1.28583903       1.19303913
C        1.39600039      -2.60565662      -0.33229469
C       -1.83094227       0.72525873      -3.66838357
C       -0.43085070      -3.60827259      -1.15822757
C       -1.57587120       0.71267951       4.74084351
C       -2.19538959      -1.56702641      -3.15449467
C        0.87349436       1.50384684      -3.27911118
C       -2.46095077       1.61665609       1.25851214
C        0.65223880       0.22006435       3.97967424
C       -2.05863089      -1.89011042      -1.71461569
C        1.92614894      -1.24536569      -2.29046221
C       -0.01415075       2.88496255      -1.38827550
C        1.13929821      -1.03160196      -3.45217916
60
Properties=species:S:1:pos:R:3 trajectory=trial0001_proposal001_step004_proposal_relax trajectory_step=52 pbc="F F F"
C       -0.37907454       2.67714013       1.80612735
C       -1.52922358      -0.40886474       2.18073023
C        0.69274550      -1.66465548       1.64762856
C        0.58734707       0.20772357      -3.85572933
C        2.18120208       1.76974991      -2.75156938
C       -0.01585909       0.45754019       0.58720341
C        1.01600965       2.62808900       1.56061791
C        0.62885520       1.59651285       3.57520917
C        0.28110908      -3.00110800      -2.31769988
C       -0.75727248      -0.06998671      -4.18582313
C        2.58421611      -0.34642230      -1.42068113
C        0.34735198      -3.50576654       0.06505623
C       -1.39207622       2.50475239       0.80045957
C        0.12532537      -2.12173503      -3.49467716
C       -1.56868444      -2.81816060      -0.77217502
C        2.12922629       0.59045981       2.16175871
C       -1.52559506      -2.45171120       0.67086204
C       -1.49378160       1.84366714      -2.82553791
C       -0.14348090       2.22680044      -2.66786557
C       -1.76085144       1.53679462       3.58235169
C       -2.80178758      -0.17899481      -3.23604392
C       -3.21166293       1.36987879      -1.14378012
C        2.41410169       2.84346034      -1.82709372
C        1.74628705       2.73193931       0.36006210
C        2.86389770       1.88151580       0.23865597
C        2.71576654       0.61126487       0.86901810
C       -3.18613742       0.17415633      -1.93169991
C        1.58790033       1.81856099       2.56336940
C       -2.15183414       2.18499352      -1.58130433
C       -0.10700034      -0.23680027       1.77562463
C       -2.73900779      -0.44529983       0.22313296
C       -2.23385072       0.85450837       2.44116106
C        3.34817322       1.99836541      -1.08559811
C       -1.03871843      -1.47304966      -3.95247601
C        1.08187490      -0.39367883       2.69366507
C       -3.08546052       0.92172109       0.23447742
C        1.32073994       3.12269005      -0.92911561
C        2.98798829       0.90793767      -1.93652969
C        2.42812450      -0.48573343       0.02290157
C        1.62451500      -1.56903686       0.54810452
C       -0.57706336       2.16487314       3.13883750
C       -1.21028564       2.71473643      -0.63736238
C       -0.26051740      -2.83129213       1.21547395
C       -0.42029264      -0.05558912       4.83381877
C       -1.48434825      -0.19169360       5.73729364
C       -2.65566210      -0.78638372      -1.12219941
C        1.38098993      -2.43489365      -1.68323810
C       -2.13369128      -1.25968117       1.17885186
C        1.36350024      -2.62494116      -0.31720205
C       -1.80716203       0.74169363      -3.68166774
C       -0.47088971      -3.60848733      -1.15486279
C       -1.59772416       0.73270767       4.72614097
C       -2.19882882      -1.54773298      -3.16704653
C        0.90605337       1.48236462      -3.27141111
C       -2.44842691       1.64115065       1.23947615
C        0.64061354       0.23459889       4.00036266
C       -2.07896123      -1.87239867      -1.72873429
C        1.92218301      -1.27166352      -2.27811011
C        0.02270094       2.88829070      -1.39341205
C        1.14187546      -1.05126105      -3.44275881
60
Properties=species:S:1:pos:R:3 trajectory=trial0001_proposal001_step004_proposal_relax trajectory_step=53 pbc="F F F"
C       -0.30004520       2.69180678       1.79052738
C       -1.61151864      -0.35994488       2.16901105
C        0.53817832      -1.71736765       1.67940617
C        0.65360554       0.15024875      -3.83280502
C        2.30413297       1.63025340      -2.69816266
C       -0.03783199       0.43023709       0.66525588
C        1.09861526       2.60311682       1.57270388
C        0.64111520       1.64185510       3.61718663
C        0.19041522      -3.03975812      -2.28975149
C       -0.69141835      -0.06641130      -4.20971587
C        2.58566921      -0.47846932      -1.35828545
C        0.18039213      -3.55441325       0.08414876
C       -1.29949349       2.55451767       0.76052928
C        0.09610496      -2.16256425      -3.48207537
C       -1.69290828      -2.76027994      -0.79969506
C        2.10758644       0.52867544       2.21658527
C       -1.65519789      -2.38391965       0.63066052
C       -1.36777666       1.89618917      -2.87592158
C        0.00071131       2.23312715      -2.69733507
C       -1.76570807       1.61924507       3.52213395
C       -2.76127205      -0.07567367      -3.29319556
C       -3.14872198       1.49603669      -1.21814881
C        2.57147832       2.72292736      -1.80055326
C        1.84959533       2.67551799       0.37659283
C        2.92130289       1.76209129       0.27900858
C        2.70555382       0.50361002       0.91896024
C       -3.17369092       0.29598293      -2.00509873
C        1.62402757       1.78815822       2.60219783
C       -2.04016247       2.26020989      -1.63751021
C       -0.14107007      -0.29660453       1.85000575
C       -2.77019553      -0.33744576       0.15420890
C       -2.24276934       0.94858388       2.37879471
C        3.45038916       1.84085710      -1.02934239
C       -1.03111412      -1.46535048      -3.97877174
C        0.99314894      -0.37607663       2.77083144
C       -3.06476337       1.03888689       0.16184556
C        1.46822161       3.06598716      -0.92792767
C        3.06288568       0.74951845      -1.86766231
C        2.36864828      -0.58726585       0.07615847
C        1.49749092      -1.63797994       0.59180503
C       -0.54549985       2.20831222       3.12120173
C       -1.08467311       2.76176945      -0.67427313
C       -0.43699583      -2.85100156       1.20937103
C       -0.52044491       0.01383760       4.84985442
C       -1.61186046      -0.07882817       5.73164779
C       -2.70310354      -0.69707987      -1.17809451
C        1.30546912      -2.51534499      -1.63828788
C       -2.21437527      -1.16302378       1.12404830
C        1.23455315      -2.70107208      -0.27486200
C       -1.71925238       0.80002036      -3.73178539
C       -0.62061925      -3.61064072      -1.14841043
C       -1.67346184       0.81043812       4.67513966
C       -2.21244176      -1.47053364      -3.21525310
C        1.02763323       1.41033988      -3.24783753
C       -2.40115461       1.73077192       1.17087556
C        0.60167527       0.28849434       4.07430596
C       -2.15413944      -1.80303501      -1.77719715
C        1.90203032      -1.37534701      -2.22947939
C        0.16678034       2.89376774      -1.41409013
C        1.15173819      -1.12634407      -3.40845288
60
Properties=species:S:1:pos:R:3 trajectory=trial0001_proposal001_step004_proposal_relax trajectory_step=54 pbc="F F F"
C       -0.22313899       2.70428155       1.77550451
C       -1.69628550      -0.31533732       2.15963315
C        0.38263791      -1.77250300       1.70067685
C        0.71851745       0.09586446      -3.81480182
C        2.41965480       1.49637788      -2.64689940
C       -0.06291031       0.40041097       0.74184888
C        1.17958565       2.58226651       1.58547571
C        0.65458685       1.68356702       3.65822417
C        0.09754663      -3.07415644      -2.27391962
C       -0.62482419      -0.06324192      -4.23685993
C        2.57709788      -0.61132167      -1.29319412
C        0.01120539      -3.60296308       0.09720190
C       -1.20630168       2.60009664       0.72178982
C        0.06628896      -2.20195046      -3.47771803
C       -1.80734042      -2.70513006      -0.83446737
C        2.07876778       0.46862767       2.27192982
C       -1.77805457      -2.31950319       0.58678257
C       -1.24267881       1.94569671      -2.92410406
C        0.14061603       2.23747075      -2.72449532
C       -1.76494661       1.69827449       3.46844662
C       -2.71263347       0.02496535      -3.35613321
C       -3.07861242       1.61092519      -1.29531972
C        2.72441738       2.59771306      -1.77004061
C        1.94955516       2.61652393       0.39740995
C        2.97485779       1.64288459       0.32447464
C        2.68311785       0.39609697       0.97469496
C       -3.15324827       0.40857628      -2.07434453
C        1.65700084       1.76342832       2.64126909
C       -1.92087820       2.32993336      -1.69405100
C       -0.19523070      -0.34726546       1.93290550
C       -2.79895687      -0.22720070       0.08072353
C       -2.25842595       1.03820149       2.32340444
C        3.54919788       1.68436425      -0.96920057
C       -1.02746145      -1.45315567      -4.00955671
C        0.93095825      -0.35519055       2.86749225
C       -3.03788899       1.15460970       0.08762732
C        1.61445198       3.01131145      -0.92627065
C        3.13586954       0.59243124      -1.79847076
C        2.29584757      -0.68695816       0.13332114
C        1.36689309      -1.71211286       0.62924776
C       -0.51720252       2.25281534       3.10870931
C       -0.95762044       2.79982854      -0.71177481
C       -0.60907011      -2.86724629       1.20488082
C       -0.60122142       0.09150565       4.86735924
C       -1.72155238       0.05619882       5.75161514
C       -2.75207445      -0.59724778      -1.24741241
C        1.21684211      -2.59183132      -1.60529845
C       -2.28951429      -1.07273922       1.07004366
C        1.10416686      -2.76608935      -0.22384083
C       -1.62746810       0.85460889      -3.78163989
C       -0.76490708      -3.61244504      -1.15382832
C       -1.74484048       0.89131918       4.62302748
C       -2.22242877      -1.39357231      -3.26547474
C        1.14245385       1.33751870      -3.22489126
C       -2.35198007       1.81748356       1.10467106
C        0.56130820       0.34048410       4.15259338
C       -2.22180615      -1.73577962      -1.83119094
C        1.87501738      -1.47998547      -2.17947719
C        0.30942566       2.89584885      -1.43495185
C        1.15909167      -1.20396901      -3.37834322
60
Properties=species:S:1:pos:R:3 trajectory=trial0001_proposal001_step004_proposal_relax trajectory_step=55 pbc="F F F"
C       -0.14347741       2.71628247       1.75980400
C       -1.77294113      -0.25836131       2.13704385
C        0.22320005      -1.82699663       1.70716320
C        0.77999842       0.03518749      -3.78672779
C        2.52604097       1.35693154      -2.58827126
C       -0.08054246       0.37333960       0.81193216
C        1.26106461       2.56371484       1.59905076
C        0.66799689       1.72548504       3.69535059
C        0.00259288      -3.10431993      -2.26048131
C       -0.55845747      -0.06334121      -4.25572839
C        2.57382820      -0.74636229      -1.22629867
C       -0.15792270      -3.64118214       0.10686050
C       -1.11101475       2.65111921       0.68344523
C        0.03022005      -2.23749929      -3.47052808
C       -1.91745115      -2.64699310      -0.87204713
C        2.04415371       0.41499542       2.32755889
C       -1.89701608      -2.25267082       0.54191851
C       -1.11765865       1.99109151      -2.96569343
C        0.27772147       2.23825032      -2.74586349
C       -1.76010270       1.77827552       3.41008321
C       -2.65904131       0.12316094      -3.41260529
C       -2.99712737       1.72189559      -1.37243820
C        2.87013919       2.46561618      -1.73376981
C        2.04808848       2.55532041       0.41787856
C        3.02451039       1.52237466       0.37300565
C        2.65510658       0.29066783       1.03162745
C       -3.13187644       0.51970285      -2.14808620
C        1.68955414       1.74086080       2.67980247
C       -1.80034978       2.39398635      -1.74492937
C       -0.24610303      -0.39443188       2.01108214
C       -2.83199367      -0.11938678       0.01036259
C       -2.26455575       1.13210645       2.26155897
C        3.64290014       1.52533012      -0.90494521
C       -1.02570573      -1.44076837      -4.03262230
C        0.87228227      -0.32199818       2.96607793
C       -3.00601531       1.27296771       0.01253039
C        1.75863434       2.95752278      -0.92108274
C        3.20668298       0.43168123      -1.72745387
C        2.22365899      -0.78479158       0.19256892
C        1.23961222      -1.78146762       0.66856961
C       -0.48321827       2.29913215       3.09500518
C       -0.83046760       2.83826326      -0.74554187
C       -0.77964170      -2.87563997       1.19736106
C       -0.69337093       0.16868847       4.87914782
C       -1.84075940       0.17098693       5.73753441
C       -2.81098513      -0.51139084      -1.30801347
C        1.12844881      -2.66816257      -1.56816755
C       -2.35668576      -0.97626301       1.01249840
C        0.97294277      -2.83314326      -0.18275265
C       -1.53240389       0.90539817      -3.82291362
C       -0.90598238      -3.60278611      -1.16418485
C       -1.81282442       0.96137302       4.56765381
C       -2.23286220      -1.31730545      -3.31227959
C        1.24953999       1.25881799      -3.18981082
C       -2.29610986       1.90800627       1.03644610
C        0.52427169       0.39551217       4.22439166
C       -2.29782727      -1.67232031      -1.88210621
C        1.85082648      -1.58864956      -2.12877417
C        0.45109051       2.89986826      -1.45280690
C        1.16286590      -1.28406607      -3.34338352
60
Properties=species:S:1:pos:R:3 trajectory=trial0001_proposal001_step004_proposal_relax trajectory_step=56 pbc="F F F"
C       -0.06304023       2.72699960       1.74456560
C       -1.84443705      -0.18774565       2.09925466
C        0.05934672      -1.87943972       1.69680126
C        0.83437475      -0.02942304      -3.75173777
C        2.62076199       1.21384074      -2.52232321
C       -0.09784011       0.34440865       0.88632789
C        1.34226352       2.54979089       1.61782274
C        0.68081357       1.76923986       3.72964499
C       -0.09452888      -3.12942700      -2.25604329
C       -0.48980816      -0.06844216      -4.26559481
C        2.56326737      -0.88479687      -1.15460061
C       -0.33119038      -3.67037163       0.10326382
C       -1.01253421       2.70413999       0.64762870
C       -0.00954855      -2.26819841      -3.46649485
C       -2.01981683      -2.58556347      -0.91665397
C        2.00336278       0.37497175       2.39016449
C       -2.00829685      -2.18198019       0.49197514
C       -0.98647570       2.02737511      -3.00282993
C        0.42033808       2.22612292      -2.76025664
C       -1.74705582       1.85203954       3.35704013
C       -2.59528435       0.21405142      -3.46605255
C       -2.89832856       1.82100450      -1.45031752
C        3.00354404       2.32438563      -1.68626112
C        2.14447198       2.48946316       0.44262113
C        3.06141644       1.39778995       0.42805533
C        2.61228401       0.18878448       1.09100013
C       -3.10388206       0.62830776      -2.22028422
C        1.72174110       1.72311357       2.71871021
C       -1.67729075       2.45065227      -1.79223370
C       -0.30700276      -0.43965114       2.09158577
C       -2.86642227      -0.01171792      -0.06396665
C       -2.26073267       1.22882186       2.19849800
C        3.72349853       1.36020066      -0.82962154
C       -1.02369094      -1.42654651      -4.05184359
C        0.82696159      -0.27234092       3.07221492
C       -2.95597298       1.38655331      -0.06416101
C        1.90210996       2.89565659      -0.90993108
C        3.26780472       0.26437087      -1.64911130
C        2.14542440      -0.87994014       0.25185279
C        1.11011969      -1.85289917       0.70379095
C       -0.44860754       2.34503686       3.08005778
C       -0.70210820       2.87550476      -0.77614447
C       -0.95027787      -2.87175429       1.17980832
C       -0.77334403       0.25353079       4.88582944
C       -1.95298689       0.28436953       5.71028996
C       -2.88061713      -0.42584842      -1.37046856
C        1.03245334      -2.73783236      -1.53639240
C       -2.41070020      -0.88326480       0.95169204
C        0.83347830      -2.89914236      -0.15336618
C       -1.43129634       0.94823961      -3.85672077
C       -1.04429718      -3.58482012      -1.18428936
C       -1.87361922       1.03448758       4.50132717
C       -2.23769799      -1.24152974      -3.35914264
C        1.34701747       1.17597122      -3.14392342
C       -2.23216373       1.99714829       0.96738651
C        0.48168514       0.46134665       4.29627684
C       -2.37980911      -1.60597604      -1.93793528
C        1.81909979      -1.70039896      -2.07763306
C        0.59851604       2.89990766      -1.46645925
C        1.16003817      -1.36496195      -3.30769247
60
Properties=species:S:1:pos:R:3 trajectory=trial0001_proposal001_step004_proposal_relax trajectory_step=57 pbc="F F F"
C        0.01393275       2.73282751       1.72792726
C       -1.88556388      -0.10437336       2.02711530
C       -0.09222332      -1.89661590       1.66341395
C        0.88305434      -0.09671900      -3.70141185
C        2.68821286       1.07865819      -2.44778975
C       -0.11015153       0.31120539       0.96548122
C        1.42026605       2.54656075       1.63228983
C        0.68950219       1.81882218       3.74455838
C       -0.19233313      -3.14061663      -2.27258307
C       -0.42646731      -0.08129808      -4.25328719
C        2.53998465      -1.01936690      -1.07959004
C       -0.50888429      -3.67416550       0.08566646
C       -0.91427396       2.76115926       0.61118589
C       -0.05887673      -2.28646674      -3.46035113
C       -2.10585880      -2.51278027      -0.97889148
C        1.95257387       0.35953570       2.45005956
C       -2.10392273      -2.11632918       0.43259927
C       -0.85215517       2.04376127      -3.01993742
C        0.54542846       2.19238901      -2.74985151
C       -1.72007820       1.92100589       3.30108502
C       -2.51679271       0.29309763      -3.50422538
C       -2.77095721       1.89852504      -1.52237175
C        3.10824512       2.16645065      -1.62227498
C        2.22222561       2.41568104       0.48007250
C        3.07602682       1.27016233       0.49676645
C        2.54208726       0.09872165       1.16137297
C       -3.06086099       0.72045113      -2.30273414
C        1.74522029       1.72441930       2.76405432
C       -1.54425021       2.49111342      -1.83327906
C       -0.36718807      -0.46894498       2.16402401
C       -2.89818044       0.07159869      -0.11744780
C       -2.23946922       1.32389912       2.13376642
C        3.77215979       1.19196736      -0.74344546
C       -1.02101832      -1.40791118      -4.05384225
C        0.79178138      -0.22207086       3.16699894
C       -2.88101793       1.49465251      -0.14248701
C        2.03240759       2.82466588      -0.88264765
C        3.30269464       0.10417613      -1.56794991
C        2.06123739      -0.97379124       0.31967028
C        0.99637879      -1.93263623       0.72183647
C       -0.40614804       2.39047712       3.06122517
C       -0.57492623       2.90602307      -0.80416922
C       -1.10639479      -2.85184094       1.14687546
C       -0.85388197       0.35185816       4.89483227
C       -2.04873137       0.37265505       5.62606958
C       -2.96899657      -0.34547124      -1.43422711
C        0.92643805      -2.79960430      -1.52302531
C       -2.45611894      -0.77773997       0.87767937
C        0.70623203      -2.94822615      -0.12943264
C       -1.32194661       0.96832737      -3.86889792
C       -1.16749554      -3.54202535      -1.23208845
C       -1.91312151       1.09241904       4.44853828
C       -2.24297139      -1.16921210      -3.39377288
C        1.42215524       1.08370340      -3.08599175
C       -2.15043082       2.08638850       0.90683854
C        0.44836051       0.53718976       4.34896692
C       -2.46446994      -1.54888333      -1.98838510
C        1.78194791      -1.81256017      -2.02157772
C        0.73570213       2.88339194      -1.47285850
C        1.14739624      -1.44467589      -3.26515096
60
Properties=species:S:1:pos:R:3 trajectory=trial0001_proposal001_step004_proposal_relax trajectory_step=58 pbc="F F F"
C        0.03997926       2.72975801       1.71081276
C       -1.89077889      -0.06490626       1.97347259
C       -0.12539826      -1.88820859       1.63701087
C        0.89632851      -0.12529289      -3.67818297
C        2.70265765       1.03904586      -2.42754188
C       -0.11423413       0.29898785       1.00752371
C        1.44235621       2.55525343       1.65154584
C        0.68601909       1.84124657       3.73866718
C       -0.22667492      -3.14351669      -2.29640064
C       -0.39729587      -0.09691635      -4.22630574
C        2.51113660      -1.06066932      -1.04617201
C       -0.57278546      -3.65457776       0.05715566
C       -0.88120010       2.78596604       0.59562535
C       -0.07940031      -2.27997122      -3.46092675
C       -2.12539705      -2.47702642      -1.01586023
C        1.92931194       0.38150509       2.48187916
C       -2.13562212      -2.09195161       0.40275569
C       -0.79550543       2.02566416      -3.01797413
C        0.59970730       2.13903257      -2.72798741
C       -1.70333058       1.92972884       3.29229929
C       -2.47869580       0.30683651      -3.51780040
C       -2.70501134       1.91528716      -1.54425493
C        3.12381711       2.10492360      -1.57946894
C        2.24571984       2.37646646       0.50235559
C        3.05721004       1.21381571       0.53652124
C        2.49523364       0.07134201       1.19215872
C       -3.03693064       0.76558234      -2.32978090
C        1.75548790       1.73928535       2.77898203
C       -1.49283918       2.50887392      -1.84962516
C       -0.41028028      -0.47945674       2.17627533
C       -2.91556345       0.10960045      -0.15187113
C       -2.21672346       1.35721507       2.11393167
C        3.75476306       1.12058208      -0.69039478
C       -1.01792941      -1.39703068      -4.03700183
C        0.79192381      -0.20440211       3.20396938
C       -2.81774595       1.51907885      -0.16794489
C        2.07348169       2.77272127      -0.85925148
C        3.28303998       0.04685610      -1.53060425
C        2.03697233      -1.01344902       0.34922534
C        0.96875329      -1.95341804       0.73969909
C       -0.39510282       2.40061857       3.04032539
C       -0.53952459       2.92260038      -0.81783528
C       -1.16404263      -2.82741020       1.11902292
C       -0.84185043       0.40233641       4.90700257
C       -2.06870612       0.39882000       5.58137060
C       -3.00366205      -0.31313715      -1.45234267
C        0.88126437      -2.81889491      -1.51202068
C       -2.46447529      -0.76746821       0.85489896
C        0.64174738      -2.98475751      -0.16089743
C       -1.27177127       0.96141849      -3.85741950
C       -1.21451719      -3.51335034      -1.26607554
C       -1.91098419       1.14104294       4.41835096
C       -2.23887059      -1.14678070      -3.40177341
C        1.44647494       1.05680410      -3.06556349
C       -2.11020323       2.11418777       0.88810224
C        0.42520737       0.58026968       4.35326165
C       -2.50232063      -1.51065012      -2.01180226
C        1.75471296      -1.84684871      -2.00372800
C        0.79303127       2.84808850      -1.46715245
C        1.13453201      -1.46713573      -3.24724849
60
Properties=species:S:1:pos:R:3 trajectory=trial0001_proposal001_step004_proposal_relax trajectory_step=59 pbc="F F F"
C        0.11763442       2.74125053       1.67719758
C       -1.95149568      -0.00741005       1.92378424
C       -0.26983046      -1.92209048       1.62923458
C        0.96592313      -0.18746968      -3.64509723
C        2.81022821       0.91363819      -2.38227068
C       -0.12984851       0.26422364       1.09990765
C        1.52050227       2.54313501       1.66660168
C        0.68992297       1.88714316       3.75747055
C       -0.31945029      -3.17608073      -2.29201224
C       -0.32236333      -0.10389525      -4.21668300
C        2.48913928      -1.18742643      -0.97337296
C       -0.75107696      -3.67039839       0.05400432
C       -0.78807874       2.84414654       0.54500345
C       -0.11841285      -2.30012135      -3.44095223
C       -2.23749611      -2.40424646      -1.06522280
C        1.89394054       0.35031135       2.54400453
C       -2.27064413      -2.03061956       0.35449291
C       -0.65861015       2.05198293      -3.05307543
C        0.74230111       2.09852132      -2.72931769
C       -1.69373636       2.00001736       3.23725970
C       -2.42119219       0.39811132      -3.57471304
C       -2.60997295       2.03055053      -1.61824878
C        3.25514346       1.96617719      -1.52830303
C        2.34106823       2.29542734       0.53256926
C        3.09222183       1.07785563       0.59866756
C        2.45253036      -0.03124667       1.25785148
C       -3.00453543       0.89525351      -2.40474486
C        1.78824637       1.73306174       2.81866801
C       -1.36365681       2.58514423      -1.90822730
C       -0.45287788      -0.53481698       2.24536858
C       -2.95890084       0.21987884      -0.21067679
C       -2.20836921       1.45169809       2.05208458
C        3.81821088       0.94731726      -0.61323472
C       -1.01158722      -1.37733354      -4.03398584
C        0.71219622      -0.18688006       3.28243244
C       -2.75691442       1.63437568      -0.24067113
C        2.21387858       2.68819531      -0.83907558
C        3.31706082      -0.10821445      -1.45730089
C        1.98509405      -1.12785163       0.42022231
C        0.86557428      -2.03492437       0.78783949
C       -0.36644629       2.44211936       3.00366638
C       -0.41775424       2.96908779      -0.86399118
C       -1.33701707      -2.81707955       1.09718854
C       -0.90967272       0.49883049       4.93731838
C       -2.18621632       0.48987011       5.52625517
C       -3.06286285      -0.21115980      -1.52104373
C        0.79478500      -2.90295656      -1.46843459
C       -2.54325004      -0.68455389       0.79373952
C        0.51120416      -3.07076864      -0.13768425
C       -1.16401229       0.99979514      -3.88405962
C       -1.36341226      -3.48902315      -1.28542562
C       -1.96486918       1.24169740       4.37332768
C       -2.25435586      -1.07365779      -3.43910221
C        1.55931154       0.98481648      -3.04349602
C       -2.04774740       2.20628680       0.82379783
C        0.37288045       0.64202171       4.40251163
C       -2.58676552      -1.42123986      -2.05646770
C        1.72105088      -1.95246036      -1.94880125
C        0.94313730       2.81571137      -1.47987224
C        1.13574875      -1.54011286      -3.20191967
60
Properties=species:S:1:pos:R:3 trajectory=trial0001_proposal001_step004_proposal_relax trajectory_step=60 pbc="F F F"
C        0.13437291       2.76218979       1.64330969
C       -1.94174919       0.00574071       1.89012878
C       -0.29163085      -1.92381078       1.62433757
C        1.00892323      -0.21104310      -3.64024646
C        2.85165383       0.87217174      -2.38249792
C       -0.15694742       0.24793388       1.16598836
C        1.53640585       2.54026140       1.66910321
C        0.67899992       1.90819086       3.74241371
C       -0.35403156      -3.19160450      -2.29687161
C       -0.28291619      -0.11047312      -4.18248860
C        2.43522107      -1.20802087      -0.94325200
C       -0.82797562      -3.64428353       0.01686272
C       -0.74972639       2.85780617       0.51177934
C       -0.12558811      -2.28904491      -3.42246597
C       -2.28542635      -2.36008686      -1.09769494
C        1.85609387       0.35584280       2.57977759
C       -2.34245425      -2.00661910       0.32434571
C       -0.58734776       2.03173923      -3.05799277
C        0.78983921       2.03618497      -2.70427325
C       -1.68104861       2.01738774       3.21092882
C       -2.39313867       0.42649863      -3.59813443
C       -2.55431834       2.07359469      -1.64006867
C        3.28689578       1.89965891      -1.48244180
C        2.36367179       2.23704652       0.56322472
C        3.07391298       1.01509519       0.64139459
C        2.41201243      -0.06099256       1.29534162
C       -2.97328009       0.96178839      -2.43135513
C        1.79114087       1.74720395       2.83595509
C       -1.30316801       2.61685130      -1.94365502
C       -0.46950139      -0.54901587       2.26517047
C       -2.96761227       0.27594577      -0.22088005
C       -2.19696770       1.46346336       2.02405190
C        3.78990066       0.86392762      -0.57314061
C       -1.00575244      -1.35820245      -4.00633161
C        0.66906971      -0.22656636       3.28049737
C       -2.70175801       1.65318115      -0.25880477
C        2.23763925       2.61748679      -0.80544232
C        3.25509930      -0.14961437      -1.43039977
C        1.98190387      -1.19176918       0.46678216
C        0.84244408      -2.09154792       0.80520141
C       -0.36585679       2.45291024       2.95842225
C       -0.35638177       2.98145464      -0.89617951
C       -1.38591527      -2.77494533       1.06630062
C       -0.90998913       0.58344929       4.99277913
C       -2.19108929       0.53019038       5.49074487
C       -3.05130639      -0.13676402      -1.56997885
C        0.76875763      -2.94200110      -1.46425385
C       -2.59098404      -0.66623628       0.75593249
C        0.46522321      -3.11114836      -0.12334024
C       -1.11099955       0.99097144      -3.87689195
C       -1.42338080      -3.46473811      -1.31440761
C       -1.93801362       1.31474472       4.39515920
C       -2.25665131      -1.04901459      -3.45438858
C        1.62080321       0.95202614      -3.06284003
C       -2.02386676       2.22803035       0.80354898
C        0.35292595       0.66830633       4.38221770
C       -2.61139455      -1.33311166      -2.07446997
C        1.67064388      -1.98175387      -1.92295056
C        1.00155963       2.74701693      -1.46093161
C        1.13855910      -1.55026857      -3.17764602
60
Properties=species:S:1:pos:R:3 trajectory=trial0001_proposal001_step004_proposal_relax trajectory_step=61 pbc="F F F"
C        0.16602430       2.78722086       1.62477507
C       -1.94459784       0.02743254       1.85348942
C       -0.34822080      -1.93640882       1.62449858
C        1.05339500      -0.23850321      -3.63369406
C        2.89397035       0.81071911      -2.36213073
C       -0.19180439       0.24420145       1.20753586
C        1.56091807       2.52754876       1.66951377
C        0.67220917       1.92904476       3.73210157
C       -0.39223342      -3.19583018      -2.29833992
C       -0.25117076      -0.11758338      -4.16804823
C        2.38422086      -1.25528442      -0.91063278
C       -0.91388433      -3.62427603       0.00313258
C       -0.70652022       2.87018724       0.48105109
C       -0.14034816      -2.29294365      -3.40567457
C       -2.34436697      -2.31399997      -1.13270222
C        1.81715976       0.33545988       2.60043791
C       -2.40527155      -1.97476730       0.29343565
C       -0.52069181       2.02878429      -3.06123709
C        0.85230291       1.99708197      -2.69144635
C       -1.67262802       2.04581650       3.17582870
C       -2.35719198       0.47356140      -3.62515560
C       -2.49380411       2.11712666      -1.66213984
C        3.33406795       1.81964451      -1.44620497
C        2.38602081       2.19052261       0.59250544
C        3.06901536       0.94974651       0.67669954
C        2.37075605      -0.10466231       1.34406534
C       -2.93492134       1.01805537      -2.47723604
C        1.78303311       1.74602606       2.85689473
C       -1.22435430       2.64311343      -1.97781495
C       -0.49047278      -0.58262975       2.31352350
C       -2.97359868       0.31964891      -0.25477377
C       -2.18704711       1.48310278       1.99453227
C        3.78339489       0.77536509      -0.53032387
C       -0.99209453      -1.34412025      -3.99452860
C        0.63172608      -0.23407583       3.30372954
C       -2.66321935       1.70213389      -0.29615534
C        2.28678778       2.55554080      -0.77629631
C        3.22171523      -0.20986385      -1.39644341
C        1.95155489      -1.25130538       0.51141944
C        0.80415900      -2.14166414       0.82063757
C       -0.35320316       2.47056056       2.93354979
C       -0.28287694       2.98458393      -0.91373332
C       -1.45250654      -2.74213465       1.02929801
C       -0.90140366       0.66355127       5.02292429
C       -2.22767535       0.57877475       5.48348838
C       -3.05518275      -0.04887590      -1.59654945
C        0.71633530      -2.99785873      -1.44506575
C       -2.62351673      -0.61149761       0.73082455
C        0.41674750      -3.14813619      -0.12016370
C       -1.05779547       0.99216777      -3.87881238
C       -1.48764550      -3.43180740      -1.34627585
C       -1.92557640       1.38930648       4.38720991
C       -2.26148126      -1.00384615      -3.47782841
C        1.68108919       0.90771411      -3.06615992
C       -1.98454512       2.25943985       0.77774991
C        0.33132375       0.69132469       4.38109771
C       -2.62558837      -1.28948790      -2.10025039
C        1.63899743      -2.00837281      -1.88911227
C        1.04954086       2.70059883      -1.45157437
C        1.13648169      -1.58155728      -3.15446499
60
Properties=species:S:1:pos:R:3 trajectory=trial0001_proposal001_step004_proposal_relax trajectory_step=62 pbc="F F F"
C        0.19657405       2.80928782       1.61713969
C       -1.95123102       0.05599107       1.82696791
C       -0.40546507      -1.95431932       1.63002579
C        1.08186128      -0.26799320      -3.62966681
C        2.92869897       0.74620429      -2.33635251
C       -0.23131606       0.24054873       1.24087103
C        1.58156612       2.51333871       1.67881751
C        0.66835832       1.94474248       3.73558773
C       -0.43104035      -3.19893653      -2.29501128
C       -0.21996629      -0.12447757      -4.16585828
C        2.34855494      -1.30180476      -0.87932661
C       -0.98377877      -3.61669513      -0.01002719
C       -0.66370106       2.88035724       0.46501401
C       -0.15099080      -2.30248001      -3.39538158
C       -2.39447175      -2.28106741      -1.15779414
C        1.78684951       0.31462109       2.61984330
C       -2.45477511      -1.93242558       0.26811039
C       -0.46164616       2.03058239      -3.07081540
C        0.91357224       1.97440368      -2.69122016
C       -1.66495102       2.07390371       3.14696527
C       -2.32457299       0.51368472      -3.65396397
C       -2.43871924       2.15613937      -1.69128060
C        3.37897281       1.75417042      -1.41851049
C        2.41249096       2.15424119       0.61024943
C        3.06590996       0.89486832       0.70667451
C        2.34241107      -0.14762528       1.37587721
C       -2.90473933       1.06946433      -2.50508908
C        1.77994889       1.73011216       2.86667688
C       -1.16376155       2.66189373      -1.99746609
C       -0.51155777      -0.61644294       2.35165279
C       -2.97533512       0.37301419      -0.29202788
C       -2.17728426       1.50860894       1.96740118
C        3.78964920       0.69780546      -0.49159384
C       -0.98543819      -1.33550772      -3.99517939
C        0.60332192      -0.22650270       3.33491431
C       -2.63762922       1.74582202      -0.32724189
C        2.33234156       2.50998293      -0.76183200
C        3.21051911      -0.27442962      -1.36038291
C        1.91357225      -1.29485551       0.54360152
C        0.75584315      -2.17984442       0.83270333
C       -0.34146852       2.49040772       2.91929824
C       -0.22286984       2.98562795      -0.92236420
C       -1.51682712      -2.71841916       0.99918494
C       -0.91768292       0.72646470       5.03838418
C       -2.25133446       0.63563023       5.47816546
C       -3.06104766      -0.00027589      -1.62508353
C        0.68078748      -3.03119993      -1.44446041
C       -2.63985710      -0.57007303       0.71003035
C        0.36117853      -3.17840545      -0.10169017
C       -1.01272359       1.00488976      -3.88604838
C       -1.54462511      -3.40647794      -1.36409126
C       -1.92447294       1.43952021       4.37843962
C       -2.25812417      -0.96429356      -3.50187455
C        1.72950334       0.87068793      -3.05790443
C       -1.95122015       2.28479866       0.74873524
C        0.31696671       0.71727125       4.39211532
C       -2.64339309      -1.24706464      -2.12884583
C        1.60668673      -2.04504918      -1.86012807
C        1.10288473       2.67388969      -1.44369032
C        1.13450411      -1.61269627      -3.13626597
60
Properties=species:S:1:pos:R:3 trajectory=trial0001_proposal001_step004_proposal_relax trajectory_step=63 pbc="F F F"
C        0.26046183       2.86803307       1.61217492
C       -1.93884511       0.12144562       1.75955642
C       -0.52070098      -1.99185058       1.65896234
C        1.14205991      -0.33730338      -3.62673201
C        2.99495753       0.59930411      -2.27315991
C       -0.36544119       0.23248059       1.31857219
C        1.61946371       2.47235892       1.69920741
C        0.66094147       1.97477516       3.73798334
C       -0.51743252      -3.19552979      -2.28899543
C       -0.15471494      -0.14067281      -4.16658403
C        2.25338487      -1.39622907      -0.80553853
C       -1.13387739      -3.58927627      -0.04594970
C       -0.56803696       2.89147646       0.44086707
C       -0.17499292      -2.31982362      -3.37777277
C       -2.50573304      -2.20264947      -1.21864820
C        1.71845013       0.26369327       2.65363036
C       -2.55108738      -1.82366778       0.20915944
C       -0.32646756       2.02874579      -3.08752586
C        1.04443211       1.92386744      -2.69136669
C       -1.64688041       2.13334637       3.09072180
C       -2.25263298       0.60570053      -3.71542085
C       -2.31382446       2.23529595      -1.75466388
C        3.46753060       1.60625577      -1.35564080
C        2.45701612       2.07157588       0.65243453
C        3.04308417       0.77640653       0.77633674
C        2.27838030      -0.24377026       1.43986471
C       -2.82267195       1.17369390      -2.56422085
C        1.75675935       1.67423367       2.87815118
C       -1.02428679       2.69349475      -2.02861448
C       -0.55627490      -0.69590121       2.42091188
C       -2.96014976       0.48663116      -0.36286073
C       -2.14796479       1.56508123       1.90979933
C        3.78566075       0.52887598      -0.40143833
C       -0.96572643      -1.32065585      -3.99920582
C        0.53977760      -0.21773041       3.39917063
C       -2.58391256       1.84319576      -0.39798484
C        2.42391079       2.40228518      -0.72928976
C        3.17309093      -0.41787921      -1.27216247
C        1.81244690      -1.38344148       0.61041247
C        0.64233639      -2.25840070       0.86167022
C       -0.31795823       2.54030448       2.89257867
C       -0.09766270       2.97108701      -0.93173467
C       -1.65022410      -2.65515245       0.92538127
C       -0.94379291       0.87348100       5.06853505
C       -2.27856604       0.77818906       5.48026733
C       -3.05472193       0.10433394      -1.69842538
C        0.60070052      -3.10502764      -1.42861366
C       -2.66786584      -0.46700262       0.65277120
C        0.24560913      -3.23953287      -0.07877860
C       -0.90905356       1.02924123      -3.90523707
C       -1.65948198      -3.33945097      -1.40054499
C       -1.91392198       1.55862619       4.36054104
C       -2.23847407      -0.87314838      -3.55797353
C        1.82984257       0.78592480      -3.04287383
C       -1.87190300       2.32792971       0.68767154
C        0.28821023       0.77631949       4.41558690
C       -2.66945144      -1.15324157      -2.19926145
C        1.52630989      -2.11978882      -1.79881155
C        1.21830539       2.60243150      -1.42337435
C        1.12712517      -1.67938028      -3.09854291
60
Properties=species:S:1:pos:R:3 trajectory=trial0001_proposal001_step004_proposal_relax trajectory_step=64 pbc="F F F"
C        0.32940441       2.91621724       1.60916757
C       -1.91727715       0.19899755       1.66968789
C       -0.64594835      -2.03610325       1.67855920
C        1.20272138      -0.40836025      -3.61142398
C        3.05609336       0.44670670      -2.20558263
C       -0.51766560       0.21246415       1.40866037
C        1.66286217       2.43293716       1.71778624
C        0.66164487       2.00435844       3.73757060
C       -0.60848733      -3.19375138      -2.28536757
C       -0.08334913      -0.15731579      -4.16780091
C        2.16696790      -1.49922689      -0.72603806
C       -1.29234994      -3.55787466      -0.07925049
C       -0.47006690       2.90944046       0.41916114
C       -0.20871253      -2.33342982      -3.36449986
C       -2.61158044      -2.11415154      -1.28443540
C        1.65405806       0.21130937       2.69719658
C       -2.64429262      -1.71965758       0.14195947
C       -0.18258035       2.03038621      -3.10503713
C        1.17957811       1.87139535      -2.68879027
C       -1.62602273       2.20202192       3.04211943
C       -2.16909311       0.69705231      -3.77860631
C       -2.19347479       2.31871942      -1.82037640
C        3.55974697       1.44345282      -1.28499139
C        2.50708479       1.97706110       0.69124099
C        3.02560628       0.65046520       0.84494404
C        2.20853207      -0.34534190       1.50156924
C       -2.73931427       1.28059403      -2.63237577
C        1.73646516       1.62137239       2.88856908
C       -0.87557622       2.72319976      -2.06065750
C       -0.59123225      -0.76417306       2.49495318
C       -2.95392464       0.60098943      -0.44434353
C       -2.11874401       1.64617998       1.85372669
C        3.78423336       0.35810688      -0.30699939
C       -0.95184130      -1.29831365      -4.00694499
C        0.46797564      -0.21977802       3.45810537
C       -2.51901365       1.94931270      -0.46733111
C        2.52843737       2.29262138      -0.69313955
C        3.14684088      -0.56948978      -1.17717354
C        1.70493524      -1.47364232       0.67551212
C        0.52269116      -2.33310291       0.89994212
C       -0.29032913       2.59924262       2.87339424
C        0.03361620       2.95792729      -0.94336299
C       -1.78696337      -2.59084144       0.87354450
C       -0.97338504       1.01159696       5.09494991
C       -2.31432342       0.92840784       5.46826366
C       -3.05258746       0.21162938      -1.76314417
C        0.50830143      -3.17748145      -1.41299207
C       -2.70130545      -0.35835718       0.58182954
C        0.11410556      -3.30490788      -0.04986446
C       -0.79498741       1.05271575      -3.92932127
C       -1.77940507      -3.27074729      -1.43523009
C       -1.92575971       1.67656216       4.33218928
C       -2.21566618      -0.78877325      -3.61211244
C        1.92745578       0.69137094      -3.02135674
C       -1.78972341       2.38384391       0.62716319
C        0.25335858       0.83756883       4.44663111
C       -2.70890741      -1.05861734      -2.27202230
C        1.45540246      -2.20360795      -1.74107723
C        1.34530839       2.53307348      -1.41329075
C        1.11598412      -1.74864090      -3.05849052
60
Properties=species:S:1:pos:R:3 trajectory=trial0001_proposal001_step004_proposal_relax trajectory_step=65 pbc="F F F"
C        0.35084241       2.92436353       1.62448247
C       -1.94659441       0.25792981       1.60277406
C       -0.68094157      -2.04495758       1.70772467
C        1.20803165      -0.43801075      -3.60116547
C        3.05115036       0.38614278      -2.16893371
C       -0.57564592       0.19584703       1.43735899
C        1.67033162       2.40460793       1.71835905
C        0.66665575       1.99628695       3.73441003
C       -0.63847543      -3.17948683      -2.28636787
C       -0.06107780      -0.16257649      -4.17988617
C        2.14253816      -1.52903507      -0.70207215
C       -1.33077671      -3.52734047      -0.08076967
C       -0.43751949       2.90803297       0.42901671
C       -0.22556709      -2.32942033      -3.36899724
C       -2.62630539      -2.07851056      -1.30713920
C        1.64078912       0.18002849       2.70345308
C       -2.64445253      -1.67166076       0.11903450
C       -0.13757819       2.02705737      -3.11020567
C        1.21901479       1.85577305      -2.69293584
C       -1.61986830       2.23522065       3.04471127
C       -2.12658528       0.71620376      -3.79624923
C       -2.16020858       2.33926761      -1.83881693
C        3.57227936       1.38190631      -1.25948698
C        2.50699722       1.93878006       0.70007189
C        3.00951974       0.61401849       0.86409784
C        2.18282318      -0.37515944       1.51017692
C       -2.70078319       1.29658251      -2.64853648
C        1.71434716       1.58312818       2.87504182
C       -0.82932404       2.71011934      -2.05317528
C       -0.56720358      -0.79705804       2.51636668
C       -2.93920562       0.64562420      -0.46439478
C       -2.11238584       1.70122315       1.84162093
C        3.77425849       0.31373679      -0.27671911
C       -0.94402215      -1.29109822      -4.02083147
C        0.44465034      -0.23392652       3.46987828
C       -2.50164009       1.98178576      -0.48935854
C        2.55851190       2.25589523      -0.68423057
C        3.14109048      -0.61535271      -1.14179134
C        1.64941708      -1.48462456       0.68418871
C        0.47211442      -2.34393829       0.91729649
C       -0.27444364       2.63243588       2.89055005
C        0.07386136       2.93195936      -0.93445668
C       -1.81798837      -2.56485932       0.87383284
C       -0.98385529       1.04527276       5.08311179
C       -2.30781006       1.00108002       5.47188696
C       -3.02896115       0.23814796      -1.79905467
C        0.46760078      -3.18920507      -1.39737095
C       -2.70263991      -0.31997519       0.54322907
C        0.06357777      -3.31685911      -0.05142089
C       -0.75262560       1.05981126      -3.94519745
C       -1.80065247      -3.23900921      -1.43904650
C       -1.94234821       1.70487361       4.31651927
C       -2.19433063      -0.76390598      -3.62822968
C        1.94423568       0.65445976      -3.00358216
C       -1.76171030       2.40402728       0.61765404
C        0.24392374       0.84581933       4.45403405
C       -2.71665191      -1.03311066      -2.30152003
C        1.43843583      -2.22988809      -1.73287145
C        1.38610138       2.51245038      -1.41146796
C        1.10260200      -1.76731686      -3.04963624
60
Properties=species:S:1:pos:R:3 trajectory=trial0001_proposal001_step004_proposal_relax trajectory_step=66 pbc="F F F"
C        0.42157213       2.94303946       1.62760247
C       -2.02393281       0.38777366       1.47178036
C       -0.80155872      -2.06992612       1.74552543
C        1.25185597      -0.51365177      -3.56532380
C        3.09470358       0.23068718      -2.09042191
C       -0.66522507       0.14597894       1.54159705
C        1.72103743       2.35644952       1.72750484
C        0.67527650       2.00809338       3.73650539
C       -0.73250165      -3.17320573      -2.28910767
C        0.01259635      -0.17574153      -4.18715150
C        2.08889433      -1.64020355      -0.62833925
C       -1.48869489      -3.48476977      -0.09291207
C       -0.33774265       2.93625590       0.41627666
C       -0.27169619      -2.33140110      -3.36432820
C       -2.70214318      -1.98544612      -1.36796158
C        1.59525361       0.12347314       2.75012430
C       -2.71139114      -1.57107741       0.05622370
C        0.00544603       2.03047553      -3.13232222
C        1.35166793       1.80389415      -2.69347784
C       -1.60093267       2.32098089       3.01859710
C       -2.02927850       0.78966662      -3.84753463
C       -2.05295982       2.42423152      -1.90367513
C        3.65372787       1.21364960      -1.18894597
C        2.55518128       1.83475880       0.73133242
C        2.99658488       0.48636076       0.92864793
C        2.11425425      -0.47058665       1.55963966
C       -2.62017058       1.38738688      -2.71641892
C        1.69808013       1.52591748       2.87900123
C       -0.69030239       2.72611407      -2.07447535
C       -0.55727115      -0.86714252       2.58117310
C       -2.94170321       0.76738716      -0.53422151
C       -2.09700493       1.83029417       1.78793057
C        3.78555498       0.15272539      -0.18544893
C       -0.92956148      -1.26797140      -4.03632933
C        0.37742172      -0.25041927       3.52502070
C       -2.43411791       2.08697395      -0.55811549
C        2.67313945       2.15176083      -0.65537342
C        3.14010873      -0.76836081      -1.04835187
C        1.53870886      -1.56259051       0.73594468
C        0.34384686      -2.40752261       0.96182503
C       -0.23573129       2.70201711       2.89530415
C        0.20187301       2.91613267      -0.94563786
C       -1.95702986      -2.51146230       0.85904319
C       -1.03086507       1.15142713       5.08139583
C       -2.35784521       1.15611713       5.44458133
C       -3.02741202       0.34121366      -1.88352444
C        0.36041358      -3.24665239      -1.35914149
C       -2.74746344      -0.21651484       0.44881973
C       -0.07770144      -3.37330345      -0.03861378
C       -0.62945788       1.08275138      -3.97925814
C       -1.91005329      -3.17369714      -1.46147211
C       -1.98742619       1.80190575       4.26766025
C       -2.16794468      -0.68899093      -3.67328001
C        2.02499993       0.55632219      -2.96319528
C       -1.68494869       2.48553651       0.56874854
C        0.20139701       0.89243212       4.48590394
C       -2.77202199      -0.94544827      -2.37203534
C        1.38864880      -2.32657290      -1.68934736
C        1.52690540       2.45917389      -1.41183427
C        1.08046834      -1.83308626      -3.01117495
60
Properties=species:S:1:pos:R:3 trajectory=trial0001_proposal001_step004_proposal_relax trajectory_step=67 pbc="F F F"
C        0.48382880       2.96206816       1.63573082
C       -2.07954385       0.52991533       1.34253967
C       -0.89787946      -2.08871216       1.78755250
C        1.28744353      -0.58104050      -3.53297541
C        3.11697525       0.08768483      -2.01585662
C       -0.78388586       0.08606153       1.66258886
C        1.75224156       2.30127526       1.73567698
C        0.67920504       2.00566114       3.73050071
C       -0.81452177      -3.15748779      -2.29380558
C        0.08066747      -0.19200666      -4.19248228
C        2.02246799      -1.73481581      -0.56552670
C       -1.62494694      -3.42493842      -0.11039507
C       -0.24628340       2.95321699       0.40660791
C       -0.31168873      -2.32674915      -3.35758693
C       -2.75822431      -1.89163573      -1.42575883
C        1.54910716       0.06897358       2.78834545
C       -2.75539425      -1.47620722      -0.00534160
C        0.13649314       2.02008259      -3.14607985
C        1.46881857       1.74279006      -2.68693345
C       -1.58085588       2.40087119       2.99486618
C       -1.92834034       0.84677580      -3.89112047
C       -1.94908380       2.49064883      -1.95641527
C        3.70612119       1.05454925      -1.11794201
C        2.58202955       1.73113900       0.76064287
C        2.96730106       0.37075854       0.98894903
C        2.03943468      -0.55275429       1.60289335
C       -2.52747622       1.46908505      -2.78146131
C        1.66946390       1.46782421       2.87782430
C       -0.55910264       2.72276514      -2.08852637
C       -0.53420911      -0.92848617       2.63092013
C       -2.93641195       0.87928983      -0.61505430
C       -2.08393787       1.95407723       1.73697339
C        3.77421313       0.00527311      -0.09646797
C       -0.91142606      -1.24306818      -4.05116867
C        0.32900615      -0.28006209       3.57271236
C       -2.36297423       2.17777042      -0.61401356
C        2.76398749       2.04268419      -0.61900893
C        3.11351241      -0.90327353      -0.96112243
C        1.43074881      -1.62834676       0.77882192
C        0.22984177      -2.46289390       0.99808793
C       -0.19959704       2.76712035       2.90450762
C        0.32141359       2.88280616      -0.94857736
C       -2.07038837      -2.44124689       0.84461452
C       -1.05742810       1.25323853       5.07482728
C       -2.38355041       1.31333861       5.43121600
C       -3.00444035       0.44335498      -1.95764221
C        0.26096884      -3.28834808      -1.33376206
C       -2.78998552      -0.11364322       0.34750346
C       -0.20877446      -3.41270172      -0.02647945
C       -0.51416516       1.09475059      -4.00820263
C       -2.00024942      -3.10083393      -1.48734102
C       -2.01497206       1.89764535       4.22656779
C       -2.13334880      -0.62277139      -3.71673474
C        2.08966547       0.45900693      -2.92527139
C       -1.61451168       2.55919870       0.52737026
C        0.16354795       0.92314919       4.49820078
C       -2.80772421      -0.85839839      -2.44154554
C        1.33205592      -2.40716670      -1.65077498
C        1.64801994       2.39465475      -1.40446556
C        1.05227600      -1.88830386      -2.97624881
60
Properties=species:S:1:pos:R:3 trajectory=trial0001_proposal001_step004_proposal_relax trajectory_step=68 pbc="F F F"
C        0.45510766       2.93058324       1.64543263
C       -2.07728745       0.53108880       1.39655433
C       -0.82636567      -2.06855809       1.79423920
C        1.25132304      -0.55127421      -3.52909923
C        3.06127901       0.14444378      -2.03709684
C       -0.78684621       0.05706891       1.67885858
C        1.71298202       2.28875038       1.72413652
C        0.67444196       1.95946545       3.72389115
C       -0.77576108      -3.14385288      -2.29515757
C        0.06180611      -0.18822662      -4.19940786
C        2.04698807      -1.69462276      -0.60626282
C       -1.55889711      -3.40411778      -0.08860721
C       -0.27968507       2.94004382       0.42181936
C       -0.30240863      -2.30746825      -3.36042412
C       -2.68117567      -1.90776096      -1.39542303
C        1.58003499       0.07622284       2.77245759
C       -2.68383048      -1.51006523       0.01806045
C        0.08450117       2.00367898      -3.13409000
C        1.41414073       1.74490891      -2.68042784
C       -1.58783471       2.39320481       3.01864505
C       -1.93743419       0.79301760      -3.85839441
C       -1.99039907       2.45447713      -1.92206794
C        3.63706974       1.10812803      -1.13963513
C        2.53904855       1.74702735       0.73784834
C        2.95663589       0.41540128       0.95767080
C        2.05339073      -0.51277360       1.56088923
C       -2.52912583       1.42683869      -2.76701169
C        1.66460115       1.47107349       2.86387698
C       -0.61468781       2.67702785      -2.06450959
C       -0.51159941      -0.88232359       2.56632017
C       -2.93866213       0.84170400      -0.62037908
C       -2.10742374       1.96838170       1.75435037
C        3.75926553       0.06826766      -0.12763873
C       -0.90848685      -1.24880141      -4.05745589
C        0.38751785      -0.31389973       3.54964032
C       -2.37599485       2.14318610      -0.58014086
C        2.70990860       2.06742242      -0.62497163
C        3.10302751      -0.84746784      -0.99371534
C        1.46492309      -1.58334592       0.73467458
C        0.27960643      -2.42218723       0.98399262
C       -0.20463132       2.75079255       2.93161309
C        0.27020517       2.85517882      -0.93253420
C       -2.00585842      -2.43681486       0.89006136
C       -1.03447173       1.17830564       5.03796544
C       -2.35510654       1.29133472       5.45364682
C       -2.97096339       0.41319135      -1.93893192
C        0.29207165      -3.23532561      -1.33998131
C       -2.78841263      -0.13072663       0.34172440
C       -0.16111031      -3.36107405      -0.03820749
C       -0.54378592       1.07519980      -4.00904515
C       -1.94220066      -3.10935277      -1.46546429
C       -2.01761571       1.85887627       4.23044171
C       -2.12552060      -0.66540529      -3.69851316
C        2.02895713       0.48022134      -2.92218027
C       -1.65139663       2.56465070       0.55386011
C        0.16760202       0.86460948       4.46656319
C       -2.77296790      -0.88276805      -2.41772301
C        1.35385333      -2.37254453      -1.68122068
C        1.60254128       2.40423231      -1.40753191
C        1.04064896      -1.85363523      -2.99102888
60
Properties=species:S:1:pos:R:3 trajectory=trial0001_proposal001_step004_proposal_relax trajectory_step=69 pbc="F F F"
C        0.50409351       2.94262994       1.63285282
C       -2.07835787       0.59813334       1.38103441
C       -0.90167981      -2.09650966       1.80520319
C        1.29143051      -0.60124237      -3.50310614
C        3.10482507       0.03367796      -1.98664239
C       -0.94831468       0.03449284       1.79469576
C        1.74102618       2.23440020       1.72693644
C        0.66158865       1.95311315       3.72310850
C       -0.84377551      -3.14395526      -2.28660279
C        0.12615785      -0.20148512      -4.20128801
C        1.98952956      -1.78863832      -0.56275110
C       -1.69015304      -3.36633932      -0.09037207
C       -0.19904548       2.96443228       0.38934790
C       -0.33079090      -2.30713215      -3.33910843
C       -2.72838619      -1.82634507      -1.43200227
C        1.54596204       0.02966727       2.81432527
C       -2.74640543      -1.42343884      -0.02257989
C        0.19966881       1.99445730      -3.14825827
C        1.51727244       1.68773561      -2.66872635
C       -1.57497626       2.46909446       2.97238368
C       -1.85349695       0.84675415      -3.89766815
C       -1.88923081       2.52846671      -1.96808208
C        3.69487278       0.97643154      -1.08790143
C        2.56946790       1.65850569       0.76690214
C        2.94541189       0.30608536       1.00306357
C        1.99310795      -0.58682037       1.60096865
C       -2.45272251       1.52421112      -2.83727208
C        1.66110904       1.43178211       2.88875606
C       -0.49862961       2.68496687      -2.09716615
C       -0.54999311      -0.92483518       2.61466118
C       -2.95276019       0.94643492      -0.69990957
C       -2.11231190       2.07106457       1.70172901
C        3.77085873      -0.07885335      -0.06420346
C       -0.88539250      -1.23311913      -4.06466608
C        0.38502714      -0.34803114       3.61014372
C       -2.32202331       2.23325051      -0.64459175
C        2.78756488       1.97289473      -0.59349190
C        3.07964687      -0.96274239      -0.93532091
C        1.40682510      -1.66293022       0.77186317
C        0.20739755      -2.47743357       1.01028561
C       -0.17561711       2.78123130       2.91944154
C        0.37848481       2.83516065      -0.95149493
C       -2.11796409      -2.37540187       0.87686051
C       -1.08694822       1.25111895       5.03645421
C       -2.39249975       1.42871005       5.44465968
C       -2.96436425       0.52720823      -2.02397338
C        0.21300812      -3.27933930      -1.31246939
C       -2.83701722      -0.02441980       0.28579484
C       -0.26164363      -3.38817082      -0.02452214
C       -0.44648462       1.08216430      -4.03678675
C       -2.03537627      -3.05802494      -1.48409840
C       -2.03325296       1.94931193       4.20648640
C       -2.11047669      -0.60625491      -3.74096494
C        2.09158352       0.40231447      -2.89488751
C       -1.60223299       2.65899708       0.50521626
C        0.12266841       0.86469258       4.46479047
C       -2.78993264      -0.79773575      -2.46092695
C        1.30246914      -2.43667466      -1.64384282
C        1.70464078       2.34572044      -1.40234006
C        1.02209360      -1.89982625      -2.95499591
60
Properties=species:S:1:pos:R:3 trajectory=trial0001_proposal001_step004_proposal_relax trajectory_step=70 pbc="F F F"
C        0.54955476       2.94268671       1.62582362
C       -2.10968610       0.66970797       1.35972070
C       -0.96013925      -2.11465861       1.81344096
C        1.31876151      -0.64698326      -3.47845490
C        3.13215661      -0.06464990      -1.94177682
C       -1.10043908       0.00742517       1.92168202
C        1.75740820       2.18213639       1.73487247
C        0.64782525       1.93523037       3.72253271
C       -0.90204039      -3.13987527      -2.27503528
C        0.17722588      -0.21837966      -4.20685000
C        1.94944308      -1.86560427      -0.53029854
C       -1.78770943      -3.33210402      -0.09194055
C       -0.13499730       2.98505592       0.36376333
C       -0.35400400      -2.30625625      -3.31879559
C       -2.75886176      -1.74943119      -1.45894094
C        1.52671218      -0.01325702       2.84426101
C       -2.79115763      -1.33104962      -0.05129393
C        0.29690871       1.97995565      -3.16154242
C        1.59788862       1.64130666      -2.65967318
C       -1.56634796       2.53875055       2.94107302
C       -1.77420006       0.88883880      -3.93216132
C       -1.79853124       2.58489131      -2.01483768
C        3.74052330       0.86158293      -1.03969616
C        2.59308767       1.57797688       0.78769774
C        2.93427003       0.21509704       1.03438273
C        1.94632152      -0.64756633       1.62919502
C       -2.38307502       1.60562058      -2.89934875
C        1.65727095       1.39470748       2.90850891
C       -0.39580600       2.68535251      -2.12010195
C       -0.58694159      -0.95150158       2.65723665
C       -2.95961303       1.04005182      -0.76208085
C       -2.11183675       2.16414326       1.65649737
C        3.77701302      -0.19917099      -0.01353890
C       -0.87005423      -1.21980969      -4.07211866
C        0.38712551      -0.39178343       3.65846692
C       -2.27839108       2.31197894      -0.69717500
C        2.84933122       1.89204798      -0.56643716
C        3.06102047      -1.05970431      -0.89252196
C        1.35936742      -1.72883960       0.79990949
C        0.14674076      -2.52155324       1.02625978
C       -0.15339948       2.79936551       2.90657301
C        0.46851651       2.81326005      -0.96577614
C       -2.20026743      -2.32091194       0.86987094
C       -1.12810096       1.29207828       5.01595613
C       -2.42619252       1.55557061       5.44424634
C       -2.96220892       0.62114941      -2.09256979
C        0.14415395      -3.30848365      -1.30113936
C       -2.86423141       0.07570145       0.24734175
C       -0.36004342      -3.39894158      -0.00431361
C       -0.36393583       1.08570742      -4.05987781
C       -2.10484884      -3.01422666      -1.49417830
C       -2.04318026       2.02755433       4.17338592
C       -2.08460597      -0.55982720      -3.77695607
C        2.14093502       0.33410181      -2.86364755
C       -1.56770542       2.74197115       0.45975600
C        0.07491198       0.86140071       4.46275262
C       -2.79274620      -0.72467537      -2.50203568
C        1.25590597      -2.49130385      -1.61606257
C        1.78681040       2.29743732      -1.39508379
C        1.00364822      -1.93568181      -2.92399935
60
Properties=species:S:1:pos:R:3 trajectory=trial0001_proposal001_step004_proposal_relax trajectory_step=71 pbc="F F F"
C        0.56506097       2.92084591       1.61289998
C       -2.14903668       0.71791530       1.38800507
C       -0.96704812      -2.10817590       1.80925098
C        1.32565567      -0.66473308      -3.46391000
C        3.13417575      -0.10639408      -1.92810160
C       -1.26276596       0.01616251       2.03818800
C        1.75260351       2.13653259       1.73988209
C        0.62272413       1.89808264       3.71496769
C       -0.92619482      -3.13072098      -2.26459653
C        0.20203540      -0.23811997      -4.21321795
C        1.93571858      -1.90048001      -0.53021677
C       -1.83120030      -3.30201072      -0.08643079
C       -0.11313037       2.99572974       0.34330102
C       -0.36453871      -2.30080029      -3.29849198
C       -2.74458948      -1.69342732      -1.45464650
C        1.53219401      -0.04431310       2.85492560
C       -2.79475824      -1.26817501      -0.04846933
C        0.34197970       1.95563262      -3.16748090
C        1.62980316       1.60651852      -2.64873110
C       -1.56505228       2.58952735       2.91648939
C       -1.72532417       0.90138160      -3.94955854
C       -1.73976642       2.60404629      -2.04408794
C        3.74978212       0.80909995      -1.01601846
C        2.59196915       1.52873621       0.79646639
C        2.92628807       0.16770120       1.03390317
C        1.93334873      -0.67575274       1.63087021
C       -2.33732066       1.64940291      -2.94470070
C        1.65793810       1.36838001       2.92742424
C       -0.34056298       2.67206534      -2.13581994
C       -0.61951376      -0.95759584       2.70206810
C       -2.96037457       1.09542315      -0.79962754
C       -2.10992258       2.21134547       1.63422966
C        3.77432292      -0.26164646       0.00285069
C       -0.85722695      -1.22215777      -4.07333369
C        0.40630958      -0.45393339       3.67493192
C       -2.25685675       2.36227570      -0.72744009
C        2.86413613       1.84231590      -0.54814484
C        3.04333415      -1.10466525      -0.89103412
C        1.36142443      -1.76742006       0.80543808
C        0.13707892      -2.53502191       1.02429025
C       -0.14852469       2.77674100       2.88862034
C        0.50764296       2.79377462      -0.96963440
C       -2.21888165      -2.27275714       0.86928339
C       -1.17935873       1.27179542       4.97928754
C       -2.42519746       1.64662697       5.44009255
C       -2.95863001       0.68249397      -2.11615990
C        0.10802038      -3.31119853      -1.29591595
C       -2.86378978       0.15373706       0.24807192
C       -0.39514897      -3.37843535      -0.00135119
C       -0.31862766       1.07417369      -4.07098292
C       -2.13270001      -2.98264859      -1.48477244
C       -2.03599262       2.06570486       4.17078125
C       -2.05684331      -0.53901097      -3.79186376
C        2.15100808       0.29996920      -2.84431534
C       -1.56597914       2.80419471       0.42852251
C        0.04375704       0.82253432       4.43355046
C       -2.75833784      -0.67626902      -2.52015724
C        1.22657866      -2.50990193      -1.60502654
C        1.81550660       2.26305662      -1.38384835
C        0.98834063      -1.94454525      -2.90556034
60
Properties=species:S:1:pos:R:3 trajectory=trial0001_proposal001_step004_proposal_relax trajectory_step=72 pbc="F F F"
C        0.58186936       2.89219435       1.59286184
C       -2.20384569       0.77629905       1.41740352
C       -0.98359875      -2.08990937       1.80042184
C        1.33567538      -0.69051761      -3.44829326
C        3.15048823      -0.15311426      -1.91118986
C       -1.40073517       0.01017295       2.18285528
C        1.76040014       2.09580056       1.74581466
C        0.59560476       1.86552879       3.70751933
C       -0.96100337      -3.12578797      -2.25408851
C        0.23003873      -0.25950704      -4.21767542
C        1.92727701      -1.94549829      -0.52436440
C       -1.87925062      -3.27849353      -0.07958882
C       -0.08878983       3.01327890       0.31960076
C       -0.37759232      -2.30038877      -3.27789171
C       -2.73716222      -1.63274736      -1.45172508
C        1.53549745      -0.07906875       2.86806880
C       -2.80718211      -1.19682626      -0.04368406
C        0.39526132       1.93444719      -3.17587044
C        1.66897551       1.57419025      -2.63754706
C       -1.56521683       2.64043074       2.89118342
C       -1.67758403       0.92048674      -3.97393082
C       -1.67550719       2.62799028      -2.08003786
C        3.77288452       0.75002935      -0.99358013
C        2.60064583       1.48019975       0.81095999
C        2.92486670       0.11426109       1.03778715
C        1.92689621      -0.71224963       1.63926467
C       -2.30502047       1.69460384      -2.98164968
C        1.66611656       1.34314972       2.95028699
C       -0.28222675       2.67043187      -2.15824944
C       -0.68516287      -0.95587914       2.74333379
C       -2.96110895       1.16565828      -0.81989188
C       -2.10256859       2.25995619       1.60806405
C        3.78029592      -0.33364168       0.01426051
C       -0.84578082      -1.22733247      -4.07288061
C        0.41290683      -0.50235431       3.69445509
C       -2.23537418       2.41819880      -0.77249291
C        2.88719167       1.79386165      -0.53208317
C        3.04177173      -1.15437984      -0.89052463
C        1.37058304      -1.81435044       0.81735920
C        0.12314017      -2.54934351       1.02600435
C       -0.14459751       2.74838327       2.86014075
C        0.55010855       2.78838057      -0.97910054
C       -2.24210135      -2.22858784       0.86335432
C       -1.22894084       1.23899028       4.93761080
C       -2.44403149       1.73526602       5.43274192
C       -2.96547517       0.74086398      -2.15649058
C        0.07053809      -3.32029356      -1.29338039
C       -2.86679843       0.22455453       0.24618017
C       -0.44053762      -3.36910257       0.00491157
C       -0.27060483       1.06376184      -4.08109495
C       -2.17120038      -2.94763412      -1.47832876
C       -2.03058883       2.11313110       4.14881232
C       -2.03344292      -0.50936105      -3.80185669
C        2.17010926       0.26637902      -2.82489718
C       -1.55812965       2.86568757       0.39709215
C        0.00332038       0.78907481       4.41308159
C       -2.73329313      -0.62269672      -2.52904665
C        1.20058239      -2.53498984      -1.59035612
C        1.85057821       2.23126124      -1.37217924
C        0.97637291      -1.95923602      -2.88251715
60
Properties=species:S:1:pos:R:3 trajectory=trial0001_proposal001_step004_proposal_relax trajectory_step=73 pbc="F F F"
C        0.55023536       2.82279443       1.57120354
C       -2.27200561       0.77915746       1.53590214
C       -0.92850694      -2.01729392       1.76903527
C        1.31799312      -0.68327941      -3.45310876
C        3.14181024      -0.10688591      -1.94676779
C       -1.51686403       0.07777835       2.29703184
C        1.73958743       2.08289988       1.75392614
C        0.56276412       1.80417447       3.68665129
C       -0.95441778      -3.11769368      -2.24111501
C        0.20991509      -0.28212013      -4.22719571
C        1.97771280      -1.92421861      -0.56343175
C       -1.81411232      -3.27655712      -0.06378567
C       -0.13332923       3.01264493       0.30999324
C       -0.36616955      -2.30690028      -3.26291654
C       -2.67131442      -1.60813657      -1.39997213
C        1.56640862      -0.10259671       2.84599098
C       -2.75661387      -1.16249713       0.00456553
C        0.36532143       1.90932937      -3.17217730
C        1.62163084       1.58540702      -2.62630998
C       -1.57555832       2.64445421       2.89927928
C       -1.69638903       0.90256843      -3.96902704
C       -1.69022854       2.58917941      -2.09318046
C        3.75253754       0.79525324      -1.02101615
C        2.59076022       1.48859583       0.79983961
C        2.94190673       0.13874300       0.99544252
C        1.98660578      -0.70436622       1.61822764
C       -2.32643788       1.67022965      -2.97671531
C        1.68262859       1.33075477       2.96350999
C       -0.30049530       2.66134188      -2.16718812
C       -0.75902698      -0.93856693       2.77371738
C       -2.94588517       1.17206587      -0.78445782
C       -2.09861468       2.23557957       1.61597632
C        3.78385077      -0.29594512      -0.04068933
C       -0.85577013      -1.24762388      -4.06912400
C        0.41953338      -0.53583769       3.65784258
C       -2.25495261       2.42604091      -0.77513922
C        2.83984373       1.81261964      -0.53470627
C        3.06440365      -1.12263583      -0.95708434
C        1.45689375      -1.81499878       0.79754834
C        0.18494955      -2.50503352       1.00433659
C       -0.17676504       2.65827201       2.81525230
C        0.50710426       2.80217703      -0.98602511
C       -2.15473759      -2.20627037       0.87009079
C       -1.26797105       1.09529790       4.85979706
C       -2.42879310       1.73820956       5.43783678
C       -2.97424351       0.73281137      -2.12577575
C        0.09973302      -3.29143897      -1.32190152
C       -2.82457632       0.23942254       0.31291062
C       -0.40558351      -3.32583736       0.01511440
C       -0.29650171       1.03431101      -4.07144313
C       -2.13744563      -2.93297125      -1.45023340
C       -1.99593280       2.10576361       4.12472703
C       -2.00901452      -0.52230379      -3.77148581
C        2.14236055       0.28751609      -2.82865403
C       -1.59830877       2.86646661       0.39021707
C       -0.03012218       0.71280694       4.37828162
C       -2.66627450      -0.62285660      -2.47658664
C        1.21279774      -2.50456565      -1.60538953
C        1.79116515       2.23640265      -1.35736172
C        0.97805151      -1.93802541      -2.87933804
60
Properties=species:S:1:pos:R:3 trajectory=trial0001_proposal001_step004_proposal_relax trajectory_step=74 pbc="F F F"
C        0.56541570       2.79622451       1.55647918
C       -2.33389584       0.85000084       1.52822695
C       -0.96518864      -1.97738454       1.76758588
C        1.33713621      -0.71802438      -3.44140262
C        3.16449059      -0.15693641      -1.93489137
C       -1.60226949       0.07225839       2.43144289
C        1.76627521       2.05590943       1.76374552
C        0.55132158       1.78236063       3.66977081
C       -0.99565850      -3.10770663      -2.24601223
C        0.23378805      -0.30162259      -4.22847133
C        1.97781593      -1.96492427      -0.54204240
C       -1.86253977      -3.24515331      -0.07089162
C       -0.10637316       3.02206294       0.29781646
C       -0.38715276      -2.31016991      -3.26125126
C       -2.68437993      -1.54843854      -1.40463108
C        1.54309371      -0.13698050       2.86009964
C       -2.76058857      -1.10970341      -0.00494798
C        0.41728109       1.89882963      -3.18162755
C        1.66991397       1.55722489      -2.61860750
C       -1.56778541       2.68239568       2.87690561
C       -1.66830395       0.93181309      -3.99036909
C       -1.64345057       2.61083375      -2.12927923
C        3.78304942       0.74363212      -0.99903171
C        2.61268290       1.44693132       0.81753952
C        2.94655894       0.08910796       1.01179176
C        1.99032002      -0.75405776       1.63923318
C       -2.30310305       1.69378720      -3.00434992
C        1.67436732       1.29766163       2.96827499
C       -0.25150295       2.67359544      -2.18806645
C       -0.81289866      -0.95771761       2.80543061
C       -2.93358155       1.22832655      -0.80247192
C       -2.08319467       2.28432587       1.59159357
C        3.78415074      -0.34998572      -0.01913797
C       -0.85212577      -1.25022873      -4.06737196
C        0.36219666      -0.54179613       3.65810177
C       -2.22602785       2.47577562      -0.80929370
C        2.87426364       1.76660302      -0.52193374
C        3.07355502      -1.18765492      -0.94081802
C        1.44878676      -1.85671617       0.81861485
C        0.14753781      -2.50863233       1.02210299
C       -0.17053546       2.64051308       2.79072879
C        0.54395957       2.81408799      -0.99329902
C       -2.17173793      -2.16098652       0.85030618
C       -1.33827803       1.10225733       4.82615424
C       -2.41673361       1.80079866       5.38947129
C       -2.97760225       0.77570143      -2.12861596
C        0.05449783      -3.31679249      -1.29912115
C       -2.82801896       0.29457469       0.28634212
C       -0.44252842      -3.34671013       0.00784220
C       -0.24935505       1.02998246      -4.07525678
C       -2.17447911      -2.88459177      -1.44966456
C       -1.99766552       2.13466284       4.12300579
C       -1.98976821      -0.48831715      -3.76632552
C        2.17380493       0.25134500      -2.81884184
C       -1.56892228       2.88384945       0.36923787
C       -0.05479395       0.70948834       4.37377318
C       -2.66493159      -0.57129260      -2.48478580
C        1.19498928      -2.53644284      -1.58620728
C        1.83208233       2.20871135      -1.34519675
C        0.96758071      -1.96305303      -2.86246006
60
Properties=species:S:1:pos:R:3 trajectory=trial0001_proposal001_step004_proposal_relax trajectory_step=75 pbc="F F F"
C        0.55636154       2.80134171       1.56399046
C       -2.31733228       0.82566073       1.52336257
C       -0.95876931      -1.97888421       1.76681958
C        1.33244100      -0.70952917      -3.45067881
C        3.16292196      -0.13956812      -1.93997901
C       -1.55162751       0.07539479       2.38493826
C        1.77000684       2.06833985       1.75727391
C        0.55970990       1.79114312       3.67154300
C       -0.97976779      -3.10741725      -2.25042875
C        0.22244085      -0.29232931      -4.22708523
C        1.98295288      -1.95126822      -0.54381288
C       -1.84001325      -3.24646115      -0.07098432
C       -0.11567097       3.00980311       0.30982751
C       -0.38401831      -2.31120838      -3.27505153
C       -2.68530746      -1.57170074      -1.40323300
C        1.53384543      -0.12963913       2.85274356
C       -2.74556155      -1.13674478      -0.00688671
C        0.39326634       1.90958544      -3.17807416
C        1.65532433       1.56909785      -2.62405508
C       -1.56762484       2.66233042       2.88733724
C       -1.68739984       0.91905184      -3.98202940
C       -1.67230637       2.60395643      -2.11302375
C        3.77221492       0.77072417      -1.01419347
C        2.60976964       1.47021631       0.81584907
C        2.95081459       0.11130270       1.01344971
C        2.00127136      -0.74507742       1.63846903
C       -2.32288999       1.67109891      -2.97846426
C        1.66649068       1.29731082       2.95273506
C       -0.28492794       2.67581988      -2.18065119
C       -0.79892834      -0.94911744       2.78194061
C       -2.92767656       1.20057704      -0.78383402
C       -2.09005982       2.27058539       1.60681655
C        3.78323646      -0.31640103      -0.03064232
C       -0.85577251      -1.25004534      -4.06888805
C        0.34508548      -0.51576621       3.64070910
C       -2.23702820       2.45043012      -0.79513755
C        2.86493007       1.78889522      -0.53158618
C        3.08731752      -1.16387171      -0.94152214
C        1.44628171      -1.83548294       0.81305193
C        0.15161016      -2.49500816       1.02265438
C       -0.16918581       2.64640979       2.80649798
C        0.52398625       2.81979829      -0.98877684
C       -2.15571958      -2.17219994       0.85074714
C       -1.31663988       1.10576903       4.83186795
C       -2.40788849       1.76181473       5.39391875
C       -2.96747506       0.74545166      -2.11604916
C        0.07077447      -3.31362631      -1.29652533
C       -2.82426735       0.26681581       0.28688063
C       -0.41709035      -3.35231362       0.00774727
C       -0.27203771       1.03465421      -4.07131362
C       -2.15561493      -2.89117481      -1.45019477
C       -2.00317573       2.11642876       4.11974747
C       -2.00389705      -0.49858987      -3.75251273
C        2.16471698       0.26650500      -2.83069473
C       -1.56420956       2.85154909       0.38667793
C       -0.04143940       0.72494343       4.38364241
C       -2.67650037      -0.59106057      -2.47440970
C        1.20847142      -2.52796279      -1.59090365
C        1.81629822       2.22357871      -1.35061790
C        0.97082664      -1.96032296      -2.87405543
60
Properties=species:S:1:pos:R:3 trajectory=trial0001_proposal001_step004_proposal_relax trajectory_step=76 pbc="F F F"
C        0.57416563       2.78154911       1.56901638
C       -2.33406032       0.84238809       1.53650702
C       -0.97845086      -1.96880512       1.75730905
C        1.34004645      -0.72860727      -3.45253714
C        3.17518661      -0.16806137      -1.93690403
C       -1.63132739       0.09610478       2.43180702
C        1.78059457       2.04921292       1.75742281
C        0.55774845       1.77548907       3.66572904
C       -0.99191339      -3.09862393      -2.24790399
C        0.23506365      -0.29335840      -4.22839655
C        1.98439179      -1.97657907      -0.53087173
C       -1.85261705      -3.21150026      -0.07034468
C       -0.09443513       2.99512389       0.31218017
C       -0.39412531      -2.31510209      -3.28450802
C       -2.69168326      -1.54292692      -1.40781492
C        1.49915110      -0.16253088       2.85227791
C       -2.72877372      -1.10492600      -0.01947499
C        0.41370707       1.91144418      -3.18047275
C        1.67550688       1.55377696      -2.62515741
C       -1.56411066       2.68390457       2.88386668
C       -1.67707104       0.92387600      -3.98200994
C       -1.66816269       2.62720524      -2.12120467
C        3.77905155       0.75094164      -1.01374265
C        2.62908519       1.44797645       0.81987355
C        2.96036429       0.08632289       1.03303022
C        2.00886746      -0.77938170       1.65563379
C       -2.30960454       1.67685348      -2.97992820
C        1.64450608       1.25443835       2.93413802
C       -0.27191601       2.68129262      -2.18605518
C       -0.82826922      -0.94474649       2.78115829
C       -2.91192828       1.21942484      -0.78566125
C       -2.10130655       2.31379056       1.60502744
C        3.78514777      -0.32810751      -0.02099205
C       -0.85764478      -1.24240066      -4.07390266
C        0.29815425      -0.50803799       3.62259666
C       -2.21984843       2.46773685      -0.79895855
C        2.88254266       1.77103535      -0.52605468
C        3.10380382      -1.19711890      -0.92355435
C        1.43116674      -1.84414872       0.81971306
C        0.12994616      -2.48484707       1.03352022
C       -0.15200270       2.64656005       2.81303673
C        0.53988998       2.82035456      -0.99528882
C       -2.16102290      -2.13302380       0.84384410
C       -1.31634722       1.09854435       4.79599782
C       -2.41080272       1.79321750       5.39132851
C       -2.94317126       0.76270649      -2.12117377
C        0.05612526      -3.32398453      -1.28006369
C       -2.82394323       0.29294886       0.27062812
C       -0.43306257      -3.36524585       0.01717749
C       -0.25282629       1.03588704      -4.07770308
C       -2.16035737      -2.85762467      -1.44807988
C       -2.02394111       2.13756468       4.08622749
C       -1.99895606      -0.48962086      -3.74163550
C        2.18305926       0.24279415      -2.83088661
C       -1.53574878       2.84455087       0.38306587
C       -0.05877656       0.72767209       4.38626435
C       -2.68449405      -0.57182707      -2.47083583
C        1.20012060      -2.54973743      -1.58517541
C        1.83815387       2.21197839      -1.35288895
C        0.96269876      -1.98017956      -2.87325340
60
Properties=species:S:1:pos:R:3 trajectory=trial0001_proposal001_step004_proposal_relax trajectory_step=77 pbc="F F F"
C        0.57803290       2.76073123       1.56687801
C       -2.35663591       0.84459917       1.56473237
C       -0.97871947      -1.94502837       1.74405132
C        1.34222027      -0.73475833      -3.45894762
C        3.18791086      -0.17064338      -1.94456043
C       -1.67509840       0.11654781       2.46532499
C        1.78827653       2.03564514       1.75669687
C        0.55545742       1.76295932       3.66136854
C       -0.98990738      -3.09527632      -2.24116595
C        0.23290615      -0.29460515      -4.22670254
C        1.99778557      -1.98523147      -0.53264059
C       -1.84102995      -3.19492474      -0.06921341
C       -0.09050700       2.97934225       0.31177595
C       -0.39423780      -2.32164410      -3.28871007
C       -2.68730306      -1.53300405      -1.39920606
C        1.47969713      -0.18277743       2.84155719
C       -2.71292564      -1.08697051      -0.01829115
C        0.41043989       1.91189579      -3.18092895
C        1.67201569       1.54997841      -2.62569001
C       -1.55789923       2.69331438       2.87921356
C       -1.68142497       0.91925992      -3.97606827
C       -1.67686942       2.63674214      -2.12313798
C        3.77992388       0.75657837      -1.02510636
C        2.64192111       1.44551559       0.82278425
C        2.97756194       0.08175587       1.03932641
C        2.02937975      -0.79604280       1.66448920
C       -2.31237311       1.67766477      -2.97206055
C        1.63275872       1.23071769       2.92430586
C       -0.27997521       2.69040259      -2.19157945
C       -0.87749825      -0.91825051       2.77450507
C       -2.89897477       1.22269088      -0.77550363
C       -2.11074290       2.31782023       1.61291649
C        3.79140182      -0.31929317      -0.03156783
C       -0.86201185      -1.24116820      -4.07175022
C        0.26265695      -0.50248339       3.59609561
C       -2.21553227       2.46905571      -0.79390472
C        2.88187934       1.77363595      -0.52844334
C        3.12390126      -1.20048868      -0.92777574
C        1.44320466      -1.84539841       0.82023733
C        0.13613097      -2.47309048       1.02999100
C       -0.15126029       2.63084158       2.80995917
C        0.53726142       2.82805758      -1.00274972
C       -2.14620360      -2.11221078       0.83692922
C       -1.34117544       1.08698033       4.77059769
C       -2.39868825       1.78928211       5.37263064
C       -2.93351943       0.76457212      -2.10547667
C        0.06218077      -3.32555645      -1.28184000
C       -2.81183279       0.29869303       0.29149516
C       -0.42871132      -3.36548313       0.03372791
C       -0.25891424       1.03470958      -4.07577050
C       -2.15041843      -2.84149941      -1.44264899
C       -2.03559257       2.13327375       4.08020212
C       -1.99978561      -0.49177980      -3.72704576
C        2.18748714       0.23889809      -2.83957110
C       -1.52498668       2.82984504       0.38551340
C       -0.06361455       0.71846501       4.38071165
C       -2.68210324      -0.56949615      -2.45758710
C        1.20294979      -2.55479620      -1.58412782
C        1.83422249       2.21251165      -1.35547779
C        0.96245301      -1.98746890      -2.87782417
60
Properties=species:S:1:pos:R:3 trajectory=trial0001_proposal001_step004_proposal_relax trajectory_step=78 pbc="F F F"
C        0.59573579       2.74231423       1.55902842
C       -2.39366623       0.88209260       1.58458799
C       -0.99698339      -1.91234004       1.74123252
C        1.35149241      -0.75404672      -3.45575841
C        3.20564677      -0.20411731      -1.93942319
C       -1.77734539       0.13230322       2.53099866
C        1.80005340       1.99663214       1.75921777
C        0.54985882       1.74451661       3.65914616
C       -1.00224816      -3.08907744      -2.23243925
C        0.24287785      -0.30183954      -4.22393581
C        2.00008062      -2.01561653      -0.52731400
C       -1.86276012      -3.16655686      -0.06731216
C       -0.06341979       2.96743807       0.30231592
C       -0.40069163      -2.32509512      -3.28330867
C       -2.68968483      -1.50087506      -1.39878374
C        1.45635060      -0.21394126       2.83555320
C       -2.71478241      -1.04503477      -0.02222427
C        0.43398591       1.90499408      -3.18505462
C        1.69120501       1.52715103      -2.62313659
C       -1.54803278       2.72414394       2.86978171
C       -1.65877801       0.92805308      -3.97576255
C       -1.65218501       2.66587623      -2.13616904
C        3.79300745       0.72439424      -1.01821650
C        2.65982582       1.41488651       0.83364565
C        2.99440764       0.04829479       1.05410699
C        2.03433282      -0.82894376       1.67604958
C       -2.29047605       1.70655121      -2.98464432
C        1.62101546       1.19981240       2.92377187
C       -0.25358417       2.69923945      -2.20436334
C       -0.93831398      -0.90482317       2.77729036
C       -2.88746314       1.25632481      -0.78237617
C       -2.11444789       2.34155806       1.60641511
C        3.79971562      -0.35245451      -0.02472013
C       -0.85607056      -1.24117099      -4.06493716
C        0.22660236      -0.51606753       3.58427775
C       -2.19404414       2.49378205      -0.80604547
C        2.89859695       1.74741522      -0.52293615
C        3.13145505      -1.23156110      -0.92146782
C        1.44532495      -1.87012437       0.82502633
C        0.12561426      -2.47574060       1.03415785
C       -0.14670326       2.62369590       2.79998025
C        0.56518479       2.82496418      -1.01231439
C       -2.15698242      -2.07813445       0.82579359
C       -1.37890146       1.08981159       4.73902810
C       -2.39978460       1.82291683       5.35529800
C       -2.92383004       0.79744670      -2.10885329
C        0.04116384      -3.33746950      -1.26916832
C       -2.80844981       0.33917819       0.30262400
C       -0.44886157      -3.36549675       0.04060693
C       -0.24061680       1.03295318      -4.07844904
C       -2.15990950      -2.81499829      -1.43918456
C       -2.04621116       2.15831029       4.05720081
C       -1.99314399      -0.47893495      -3.72722767
C        2.20417948       0.21308773      -2.83757841
C       -1.50655402       2.84398220       0.37953996
C       -0.08776836       0.70556856       4.37169938
C       -2.67929219      -0.54152060      -2.46333163
C        1.19586708      -2.57295508      -1.57674336
C        1.85522088       2.19621368      -1.35608201
C        0.95873078      -2.00335399      -2.87417142
60
Properties=species:S:1:pos:R:3 trajectory=trial0001_proposal001_step004_proposal_relax trajectory_step=79 pbc="F F F"
C        0.62706312       2.72503998       1.55644860
C       -2.43306568       0.93828199       1.59758205
C       -1.02670180      -1.87683732       1.72838993
C        1.36025926      -0.77455564      -3.45385692
C        3.22030684      -0.24665931      -1.93770821
C       -1.89845259       0.14425179       2.58550200
C        1.80147069       1.95015931       1.76431449
C        0.54029205       1.73403680       3.65977984
C       -1.01367677      -3.08183635      -2.22122774
C        0.25493468      -0.31009482      -4.21370094
C        2.00143721      -2.05107054      -0.52195673
C       -1.88776568      -3.13801609      -0.06602346
C       -0.02656442       2.94684981       0.29324408
C       -0.40208371      -2.33073396      -3.26985276
C       -2.69783580      -1.46474305      -1.40976884
C        1.41719091      -0.24808896       2.82607876
C       -2.72754841      -1.00112063      -0.02444942
C        0.46119591       1.89773102      -3.18759417
C        1.71176721       1.49593506      -2.62316360
C       -1.53631526       2.75964932       2.85167572
C       -1.63404701       0.94440475      -3.96612693
C       -1.61750775       2.70821414      -2.14456905
C        3.80937536       0.67896017      -1.00517843
C        2.68814178       1.36867292       0.83866291
C        3.02019074       0.00250769       1.07666272
C        2.03545007      -0.86819986       1.68017754
C       -2.26130170       1.74115503      -2.99317698
C        1.60617088       1.15748193       2.92518918
C       -0.21245372       2.71195019      -2.21511030
C       -1.00753764      -0.87406508       2.77538028
C       -2.87016874       1.29510472      -0.78625063
C       -2.10676038       2.37056036       1.60381693
C        3.81418090      -0.40010842      -0.00705433
C       -0.85232994      -1.23653566      -4.05067401
C        0.16799795      -0.52668746       3.56502383
C       -2.15803852       2.52511809      -0.81219889
C        2.92046189       1.70848919      -0.51304392
C        3.13058141      -1.27397910      -0.90833057
C        1.44174862      -1.90315016       0.82752596
C        0.10389692      -2.47662071       1.04925560
C       -0.12548769       2.62631219       2.79347759
C        0.60453480       2.81273655      -1.02117123
C       -2.17642921      -2.03795522       0.81632630
C       -1.41476221       1.10927914       4.70299260
C       -2.40720688       1.85938064       5.32657971
C       -2.90583014       0.84003558      -2.12149486
C        0.02932498      -3.34574947      -1.26297633
C       -2.81376646       0.38408526       0.30307032
C       -0.48227826      -3.35839214       0.05739216
C       -0.21660187       1.03038426      -4.07895907
C       -2.17390043      -2.78471609      -1.43909081
C       -2.06434550       2.19256005       4.04000509
C       -1.98572044      -0.46334232      -3.73691548
C        2.22606048       0.17694935      -2.83111476
C       -1.47955086       2.85831640       0.37649153
C       -0.12121031       0.69784196       4.35918941
C       -2.68543823      -0.50850833      -2.47410106
C        1.18435257      -2.60048960      -1.57087648
C        1.88852310       2.17068949      -1.35989414
C        0.96132079      -2.02725603      -2.86768435
60
Properties=species:S:1:pos:R:3 trajectory=trial0001_proposal001_step004_proposal_relax trajectory_step=80 pbc="F F F"
C        0.63879125       2.72228769       1.55823351
C       -2.44877175       0.95274307       1.59320631
C       -1.03750417      -1.86203721       1.72515799
C        1.36241725      -0.78225009      -3.45114541
C        3.22129572      -0.25981907      -1.93244912
C       -1.93167559       0.14834577       2.58555836
C        1.80440396       1.92931013       1.76074199
C        0.54101173       1.72980082       3.66131020
C       -1.01335177      -3.07959660      -2.21653952
C        0.25461401      -0.31288029      -4.20740294
C        1.99828394      -2.06036836      -0.52252790
C       -1.89337682      -3.13093183      -0.06708047
C       -0.01633091       2.93841044       0.29455109
C       -0.39982338      -2.32914917      -3.26488263
C       -2.70156119      -1.45568104      -1.41278520
C        1.40208893      -0.25891536       2.81744048
C       -2.73814106      -0.99206962      -0.02646965
C        0.46893978       1.89331384      -3.18700141
C        1.71533711       1.48628164      -2.62288777
C       -1.52634390       2.76760856       2.85330108
C       -1.62561882       0.94946929      -3.96240675
C       -1.60405203       2.71934105      -2.14290341
C        3.81268753       0.65862183      -1.00039110
C        2.68839608       1.35509299       0.84525761
C        3.02919623      -0.01250070       1.08360548
C        2.03033161      -0.87633429       1.67673543
C       -2.24764548       1.75430009      -2.99037562
C        1.59742461       1.14747532       2.92854935
C       -0.19827088       2.71547556      -2.21287620
C       -1.02632802      -0.86037872       2.76518352
C       -2.86113137       1.30610444      -0.79552653
C       -2.09512448       2.37925247       1.60229806
C        3.82061150      -0.41880364      -0.00377854
C       -0.85128398      -1.23561727      -4.04124469
C        0.14676771      -0.52356696       3.55578789
C       -2.14507917       2.53222291      -0.80694091
C        2.92628740       1.69145437      -0.51181639
C        3.12727604      -1.28103066      -0.90571137
C        1.43897772      -1.91111308       0.82727326
C        0.09615204      -2.47406252       1.05457040
C       -0.12115677       2.63522799       2.79499836
C        0.61776469       2.80226223      -1.01940416
C       -2.18379653      -2.03022412       0.81483166
C       -1.41790157       1.11564572       4.69124375
C       -2.41787436       1.86743016       5.32105667
C       -2.89981684       0.85168498      -2.11609974
C        0.02352306      -3.34637183      -1.25521587
C       -2.81833387       0.39511847       0.30362744
C       -0.48920350      -3.34988754       0.05756821
C       -0.21250677       1.02992007      -4.07517662
C       -2.17402224      -2.77946904      -1.44001834
C       -2.06760963       2.21090910       4.03143919
C       -1.98600811      -0.45817758      -3.74120355
C        2.22579875       0.16804917      -2.83066449
C       -1.46624232       2.86165103       0.37782691
C       -0.13279314       0.69978086       4.35124083
C       -2.68846957      -0.50005347      -2.48276109
C        1.18869160      -2.60625161      -1.57183155
C        1.89914834       2.15871655      -1.36131596
C        0.96647898      -2.03215412      -2.86882082
