60
Properties=species:S:1:pos:R:3 system=runs/20260728-safe-lbfgs-strict-quench-200-production/output-c60-seed42 state_id=plateau_accepted pbc="F F F"
C       -0.82068337       2.76806701       1.93607838
C       -1.25030132      -3.13814966       1.98347671
C        1.47850520      -2.47636384       0.84557896
C        0.62786327       0.81436798      -3.66074307
C        2.06686842       2.37105508      -2.40506625
C        1.01409897      -2.06934683       2.14360567
C        0.54880317       2.42442150       1.74617693
C       -0.11819889       1.36041139       3.67589599
C        1.26441179      -2.57329282      -3.14080064
C       -0.69269396       0.32719101      -3.87602227
C        2.88423315       0.12038416      -1.50631789
C        1.52999188      -3.63821090      -1.14473941
C       -1.80692761       3.09208152       0.97403551
C        0.70669044      -1.50640495      -3.86819545
C       -0.68633603      -3.31963982      -1.69441225
C        1.79128162       0.35056225       2.17470239
C       -0.57738607      -3.47593345      -0.27263591
C       -1.67986802       2.00542988      -2.44595316
C       -0.34308263       2.54061624      -2.30252609
C       -2.53446150       2.17769627       3.64422272
C       -2.56636516      -0.43328996      -2.76040887
C       -3.77890987       2.54402410      -0.92412166
C        2.20840395       3.33390392      -1.34619509
C        1.39880132       2.74681976       0.69274031
C        2.57189512       1.98464617       0.51896120
C        2.52138599       0.61551651       0.90248540
C       -3.36907530      -0.88852250      -1.74206337
C        0.92792400       1.41943917       2.66504709
C       -2.44880373       2.56672344      -1.35939289
C       -0.20939806      -2.71382892       2.54379605
C       -2.81597435      -2.69539990       0.00978043
C       -3.45904741       2.63804498       2.73229026
C        3.17369840       2.44335310      -0.68467747
C       -0.64402015      -1.10663431      -3.94373756
C        1.50899879      -0.89770213       2.61044860
C       -4.11939207       2.77564097       0.29083079
C        1.05568500       3.41779507      -0.49826558
C        3.00260023       1.50394640      -1.73781346
C        2.72700599      -0.37516006      -0.13843954
C        2.41811568      -1.79599945      -0.02617905
C       -1.18631625       2.17455242       3.15949817
C       -1.50190002       3.12496050      -0.41441253
C        0.80616985      -3.47648247       0.06344926
C       -1.46395268       0.79223037       5.47368507
C       -2.71943422       0.94124733       6.10288279
C       -2.84445759      -2.14907385      -1.24832439
C        2.43411162      -2.06205319      -2.46839123
C       -1.67929202      -3.19063632       0.60805260
C        2.52734999      -2.62499025      -1.19264878
C       -1.82810844       0.77561129      -3.14563588
C        0.62665649      -3.46726642      -2.25056693
C       -2.64817210       1.54523576       4.90422419
C       -1.71651076      -1.57015695      -3.17938745
C        0.80491299       2.01035345      -2.93336177
C       -3.21898362       2.91549194       1.40571734
C       -0.30013063       0.67922104       4.85449447
C       -1.76573781      -2.54720984      -2.17209007
C        2.49772779      -0.66430537      -2.63222504
C       -0.22191281       3.22329081      -1.06064937
C        1.49706394      -0.31466555      -3.60064753
