60
Properties=species:S:1:pos:R:3 source_article_doi=10.1098/rsos.190342 source_dataset_doi=10.6084/m9.figshare.9164993.v2 source_block_header_line=4451 source_energy_eV_gupta=-199.346823 source_license="CC BY 4.0" pbc="F F F"
Au      -3.60074200      -1.17811400      -3.73967600
Au      -3.15571100       3.62786700      -1.63997300
Cu      -4.51509300      -0.36385500       1.33174200
Cu      -1.86439500      -4.59894000      -0.21619700
Cu       0.49033500       1.82237100      -4.98279500
Au       1.28463200      -3.24320100      -4.11755700
Au      -1.15359400       3.23468200       3.18923200
Au       2.04528500       4.53427900      -0.74930900
Au       3.16229800      -3.75827000       0.73248700
Cu       2.28466900       1.10301700       5.08252000
Au       4.70168500       0.26266400      -2.31752900
Au       3.61508800       0.98817300       2.88834900
Cu      -3.34665300       1.21645600      -2.66391600
Au      -2.79902700      -2.97617400      -1.96565500
Cu      -1.16539000      -2.21639500      -3.92623400
Au      -1.57632400       0.33659000      -4.45321700
Au      -4.16523900      -0.78051800      -1.16638500
Au       0.88163100      -0.72232300      -4.67813100
Au      -2.57121000      -1.18510200       2.75165500
Cu       2.18064600      -3.53676100      -1.69749600
Au      -3.86636600       1.65347200      -0.08366000
Au       1.29496100       3.26411500      -2.96909200
Au      -2.22023000      -0.74222000       5.33428800
Cu      -0.74313500       0.51278100       3.60832900
Au       0.64124000      -4.31322600       0.26391000
Au      -0.57766200       4.17767100      -1.15351100
Au       2.64150200       1.07971700      -3.72764500
Au      -1.35160900       2.80223500      -3.42841500
Cu       2.95606900      -1.47018500      -3.23694400
Au      -0.33963200      -4.03178000      -2.23083700
Au      -1.23084700      -3.38366100       1.94574300
Cu      -2.14782600       3.39445500       0.76808700
Au       4.24494400       0.64688800       0.28144600
Cu       0.44657200       3.84529600       1.21208900
Cu       1.32055900      -2.96574600       2.35202100
Cu      -2.85443100       1.37839500       2.32683700
Cu       1.23129500       2.07548400       3.02585100
Au       3.95967100      -1.83213900      -0.84583000
Cu       3.34367800       2.37706200      -1.51404000
Au       1.60320400      -0.64568600       3.43892700
Au       2.83215100       2.81666900       1.07692700
Cu       3.41825400      -1.37618600       1.71532000
Cu       0.05552100      -0.06946800      -0.50525100
Cu      -1.75513600      -0.62815700      -2.07419100
Cu      -1.49499000       1.77390400      -1.08087500
Cu      -0.89007400      -2.33921500      -0.37260000
Cu      -2.21943700      -0.21125600       0.40469500
Cu       0.63495800      -1.63305000      -2.29159500
Cu       0.26995600       0.88134200      -2.73790400
Cu       1.81410100       0.47327000       1.13891300
Cu       1.57618400      -1.89819200       0.09547500
Cu       1.00741200       2.20627700      -0.64297500
Au      -0.54174600       1.51901800       1.29496400
Cu       2.34310300       0.08640900      -1.36401500
Cu      -0.22255700      -1.05539100       1.72436200
Au       0.01773900       2.21215200       5.34443400
Cu      -3.22457800      -2.49580900       0.56997000
Cu      -0.47446700      -2.06945200       4.02376600
Au       0.33544500      -0.36248200       5.78412600
Au      -2.56668800       1.78023900       4.86698500
