115
Lattice="13.75323 0.0 0.0 0.0 13.75323 0.0 0.0 0.0 23.89" Properties=species:S:1:pos:R:3 trial_index=1 seed_entry_id=0 discovered_entry_id=1 energy=-568.3727416992188 status=accepted pbc="T T F"
Pd       0.00000000       0.00000000      10.00000000
Pd       2.75064538       0.00000000      10.00000000
Pd       5.50129076       0.00000000      10.00000000
Pd       8.25193614       0.00000000      10.00000000
Pd      11.00258152       0.00000000      10.00000000
Pd       0.00000000       2.75064538      10.00000000
Pd       2.75064538       2.75064538      10.00000000
Pd       5.50129076       2.75064538      10.00000000
Pd       8.25193614       2.75064538      10.00000000
Pd      11.00258152       2.75064538      10.00000000
Pd       0.00000000       5.50129076      10.00000000
Pd       2.75064538       5.50129076      10.00000000
Pd       5.50129076       5.50129076      10.00000000
Pd       8.25193614       5.50129076      10.00000000
Pd      11.00258152       5.50129076      10.00000000
Pd       0.00000000       8.25193614      10.00000000
Pd       2.75064538       8.25193614      10.00000000
Pd       5.50129076       8.25193614      10.00000000
Pd       8.25193614       8.25193614      10.00000000
Pd      11.00258152       8.25193614      10.00000000
Pd       0.00000000      11.00258152      10.00000000
Pd       2.75064538      11.00258152      10.00000000
Pd       5.50129076      11.00258152      10.00000000
Pd       8.25193614      11.00258152      10.00000000
Pd      11.00258152      11.00258152      10.00000000
Pd       1.33305437       1.38035701      12.05221797
Pd       4.08925664       1.38750338      11.98771029
Pd       6.82888190       1.38154444      11.99332965
Pd       9.57512057       1.39592898      11.89594876
Pd      12.38684272       1.37174114      11.92044161
Pd       1.37065655       4.09970544      12.00656864
Pd       4.10125007       4.12393621      12.00820233
Pd       6.82444734       4.12497179      12.00908219
Pd       9.56728621       4.13975942      11.94281254
Pd      12.36578195       4.13265160      11.93417299
Pd       1.37110082       6.89256210      11.94010419
Pd       4.13935064       6.87026939      11.96482277
Pd       6.87097415       6.85831372      11.95140951
Pd       9.64205429       6.82915781      11.94515418
Pd      12.39111484       6.85622887      11.94896407
Pd       1.35216595       9.69735034      11.99083951
Pd       4.11777592       9.66324146      11.95099537
Pd       6.89476706       9.64088005      11.95142944
Pd       9.64982872       9.59779534      11.89439304
Pd      12.42487279       9.60955999      11.94161946
Pd       1.35802606      12.41462245      12.04582394
Pd       4.10624816      12.40887780      12.00662317
Pd       6.86816975      12.39901143      11.97280504
Pd       9.63028672      12.36702810      11.91406436
Pd      12.41879361      12.34804731      11.97632258
Pd      13.67244256      13.73246793      14.12730371
Pd       2.72407052       0.13402444      14.15278061
Pd       5.57304810      13.59752329      14.03138187
Pd       8.31399592       0.10477604      14.02341898
Pd      10.99930534       0.07090199      13.77078340
Pd      13.56532293       2.75668491      13.98922284
Pd       2.62183400       2.88528474      14.10809576
Pd       5.39421969       2.67294335      14.14447690
Pd       8.19264248       2.74383626      13.97439901
Pd      10.87102780       2.71742933      13.88035757
Pd       0.02357496       5.53212544      13.94754893
Pd       2.72536672       5.58294524      14.00222024
Pd       5.45670103       5.48608695      14.06211168
Pd       8.28528482       5.48136244      14.03357357
Pd      11.00920752       5.39772608      13.97481396
Pd       0.04897461       8.32977034      13.97862182
Pd       2.75235196       8.29224734      13.88575840
Pd       5.49132717       8.26970563      13.95292596
Pd       8.40033240       8.21991756      13.82490875
Pd      11.08178505       8.19497822      13.93589176
Pd      13.58670624      10.97656337      14.49563141
Pd       2.75190458      11.08370122      14.00882072
Pd       5.55637626      10.91728142      13.95510892
Pd       8.34038567      11.01349587      13.93139570
Pd      11.03475026      10.88158430      13.83313257
Pd      12.44299180       6.60005740      16.10692847
Pd       8.72602700       9.60766459      16.23825460
Pd       2.04376911      12.73360232      16.62008905
Pd       1.42095214       7.02679431      16.26371857
Pd      11.87256085       9.39324272      16.29956669
Pd       8.33651239       1.36304736      16.93757968
Pd       5.00506556       0.38597314      17.12624336
Pd       5.63490596       9.60219174      17.05783864
Pd       4.40415592      11.75507654      16.15999245
Pd      10.86382184      12.42075518      15.91608247
Pd       0.87154209       4.29878582      16.30081716
Pd       3.89040674       4.39864485      16.30555450
Pd      11.17308461       3.15801836      16.54450740
Pd       2.97423438       9.50571065      16.27526956
Pd       7.26275355       7.11372306      16.87954239
Pd       6.98292369      11.94617254      16.19473354
Pd       9.73490348       6.97773795      15.97271180
Pd       7.44897751       3.70039112      16.42258256
Pd       1.07979009       1.49405852      16.03761399
Pd       4.08670626       7.08544978      15.90641344
O        9.24815931       3.10170896      17.08721079
O       10.38140952      10.52540268      16.84415196
O       12.86177561      12.54885472      15.65508070
O       11.42619432       1.28745410      17.20003476
O       10.38384090       0.44408842      17.13049766
O        5.26105579       7.60079642      17.38858369
O        4.37046010       1.03616979      15.17530674
O        2.40062942       1.64126406      17.52765852
O        8.88062381      12.46333795      15.44259809
O        1.53517368      10.99576255      15.77646177
O        3.03019210       0.38790153      17.67528706
O        2.33274706       5.39778295      17.00784086
O        6.98192051       5.56191037      15.66218768
O        7.53602573       8.86360654      17.78276786
O        5.52279344       3.33085761      16.07636855
O       13.16592951       2.99361638      16.01141345
O       11.04955254       5.17726018      16.06263021
O       13.54766566       8.26267613      16.06383048
O        6.94651731       0.01725065      17.14414803
O        7.07179864       8.61893945      15.27375325
