115
Lattice="13.75323 0.0 0.0 0.0 13.75323 0.0 0.0 0.0 23.89" Properties=species:S:1:pos:R:3 trial_index=25 seed_entry_id=20 discovered_entry_id=23 energy=-573.5514526367188 status=accepted pbc="T T F"
Pd       0.00000000       0.00000000      10.00000000
Pd       2.75064538       0.00000000      10.00000000
Pd       5.50129076       0.00000000      10.00000000
Pd       8.25193614       0.00000000      10.00000000
Pd      11.00258152       0.00000000      10.00000000
Pd       0.00000000       2.75064538      10.00000000
Pd       2.75064538       2.75064538      10.00000000
Pd       5.50129076       2.75064538      10.00000000
Pd       8.25193614       2.75064538      10.00000000
Pd      11.00258152       2.75064538      10.00000000
Pd       0.00000000       5.50129076      10.00000000
Pd       2.75064538       5.50129076      10.00000000
Pd       5.50129076       5.50129076      10.00000000
Pd       8.25193614       5.50129076      10.00000000
Pd      11.00258152       5.50129076      10.00000000
Pd       0.00000000       8.25193614      10.00000000
Pd       2.75064538       8.25193614      10.00000000
Pd       5.50129076       8.25193614      10.00000000
Pd       8.25193614       8.25193614      10.00000000
Pd      11.00258152       8.25193614      10.00000000
Pd       0.00000000      11.00258152      10.00000000
Pd       2.75064538      11.00258152      10.00000000
Pd       5.50129076      11.00258152      10.00000000
Pd       8.25193614      11.00258152      10.00000000
Pd      11.00258152      11.00258152      10.00000000
Pd       1.33305437       1.38035701      12.05221797
Pd       4.08925664       1.38750338      11.98771029
Pd       6.82888190       1.38154444      11.99332965
Pd       9.57512057       1.39592898      11.89594876
Pd      12.38684272       1.37174114      11.92044161
Pd       1.37065655       4.09970544      12.00656864
Pd       4.10125007       4.12393621      12.00820233
Pd       6.82444734       4.12497179      12.00908219
Pd       9.56728621       4.13975942      11.94281254
Pd      12.36578195       4.13265160      11.93417299
Pd       1.37110082       6.89256210      11.94010419
Pd       4.13935064       6.87026939      11.96482277
Pd       6.87097415       6.85831372      11.95140951
Pd       9.64205429       6.82915781      11.94515418
Pd      12.39111484       6.85622887      11.94896407
Pd       1.35216595       9.69735034      11.99083951
Pd       4.11777592       9.66324146      11.95099537
Pd       6.89476706       9.64088005      11.95142944
Pd       9.64982872       9.59779534      11.89439304
Pd      12.42487279       9.60955999      11.94161946
Pd       1.35802606      12.41462245      12.04582394
Pd       4.10624816      12.40887780      12.00662317
Pd       6.86816975      12.39901143      11.97280504
Pd       9.63028672      12.36702810      11.91406436
Pd      12.41879361      12.34804731      11.97632258
Pd      10.99219779      13.72366676      13.90511694
Pd      13.71065493       0.08428012      13.98336871
Pd       2.77580666       0.07043116      14.09148958
Pd       5.47652488      13.66013842      14.06131748
Pd       8.33074912       2.77571448      13.94577057
Pd       2.73046399       2.81629588      14.04814314
Pd       5.48718885       2.61588009      14.09963534
Pd       8.24420587       5.66964546      14.10611444
Pd      11.01022105       2.72180713      13.93740794
Pd      13.67156712       2.85524057      14.10833933
Pd      13.73934312       5.55627134      14.03857178
Pd       2.77668570       5.55217807      13.86447040
Pd       5.56439897       5.40206112      13.99112260
Pd       8.17302068       8.32426150      13.91423420
Pd      11.00074507       5.42331778      13.95684070
Pd      13.65998992       8.26509892      13.97414021
Pd       2.66808704       8.24973826      14.00629332
Pd       5.44179690       8.19102467      13.97157725
Pd       8.31411418      11.02521324      13.89615690
Pd      10.90539078       8.24905231      13.90416818
Pd       0.02831994      11.01360720      14.04413560
Pd       2.81102033      10.98909508      13.99955253
Pd       5.57282209      10.90453352      13.94261784
Pd       8.14142817       0.04425566      13.98108750
Pd      11.04807203      10.94422098      13.93164767
Pd      11.74223924       6.97029021      16.02286899
Pd       9.34173502       8.26499757      16.35862874
Pd       1.40282124      12.27182251      16.09870082
Pd       0.53943607       7.22221455      16.47457840
Pd      12.06115955       9.60913172      16.28426051
Pd       9.80362662      11.75895265      16.35075163
Pd       4.66741722       0.87358049      16.58508123
Pd       6.75604343       9.40862456      16.20156965
Pd       4.55401891      11.99542032      16.13078692
Pd      12.36573699      12.29120695      15.96427536
Pd      12.42426593       4.26669284      16.93091876
Pd       1.69033509       4.61125961      15.98344997
Pd      10.09592193       1.58209250      16.27287930
Pd       4.04150375       9.38452393      16.42568226
Pd       4.21490113       3.67019898      16.36405089
Pd       7.01768380      12.83572973      16.43879148
Pd       9.60084984       4.88301363      16.57611227
Pd       7.22946608       2.35344033      16.37116593
Pd       1.24308419       1.68920620      16.43692235
Pd       4.12190710       6.47541694      16.07526270
O        9.57413544      13.60422828      15.46969909
O       10.24188182       9.92168495      16.99125242
O        2.64045925       7.82007736      16.11964590
O       11.00026258       0.45406031      17.79293256
O       11.21547838      12.90507955      17.60429205
O        5.44593460       8.07614117      16.83072022
O        2.79121793       0.45267429      16.20424075
O        0.35468296       5.39445937      17.25157258
O        7.81648372      11.08595739      15.90550600
O        2.78533859      10.88238532      16.12359516
O        0.12375108       0.01067484      16.05765021
O       11.19165179       5.74725494      17.50628426
O        8.09017696       3.95425652      15.62671127
O        8.56098109       6.50784730      16.03581653
O        2.46768882       3.10542971      17.12943731
O       13.31176844       2.69165981      16.13294349
O       10.64817568       3.27111075      17.07540426
O        0.16436220       9.10352088      15.85228381
O        6.49103052       0.79195975      17.25059142
O        5.52082379       5.10542582      15.99041970
