115
Lattice="13.75323 0.0 0.0 0.0 13.75323 0.0 0.0 0.0 23.89" Properties=species:S:1:pos:R:3 trial_index=12 seed_entry_id=11 discovered_entry_id=12 energy=-571.9495239257812 status=accepted pbc="T T F"
Pd       0.00000000       0.00000000      10.00000000
Pd       2.75064538       0.00000000      10.00000000
Pd       5.50129076       0.00000000      10.00000000
Pd       8.25193614       0.00000000      10.00000000
Pd      11.00258152       0.00000000      10.00000000
Pd       0.00000000       2.75064538      10.00000000
Pd       2.75064538       2.75064538      10.00000000
Pd       5.50129076       2.75064538      10.00000000
Pd       8.25193614       2.75064538      10.00000000
Pd      11.00258152       2.75064538      10.00000000
Pd       0.00000000       5.50129076      10.00000000
Pd       2.75064538       5.50129076      10.00000000
Pd       5.50129076       5.50129076      10.00000000
Pd       8.25193614       5.50129076      10.00000000
Pd      11.00258152       5.50129076      10.00000000
Pd       0.00000000       8.25193614      10.00000000
Pd       2.75064538       8.25193614      10.00000000
Pd       5.50129076       8.25193614      10.00000000
Pd       8.25193614       8.25193614      10.00000000
Pd      11.00258152       8.25193614      10.00000000
Pd       0.00000000      11.00258152      10.00000000
Pd       2.75064538      11.00258152      10.00000000
Pd       5.50129076      11.00258152      10.00000000
Pd       8.25193614      11.00258152      10.00000000
Pd      11.00258152      11.00258152      10.00000000
Pd       1.33305437       1.38035701      12.05221797
Pd       4.08925664       1.38750338      11.98771029
Pd       6.82888190       1.38154444      11.99332965
Pd       9.57512057       1.39592898      11.89594876
Pd      12.38684272       1.37174114      11.92044161
Pd       1.37065655       4.09970544      12.00656864
Pd       4.10125007       4.12393621      12.00820233
Pd       6.82444734       4.12497179      12.00908219
Pd       9.56728621       4.13975942      11.94281254
Pd      12.36578195       4.13265160      11.93417299
Pd       1.37110082       6.89256210      11.94010419
Pd       4.13935064       6.87026939      11.96482277
Pd       6.87097415       6.85831372      11.95140951
Pd       9.64205429       6.82915781      11.94515418
Pd      12.39111484       6.85622887      11.94896407
Pd       1.35216595       9.69735034      11.99083951
Pd       4.11777592       9.66324146      11.95099537
Pd       6.89476706       9.64088005      11.95142944
Pd       9.64982872       9.59779534      11.89439304
Pd      12.42487279       9.60955999      11.94161946
Pd       1.35802606      12.41462245      12.04582394
Pd       4.10624816      12.40887780      12.00662317
Pd       6.86816975      12.39901143      11.97280504
Pd       9.63028672      12.36702810      11.91406436
Pd      12.41879361      12.34804731      11.97632258
Pd      10.96205431      13.70177026      14.00078250
Pd      13.66763331       0.01478317      13.97704032
Pd       2.74435568      13.63580579      14.02359191
Pd       5.53473184       0.01997681      14.10638577
Pd       8.22833227      13.70232664      14.08024574
Pd       2.72518320       2.84806831      14.05706400
Pd       5.47692751       2.73153665      14.06964551
Pd       8.23654043       2.74052134      13.95640039
Pd      10.96869211       2.75671518      13.91405711
Pd      13.61535992       2.84212563      13.92914637
Pd       0.01234590       5.54387950      14.00732401
Pd       2.77051086       5.54434649      14.05901024
Pd       5.48461222       5.49043295      13.95953250
Pd       8.21973326       5.58537981      14.09983471
Pd      11.03058663       5.48014763      13.98602938
Pd       0.03268630       8.30009043      14.02951297
Pd       2.75168039       8.23375398      13.97610942
Pd       5.49579932       8.25890982      13.89063978
Pd       8.23683775       8.26499335      13.87273596
Pd      10.99033768       8.24166303      13.91852815
Pd       0.00951892      11.02671530      14.09619913
Pd       2.75390321      10.93257412      13.99604245
Pd       5.52084496      11.03139115      13.98968642
Pd       8.25985897      10.95203816      13.88070075
Pd      11.04819979      10.99406180      13.89806567
Pd      11.72303704       7.12952134      16.22521320
Pd       9.40124467       8.55549814      16.24964387
Pd       1.45426268      12.13074588      16.19776184
Pd       1.62962337       6.99674089      16.38128890
Pd      12.18349431       9.77042758      16.06788726
Pd       9.54938879      12.00493398      15.87947145
Pd       4.38146516       1.31133561      16.43400614
Pd       6.92087775       9.99496779      16.19047466
Pd       4.30623896      12.37865924      16.02149798
Pd      12.01941824      13.13154398      16.60189692
Pd      12.59123709       4.59024825      16.91482514
Pd       2.10400731       4.16114247      16.58156934
Pd      11.19833993       1.83113602      16.89215273
Pd       4.09094805       9.70294138      16.19446251
Pd       4.83846814       4.13527518      16.52009685
Pd       6.83658898      13.29317664      16.69852630
Pd       9.76379647       5.25754329      16.51625205
Pd       7.10234545       2.66936071      16.46584661
Pd       0.88368316       1.88846047      16.14816013
Pd       4.38200744       6.79546223      16.41224585
O        9.63901091       1.38528113      14.82235318
O       10.35066271      10.24023820      16.68275888
O        3.06699903       8.10988055      17.08772875
O        9.80137716       0.68713846      17.67864705
O       10.27141664      13.12313460      17.54836294
O        5.68863599       8.47400295      15.91303542
O        2.65420388       1.28942383      15.50623690
O        0.55001071       5.29984043      16.04646598
O        7.79115796      11.60174603      16.81057095
O        2.94021140      11.11927114      16.91419175
O        0.10237789      13.56060950      16.02170489
O       12.32974177       6.25190944      17.83945941
O        8.27192024       4.00109726      15.64399730
O        8.61134269       6.76570107      15.92850656
O        3.51529608       3.02222382      17.39031730
O       12.84339818       2.72977525      16.14196454
O       10.82423408       3.84192432      17.42370449
O       13.62031085       8.29218113      16.06080270
O        6.11118275       1.24296404      17.34089700
O        5.88984902       5.64166162      15.91932161
