115
Lattice="13.75323 0.0 0.0 0.0 13.75323 0.0 0.0 0.0 23.89" Properties=species:S:1:pos:R:3 trial_index=1 seed_entry_id=0 discovered_entry_id=1 energy=-568.8598022460938 status=accepted pbc="T T F"
Pd       0.00000000       0.00000000      10.00000000
Pd       2.75064538       0.00000000      10.00000000
Pd       5.50129076       0.00000000      10.00000000
Pd       8.25193614       0.00000000      10.00000000
Pd      11.00258152       0.00000000      10.00000000
Pd       0.00000000       2.75064538      10.00000000
Pd       2.75064538       2.75064538      10.00000000
Pd       5.50129076       2.75064538      10.00000000
Pd       8.25193614       2.75064538      10.00000000
Pd      11.00258152       2.75064538      10.00000000
Pd       0.00000000       5.50129076      10.00000000
Pd       2.75064538       5.50129076      10.00000000
Pd       5.50129076       5.50129076      10.00000000
Pd       8.25193614       5.50129076      10.00000000
Pd      11.00258152       5.50129076      10.00000000
Pd       0.00000000       8.25193614      10.00000000
Pd       2.75064538       8.25193614      10.00000000
Pd       5.50129076       8.25193614      10.00000000
Pd       8.25193614       8.25193614      10.00000000
Pd      11.00258152       8.25193614      10.00000000
Pd       0.00000000      11.00258152      10.00000000
Pd       2.75064538      11.00258152      10.00000000
Pd       5.50129076      11.00258152      10.00000000
Pd       8.25193614      11.00258152      10.00000000
Pd      11.00258152      11.00258152      10.00000000
Pd       1.33305437       1.38035701      12.05221797
Pd       4.08925664       1.38750338      11.98771029
Pd       6.82888190       1.38154444      11.99332965
Pd       9.57512057       1.39592898      11.89594876
Pd      12.38684272       1.37174114      11.92044161
Pd       1.37065655       4.09970544      12.00656864
Pd       4.10125007       4.12393621      12.00820233
Pd       6.82444734       4.12497179      12.00908219
Pd       9.56728621       4.13975942      11.94281254
Pd      12.36578195       4.13265160      11.93417299
Pd       1.37110082       6.89256210      11.94010419
Pd       4.13935064       6.87026939      11.96482277
Pd       6.87097415       6.85831372      11.95140951
Pd       9.64205429       6.82915781      11.94515418
Pd      12.39111484       6.85622887      11.94896407
Pd       1.35216595       9.69735034      11.99083951
Pd       4.11777592       9.66324146      11.95099537
Pd       6.89476706       9.64088005      11.95142944
Pd       9.64982872       9.59779534      11.89439304
Pd      12.42487279       9.60955999      11.94161946
Pd       1.35802606      12.41462245      12.04582394
Pd       4.10624816      12.40887780      12.00662317
Pd       6.86816975      12.39901143      11.97280504
Pd       9.63028672      12.36702810      11.91406436
Pd      12.41879361      12.34804731      11.97632258
Pd      10.99330662       0.07460001      13.76980227
Pd      13.68454589      13.71454057      14.10882922
Pd       2.80053862       0.18592339      14.30192373
Pd       5.54681468      13.62507498      13.93975774
Pd       8.29223226       0.11639606      14.02944180
Pd       2.62377911       2.93622410      14.18673583
Pd       5.46639938       2.61852036      14.09374775
Pd       8.22467592       2.74271989      13.95783868
Pd      10.89277305       2.71873831      13.87058954
Pd      13.58580178       2.74735601      13.98265855
Pd       0.01384199       5.50622782      13.95107007
Pd       2.70487331       5.64204725      14.03080359
Pd       5.45995139       5.55108386      14.02129259
Pd       8.19506092       5.48387828      14.06954865
Pd      10.97610718       5.39646753      13.96708260
Pd       0.06116661       8.29229676      13.97807629
Pd       2.77545985       8.33478270      13.90610539
Pd       5.54029758       8.29000290      13.95739664
Pd       8.39926957       8.20842338      13.83296603
Pd      11.07977123       8.17919790      13.96899474
Pd      13.55145793      10.94636390      14.41512624
Pd       2.73224746      11.16171819      13.97716225
Pd       5.49822582      10.93202438      14.01116128
Pd       8.30115503      11.02125907      13.91125329
Pd      10.99490068      10.86993043      13.83261183
Pd      12.44034704       6.57886595      16.10019452
Pd       8.76837811       9.65645701      16.22297331
Pd       1.75835689      12.67930058      16.74126085
Pd       1.43861444       7.01442934      16.29468342
Pd      11.87480005       9.37674683      16.31007913
Pd       8.30423918       1.38515077      17.01523337
Pd       5.48216913       0.88809894      16.41244936
Pd       5.55300563       9.90674980      16.93102937
Pd       4.26765689      12.17518617      16.07323794
Pd      10.85857950      12.42895349      15.90730726
Pd       0.81073570       4.29183147      16.35375178
Pd       3.86888533       4.63379372      16.32583629
Pd      11.12630919       3.14390838      16.54875516
Pd       3.00933867       9.68020128      16.23938741
Pd       7.31551716       7.45874957      17.17884931
Pd       6.89285941      12.10075678      16.06978416
Pd       9.72657833       6.95550526      16.03651228
Pd       7.49444396       3.79941989      16.34117281
Pd       0.91552794       1.45304359      16.09794785
Pd       4.13729734       7.25095272      15.96969417
O        9.19991121       3.12831861      17.11588384
O       10.41820778      10.55367668      16.85917835
O       12.85712501      12.51742058      15.63339148
O       11.36821700       1.29134177      17.25243924
O       10.33073774       0.44336120      17.15778947
O        5.27350472       7.89275110      17.43724252
O        3.96728691       1.67337092      15.38065854
O        1.63420282       1.39456881      17.97918116
O        8.88012792      12.46410454      15.42124820
O        1.49220660      11.00047183      15.69210238
O        2.21333368       0.20935243      18.16769949
O        2.24694864       5.37125154      17.12759730
O        7.94221093       5.83037936      16.22878154
O        7.38023578       9.35205470      17.80546748
O        5.65190847       4.12789599      15.57949734
O       13.11899179       2.98399822      16.00893666
O       11.06160842       5.14271596      16.03722433
O       13.54599153       8.24268068      16.06049442
O        6.98445559      13.73337718      17.28868796
O        7.12800513       8.67229379      15.30365606
