115
Lattice="13.75323 0.0 0.0 0.0 13.75323 0.0 0.0 0.0 23.89" Properties=species:S:1:pos:R:3 trial_index=39 seed_entry_id=35 discovered_entry_id=36 energy=-574.1227416992188 status=accepted pbc="T T F"
Pd       0.00000000       0.00000000      10.00000000
Pd       2.75064538       0.00000000      10.00000000
Pd       5.50129076       0.00000000      10.00000000
Pd       8.25193614       0.00000000      10.00000000
Pd      11.00258152       0.00000000      10.00000000
Pd       0.00000000       2.75064538      10.00000000
Pd       2.75064538       2.75064538      10.00000000
Pd       5.50129076       2.75064538      10.00000000
Pd       8.25193614       2.75064538      10.00000000
Pd      11.00258152       2.75064538      10.00000000
Pd       0.00000000       5.50129076      10.00000000
Pd       2.75064538       5.50129076      10.00000000
Pd       5.50129076       5.50129076      10.00000000
Pd       8.25193614       5.50129076      10.00000000
Pd      11.00258152       5.50129076      10.00000000
Pd       0.00000000       8.25193614      10.00000000
Pd       2.75064538       8.25193614      10.00000000
Pd       5.50129076       8.25193614      10.00000000
Pd       8.25193614       8.25193614      10.00000000
Pd      11.00258152       8.25193614      10.00000000
Pd       0.00000000      11.00258152      10.00000000
Pd       2.75064538      11.00258152      10.00000000
Pd       5.50129076      11.00258152      10.00000000
Pd       8.25193614      11.00258152      10.00000000
Pd      11.00258152      11.00258152      10.00000000
Pd       1.33305437       1.38035701      12.05221797
Pd       4.08925664       1.38750338      11.98771029
Pd       6.82888190       1.38154444      11.99332965
Pd       9.57512057       1.39592898      11.89594876
Pd      12.38684272       1.37174114      11.92044161
Pd       1.37065655       4.09970544      12.00656864
Pd       4.10125007       4.12393621      12.00820233
Pd       6.82444734       4.12497179      12.00908219
Pd       9.56728621       4.13975942      11.94281254
Pd      12.36578195       4.13265160      11.93417299
Pd       1.37110082       6.89256210      11.94010419
Pd       4.13935064       6.87026939      11.96482277
Pd       6.87097415       6.85831372      11.95140951
Pd       9.64205429       6.82915781      11.94515418
Pd      12.39111484       6.85622887      11.94896407
Pd       1.35216595       9.69735034      11.99083951
Pd       4.11777592       9.66324146      11.95099537
Pd       6.89476706       9.64088005      11.95142944
Pd       9.64982872       9.59779534      11.89439304
Pd      12.42487279       9.60955999      11.94161946
Pd       1.35802606      12.41462245      12.04582394
Pd       4.10624816      12.40887780      12.00662317
Pd       6.86816975      12.39901143      11.97280504
Pd       9.63028672      12.36702810      11.91406436
Pd      12.41879361      12.34804731      11.97632258
Pd      10.96502069       0.06230294      13.83268434
Pd       0.00263506       0.06208779      13.99308115
Pd       2.79099527       0.04849645      14.08564559
Pd       5.47860696       2.65828957      14.05931619
Pd       8.26900804       0.01079326      13.91963566
Pd       2.72500255       2.73965040      14.08295592
Pd       5.46878163       5.43624145      14.01729998
Pd       8.30490076       2.74745079      13.92987885
Pd      10.98838106       2.75486824      13.94925069
Pd      13.71744805       2.84797091      13.95762055
Pd      13.70253258       5.55934582      14.06678782
Pd       2.65147376       5.48440732      14.02772025
Pd       5.50797590       8.22817703      14.02556421
Pd       8.25129393       5.52203626      13.99978520
Pd      11.01497421       5.45093481      13.99114019
Pd      13.68648537       8.26300213      13.94826956
Pd       2.71437226       8.25375975      14.00339288
Pd       5.53304755      10.99747734      13.92772962
Pd       8.20450820       8.24826909      13.88039515
Pd      10.95598394       8.22864267      13.95256366
Pd      13.65221627      11.04836376      14.09230719
Pd       2.81171628      11.02234175      14.05129420
Pd       5.51998239      13.73447773      13.92814447
Pd       8.24697606      11.02698041      13.96450315
Pd      10.94282048      11.06264992      13.93558567
Pd      12.31316932       7.39556408      16.26343449
Pd       9.33035868       9.46252462      15.87133975
Pd       1.87180358      12.64080482      16.61078587
Pd       0.94132508       9.08179006      16.30302389
Pd      12.17545049      10.06819577      16.15949365
Pd       9.61886849      12.25583864      16.42496659
Pd       4.12047708       1.40860130      16.47570983
Pd       6.85015821      10.47533823      16.33394934
Pd       4.53646724      12.52766626      15.97821176
Pd      12.14817010      12.75499120      15.96656983
Pd      12.37849417       4.30377097      16.56912690
Pd       1.06329879       5.46428964      16.62197973
Pd       9.59136813       2.10825444      16.33770879
Pd       4.28509167       9.96653103      16.56279064
Pd       3.48193357       4.06793149      16.39690543
Pd       6.78893644       0.08120802      16.46096784
Pd       9.90717446       5.62145414      16.63525950
Pd       7.11527620       3.65489871      16.12276852
Pd       0.94868453       1.84312396      16.51052933
Pd       4.04933460       6.71418302      16.06807127
O        8.82140692       0.33308747      15.88296312
O       10.44349581      10.57661703      17.13048136
O        2.98231910       8.40304412      16.12269284
O       10.87876121       1.11901949      17.71748094
O       11.09974007      13.58407050      17.63157054
O        5.80690849       8.81145518      15.97433166
O        2.44134193       0.73795378      17.27882977
O        0.40393408       7.30208326      16.94785289
O        7.59752033      12.11603132      17.06228319
O        3.40165376      11.56723668      17.33866420
O        0.23488490      13.72531934      16.07079271
O       11.68526436       5.89569289      17.49635233
O        8.07678675       5.35190249      15.99505670
O       10.27530983       7.58975217      15.98160686
O        1.70243377       3.62328408      17.03329681
O       13.02403645       2.63952689      15.82519170
O       10.37390043       3.72656288      17.05150272
O        1.34003085      10.92929021      15.60892837
O        6.02242084       1.94228543      16.06967731
O        5.16334037       5.04267309      16.05636867
