60
Properties=species:S:1:pos:R:3 system=runs/20260728-safe-lbfgs-strict-quench-200-production/output-c60-seed42 state_id=plateau_accepted pbc="F F F"
C       -1.35260833       0.39697679       2.00696879
C        1.13536355      -2.16595446       1.22301032
C        2.77934739      -0.68086309       2.06939448
C        0.02052504       2.26895512      -3.01101430
C        0.23047062       3.77302528      -1.07729306
C       -0.16159184       0.08568957       1.23021330
C       -0.84433191       1.62315228       2.71136479
C       -0.04815540      -0.29642662       3.78436049
C        1.89821481      -0.64566467      -2.80705662
C       -0.83097445       1.43536707      -3.78757169
C        2.07777307       2.12230233      -0.49745319
C        2.05753275      -1.98272779      -0.96755011
C       -2.54257652       0.28337966       1.10974532
C        1.14955379       0.29371796      -3.53455474
C        0.10837989      -2.35841183      -2.18227097
C        1.51427319       1.18729630       3.03466605
C       -0.10021777      -2.79651960      -0.81326616
C       -2.61975410       1.70011457      -2.17008600
C       -1.83077223       2.66753464      -1.48052456
C       -1.03803039      -2.01781892       2.33499228
C       -2.38507660      -0.22391034      -3.62993174
C       -3.56655604      -0.45226975      -1.48388103
C       -0.28583565       4.19777331       0.18417663
C       -0.50719782       2.76466488       1.94789447
C        0.85869962       3.07471254       1.82009620
C        1.76291343       1.99710072       1.92011258
C       -3.10871686      -1.00569536      -2.72198023
C        0.19766749       1.09423763       3.52100187
C       -3.24937048       0.88224204      -1.18621093
C        0.87984467      -0.60815010       1.00849303
C       -2.47123088      -2.43957116      -1.05120778
C       -1.74883482      -2.08483876       1.10488385
C        1.02743043       3.99950117       0.77640758
C       -0.15585453       0.18649013      -4.05397139
C        2.10121712      -0.07007170       3.13408694
C       -3.28403977      -1.41796676      -0.48504917
C       -1.18842524       3.25889840       0.80287517
C        1.46638155       3.40238786      -0.45138005
C        2.26388168       1.41770030       0.73517163
C        2.32845559      -0.09805562       0.75414380
C       -1.09871650      -0.74673757       2.97049844
C       -2.80361845       1.29204902       0.12601593
C        1.13867774      -2.64201228      -0.13502305
C        1.30619918      -2.19053269       3.20425900
C        2.31596730      -2.06510961       2.14266704
C       -2.30569403      -2.16022391      -2.41420061
C        2.57593191       0.06150559      -1.74601894
C       -1.37547166      -2.70344734      -0.17226450
C        2.66067111      -0.74041835      -0.58000179
C       -2.17679722       1.16666140      -3.39943762
C        1.45961139      -1.87561781      -2.27549503
C        0.25257371      -2.56029371       2.32829418
C       -1.09692708      -0.85050630      -3.85700373
C       -0.56429761       3.06261368      -1.98432718
C       -2.75177279      -1.07710244       0.77630024
C        1.17078127      -0.92597961       3.72082593
C       -1.00578464      -1.98412124      -2.97970454
C        2.13442655       1.41451449      -1.73631866
C       -2.03554512       2.53285238      -0.06095683
C        1.26753988       1.57718918      -2.86465504
