60
Properties=species:S:1:pos:R:3 system=runs/20260728-safe-lbfgs-strict-quench-200-production/output-c60-seed42 state_id=plateau_accepted pbc="F F F"
C       -1.11675465       2.56331441       1.80312408
C       -1.12005972      -1.09992543       2.41552773
C        2.25925061      -0.84832707       1.55570886
C        0.04497627       0.43321732      -3.83784103
C        1.09095823       2.48243267      -2.96413390
C        1.21526825      -1.76609514       1.89586164
C        0.20076705       2.97533543       1.43173572
C        0.36011315       2.04095402       3.52047695
C        1.20889523      -2.54168766      -2.44370041
C       -1.14292123      -0.33930624      -3.98127601
C        2.57152671       0.73640657      -1.79788216
C        1.57412644      -2.89398267      -0.20516944
C       -2.07045721       1.93872617       0.93225586
C        0.51953864      -1.81694573      -3.42952534
C       -0.67145728      -3.10203703      -0.79244886
C        2.14898838       1.57108260       1.87039171
C       -0.57856775      -2.78755682       0.62574415
C       -2.38241007       1.23732668      -2.62343032
C       -1.25241121       2.11321763      -2.63385310
C       -1.77273804       0.99074256       3.66944348
C       -2.93512468      -1.13651051      -2.81872178
C       -3.52190949       0.10234991      -0.78075626
C        1.01853706       3.60344391      -2.07282875
C        0.71108495       3.29300436       0.16253294
C        2.05724186       2.92843428      -0.12137534
C        2.55122074       1.74314137       0.48950964
C       -3.51982575      -1.10161325      -1.54533885
C        1.12753799       2.43432949       2.37959861
C       -2.94132843       1.27004030      -1.31044787
C        0.28810077      -1.10769926       2.79855881
C       -2.67687903      -1.61034315       0.55642815
C       -1.96539314       0.07816656       2.61214483
C        2.29620570       3.19931827      -1.48529601
C       -0.86552688      -1.71569025      -3.64909892
C        2.11089819       0.27148584       2.40665376
C       -3.13466958      -0.25941068       0.54332939
C        0.00872740       3.48423386      -1.05040346
C        2.29402328       2.02819808      -2.31137378
C        2.79383086       0.59659408      -0.36710182
C        2.72791606      -0.73602924       0.21779851
C       -1.00325849       2.08003008       3.15480238
C       -2.17558195       2.18221870      -0.48935934
C        0.79951816      -2.70919238       0.96160445
C        0.69135428       0.90142637       4.31586701
C       -0.23548399       0.53282258       5.32812503
C       -2.89488140      -2.12372101      -0.75070062
C        2.29550877      -1.69948063      -1.99495772
C       -1.52797921      -1.97436611       1.31697376
C        2.49727752      -1.87507346      -0.61207780
C       -2.37243039       0.04814122      -3.38325146
C        0.67412638      -3.18933095      -1.29881785
C       -1.46426155       0.56115974       4.98553667
C       -1.92451403      -2.18167423      -2.83278581
C       -0.05910088       1.75969240      -3.32771336
C       -2.55492119       0.66556707       1.42113857
C        1.09553745      -0.06003533       3.38346628
C       -1.84321584      -2.73119014      -1.50426425
C        2.18125437      -0.40598166      -2.56975457
C       -1.18323114       2.80207575      -1.37075922
C        1.09833259      -0.48182563      -3.51281017
