60
Properties=species:S:1:pos:R:3 system=runs/20260728-safe-lbfgs-strict-quench-200-production/output-c60-seed42 state_id=intermediate_accepted pbc="F F F"
C        0.18970450      -3.07628160       0.13955569
C        3.50123172       0.22536339       1.16361478
C        0.69572334       0.46032194       4.27171888
C       -2.50677510       1.67072956      -2.64148063
C       -4.00457152      -0.10813658      -1.84972887
C        2.61782159       1.04460983       2.88037740
C       -1.13664714      -2.59216518       0.61990027
C        0.32748315      -2.55228977       2.34631236
C       -1.25152809       3.87509470      -0.28816651
C       -1.22930061       1.90026050      -3.20145619
C       -3.68415334       1.58877765       0.13240944
C       -0.56193050       2.70163876       1.61367170
C        0.73890965      -2.76510192      -1.13726940
C       -1.47668181       3.54579552      -1.63475579
C        1.19442158       2.75458334      -0.03874937
C       -1.18779726      -0.71399352       2.32942691
C        1.71630651       2.28445074       1.19431436
C       -0.63299245      -0.43066372      -3.55986047
C       -1.90234875      -0.75574209      -2.97638288
C        2.35688426      -2.40659426       1.35861401
C        0.95974826       1.41370863      -3.41505260
C        1.74766441      -0.89407429      -3.03952978
C       -4.04561114      -1.45290339      -1.32196454
C       -2.36828579      -2.13193834       0.08183798
C       -3.07692446      -1.07368799       0.76307489
C       -2.37793132      -0.08090533       1.56283365
C        1.94829971       0.52604897      -3.02112485
C       -0.90086710      -2.05288773       1.90320511
C        0.39217925      -1.35206042      -3.13134181
C        1.28502404       1.39576306       3.28758689
C        3.18161100      -0.23099002      -1.30358798
C        2.90051781      -2.01246588       0.13678850
C       -4.24911573      -0.80781875      -0.01541407
C       -0.52901029       2.90877342      -2.48052124
C        0.04064991      -0.45347369       3.23563244
C        2.60807983      -1.37137604      -2.02109994
C       -2.79001772      -2.19317450      -1.26231331
C       -4.31318105       0.51742955      -0.56127288
C       -2.75469389       1.31995074       1.22880733
C        1.19611061      -0.08483398       5.41339424
C        1.08204138      -3.08313756       1.28298945
C       -0.17811621      -2.27527031      -2.18603667
C        0.69434229       2.17651032       2.20238269
C        3.07775912      -0.26249372       2.45815981
C        3.47696731      -0.65641121       0.02848772
C        2.53934459       0.97784478      -1.78091878
C       -2.43456394       3.50661976       0.46192735
C        2.93868785       1.58326721       1.52813986
C       -2.02125056       2.55298859       1.48163552
C       -0.33771454       0.93406430      -3.73415158
C       -0.13476392       3.29707471       0.36094454
C        2.33238081      -1.46852174       2.48880924
C        0.84001252       2.48552968      -2.44978725
C       -2.89238644       0.27260025      -2.63303767
C        2.18048541      -2.36253853      -1.10493031
C        0.99158036      -1.49150068       2.97369013
C        1.68350561       2.22087017      -1.32959516
C       -3.35182561       2.85290523      -0.44735155
C       -1.72360437      -1.98256485      -2.21640095
C       -2.74031935       2.82282174      -1.73876775
