60
Properties=species:S:1:pos:R:3 system=runs/20260728-safe-lbfgs-strict-quench-200-production/output-c60-seed42 state_id=plateau_accepted pbc="F F F"
C        0.38989328       2.27692109       2.69755539
C       -0.50600327      -0.55040904      -1.53617173
C       -1.47493504      -1.91139466       1.26642195
C        2.10247010      -0.28313306      -2.64611435
C        3.51451797      -0.31999692      -0.63970395
C       -1.15674411      -1.39184416      -2.66438052
C        1.16184694       1.12258061       2.94592105
C       -1.01386319       0.71509716       3.64840395
C       -0.28380734      -2.51355279      -2.95550090
C        1.11707086       0.39328901      -3.42300503
C        1.91513335      -2.24412820      -0.19338271
C       -2.10672518      -2.44121347      -0.87160854
C        0.24247760       2.97914378       1.46711455
C        0.77143839      -1.84309296      -3.62288726
C       -3.11443307      -0.49071175      -1.69343909
C        0.16574905      -1.09601398       2.85666111
C       -2.96281352      -0.43075182      -0.24124609
C        1.21549534       2.27458343      -1.89914125
C        2.30287823       1.65971273      -1.20875115
C       -1.89422477       2.75234504       2.46644089
C       -0.83473962       1.79154645      -3.09204487
C       -0.87204468       3.23486953      -1.10725571
C        3.84892658       0.25477980       0.62723159
C        2.27011247       0.64376112       2.22431997
C        2.44765421      -0.76961972       2.15150262
C        1.26903312      -1.56250590       2.09269810
C       -1.51539286       2.60404110      -2.18809989
C        0.28862380       0.15057124       3.50201276
C        0.50374298       3.06715368      -0.95718152
C       -1.07360882      -0.47348442      -3.76446397
C       -2.59991496       1.97558764      -0.32547952
C       -0.92659297       0.30402335      -0.70469198
C        3.51851118      -1.01492758       1.26756643
C        0.31300574      -0.55586948      -4.07523541
C       -1.20809106      -1.26483234       2.49606449
C       -1.71319446       3.07496736       0.01915950
C        2.93325283       1.24578129       1.12247577
C        3.13108592      -1.54475917      -0.00252308
C        0.98522062      -2.29180813       0.89541128
C       -0.38505584      -2.57202466       0.60823917
C       -0.92668788       2.04600813       3.23727519
C        1.09701663       2.89755470       0.34235933
C       -2.48703715      -1.69878582       0.25642461
C       -3.32837968       0.10380896       3.12137231
C       -3.70679959       1.34034377       2.94485241
C       -2.67700409       1.92828335      -1.75504810
C        0.16244916      -3.03666440      -1.71693955
C       -2.06733532       0.67389193       0.00938487
C       -0.79074187      -2.96312576      -0.67904331
C        0.56322678       1.61580423      -2.96982817
C       -2.41311156      -1.68521949      -2.03149725
C       -3.24648345       2.51388100       2.62636854
C       -1.70109648       0.71464929      -3.38572410
C        2.78351466       0.39429090      -1.60349921
C       -1.16789869       3.20557452       1.29893886
C       -1.99376119      -0.23817744       3.18001742
C       -2.77262221       0.68571283      -2.43707297
C        1.45495477      -2.47670769      -1.51285730
C        2.28079197       2.06205336       0.17387064
C        1.79209669      -1.66993885      -2.65311982
