60
Properties=species:S:1:pos:R:3 source_escape=runs/20260728-block-krylov-fixed-starter-escape/output/cases/plateau_accepted-seed44-deep_refinement/escape.xyz pbc="F F F"
C        1.39519884       2.23723400       1.81754937
C       -2.23222444       1.84893897       1.34435390
C       -2.00042263      -1.29887400       1.37815333
C        1.34573660      -1.34892588      -3.21079347
C        2.99709530      -1.60428534      -1.41250620
C       -2.31389873       0.96011311       2.48227712
C        2.04407725       1.01948028       2.16212954
C        0.43138434       1.42160719       3.77371830
C       -1.86392528      -2.49541347      -2.43824876
C        0.60793640      -0.46653011      -4.05139328
C        0.98825843      -2.77256417      -0.30524125
C       -2.97853075      -2.17285981      -0.48332665
C        1.06086538       2.64616623       0.48376825
C       -0.87441011      -2.06075574      -3.33580801
C       -2.96502626      -0.29327505      -1.81765302
C        0.60755560      -0.77754496       2.95957526
C       -3.04057456       0.14455682      -0.42475561
C        1.55860540       1.45482697      -2.92335141
C        2.45253641       0.58664196      -2.21983048
C       -0.68009513       3.32107657       2.68562572
C       -0.64474889       1.43721147      -3.99236713
C       -0.18753704       2.96680103      -2.12245177
C        3.75352085      -1.00890360      -0.34982735
C        2.73221986       0.10598408       1.34961241
C        2.45438083      -1.27697347       1.54437434
C        1.12005411      -1.63636148       1.91990524
C       -1.07128190       2.43404767      -3.10645344
C        1.31316905       0.43332742       3.22621440
C        1.12210236       2.45967709      -2.00865899
C       -1.79460259      -0.40264564       2.42596308
C       -2.15769846       2.30790515      -1.06060654
C       -1.22857688       2.89987416       1.43999812
C        3.18669645      -1.99295147       0.57692448
C       -0.78132463      -0.85945436      -4.05615736
C       -0.73143859      -0.48400282       3.34441856
C       -0.93959825       3.03633755      -0.91384907
C        3.28483837       0.29148420       0.06115281
C        2.37030096      -2.50647616      -0.47538943
C        0.33215275      -2.38289858       0.94365408
C       -1.12570546      -2.36521953       0.91771709
C        0.47867231       2.54100274       2.90496905
C        1.75381559       2.24121640      -0.72279196
C       -2.98091640      -1.04477846       0.37169076
C       -2.00434630       1.42756096       3.80339263
C       -2.22560207       2.73381785       4.22300141
C       -2.23455539       1.93835751      -2.42546983
C       -1.17674295      -3.20012561      -1.38004310
C       -2.62818146       1.46201065      -0.00988306
C       -1.83089008      -2.96413416      -0.17079201
C        0.69372113       0.94448076      -3.91538266
C       -2.89869031      -1.72544042      -1.84036420
C       -1.55365914       3.69448859       3.72983259
C       -1.55926425       0.30939163      -3.88850649
C        2.40859834      -0.82249687      -2.42257217
C       -0.31429531       3.05454942       0.33561988
C       -0.77935474       0.76965096       4.08034081
C       -2.48479616       0.59495342      -2.82008609
C        0.22114555      -2.98936254      -1.49371297
C        2.68860955       1.12586763      -0.90547626
C        0.43094580      -2.35763004      -2.76724929
