54
Lattice="21.66 0.0 0.0 0.0 5.10531 0.0 0.0 0.0 22.55266" Properties=species:S:1:pos:R:3 entry_id=6 rank=0 energy=-201.044921875 pbc="T T F"
Cu       0.00000000       0.00000000      10.00000000
Cu       3.61000000       0.00000000      10.00000000
Cu       7.22000000       0.00000000      10.00000000
Cu      10.83000000       0.00000000      10.00000000
Cu      14.44000000       0.00000000      10.00000000
Cu      18.05000000       0.00000000      10.00000000
Cu       0.00000000       2.55265548      10.00000000
Cu       3.61000000       2.55265548      10.00000000
Cu       7.22000000       2.55265548      10.00000000
Cu      10.83000000       2.55265548      10.00000000
Cu      14.44000000       2.55265548      10.00000000
Cu      18.05000000       2.55265548      10.00000000
Cu       1.80500000       1.27632774      11.27632774
Cu       5.41500000       1.27632774      11.27632774
Cu       9.02500000       1.27632774      11.27632774
Cu      12.63500000       1.27632774      11.27632774
Cu      16.24500000       1.27632774      11.27632774
Cu      19.85500000       1.27632774      11.27632774
Cu       1.80500000       3.82898322      11.27632774
Cu       5.41500000       3.82898322      11.27632774
Cu       9.02500000       3.82898322      11.27632774
Cu      12.63500000       3.82898322      11.27632774
Cu      16.24500000       3.82898322      11.27632774
Cu      19.85500000       3.82898322      11.27632774
Cu      21.63330248       5.06986545      12.51228742
Cu       3.56927311       5.04244764      12.59891237
Cu       4.50465314       1.20060930      14.74992039
Cu      10.81726361       0.00592150      12.49690270
Cu      14.51700679       0.02418803      12.60081767
Cu      18.05425697       0.04904186      12.44311110
Cu      21.60660156       2.50008895      12.56133835
Cu       3.58191054       2.53298006      12.53044343
Cu       7.32272587       2.65406924      12.63470325
Cu      10.76401016       2.55626037      12.62235754
Cu      14.63697866       2.52018637      12.75022105
Cu      18.00669718       2.57803819      12.53850835
Cu       4.26763117       3.79904486      14.89154292
Cu       7.18029685       0.02084704      12.65030750
Cu      19.76077376       1.24817285      13.84164896
Cu       9.11100666       3.82271357      13.87572477
Cu       7.23839346       4.96140668      15.27896298
Cu       1.71938720       1.18408282      14.04131570
Cu       1.70570693       3.73701400      14.04010498
Cu       9.11697287       1.32121571      13.90383652
Cu      19.83782612       3.68242618      13.82541387
Cu      16.86630755       4.31569896      14.29718530
O        5.46468354       4.95121486      15.60725319
O        0.38013506       5.02130026      14.42369125
O       18.60063407       4.95114654      14.57233821
O       12.65139751       2.52136415      12.82397483
O        9.04824732       5.10475244      15.24575893
O        5.89775934       1.49000033      13.18687753
O       15.12800604       3.94574481      13.96009601
O        3.00774161       2.43609918      14.72182596
54
Lattice="21.66 0.0 0.0 0.0 5.10531 0.0 0.0 0.0 22.55266" Properties=species:S:1:pos:R:3 entry_id=7 rank=1 energy=-201.0438232421875 pbc="T T F"
Cu       0.00000000       0.00000000      10.00000000
Cu       3.61000000       0.00000000      10.00000000
Cu       7.22000000       0.00000000      10.00000000
Cu      10.83000000       0.00000000      10.00000000
Cu      14.44000000       0.00000000      10.00000000
Cu      18.05000000       0.00000000      10.00000000
Cu       0.00000000       2.55265548      10.00000000
Cu       3.61000000       2.55265548      10.00000000
Cu       7.22000000       2.55265548      10.00000000
Cu      10.83000000       2.55265548      10.00000000
Cu      14.44000000       2.55265548      10.00000000
Cu      18.05000000       2.55265548      10.00000000
Cu       1.80500000       1.27632774      11.27632774
Cu       5.41500000       1.27632774      11.27632774
Cu       9.02500000       1.27632774      11.27632774
Cu      12.63500000       1.27632774      11.27632774
Cu      16.24500000       1.27632774      11.27632774
Cu      19.85500000       1.27632774      11.27632774
Cu       1.80500000       3.82898322      11.27632774
Cu       5.41500000       3.82898322      11.27632774
Cu       9.02500000       3.82898322      11.27632774
Cu      12.63500000       3.82898322      11.27632774
Cu      16.24500000       3.82898322      11.27632774
Cu      19.85500000       3.82898322      11.27632774
Cu      21.63511688       5.07179142      12.50448218
Cu       3.55818613       5.04329899      12.59570767
Cu       4.47776059       1.20313912      14.72942641
Cu      10.81335540       0.00573444      12.49936152
Cu      14.51762962       0.04681242      12.59979696
Cu      18.05890668       0.05325799      12.44169614
Cu      21.60735021       2.50399050      12.55434562
Cu       3.57537957       2.53262859      12.53622416
Cu       7.31943045       2.64912913      12.63241143
Cu      10.76330861       2.55356936      12.62583320
Cu      14.64099013       2.54668527      12.76137221
Cu      18.00784973       2.58308506      12.54117245
Cu       4.23896617       3.79123600      14.88064979
Cu       7.18329308       0.01378673      12.64096751
Cu      19.77037738       1.25570989      13.83774138
Cu       9.10724936       3.81653884      13.87761638
Cu       7.21617892       4.95270770      15.26903275
Cu       1.69217970       1.18807257      14.04905194
Cu       1.68655021       3.73971454      14.04347086
Cu       9.10607790       1.31570616      13.90338200
Cu      19.84041952       3.69166521      13.82586878
Cu      16.85906556       4.34040114      14.29603691
O        5.44003124       4.94663896      15.58015885
O        0.34924513       5.02054583      14.42456390
O       18.59864367       4.96373353      14.56562401
O       12.65330843       2.51965965      12.82257477
O        9.02580641       5.09880884      15.24547295
O        5.90257467       1.47655056      13.18694487
O       15.11732597       3.97832988      13.97069540
O        2.96972706       2.43371316      14.75262769
54
Lattice="21.66 0.0 0.0 0.0 5.10531 0.0 0.0 0.0 22.55266" Properties=species:S:1:pos:R:3 entry_id=5 rank=2 energy=-201.04254150390625 pbc="T T F"
Cu       0.00000000       0.00000000      10.00000000
Cu       3.61000000       0.00000000      10.00000000
Cu       7.22000000       0.00000000      10.00000000
Cu      10.83000000       0.00000000      10.00000000
Cu      14.44000000       0.00000000      10.00000000
Cu      18.05000000       0.00000000      10.00000000
Cu       0.00000000       2.55265548      10.00000000
Cu       3.61000000       2.55265548      10.00000000
Cu       7.22000000       2.55265548      10.00000000
Cu      10.83000000       2.55265548      10.00000000
Cu      14.44000000       2.55265548      10.00000000
Cu      18.05000000       2.55265548      10.00000000
Cu       1.80500000       1.27632774      11.27632774
Cu       5.41500000       1.27632774      11.27632774
Cu       9.02500000       1.27632774      11.27632774
Cu      12.63500000       1.27632774      11.27632774
Cu      16.24500000       1.27632774      11.27632774
Cu      19.85500000       1.27632774      11.27632774
Cu       1.80500000       3.82898322      11.27632774
Cu       5.41500000       3.82898322      11.27632774
Cu       9.02500000       3.82898322      11.27632774
Cu      12.63500000       3.82898322      11.27632774
Cu      16.24500000       3.82898322      11.27632774
Cu      19.85500000       3.82898322      11.27632774
Cu      21.63232861       5.06586909      12.51442225
Cu       3.57761379       5.03718514      12.59649433
Cu       4.51142864       1.16349399      14.78557524
Cu      10.81834712       0.00175371      12.49595261
Cu      14.51662928       0.02768070      12.59932429
Cu      18.05476211       0.04953779      12.43926651
Cu      21.60911110       2.49661290      12.56159163
Cu       3.58573085       2.52616559      12.52691394
Cu       7.31476642       2.64966090      12.63429517
Cu      10.76535833       2.54926400      12.61792004
Cu      14.63432171       2.52560528      12.74505724
Cu      18.00529959       2.57906183      12.53583257
Cu       4.30669494       3.77298765      14.87626727
Cu       7.17879717       0.01918992      12.65023853
Cu      19.75900749       1.24666209      13.83658032
Cu       9.11125711       3.80650120      13.86722114
Cu       7.25948409       4.94875269      15.28455563
Cu       1.72687309       1.17401475      14.04085315
Cu       1.72551088       3.72754311      14.02694068
Cu       9.11892147       1.31027727      13.89934347
Cu      19.83726530       3.68083259      13.82554848
Cu      16.86301630       4.31675301      14.29043983
O        5.48892834       4.92213382      15.62585806
O        0.39783495       5.00531104      14.42088991
O       18.59880862       4.95033691      14.56811260
O       12.65080779       2.51888231      12.82476492
O        9.07071140       5.08911003      15.23636084
O        5.89148606       1.48068865      13.18772286
O       15.12422150       3.94794049      13.95904866
O        3.03982629       2.41762783      14.68476981
54
Lattice="21.66 0.0 0.0 0.0 5.10531 0.0 0.0 0.0 22.55266" Properties=species:S:1:pos:R:3 entry_id=11 rank=3 energy=-201.0411376953125 pbc="T T F"
Cu       0.00000000       0.00000000      10.00000000
Cu       3.61000000       0.00000000      10.00000000
Cu       7.22000000       0.00000000      10.00000000
Cu      10.83000000       0.00000000      10.00000000
Cu      14.44000000       0.00000000      10.00000000
Cu      18.05000000       0.00000000      10.00000000
Cu       0.00000000       2.55265548      10.00000000
Cu       3.61000000       2.55265548      10.00000000
Cu       7.22000000       2.55265548      10.00000000
Cu      10.83000000       2.55265548      10.00000000
Cu      14.44000000       2.55265548      10.00000000
Cu      18.05000000       2.55265548      10.00000000
Cu       1.80500000       1.27632774      11.27632774
Cu       5.41500000       1.27632774      11.27632774
Cu       9.02500000       1.27632774      11.27632774
Cu      12.63500000       1.27632774      11.27632774
Cu      16.24500000       1.27632774      11.27632774
Cu      19.85500000       1.27632774      11.27632774
Cu       1.80500000       3.82898322      11.27632774
Cu       5.41500000       3.82898322      11.27632774
Cu       9.02500000       3.82898322      11.27632774
Cu      12.63500000       3.82898322      11.27632774
Cu      16.24500000       3.82898322      11.27632774
Cu      19.85500000       3.82898322      11.27632774
Cu      21.64218050       5.07029798      12.50146796
Cu       3.54451221       5.04902539      12.59916995
Cu       4.47658419       1.23981063      14.67344710
Cu      10.81375044       0.00463334      12.49866447
Cu      14.52365177       0.03028098      12.60115032
Cu      18.05982802       0.04804336      12.44235919
Cu      21.61165229       2.50243085      12.54937625
Cu       3.56358691       2.54263961      12.52913663
Cu       7.33205748       2.64970614      12.62921152
Cu      10.76080690       2.55636289      12.62326093
Cu      14.63570053       2.52787962      12.75395248
Cu      18.01260058       2.57617162      12.54246476
Cu       4.20322141       3.81385873      14.88488496
Cu       7.18941243       0.00933432      12.63724771
Cu      19.78138353       1.24659206      13.83536630
Cu       9.10919472       3.81675684      13.88427542
Cu       7.19449372       4.96345350      15.25028366
Cu       1.68725118       1.18828625      14.05768689
Cu       1.66024657       3.74047895      14.05907910
Cu       9.12285091       1.31439920      13.91215975
Cu      19.84979760       3.68584157      13.82376010
Cu      16.86101755       4.32160904      14.29144125
O        5.41622346       4.97310507      15.55114808
O        0.32895913       5.03147142      14.42827168
O       18.59796154       4.95427978      14.55611881
O       12.64955848       2.52263518      12.82271439
O        9.00611887       5.09800437      15.25247944
O        5.92304561       1.47642831      13.18459532
O       15.12078295       3.95217597      13.96681692
O        2.94037979       2.44751854      14.78735332
54
Lattice="21.66 0.0 0.0 0.0 5.10531 0.0 0.0 0.0 22.55266" Properties=species:S:1:pos:R:3 entry_id=10 rank=4 energy=-200.46356201171875 pbc="T T F"
Cu       0.00000000       0.00000000      10.00000000
Cu       3.61000000       0.00000000      10.00000000
Cu       7.22000000       0.00000000      10.00000000
Cu      10.83000000       0.00000000      10.00000000
Cu      14.44000000       0.00000000      10.00000000
Cu      18.05000000       0.00000000      10.00000000
Cu       0.00000000       2.55265548      10.00000000
Cu       3.61000000       2.55265548      10.00000000
Cu       7.22000000       2.55265548      10.00000000
Cu      10.83000000       2.55265548      10.00000000
Cu      14.44000000       2.55265548      10.00000000
Cu      18.05000000       2.55265548      10.00000000
Cu       1.80500000       1.27632774      11.27632774
Cu       5.41500000       1.27632774      11.27632774
Cu       9.02500000       1.27632774      11.27632774
Cu      12.63500000       1.27632774      11.27632774
Cu      16.24500000       1.27632774      11.27632774
Cu      19.85500000       1.27632774      11.27632774
Cu       1.80500000       3.82898322      11.27632774
Cu       5.41500000       3.82898322      11.27632774
Cu       9.02500000       3.82898322      11.27632774
Cu      12.63500000       3.82898322      11.27632774
Cu      16.24500000       3.82898322      11.27632774
Cu      19.85500000       3.82898322      11.27632774
Cu      21.63542918       5.06131564      12.50489578
Cu       3.56979309       5.02534260      12.61191021
Cu       4.51872980       1.12444068      14.80874344
Cu      10.90944819       0.03720492      12.61465999
Cu      14.51819839       0.03674856      12.60378677
Cu      18.06009855       0.05475255      12.43784627
Cu      21.61017806       2.48901885      12.55053614
Cu       3.58793492       2.51679139      12.55051675
Cu       7.24591530       2.65319393      12.67580000
Cu      10.76639601       2.59683060      12.58541374
Cu      14.65081673       2.53756556      12.77250976
Cu      18.00737648       2.58867198      12.53907983
Cu       4.18125854       3.73746753      15.02576638
Cu       7.19678397       0.02963888      12.57953153
Cu      19.76300103       1.25918791      13.83078294
Cu       9.01570854       3.92242155      13.87576104
Cu       6.75419599       3.96134423      14.69819502
Cu       1.67951392       1.13249198      14.06631035
Cu       1.70790710       3.68932582      14.02311716
Cu       8.99739661       1.47819535      13.89800304
Cu      19.85239423       3.69364973      13.82549860
Cu      16.87475276       4.33478253      14.29689176
O        5.45333029       4.86088223      15.67525118
O        0.35385258       4.95002291      14.42263326
O       18.60925433       4.96430688      14.56791752
O       12.66881372       2.52029178      12.81136465
O       10.20553013       0.14924040      14.39301017
O        5.83774779       1.38074834      13.19047308
O       15.13416512       3.97010024      13.97135988
O        2.99557704       2.34764383      14.72045151
54
Lattice="21.66 0.0 0.0 0.0 5.10531 0.0 0.0 0.0 22.55266" Properties=species:S:1:pos:R:3 entry_id=8 rank=5 energy=-200.46221923828125 pbc="T T F"
Cu       0.00000000       0.00000000      10.00000000
Cu       3.61000000       0.00000000      10.00000000
Cu       7.22000000       0.00000000      10.00000000
Cu      10.83000000       0.00000000      10.00000000
Cu      14.44000000       0.00000000      10.00000000
Cu      18.05000000       0.00000000      10.00000000
Cu       0.00000000       2.55265548      10.00000000
Cu       3.61000000       2.55265548      10.00000000
Cu       7.22000000       2.55265548      10.00000000
Cu      10.83000000       2.55265548      10.00000000
Cu      14.44000000       2.55265548      10.00000000
Cu      18.05000000       2.55265548      10.00000000
Cu       1.80500000       1.27632774      11.27632774
Cu       5.41500000       1.27632774      11.27632774
Cu       9.02500000       1.27632774      11.27632774
Cu      12.63500000       1.27632774      11.27632774
Cu      16.24500000       1.27632774      11.27632774
Cu      19.85500000       1.27632774      11.27632774
Cu       1.80500000       3.82898322      11.27632774
Cu       5.41500000       3.82898322      11.27632774
Cu       9.02500000       3.82898322      11.27632774
Cu      12.63500000       3.82898322      11.27632774
Cu      16.24500000       3.82898322      11.27632774
Cu      19.85500000       3.82898322      11.27632774
Cu      21.63371483       5.06713034      12.51224821
Cu       3.57541903       5.03696980      12.61157687
Cu       4.54227882       1.13643847      14.83116939
Cu      10.91222967       0.03217609      12.60952834
Cu      14.51589214       0.03748436      12.60241144
Cu      18.05749697       0.05386050      12.43921411
Cu      21.60561376       2.49529302      12.55800807
Cu       3.59207423       2.52647749      12.54297151
Cu       7.23731253       2.65995979      12.67580437
Cu      10.76552694       2.59103136      12.58031651
Cu      14.64642134       2.53689322      12.76347590
Cu      18.00918589       2.58599267      12.53967793
Cu       4.20075489       3.75714490      15.03985345
Cu       7.19464030       0.03648150      12.57164035
Cu      19.75911696       1.25699056      13.83891764
Cu       9.01430117       3.91782210      13.86636562
Cu       6.75918214       3.98506275      14.69462583
Cu       1.68342534       1.15422585      14.07856992
Cu       1.71999414       3.71148901      14.02138310
Cu       8.98917729       1.47388208      13.88726298
Cu      19.84505427       3.69206683      13.82931090
Cu      16.88241792       4.33278995      14.30125505
O        5.47138159       4.87612777      15.70131732
O        0.36835612       4.96877558      14.42973113
O       18.61342272       4.96292172      14.58373465
O       12.66652743       2.51900261      12.81401227
O       10.20116981       0.14805499      14.38373186
O        5.82910783       1.38785841      13.19144390
O       15.14491551       3.96609046      13.96014319
O        3.03378416       2.36674678      14.66321319
54
Lattice="21.66 0.0 0.0 0.0 5.10531 0.0 0.0 0.0 22.55266" Properties=species:S:1:pos:R:3 entry_id=9 rank=6 energy=-200.46011352539062 pbc="T T F"
Cu       0.00000000       0.00000000      10.00000000
Cu       3.61000000       0.00000000      10.00000000
Cu       7.22000000       0.00000000      10.00000000
Cu      10.83000000       0.00000000      10.00000000
Cu      14.44000000       0.00000000      10.00000000
Cu      18.05000000       0.00000000      10.00000000
Cu       0.00000000       2.55265548      10.00000000
Cu       3.61000000       2.55265548      10.00000000
Cu       7.22000000       2.55265548      10.00000000
Cu      10.83000000       2.55265548      10.00000000
Cu      14.44000000       2.55265548      10.00000000
Cu      18.05000000       2.55265548      10.00000000
Cu       1.80500000       1.27632774      11.27632774
Cu       5.41500000       1.27632774      11.27632774
Cu       9.02500000       1.27632774      11.27632774
Cu      12.63500000       1.27632774      11.27632774
Cu      16.24500000       1.27632774      11.27632774
Cu      19.85500000       1.27632774      11.27632774
Cu       1.80500000       3.82898322      11.27632774
Cu       5.41500000       3.82898322      11.27632774
Cu       9.02500000       3.82898322      11.27632774
Cu      12.63500000       3.82898322      11.27632774
Cu      16.24500000       3.82898322      11.27632774
Cu      19.85500000       3.82898322      11.27632774
Cu      21.63615563       5.06237921      12.51853159
Cu       3.58502449       5.03223442      12.60779673
Cu       4.56702966       1.12686016      14.85631446
Cu      10.91415801       0.02561407      12.61560748
Cu      14.51520303       0.02989098      12.61004617
Cu      18.05543860       0.04996098      12.43697211
Cu      21.60873004       2.48992099      12.56015989
Cu       3.59742089       2.52086448      12.53224253
Cu       7.23688620       2.64255084      12.70399446
Cu      10.76937580       2.58503586      12.57990471
Cu      14.65146976       2.53059685      12.77161259
Cu      18.00379078       2.58391443      12.54178527
Cu       4.22207966       3.75056473      15.06613669
Cu       7.19718896       0.01759268      12.58052658
Cu      19.75729376       1.25222182      13.83354577
Cu       9.01921726       3.89582848      13.87419186
Cu       6.77490684       3.99375139      14.72680433
Cu       1.70978789       1.13956781      14.08196370
Cu       1.73783192       3.69702086      14.02282806
Cu       9.00930037       1.44806763      13.89043676
Cu      19.83962994       3.68730245      13.82601399
Cu      16.89370047       4.33389196      14.31066103
O        5.48325888       4.87140348      15.74379190
O        0.39533573       4.95803056      14.43000934
O       18.62489954       4.96220233      14.59689627
O       12.67208365       2.52119621      12.81378485
O       10.21417616       0.11741662      14.39561528
O        5.82812352       1.36166029      13.19395905
O       15.15991279       3.96068781      13.96379212
O        3.07680315       2.36121067      14.61560291
54
Lattice="21.66 0.0 0.0 0.0 5.10531 0.0 0.0 0.0 22.55266" Properties=species:S:1:pos:R:3 entry_id=4 rank=7 energy=-198.68804931640625 pbc="T T F"
Cu       0.00000000       0.00000000      10.00000000
Cu       3.61000000       0.00000000      10.00000000
Cu       7.22000000       0.00000000      10.00000000
Cu      10.83000000       0.00000000      10.00000000
Cu      14.44000000       0.00000000      10.00000000
Cu      18.05000000       0.00000000      10.00000000
Cu       0.00000000       2.55265548      10.00000000
Cu       3.61000000       2.55265548      10.00000000
Cu       7.22000000       2.55265548      10.00000000
Cu      10.83000000       2.55265548      10.00000000
Cu      14.44000000       2.55265548      10.00000000
Cu      18.05000000       2.55265548      10.00000000
Cu       1.80500000       1.27632774      11.27632774
Cu       5.41500000       1.27632774      11.27632774
Cu       9.02500000       1.27632774      11.27632774
Cu      12.63500000       1.27632774      11.27632774
Cu      16.24500000       1.27632774      11.27632774
Cu      19.85500000       1.27632774      11.27632774
Cu       1.80500000       3.82898322      11.27632774
Cu       5.41500000       3.82898322      11.27632774
Cu       9.02500000       3.82898322      11.27632774
Cu      12.63500000       3.82898322      11.27632774
Cu      16.24500000       3.82898322      11.27632774
Cu      19.85500000       3.82898322      11.27632774
Cu      21.60966916       0.00979863      12.57803800
Cu       3.72684379       0.07918491      12.66203243
Cu       6.11690420       4.61593346      13.45204180
Cu      10.67673748       5.00022372      12.66256107
Cu      14.51580042       0.02560406      12.59618746
Cu      18.05350698       0.05313211      12.43495386
Cu      21.60992080       2.52058137      12.58906601
Cu       3.62368232       2.70160281      12.60530124
Cu       7.17713153       2.56438342      12.38808936
Cu      10.66896478       2.43488149      12.84629526
Cu      14.57819006       2.52031284      12.70100691
Cu      18.00156825       2.57709360      12.52547621
Cu       5.50984913       2.55617627      14.67663521
Cu       8.60433588       0.86155863      13.60682309
Cu      19.74190066       1.25324211      13.85297695
Cu       8.79367541       3.48814210      13.97296281
Cu       8.17155381       4.90279045      15.90860641
Cu       2.04497448       1.27007292      14.17840555
Cu       1.71888904       3.81339289      13.81892965
Cu      10.14249167       1.66962037      15.18540497
Cu      19.79787642       3.68917438      13.82663085
Cu      16.85474291       4.30091853      14.27384183
O        7.01791217       3.72802252      15.03403920
O        0.59245116       0.15076166      14.43126686
O       18.57877616       4.95825778      14.58118952
O       12.57557540       2.53971162      12.80676636
O        9.40822939       0.85689079      16.60501024
O        6.71080404       1.27927267      13.76211388
O       15.11852198       3.91569503      13.92871645
O        3.90181176       1.60126768      14.19404818
54
Lattice="21.66 0.0 0.0 0.0 5.10531 0.0 0.0 0.0 22.55266" Properties=species:S:1:pos:R:3 entry_id=3 rank=8 energy=-198.68389892578125 pbc="T T F"
Cu       0.00000000       0.00000000      10.00000000
Cu       3.61000000       0.00000000      10.00000000
Cu       7.22000000       0.00000000      10.00000000
Cu      10.83000000       0.00000000      10.00000000
Cu      14.44000000       0.00000000      10.00000000
Cu      18.05000000       0.00000000      10.00000000
Cu       0.00000000       2.55265548      10.00000000
Cu       3.61000000       2.55265548      10.00000000
Cu       7.22000000       2.55265548      10.00000000
Cu      10.83000000       2.55265548      10.00000000
Cu      14.44000000       2.55265548      10.00000000
Cu      18.05000000       2.55265548      10.00000000
Cu       1.80500000       1.27632774      11.27632774
Cu       5.41500000       1.27632774      11.27632774
Cu       9.02500000       1.27632774      11.27632774
Cu      12.63500000       1.27632774      11.27632774
Cu      16.24500000       1.27632774      11.27632774
Cu      19.85500000       1.27632774      11.27632774
Cu       1.80500000       3.82898322      11.27632774
Cu       5.41500000       3.82898322      11.27632774
Cu       9.02500000       3.82898322      11.27632774
Cu      12.63500000       3.82898322      11.27632774
Cu      16.24500000       3.82898322      11.27632774
Cu      19.85500000       3.82898322      11.27632774
Cu      21.60624449       0.01125140      12.56873893
Cu       3.75243128       0.09142248      12.69068477
Cu       6.14500969       4.62968280      13.45055834
Cu      10.68710320       5.00450398      12.65702147
Cu      14.51037705       0.03109258      12.59275236
Cu      18.05303981       0.05594258      12.43786594
Cu      21.61003926       2.52399651      12.58556755
Cu       3.62392101       2.71953586      12.60314379
Cu       7.18366213       2.57535118      12.39006699
Cu      10.67720628       2.44120526      12.83144534
Cu      14.59024143       2.52786646      12.72508875
Cu      18.00009524       2.57969026      12.52583509
Cu       5.52097084       2.57184757      14.67581833
Cu       8.63145285       0.89784413      13.62077943
Cu      19.75027824       1.25867673      13.85027245
Cu       8.81332457       3.51554893      13.97232689
Cu       8.18012972       4.93346718      15.90502301
Cu       2.04686371       1.29879136      14.15946286
Cu       1.71031999       3.83158087      13.81696919
Cu      10.18362104       1.69911153      15.19068677
Cu      19.79703786       3.69226868      13.82537649
Cu      16.83325102       4.31916621      14.27357099
O        7.03655875       3.74300626      15.03824759
O        0.59367663       0.18157449      14.41829080
O       18.56768482       4.96621494      14.55988657
O       12.58650766       2.53496094      12.80805832
O        9.41579198       0.89375574      16.59575202
O        6.73087273       1.29457138      13.76812124
O       15.09158817       3.94068088      13.95110651
O        3.90882030       1.61912304      14.19223161
54
Lattice="21.66 0.0 0.0 0.0 5.10531 0.0 0.0 0.0 22.55266" Properties=species:S:1:pos:R:3 entry_id=1 rank=9 energy=-198.67999267578125 pbc="T T F"
Cu       0.00000000       0.00000000      10.00000000
Cu       3.61000000       0.00000000      10.00000000
Cu       7.22000000       0.00000000      10.00000000
Cu      10.83000000       0.00000000      10.00000000
Cu      14.44000000       0.00000000      10.00000000
Cu      18.05000000       0.00000000      10.00000000
Cu       0.00000000       2.55265548      10.00000000
Cu       3.61000000       2.55265548      10.00000000
Cu       7.22000000       2.55265548      10.00000000
Cu      10.83000000       2.55265548      10.00000000
Cu      14.44000000       2.55265548      10.00000000
Cu      18.05000000       2.55265548      10.00000000
Cu       1.80500000       1.27632774      11.27632774
Cu       5.41500000       1.27632774      11.27632774
Cu       9.02500000       1.27632774      11.27632774
Cu      12.63500000       1.27632774      11.27632774
Cu      16.24500000       1.27632774      11.27632774
Cu      19.85500000       1.27632774      11.27632774
Cu       1.80500000       3.82898322      11.27632774
Cu       5.41500000       3.82898322      11.27632774
Cu       9.02500000       3.82898322      11.27632774
Cu      12.63500000       3.82898322      11.27632774
Cu      16.24500000       3.82898322      11.27632774
Cu      19.85500000       3.82898322      11.27632774
Cu      21.60733028       0.00777273      12.57520078
Cu       3.75495316       0.08277925      12.68644352
Cu       6.21170530       4.68712465      13.38076611
Cu      10.68707303       5.01519220      12.64527404
Cu      14.51536685       0.02473000      12.59429420
Cu      18.05317247       0.04688488      12.43802554
Cu      21.60599902       2.51732087      12.58789102
Cu       3.61651367       2.70202501      12.58625223
Cu       7.17557516       2.56464941      12.38720522
Cu      10.67765358       2.45439124      12.84613129
Cu      14.59040628       2.52088039      12.71934246
Cu      18.00028493       2.57440138      12.52900000
Cu       5.50538943       2.62994750      14.64582601
Cu       8.65267708       0.93879423      13.63182447
Cu      19.73732109       1.25179456      13.85614549
Cu       8.79966579       3.55474519      13.94762162
Cu       8.17145995       4.95564058      15.89417819
Cu       2.05663117       1.28446867      14.17176773
Cu       1.72156441       3.81483580      13.81306310
Cu      10.14205859       1.80193469      15.23503945
Cu      19.80009652       3.68718773      13.83022199
Cu      16.84875865       4.30809532      14.28246373
O        7.01178190       3.79784289      15.00870309
O        0.60814155       0.15747505      14.42076078
O       18.57661784       4.95474423      14.58434943
O       12.58699394       2.53348057      12.80719024
O        9.40840914       0.90158324      16.60235666
O        6.74994849       1.34188521      13.82289129
O       15.10966815       3.92854290      13.94393499
O        3.91295511       1.63053141      14.18744866
54
Lattice="21.66 0.0 0.0 0.0 5.10531 0.0 0.0 0.0 22.55266" Properties=species:S:1:pos:R:3 entry_id=0 rank=10 energy=-198.67828369140625 pbc="T T F"
Cu       0.00000000       0.00000000      10.00000000
Cu       3.61000000       0.00000000      10.00000000
Cu       7.22000000       0.00000000      10.00000000
Cu      10.83000000       0.00000000      10.00000000
Cu      14.44000000       0.00000000      10.00000000
Cu      18.05000000       0.00000000      10.00000000
Cu       0.00000000       2.55265548      10.00000000
Cu       3.61000000       2.55265548      10.00000000
Cu       7.22000000       2.55265548      10.00000000
Cu      10.83000000       2.55265548      10.00000000
Cu      14.44000000       2.55265548      10.00000000
Cu      18.05000000       2.55265548      10.00000000
Cu       1.80500000       1.27632774      11.27632774
Cu       5.41500000       1.27632774      11.27632774
Cu       9.02500000       1.27632774      11.27632774
Cu      12.63500000       1.27632774      11.27632774
Cu      16.24500000       1.27632774      11.27632774
Cu      19.85500000       1.27632774      11.27632774
Cu       1.80500000       3.82898322      11.27632774
Cu       5.41500000       3.82898322      11.27632774
Cu       9.02500000       3.82898322      11.27632774
Cu      12.63500000       3.82898322      11.27632774
Cu      16.24500000       3.82898322      11.27632774
Cu      19.85500000       3.82898322      11.27632774
Cu      21.61015471       0.00778302      12.58407688
Cu       3.76534793       0.08608143      12.69055320
Cu       6.24279910       4.72314846      13.35905703
Cu      10.69398086       5.01891888      12.63797288
Cu      14.52129756       0.02073005      12.59783342
Cu      18.04949901       0.05012881      12.43897353
Cu      21.61027479       2.51833179      12.58784520
Cu       3.61858983       2.70210070      12.58218953
Cu       7.17247976       2.56443250      12.39433815
Cu      10.68918344       2.46000150      12.82812296
Cu      14.60190719       2.51840996      12.72972097
Cu      17.99443173       2.57511514      12.53162809
Cu       5.53273226       2.67054015      14.64267162
Cu       8.67907781       0.96420405      13.64032005
Cu      19.73826499       1.24562749      13.85453349
Cu       8.82020605       3.56691446      13.93928069
Cu       8.22503420       4.97296924      15.89010392
Cu       2.08897088       1.28990302      14.18802985
Cu       1.73002229       3.81902524      13.81466537
Cu      10.19791058       1.80788038      15.22774018
Cu      19.79957641       3.68202353      13.82526810
Cu      16.85272083       4.30074388      14.28643315
O        7.04644291       3.83571077      14.99766913
O        0.63473258       0.17390955      14.42230475
O       18.58362419       4.94623144      14.58577064
O       12.59991764       2.53343323      12.80652979
O        9.48401338       0.89374425      16.59664070
O        6.77913328       1.36257945      13.86038850
O       15.11075837       3.92931392      13.95648536
O        3.93409270       1.67043469      14.20233808
54
Lattice="21.66 0.0 0.0 0.0 5.10531 0.0 0.0 0.0 22.55266" Properties=species:S:1:pos:R:3 entry_id=2 rank=11 energy=-198.67559814453125 pbc="T T F"
Cu       0.00000000       0.00000000      10.00000000
Cu       3.61000000       0.00000000      10.00000000
Cu       7.22000000       0.00000000      10.00000000
Cu      10.83000000       0.00000000      10.00000000
Cu      14.44000000       0.00000000      10.00000000
Cu      18.05000000       0.00000000      10.00000000
Cu       0.00000000       2.55265548      10.00000000
Cu       3.61000000       2.55265548      10.00000000
Cu       7.22000000       2.55265548      10.00000000
Cu      10.83000000       2.55265548      10.00000000
Cu      14.44000000       2.55265548      10.00000000
Cu      18.05000000       2.55265548      10.00000000
Cu       1.80500000       1.27632774      11.27632774
Cu       5.41500000       1.27632774      11.27632774
Cu       9.02500000       1.27632774      11.27632774
Cu      12.63500000       1.27632774      11.27632774
Cu      16.24500000       1.27632774      11.27632774
Cu      19.85500000       1.27632774      11.27632774
Cu       1.80500000       3.82898322      11.27632774
Cu       5.41500000       3.82898322      11.27632774
Cu       9.02500000       3.82898322      11.27632774
Cu      12.63500000       3.82898322      11.27632774
Cu      16.24500000       3.82898322      11.27632774
Cu      19.85500000       3.82898322      11.27632774
Cu      21.60978959       0.00093845      12.57800205
Cu       3.74577291       0.08093230      12.67419786
Cu       6.17818592       4.67187339      13.40117114
Cu      10.68190269       5.01453394      12.63975999
Cu      14.51772847       0.02033008      12.59583681
Cu      18.05124638       0.04796019      12.43662986
Cu      21.60850587       2.51187844      12.58725258
Cu       3.62580680       2.69955540      12.58884530
Cu       7.17659258       2.56365985      12.39003612
Cu      10.67402614       2.45554204      12.87456345
Cu      14.58620663       2.51639421      12.71885920
Cu      17.99954329       2.57245166      12.52612983
Cu       5.51973712       2.61083761      14.66239850
Cu       8.66499612       0.96793405      13.64822188
Cu      19.73959854       1.24268758      13.85285284
Cu       8.79379607       3.58776619      13.94367907
Cu       8.14904373       4.97866541      15.90310262
Cu       2.06871336       1.27502752      14.17933348
Cu       1.72867973       3.80535172      13.81238241
Cu      10.08880977       1.88636306      15.29440036
Cu      19.79946459       3.67811509      13.82514725
Cu      16.86517792       4.29579683      14.28465075
O        7.01706660       3.79330798      15.01692431
O        0.61956502       0.15100312      14.42194503
O       18.59067288       4.94561201      14.59406157
O       12.58224757       2.53310609      12.80532224
O        9.34239089       0.95900149      16.63244816
O        6.74888667       1.32434122      13.81132304
O       15.12650653       3.92055449      13.93684815
O        3.92155570       1.62976114      14.19125948
