60
Properties=species:S:1:pos:R:3 system=runs/20260728-safe-lbfgs-strict-quench-200-production/output-c60-seed42 state_id=intermediate_accepted pbc="F F F"
C        0.46778272      -2.92187649      -1.13510641
C        2.72452364       1.11431933      -2.04954828
C        2.36905494       0.31701685       1.66612267
C       -3.86116424       1.08662914       0.61418278
C       -3.40592542      -1.00783989       1.82624844
C        4.05898816       1.32984068      -0.06076924
C        0.23305983      -3.20938827       0.24861338
C        2.51714542      -2.89411453       0.00877102
C       -1.26750526       2.96188138       0.04160576
C       -4.16499561       1.72588827      -0.61513730
C       -1.32302996       0.29577356       2.49661074
C        1.74510430       3.12167368       1.52752602
C       -0.41490095      -2.22952925      -2.05047473
C       -2.64807490       3.02808671       0.44370599
C        3.08221625       4.69105663       0.52553690
C        1.53705471      -1.97685405       1.86626549
C        3.84761398       3.47951874       0.59922556
C       -3.52642494      -0.32743598      -1.77248216
C       -3.54072218      -1.02832965      -0.53985321
C        2.41330153      -1.60556739      -1.85654424
C       -3.11566567       1.91478368      -2.63461215
C       -1.78723784      -0.01489361      -3.42614842
C       -2.99156964      -2.37915650       1.80122389
C       -0.92707678      -2.99215056       1.02774370
C       -0.75020911      -2.43002272       2.32593909
C        0.33677201      -1.52739563       2.47164499
C       -1.95545103       1.37720840      -3.18521769
C        1.47447908      -3.05649867       0.94836011
C       -2.48647102      -0.88581156      -2.56991694
C        3.29524488       1.27709852       1.17194458
C        0.27646474       0.99736313      -2.98173783
C        1.58290749      -0.88146739      -2.69264930
C       -2.01031913      -2.08356732       2.84238745
C       -3.52106590       3.00666455      -0.65420240
C        2.53549465      -1.07567818       1.43377118
C       -0.39588789      -0.18670310      -3.44731629
C       -2.25891898      -2.75500747       0.61437377
C       -2.32773931      -0.68574639       2.71720208
C        0.05305384      -0.12280163       2.50386155
C        1.07366032       0.81393097       2.09301386
C        1.89187081      -2.77722522      -1.26454157
C       -1.81861193      -1.94190730      -1.82366742
C        3.04154296       2.61572364       1.43314838
C        3.52242414       0.48137705      -1.12775886
C        1.64175903       0.57414061      -2.67528231
C       -0.77498444       1.91384678      -2.54013718
C       -0.63676462       2.32840374       1.22485297
C        4.53415487       2.65539668      -0.26153264
C        0.70431057       2.16714613       1.69141200
C       -3.89120739       1.03540093      -1.82621547
C        1.87464767       4.46693914       1.02248404
C        3.27353971      -0.92859860      -0.94169855
C       -2.69425922       2.98755044      -1.79458979
C       -3.80479935      -0.33792268       0.66226916
C        0.26069208      -1.33925876      -2.96817426
C        3.17624115      -1.63549064       0.28791322
C       -1.30441991       2.79482868      -1.43937505
C       -1.65156387       1.51270959       1.84037012
C       -2.59217901      -2.10805455      -0.59023749
C       -2.90827173       1.90057032       1.28544988
