60
Properties=species:S:1:pos:R:3 entry_id=0 rank=26 energy=-474.6693115234375 pbc="F F F"
C        1.73433725      -3.37216413      -0.91597444
C        2.05016373       0.15008882      -2.30052042
C        1.91469031       1.86829107       2.12907948
C        2.52925954      -2.20627224      -1.15208316
C       -2.92231601       1.05239737       2.39625443
C        2.47154658       0.67212075       0.13201016
C       -0.04048751      -3.76446092       0.95406507
C        2.54682134      -1.61393735       2.33250490
C       -2.62133641       0.78850781      -3.27680772
C       -0.06609875      -1.52308897       0.07111670
C       -1.20701200       1.61938370       3.80278682
C        1.12436578       3.57909473       0.02857821
C        0.41989080      -3.26558703      -1.41317118
C       -0.98257180       3.98388952      -0.79212104
C        0.59098739       3.45851564      -2.41996109
C        0.13091274      -0.46047587       1.05547584
C        1.59374351       2.42801393      -2.51768598
C       -2.92862362      -2.99276218       0.17219587
C       -3.25053072      -1.87017508       0.68474802
C        2.73105261       0.89483646      -1.26193448
C       -3.00495358       1.85972389      -2.43048308
C       -1.87766572      -1.71726121      -1.63103690
C       -0.05119170      -2.59230380       2.92506517
C       -2.28533633       0.26076308       1.38880612
C       -0.86756553      -1.79395296       3.48317845
C       -0.81711934       0.19431948       1.94189550
C       -2.52311524      -0.54215778      -1.09473103
C        2.06810882      -2.60134493       1.54501092
C       -1.83425222      -2.81510363      -0.70516255
C        2.56848268       1.90553619       0.84545406
C       -1.21499733      -1.06797325      -3.92621716
C        1.56570991      -1.24177833      -1.89632421
C       -1.35655959      -0.55294106       3.18134292
C       -1.68184959       3.77009728      -2.04565803
C        2.27148938       0.79285678       2.90936119
C       -0.89619979      -1.68159529      -2.71216322
C        0.74146739      -3.16641007       1.91215911
C       -2.18565165       0.62098276       3.62389331
C       -0.41482489       1.52497278       2.68508338
C        0.56550978       2.39170995       2.09863788
C        2.35976791      -2.78636657       0.16152669
C       -0.43984658      -2.96542751      -0.22567094
C        2.32612639       2.90018587      -0.14529705
C        1.27939706      -0.03259376       0.29038074
C        0.84020649      -0.87242382      -0.71801587
C       -2.77711010       0.52415000      -1.93755554
C       -1.42234807      -0.70087241      -5.25006495
C        1.47038656       1.13859390      -3.09438760
C        0.19701796       3.27898922       1.06272142
C       -2.92462496       3.15330795      -2.15343781
C        0.38711873       3.94322658      -1.09667200
C        2.49878009       2.28647253      -1.42329284
C       -0.65754698       3.58375240      -3.03883082
C       -2.98761414       2.36972966       1.93592644
C        0.40314817      -2.20365059      -2.38054167
C        2.57757701      -0.45751701       2.88093044
C       -2.02716893       0.05583001      -4.24702694
C       -1.16047701       3.57253596       0.58807065
C       -2.82108025      -0.57592145       0.36660608
C       -2.31306692       3.17477835       1.25296139
