60
Properties=species:S:1:pos:R:3 entry_id=18 rank=1 energy=-503.8053894042969 pbc="F F F"
C        1.34386340      -3.69425628      -0.52899595
C        2.25939095       0.07042504      -2.08373877
C        2.01934631       2.18400308       1.96745127
C        2.50167516      -3.00033466      -0.09698290
C       -2.18113604       1.39091451       1.51202350
C        3.08201405       0.67209588       0.15360904
C        1.07256248      -4.07274956       0.82483612
C        2.38228274      -1.04081073       1.89191014
C       -3.55564792       1.58901829      -2.56343255
C       -1.11350471      -3.05202865       0.59873407
C       -0.10278613       1.69926594       2.78048482
C        1.88366769       4.04199073      -0.11129784
C        0.38283900      -3.06442208      -1.34010271
C       -4.29236165       1.20686182      -0.72208085
C        0.29239617       2.93809948      -1.67386538
C       -2.23251716      -2.14469544       0.81565068
C        1.40819384       2.21305516      -2.17386202
C       -2.90152751      -2.05040978      -0.45872619
C       -3.81684717      -1.02988372      -0.75377006
C        3.04900085       0.90720044      -1.25392058
C       -4.56411250       0.67888048      -2.06279736
C       -1.68602495      -1.47384740      -2.48520831
C        0.57069416      -2.39592141       2.27960291
C       -2.91588013       0.21530744       1.11788203
C        0.14252820      -1.07483601       2.60820825
C       -2.21476399      -0.96471026       1.60459569
C       -2.74891485      -0.55431279      -2.77625128
C        1.97602479      -2.38693472       2.10956207
C       -1.97431079      -2.42322934      -1.46872019
C        2.77623203       1.95086043       0.79484817
C       -0.06249713       0.34914299      -2.86377093
C        2.00144898      -1.25138712      -1.67130374
C       -1.14764382      -0.50163194       2.45862645
C       -2.08055438       2.52094906      -0.77891068
C        1.20772898       1.15383866       2.59360603
C       -0.30702697      -1.05513570      -2.63645802
C       -0.01602706      -3.34483910       1.42912343
C       -1.23478907       0.93173686       2.49810044
C       -0.06558297       3.03347880       2.33466856
C        1.29246015       3.40914048       2.11839389
C        2.32840880      -3.43712971       1.25024619
C       -0.92276449      -3.12574577      -0.82203923
C        2.72377987       2.93665715      -0.23852647
C        2.89998773      -0.68270515       0.59490821
C        2.66682123      -1.65705657      -0.45133943
C       -4.00046368      -0.64575262      -2.10371003
C       -1.16686535       1.27602507      -2.72699470
C        1.23146646       0.87224734      -2.64446846
C        1.28051850       4.41018612       1.12353333
C       -3.35113625       2.13045400      -1.25259556
C        0.59171988       3.95565675      -0.74370240
C        2.65530577       2.26399279      -1.47993185
C       -1.02186204       2.38468835      -1.79950816
C       -0.85892377       3.42947060       1.23324916
C        0.75098827      -1.87097971      -2.04895548
C        1.33526295      -0.24368553       2.52019025
C       -2.46011063       0.79466722      -2.97726057
C       -0.05295119       4.32538947       0.47380057
C       -3.82817954       0.11818249       0.05436825
C       -1.83397419       2.54669945       0.68602423
