60
Properties=species:S:1:pos:R:3 entry_id=10 rank=4 energy=-501.2621154785156 pbc="F F F"
C        1.47936882      -3.76243626      -0.54053128
C        2.34893376      -0.00889560      -2.13828207
C        1.58804414       2.02556592       1.81711611
C        2.62149865      -3.04193313      -0.10654930
C       -2.73683071       0.86974105       2.47222091
C        2.96551246       0.65690375       0.13168624
C        1.23153522      -4.18147810       0.80562054
C        2.34339351      -1.08711676       1.86981771
C       -3.33315093       1.65992476      -2.57516017
C       -0.98696762      -3.22033495       0.62474061
C       -0.32778694       1.47944099       3.02564506
C        1.27548745       3.87600142      -0.33723417
C        0.49875036      -3.13188069      -1.33005780
C       -4.35619840       1.07310376      -0.26046883
C        0.51149328       3.06993498      -2.53068940
C       -2.13063360      -2.36388078       0.90093407
C        1.58137372       2.12096453      -2.55075022
C       -2.76776068      -2.13973099      -0.36358159
C       -3.66513722      -1.09554202      -0.54885770
C        3.04388538       0.87658508      -1.27741589
C       -4.12444414       0.89954286      -1.62745703
C       -1.56854105      -1.52280943      -2.43345538
C        0.66190994      -2.58315683       2.31917585
C       -3.17574569      -0.19329340       1.66713165
C        0.15429623      -1.29744335       2.67425788
C       -2.23575096      -1.30658524       1.84030820
C       -2.59510059      -0.56338637      -2.66071260
C        2.05483146      -2.46286054       2.10266866
C       -1.84928880      -2.47925191      -1.41061003
C        2.43003871       1.87393260       0.69557398
C        0.07824872       0.22308471      -3.08880686
C        2.09528669      -1.31725507      -1.69498484
C       -1.16832649      -0.81025990       2.65266341
C       -1.90985091       3.40925753      -3.05378819
C        0.95235359       0.99576136       2.57733569
C       -0.19427417      -1.14607649      -2.68373696
C        0.11481974      -3.52921540       1.44055484
C       -1.44308652       0.59443585       2.93817208
C       -0.34812088       2.90783072       2.79747945
C        0.76767234       3.17345998       1.92459882
C        2.45747906      -3.49009509       1.23497149
C       -0.79731214      -3.20433209      -0.79806103
C        2.27827917       2.83613812      -0.35638851
C        2.86121417      -0.69941577       0.58728406
C        2.74288011      -1.69340746      -0.45676306
C       -3.72442382      -0.48622733      -1.81252795
C       -0.97528264       1.20038356      -3.24508396
C        1.37304898       0.74346104      -2.84885218
C        0.70688326       4.23151672       0.96813027
C       -3.11561327       3.02131038      -2.80265947
C        0.56400585       4.01337443      -1.51418674
C        2.60180098       2.20221886      -1.57214422
C       -0.74262788       2.62834797      -3.11872176
C       -1.27662080       3.92859037       3.00356363
C        0.85346519      -1.94530888      -2.06382195
C        1.24330364      -0.37371658       2.50922327
C       -2.30516439       0.76601910      -3.04549893
C       -0.23060579       5.24529749       1.23974877
C       -3.92558288      -0.08633707       0.43941468
C       -1.07394424       4.98267149       2.22278655
