60
Properties=species:S:1:pos:R:3 system=runs/20260728-safe-lbfgs-strict-quench-200-production/output-c60-seed42 state_id=plateau_accepted pbc="F F F"
C        1.67511222       2.63518631      -0.86368517
C       -1.15401573       2.57525776       1.80390017
C        1.13740786       0.03567008       2.53687986
C       -1.04095072      -2.59331999      -2.43798835
C        1.37776267      -2.22426876      -2.80129797
C       -0.12982995       0.69686047       2.96731869
C        2.73833555       1.68268541      -0.96115898
C        2.90762440       2.70857264       1.10270950
C       -2.02753550      -2.83264736       0.89024581
C       -2.35679524      -2.07752371      -2.57917223
C        1.36707385      -2.58835191      -0.26127757
C       -1.34551168      -1.42537564       2.56085707
C        0.36333516       2.52185169      -1.44662639
C       -2.25394161      -3.01753294      -0.48646058
C       -3.12345308      -0.55192815       1.32430678
C        3.09216137       0.42965735       1.06567396
C       -2.43795041       0.52291981       2.01040617
C       -1.49293115       0.04671605      -3.37799666
C       -0.18578353      -0.51506725      -3.44521579
C        0.79476186       3.88199550       1.11337248
C       -3.63376617      -0.22429396      -2.24342967
C       -2.41255280       1.90442554      -2.08314953
C        2.44469531      -1.30508375      -3.06927530
C        2.83016671       0.48917284      -1.70587453
C        3.28349388      -0.67764869      -1.01493841
C        2.91132871      -0.77236245       0.35398231
C       -3.56739896       1.10504633      -1.80640734
C        3.36161362       1.61333397       0.32091882
C       -1.36423022       1.36566050      -2.84678813
C       -0.36863254       2.11330882       2.91536906
C       -2.87871298       2.04616418       0.18041563
C       -0.46197491       3.32704653       0.79104250
C        3.12586916      -1.78513663      -1.86509053
C       -3.08562737      -2.27821647      -1.35010895
C        2.32529850       0.81054957       2.21536659
C       -2.05607881       2.56589686      -0.87023613
C        2.10279044       0.08215989      -2.84460931
C        1.97822559      -2.58428136      -1.54405895
C        1.86493199      -1.66620704       0.74774069
C        1.03918263      -1.31017623       1.90388071
C        1.86311207       3.34144783       0.38622446
C        0.02778808       1.63786591      -2.55262480
C       -1.35271818      -0.03337386       2.78436449
C        1.89645712       3.11386984       3.18611387
C        0.51742583       3.08201519       3.39660128
C       -3.75902506       1.09236397      -0.38272802
C       -0.60680957      -2.98598728       1.11193492
C       -2.30764369       1.81487820       1.44890350
C       -0.16687648      -2.05391038       2.08382316
C       -2.60636840      -0.76527776      -3.06921648
C       -2.47179676      -1.77507310       1.71852648
C        1.03444106       4.04185604       2.51981613
C       -3.80660525      -1.08847183      -1.08785289
C        0.03385657      -1.88833658      -3.08075718
C       -0.72849239       2.96984415      -0.59310277
C        2.58924630       2.20733744       2.39178814
C       -3.77823711      -0.26421230       0.09005672
C        0.05702671      -3.13725431      -0.12945500
C        0.77934921       0.49175420      -3.08623933
C       -0.96222482      -3.19634655      -1.14062266
