60
Properties=species:S:1:pos:R:3 system=runs/20260728-safe-lbfgs-strict-quench-200-production/output-c60-seed42 state_id=plateau_accepted pbc="F F F"
C        1.67016571       2.62996864      -0.85753174
C       -1.15006428       2.57533172       1.79580054
C        1.13221473       0.03352862       2.51858298
C       -1.03449499      -2.58119674      -2.43353894
C        1.36686918      -2.21549530      -2.79264399
C       -0.12350395       0.68633801       2.93847253
C        2.73235071       1.67566594      -0.95238038
C        2.90307337       2.70066544       1.10858727
C       -2.02495761      -2.83507510       0.89591635
C       -2.35558482      -2.07713685      -2.57931427
C        1.37303377      -2.59132185      -0.25735291
C       -1.34162772      -1.41859389       2.56064394
C        0.35924989       2.52595400      -1.44640930
C       -2.25034072      -3.01400581      -0.48278693
C       -3.11679940      -0.55471010       1.32131980
C        3.09732004       0.42122992       1.07148641
C       -2.41889157       0.51761500       1.99987977
C       -1.49554218       0.04744110      -3.37717715
C       -0.18794113      -0.51771883      -3.43024736
C        0.79483599       3.88630461       1.11455761
C       -3.63645068      -0.22620559      -2.24463727
C       -2.41731754       1.90582829      -2.08509938
C        2.43719083      -1.30256047      -3.06687735
C        2.82542781       0.48531334      -1.69986183
C        3.28454929      -0.68179951      -1.01460034
C        2.91944579      -0.77973991       0.35674244
C       -3.57061637       1.10362344      -1.80765432
C        3.36068576       1.60693671       0.32726506
C       -1.36874995       1.36879631      -2.84956368
C       -0.36324877       2.10577144       2.90166780
C       -2.88037102       2.04698209       0.17751106
C       -0.46541489       3.33917550       0.78692970
C        3.12556492      -1.78689014      -1.86865397
C       -3.08369472      -2.27868239      -1.34898530
C        2.31552038       0.79884140       2.21440533
C       -2.06159129       2.57301655      -0.87391860
C        2.09847810       0.08493566      -2.84014494
C        1.97933948      -2.58708970      -1.54327065
C        1.87130284      -1.66944279       0.75152405
C        1.04114570      -1.30274785       1.90394588
C        1.86100601       3.33712469       0.39115499
C        0.02294199       1.64276550      -2.55330869
C       -1.34015172      -0.03364103       2.75794780
C        1.89087819       3.10674852       3.18748034
C        0.51171993       3.07688352       3.39844346
C       -3.75945391       1.09124427      -0.38362350
C       -0.60311335      -2.98252413       1.11597929
C       -2.30122143       1.81263310       1.44171304
C       -0.16336657      -2.05022302       2.08660315
C       -2.60854523      -0.76566504      -3.07016289
C       -2.47060882      -1.77753492       1.72358356
C        1.04233619       4.05580908       2.51298363
C       -3.80652204      -1.09017166      -1.08830234
C        0.03202123      -1.87513570      -3.06010107
C       -0.73388283       2.98312207      -0.59846890
C        2.58010940       2.19604361       2.39456582
C       -3.77579673      -0.26590217       0.08913890
C        0.06019544      -3.13214287      -0.12625314
C        0.77496389       0.49440467      -3.08024059
C       -0.95866626      -3.18698547      -1.13662591
