13
Properties=species:S:1:pos:R:3:tags:I:1 pbc="F F F"
Cu       0.06583227       0.04413908      -0.05122261        1
Cu       2.16376247       0.00396072      -1.34973810        2
Cu       2.12654250       0.02717540       1.33281630        2
Cu      -2.15956577       0.00265529      -1.33491112        2
Cu      -2.10901018      -0.04278972       1.29309639        2
Cu      -1.33210948       2.19072833       0.00754000        2
Cu       1.31286402       2.17741607       0.01287887        2
Cu      -1.31549609      -2.16323039       0.02590002        2
Cu       1.34316825      -2.16197711       0.01492277        2
Cu      -0.03849620      -1.36285829       2.19592300        2
Cu       0.01147006       1.29756269       2.12209092        2
Cu      -0.01797488      -1.33314421      -2.18065515        2
Cu       0.00907784       1.36087913      -2.13410902        2
