60
Properties=species:S:1:pos:R:3 trial_index=1 seed_entry_id=0 discovered_entry_id=1 energy=-480.5087585449219 status=accepted pbc="F F F"
C        1.31492080      -2.70585435      -0.45272640
C        0.94481544      -1.37860141      -3.42816454
C        1.33822373       2.41645978      -0.34310834
C        1.92854559      -2.71862619      -1.70781271
C       -3.35911280       1.53134198       0.50810653
C        1.43269778       0.15823335      -1.43446219
C       -0.77802157      -2.26415426       1.53136607
C        2.17919196      -0.08151696       2.11012826
C       -3.47893110      -0.97344810      -4.37807325
C       -0.82876809      -1.13602327      -0.56917601
C       -2.13967505       3.04404842       0.92738976
C        0.32252625       2.90253212      -2.91004988
C       -0.03545398      -3.13823090      -0.70138296
C       -1.84184779       2.98822844      -3.66220259
C       -0.49497706       1.60760216      -4.94636466
C       -0.44842544       0.44597105       0.38219695
C        0.43945328       0.57598502      -4.62868252
C       -3.51067545      -2.72304232       0.54438570
C       -4.30435470      -1.73169631       0.42134673
C        1.51743516      -0.26498868      -2.78758759
C       -3.99754982       0.28454914      -3.92912044
C       -2.65579011      -2.51723589      -1.67723947
C       -1.02487706      -1.19268239       2.44182267
C       -3.03877676       0.26120469      -0.10040708
C       -1.70729809      -0.11136100       2.80099039
C       -0.56524307       1.46455296       1.34670633
C       -3.57316902      -1.42253863      -1.82755543
C        1.59372282      -1.26198165       1.73605134
C       -2.41764005      -2.86310888      -0.30555495
C        1.64025204       1.57202440      -1.45867347
C       -1.64388421      -2.51333936      -3.96270171
C        0.90084134      -2.57773229      -2.67442750
C       -1.65133773       1.11585747       2.25123530
C       -2.69933954       2.18494138      -4.50948622
C        1.91820303       2.02816246       0.82391192
C       -1.60663839      -2.85803334      -2.61016121
C        0.29730548      -1.68775345       2.11696410
C       -2.67516670       1.92985324       1.70346109
C       -0.77139770       2.75453577       0.71707222
C        0.00400601       3.02651582      -0.45676314
C        1.42599129      -1.52214170       0.33256249
C       -1.06350281      -2.50059237       0.10576489
C        1.38956043       2.02007678      -2.78869943
C        0.53218373      -0.48911262      -0.34236830
C       -1.66625332      -0.05264298      -0.17919059
C       -3.85510483      -0.85294561      -3.06338022
C       -0.97912431      -1.59829343      -4.77622295
C        0.18952309      -0.86670293      -4.54154647
C       -0.47910038       3.26939572      -1.77389675
C       -3.89576749       1.59914075      -4.11146645
C       -0.52187349       2.71248212      -4.01728094
C        1.38533233       0.87947434      -3.62306961
C       -1.81380173       1.48347136      -5.41406021
C       -3.03661322       2.80471175      -0.18323013
C       -0.30020057      -3.09845741      -2.09064237
C        2.29309502       1.10676378       1.63252267
C       -2.39243270      -1.68517971      -4.83642552
C       -1.87772999       3.32690781      -2.25128456
C       -3.93731824      -0.77635896      -0.55520889
C       -2.95859394       3.20367928      -1.45094712
