60
Properties=species:S:1:pos:R:3 trial_index=29 seed_entry_id=11 discovered_entry_id=12 energy=-487.94476318359375 status=accepted pbc="F F F"
C       -2.89407346       1.32216352      -0.57684019
C        0.30466255       0.69163588      -2.09060314
C       -3.97734532      -1.41858926      -2.29812668
C       -1.92872147       1.22736078      -1.56560509
C       -4.57385794      -4.23873808       2.22159273
C       -1.98162562       0.26001766      -2.61816947
C       -3.52751546       0.02389908       2.72096419
C       -6.10314552      -1.05159649       0.41451760
C        0.34585676      -2.33878126       1.96742288
C       -1.72197683      -0.74885903       0.12338280
C       -5.14995084      -3.58335147       0.34614630
C       -1.93241621      -3.33444248      -2.71614161
C       -2.90030186       1.35812051       0.94149567
C       -1.26346407      -4.98855061      -1.31439198
C        0.23819332      -3.32592362      -1.66305946
C       -3.72647515      -1.63782679       0.90038616
C        0.52623663      -2.02915721      -2.13266046
C       -1.92019021      -1.29848896       3.59081575
C       -1.52240726      -2.62813183       3.53962118
C       -0.60180136      -0.04234508      -2.90916975
C       -1.71373478      -1.46355982       1.32411767
C        0.08133028      -0.92203456       2.04214581
C       -3.34672916      -1.13679623       3.47768008
C       -3.80957620      -3.53572529       3.19104302
C       -4.29992085      -2.20626265       3.38181368
C       -5.08552027      -1.13007650       1.43790145
C       -1.38764531      -4.19195887       2.16247705
C       -4.28685768       0.94955797       0.82597783
C       -1.32782626      -0.55770167       2.46834232
C       -2.71879936      -0.97870045      -2.79766483
C        1.18002157      -1.38332423       0.05591769
C       -0.59569822       1.08802314      -1.03867016
C       -5.35587400      -2.10378914       2.43863543
C       -0.59526409      -4.73195286      -0.07938008
C       -4.80860618      -0.55508962      -1.49479267
C        0.50201998      -0.36267875       0.77386272
C       -4.66802999       0.16337131       1.92288508
C       -5.54924152      -3.32083916       1.73015481
C       -5.16151819      -2.80163767      -0.84457634
C       -4.14566036      -2.79066169      -1.84539181
C       -4.01884654       0.31677501      -0.52571789
C       -2.39170750       0.56895682       2.13882961
C       -1.74631474      -1.99431548      -3.05341684
C       -3.12492713      -0.80774437      -0.03860033
C       -2.74075278      -2.35013758       1.53020950
C       -0.46653327      -3.20072382       2.72019684
C        1.34548544      -1.16416753      -1.35321178
C        1.50896018       0.12929117      -1.80772251
C       -3.09281436      -3.75016443      -1.99843876
C       -1.57397629      -4.81367458       0.93045482
C       -0.80374154      -4.06834446      -2.27224670
C       -0.44090249      -1.42232703      -2.95381338
C        0.32184073      -3.64726661      -0.27402761
C       -4.13346330      -4.50988094       0.86421986
C       -0.62247662       0.16519068       0.01365841
C       -5.70327840      -1.45801378      -0.79791526
C        0.79324041      -2.63859466       0.62657139
C       -2.66554670      -4.79451319      -1.11536899
C       -2.50568878      -3.35359431       2.68859494
C       -2.89142249      -4.87343449       0.29180786
