60
Properties=species:S:1:pos:R:3 system=runs/20260728-safe-lbfgs-strict-quench-200-production/output-c60-seed42 state_id=plateau_accepted pbc="F F F"
C       -0.84250514       2.58161577       1.89536256
C       -1.33735620      -1.07576463       2.33779412
C        2.06213494      -1.22496950       1.54271704
C        0.15620830       0.56917444      -3.81985099
C        1.44022985       2.42440805      -2.83517963
C        0.90280041      -2.01493911       1.82501924
C        0.52477892       2.83727646       1.56474301
C        0.51675597       1.79972669       3.61112200
C        0.89233045      -2.59062670      -2.54587664
C       -1.11864377      -0.03441713      -4.01781202
C        2.65458969       0.45020342      -1.72726847
C        1.15879607      -3.08551459      -0.32040652
C       -1.84931058       2.12489584       0.98147600
C        0.32557472      -1.73974018      -3.50887669
C       -1.08118023      -2.97494061      -0.95271569
C        2.26328985       1.17237723       1.96840470
C       -0.98000570      -2.73911020       0.48037121
C       -2.17177221       1.62900425      -2.60772767
C       -0.93753071       2.34913861      -2.55907196
C       -1.73602726       1.02629649       3.67547080
C       -3.02331835      -0.64159039      -2.92154223
C       -3.48781202       0.57081605      -0.83822688
C        1.49434748       3.50482876      -1.89382034
C        1.10012160       3.14057008       0.31983497
C        2.39345345       2.61551525       0.04071192
C        2.71501686       1.35002063       0.60364402
C       -3.62724421      -0.58775881      -1.65792181
C        1.35331063       2.13999909       2.50177495
C       -2.74958915       1.67518425      -1.30348697
C        0.04928592      -1.28258484       2.74347956
C       -2.90508745      -1.29537776       0.43137737
C       -2.02428107       0.19418781       2.57450724
C        2.69564381       2.91199230      -1.30529856
C       -1.02932871      -1.44846766      -3.74511995
C        2.04121750      -0.13329706       2.44097612
C       -3.18057759       0.10356172       0.47349870
C        0.45542789       3.47400760      -0.89428464
C        2.55941881       1.78857048      -2.18486037
C        2.82507156       0.22011830      -0.30112256
C        2.57189839      -1.11661972       0.22009504
C       -0.82201953       2.02895155       3.22472296
C       -1.89031101       2.44249708      -0.42867147
C        0.38928870      -2.85433631       0.84155945
C        0.68006294       0.59194264       4.35710750
C       -0.30572027       0.30186925       5.33966841
C       -3.15916084      -1.71759864      -0.90187297
C        2.06871238      -1.91794123      -2.04099999
C       -1.83125053      -1.84054044       1.19344267
C        2.21470115      -2.17868796      -0.66471769
C       -2.30013214       0.48347879      -3.42187070
C        0.25284790      -3.21297538      -1.44104185
C       -1.51162146       0.50189973       4.97360450
C       -2.15710944      -1.80798774      -2.96820476
C        0.21443816       1.87410730      -3.24998021
C       -2.50517086       0.90533690       1.40268026
C        0.97203503      -0.37210033       3.38608136
C       -2.17814998      -2.42254176      -1.66585955
C        2.13660719      -0.59675072      -2.55741256
C       -0.80712706       2.96643291      -1.26431485
C        1.07438566      -0.48921602      -3.52076989
