60
Properties=species:S:1:pos:R:3 pbc="F F F"
C        1.12137369      -3.50672417       1.19705631
C        1.08918737      -2.20969202      -2.02443349
C        1.87306055       2.24034303      -2.51291158
C        2.07431478      -3.26107638       0.23058798
C       -2.04029668       3.03034818       1.29492219
C        2.34317135      -0.10720796      -2.62084003
C        1.36261051      -0.85605616       1.91078515
C        3.45096057       0.45056443       3.06102967
C       -3.93433299      -0.58406724      -1.39587639
C        2.03309779      -0.42786512       0.61264682
C        0.08276636       3.82985761       0.26992955
C       -0.47905380       1.54973678      -3.57965803
C       -0.10764251      -2.79838505       1.28603637
C       -2.64798628       1.93943349      -3.29952591
C       -2.03523524      -0.31341984      -3.22811907
C        2.17902661       0.81656022      -0.11646780
C       -0.86073933      -1.15877665      -3.02264639
C       -0.36740685       0.47679945       2.78236244
C       -1.31898692       1.43613948       3.20708368
C        1.48320253      -1.20235643      -2.94092998
C       -4.02433042       0.61686948      -0.61524021
C       -2.24609058      -0.90191457       1.76445097
C        2.20297813       1.22059550       2.64657075
C       -2.09846740       2.44903370       2.59965214
C        1.04249518       0.36485219       2.67233905
C        1.85961468       2.15891681       0.35216511
C       -3.07923843       0.28399537       1.79721438
C        3.49092349      -0.92913835       2.93471894
C       -0.93227729      -0.68795959       2.21026086
C        1.86252716       1.09679269      -3.25711584
C       -3.62992064      -2.27002353       0.25472337
C        1.98505849      -2.42211244      -0.92053724
C        2.12861998       2.22349431       1.72207677
C       -3.74454061       1.22243051      -2.80873891
C        5.52175393       1.94425642       3.78197382
C       -2.46589414      -2.08745487       0.97893556
C        2.58168939      -1.71595620       2.31508236
C       -0.99573214       3.85517692       0.89617531
C        1.00920573       3.07173660      -0.42440928
C        0.77726653       2.73728307      -1.83679983
C        2.40555825      -2.98877460       1.60932021
C        0.08755418      -1.56717919       1.84655663
C        0.59681761       0.71675653      -3.81870091
C        2.59659029       0.00532339      -1.26759918
C        2.45328543      -1.18770446      -0.47831561
C       -3.39526996       1.01547714       0.60491480
C       -1.08917857      -2.68857202      -0.93276000
C       -0.40993863      -2.20352931      -2.00076047
C       -0.53315911       2.47022575      -2.48744180
C       -3.94556705       1.71251086      -1.51073631
C       -1.74972931       0.98266095      -3.80049269
C        0.34673510      -0.65249796      -3.57063393
C       -3.36424575      -0.16729237      -2.65946898
C       -2.75658189       2.29263393       0.33163926
C       -1.26743773      -2.76916417       0.40790597
C        4.54634948       1.24237298       3.45260887
C       -4.16299981      -1.81020310      -0.78463397
C       -1.96905880       2.64412580      -2.21437771
C       -2.67301016       1.19493326       2.82801853
C       -2.86626202       2.54267743      -1.09247302
