115
Lattice="13.75323 0.0 0.0 0.0 13.75323 0.0 0.0 0.0 23.89" Properties=species:S:1:pos:R:3 input=/mnt/d/download/trae-research-code/ssw/PdO.xyz system=pdo pbc_mode=slab fixed_bottom_fraction=0.35 pbc="T T F"
Pd       0.00000000       0.00000000      10.00000000
Pd       2.75064538       0.00000000      10.00000000
Pd       5.50129076       0.00000000      10.00000000
Pd       8.25193614       0.00000000      10.00000000
Pd      11.00258152       0.00000000      10.00000000
Pd       0.00000000       2.75064538      10.00000000
Pd       2.75064538       2.75064538      10.00000000
Pd       5.50129076       2.75064538      10.00000000
Pd       8.25193614       2.75064538      10.00000000
Pd      11.00258152       2.75064538      10.00000000
Pd       0.00000000       5.50129076      10.00000000
Pd       2.75064538       5.50129076      10.00000000
Pd       5.50129076       5.50129076      10.00000000
Pd       8.25193614       5.50129076      10.00000000
Pd      11.00258152       5.50129076      10.00000000
Pd       0.00000000       8.25193614      10.00000000
Pd       2.75064538       8.25193614      10.00000000
Pd       5.50129076       8.25193614      10.00000000
Pd       8.25193614       8.25193614      10.00000000
Pd      11.00258152       8.25193614      10.00000000
Pd       0.00000000      11.00258152      10.00000000
Pd       2.75064538      11.00258152      10.00000000
Pd       5.50129076      11.00258152      10.00000000
Pd       8.25193614      11.00258152      10.00000000
Pd      11.00258152      11.00258152      10.00000000
Pd       1.41475297       1.39936947      12.04389419
Pd       4.13406451       1.36759766      12.03156450
Pd       7.48610100      11.67467911      16.64718560
Pd       9.57512057       1.39592898      11.89594876
Pd      12.38684272       1.37174114      11.92044161
Pd       1.37066727       4.12480410      11.96742493
Pd       6.82637887       4.08296652      11.99865861
Pd       6.81488862       1.37123442      11.99943615
Pd       9.56728621       4.13975942      11.94281254
Pd      12.36578195       4.13265160      11.93417299
Pd       1.37110082       6.89256210      11.94010419
Pd       4.13935064       6.87026939      11.96482277
Pd       6.87097415       6.85831372      11.95140951
Pd       9.64205429       6.82915781      11.94515418
Pd      12.39111484       6.85622887      11.94896407
Pd       1.40196566       9.63961766      11.96089263
Pd       4.11777592       9.66324146      11.95099537
Pd       6.89476706       9.64088005      11.95142944
Pd       9.64982872       9.59779534      11.89439304
Pd      12.42487279       9.60955999      11.94161946
Pd       1.39774287      12.41554653      11.97619311
Pd       4.16503474      12.41243941      12.02264797
Pd       6.86816975      12.39901143      11.97280504
Pd       9.63028672      12.36702810      11.91406436
Pd      12.40416684      12.37237826      11.93448595
Pd       2.70058346       0.00567642      14.01100819
Pd       8.18170900      13.62902876      13.91055471
Pd       9.77830834       1.76932886      16.85047404
Pd      10.93942000       0.04082449      13.85641231
Pd      12.53448827       1.89013470      16.13770312
Pd       0.16705711       2.82475358      14.02248391
Pd       4.10431117       4.09576747      11.94635671
Pd       8.59201406       4.22881503      16.13260888
Pd       8.26371627       2.78308970      13.95175047
Pd      11.05184004       2.77354449      13.97415311
Pd      13.64879933       5.55667692      13.99182638
Pd       2.66400923       5.50930049      13.90759905
Pd       5.42215882       5.39975980      14.02903945
Pd       8.15321319       5.52191028      13.92607687
Pd      10.90494037       5.45051813      14.07824308
Pd       0.07016283      11.03898539      13.94426215
Pd       0.07432197       8.29772772      13.95704641
Pd       2.83395632       8.28227199      13.99021016
Pd       8.22284268       8.23845303      13.78369020
Pd      11.06121728       8.23173952      14.01985360
Pd      13.73199683       0.02407741      14.00371903
Pd       2.76565957      10.96936332      13.96206236
Pd       5.49270051       8.11285482      14.06471262
Pd       8.28166306      11.00630619      13.91606428
Pd      11.06313206      11.03307732      13.88938771
Pd      12.62263930       7.08185693      16.28688090
Pd       9.61903001       9.80568467      15.94417068
Pd       3.84762611       0.93953192      16.37138319
Pd       1.55198965       7.13945635      16.10256636
Pd      12.67737650       9.81851601      16.07747198
Pd       8.07307703       3.15065528      18.86743884
Pd       6.84085159       1.49487468      16.30304274
Pd       8.03898392       9.45520120      18.08311444
Pd       5.56174549      10.89525492      13.95530426
Pd      10.61970910      13.05749156      16.53476730
Pd       0.78783619       4.45880152      16.31075365
Pd       5.59418354       3.98376073      16.53325500
Pd      11.05863153       4.21125551      17.49672710
Pd       4.15789159      12.02049656      16.02456835
Pd       5.76590137       8.94341363      16.73527250
Pd       8.03017209       0.19043276      18.37938180
Pd       9.55221076       7.01863897      16.12372127
Pd       7.45260852       6.07852374      17.98950309
Pd       2.99256534       2.76555173      14.20207867
Pd       4.32778419       6.36290084      16.51730062
O        9.07857105       4.73708911      18.14789403
O       11.13840741      11.08459534      16.00341074
O       12.21376646       0.04826177      15.54094673
O       10.78025157       2.45638586      18.51064448
O        9.87411712       2.53143129      19.57514638
O        5.77835159       7.17238577      17.55484192
O        8.53229533       1.24901622      15.35666606
O        4.75930699       3.65216470      14.78794108
O        9.02569536      12.48154177      17.55463477
O        2.63108566      13.23888634      15.98266484
O        5.18290517       2.06526974      17.11768912
O        2.59234399       5.43974175      15.96235434
O        8.71692744       7.57950543      18.06546763
O        5.76230563      10.83316664      16.04408216
O        6.45345437       4.35473739      18.27886875
O       12.93316891       3.57247455      17.03061071
O       11.13531205       5.78151914      16.22585680
O        0.22714785       8.48003699      16.67776619
O        7.20895777       1.53061613      19.44478919
O        8.22788401       8.42495253      15.74500850
