115
Lattice="13.75323 0.0 0.0 0.0 13.75323 0.0 0.0 0.0 23.89" Properties=species:S:1:pos:R:3 input=/mnt/d/download/trae-research-code/ssw/PdO.xyz system=pdo pbc_mode=slab fixed_bottom_fraction=0.35 pbc="T T F"
Pd       0.00000000       0.00000000      10.00000000
Pd       2.75064538       0.00000000      10.00000000
Pd       5.50129076       0.00000000      10.00000000
Pd       8.25193614       0.00000000      10.00000000
Pd      11.00258152       0.00000000      10.00000000
Pd       0.00000000       2.75064538      10.00000000
Pd       2.75064538       2.75064538      10.00000000
Pd       5.50129076       2.75064538      10.00000000
Pd       8.25193614       2.75064538      10.00000000
Pd      11.00258152       2.75064538      10.00000000
Pd       0.00000000       5.50129076      10.00000000
Pd       2.75064538       5.50129076      10.00000000
Pd       5.50129076       5.50129076      10.00000000
Pd       8.25193614       5.50129076      10.00000000
Pd      11.00258152       5.50129076      10.00000000
Pd       0.00000000       8.25193614      10.00000000
Pd       2.75064538       8.25193614      10.00000000
Pd       5.50129076       8.25193614      10.00000000
Pd       8.25193614       8.25193614      10.00000000
Pd      11.00258152       8.25193614      10.00000000
Pd       0.00000000      11.00258152      10.00000000
Pd       2.75064538      11.00258152      10.00000000
Pd       5.50129076      11.00258152      10.00000000
Pd       8.25193614      11.00258152      10.00000000
Pd      11.00258152      11.00258152      10.00000000
Pd       1.38399916       1.37275243      11.99331826
Pd       4.12012084       1.34579907      12.02670816
Pd       6.82766798       1.40463623      11.99302011
Pd       9.57512057       1.39592898      11.89594876
Pd      12.38684272       1.37174114      11.92044161
Pd       1.36351041       4.14213639      11.97272334
Pd       4.12084388       4.07793090      11.97077000
Pd       6.86017332       4.10605417      11.98563179
Pd       9.56728621       4.13975942      11.94281254
Pd      12.36578195       4.13265160      11.93417299
Pd       1.37110082       6.89256210      11.94010419
Pd       4.13935064       6.87026939      11.96482277
Pd       6.87097415       6.85831372      11.95140951
Pd       9.64205429       6.82915781      11.94515418
Pd      12.39111484       6.85622887      11.94896407
Pd       1.36451355       9.61218981      12.02963907
Pd       4.11777592       9.66324146      11.95099537
Pd       6.89476706       9.64088005      11.95142944
Pd       9.64982872       9.59779534      11.89439304
Pd      12.42487279       9.60955999      11.94161946
Pd       1.42143135      12.35887570      11.96983597
Pd       4.14075474      12.39938012      12.00563126
Pd       6.86816975      12.39901143      11.97280504
Pd       9.63028672      12.36702810      11.91406436
Pd      12.38709850      12.33457167      11.90488636
Pd       2.76722528      13.64740730      14.04965523
Pd       8.27963059       0.04744633      13.84839837
Pd       9.64938544       1.12850381      15.81539902
Pd      10.99087507      13.61022260      13.87307893
Pd       0.00051391       0.07882413      13.89936618
Pd      13.70239049       2.89301127      13.96298180
Pd       2.72841262       2.66063271      14.00970162
Pd       5.47484626       2.87714615      14.10884469
Pd       8.24854867       2.79501492      14.05895095
Pd      10.96997565       2.64651830      13.98753254
Pd      13.68713524       5.62782500      14.02990750
Pd       2.79663695       5.40195259      13.95792917
Pd       5.49092806       5.54320803      13.87717011
Pd       8.21658686       5.60990112      13.99084541
Pd      10.96749157       5.33064458      14.07824749
Pd       2.67295459       8.18085372      13.98956823
Pd       1.55188776       6.49177439      15.97684484
Pd       5.57493149       8.31454664      13.90213696
Pd       8.32516893       8.32785022      13.99096917
Pd      11.01090401       8.10516512      13.98294278
Pd       1.37725352      11.65410217      16.58694331
Pd       2.78761501      10.87183198      14.01176227
Pd       5.55873466      11.00245631      13.91983635
Pd       8.34128126      11.05832568      13.91000076
Pd       0.00218310      11.00490291      13.94241211
Pd       0.74402034       6.93341676      18.43515913
Pd       0.23313026       8.74264459      15.43307134
Pd       4.84001622      12.01146551      16.25399075
Pd       3.32053053       5.86338550      17.96371200
Pd       2.87247725       9.05206915      17.13300899
Pd       9.46766583       2.50458542      18.03762680
Pd       6.95313445       1.47853442      16.79136363
Pd       7.40865999      12.74143291      16.15940166
Pd       5.55361421      13.71472920      14.13680912
Pd      11.40009340      12.17140495      16.39483661
Pd       2.25988727       3.85018543      16.39989621
Pd       5.74116130       4.60410031      16.39376526
Pd      12.22984590       3.65350405      16.33081642
Pd       6.28042225       9.67287571      16.27967040
Pd       9.72673317       9.91145107      15.97154518
Pd       9.19841038      13.39153497      18.06021660
Pd      12.09971753       7.54582918      17.03601209
Pd       9.26497209       4.43567356      16.20255827
Pd       1.24351351       1.32376425      16.09000657
Pd       4.37721078       6.98000315      15.80741495
O       10.67829479       3.91783692      17.47264168
O        0.94458046       9.73825885      16.99206105
O       12.43469329      12.38218246      14.74416181
O       13.60638781       0.29319121      17.32365884
O       13.46912197      12.70087908      17.23787570
O        4.81739938       8.57028632      16.96295309
O        5.52138368       1.46418146      15.48941147
O        2.36189706      13.42276068      16.20995062
O       10.28996854      11.85148193      17.90210200
O        3.12548961      10.79138621      16.06717556
O        3.59903788      13.45336940      16.97080641
O        4.01641324       4.17254018      17.25792096
O       11.35112654       8.88915139      15.84739003
O        7.93700442      10.75192654      15.99380675
O        7.52171421       5.26892577      15.87073600
O        0.39045269       3.13738835      15.98260404
O       12.71633525       6.32858860      18.35459344
O        2.59313219       7.60411718      18.56218489
O        8.06485184       1.21438621      18.44644068
O       13.07453415       7.61244567      14.08153655
