115
Lattice="13.75323 0.0 0.0 0.0 13.75323 0.0 0.0 0.0 23.89" Properties=species:S:1:pos:R:3 input=/mnt/d/download/trae-research-code/ssw/PdO.xyz system=pdo pbc_mode=slab fixed_bottom_fraction=0.35 pbc="T T F"
Pd       0.00000000       0.00000000      10.00000000
Pd       2.75064538       0.00000000      10.00000000
Pd       5.50129076       0.00000000      10.00000000
Pd       8.25193614       0.00000000      10.00000000
Pd      11.00258152       0.00000000      10.00000000
Pd       0.00000000       2.75064538      10.00000000
Pd       2.75064538       2.75064538      10.00000000
Pd       5.50129076       2.75064538      10.00000000
Pd       8.25193614       2.75064538      10.00000000
Pd      11.00258152       2.75064538      10.00000000
Pd       0.00000000       5.50129076      10.00000000
Pd       2.75064538       5.50129076      10.00000000
Pd       5.50129076       5.50129076      10.00000000
Pd       8.25193614       5.50129076      10.00000000
Pd      11.00258152       5.50129076      10.00000000
Pd       0.00000000       8.25193614      10.00000000
Pd       2.75064538       8.25193614      10.00000000
Pd       5.50129076       8.25193614      10.00000000
Pd       8.25193614       8.25193614      10.00000000
Pd      11.00258152       8.25193614      10.00000000
Pd       0.00000000      11.00258152      10.00000000
Pd       2.75064538      11.00258152      10.00000000
Pd       5.50129076      11.00258152      10.00000000
Pd       8.25193614      11.00258152      10.00000000
Pd      11.00258152      11.00258152      10.00000000
Pd       1.37636533       1.31844155      12.00560337
Pd       4.12030719       1.35598233      11.91332699
Pd       6.86111101       1.34765611      11.96244324
Pd       9.57512057       1.39592898      11.89594876
Pd      12.38684272       1.37174114      11.92044161
Pd       1.37859054       4.12459788      11.93664546
Pd       4.12348261       4.15490243      11.98294491
Pd       6.86099765       4.12530690      12.00160166
Pd       9.56728621       4.13975942      11.94281254
Pd      12.36578195       4.13265160      11.93417299
Pd       1.37110082       6.89256210      11.94010419
Pd       4.13935064       6.87026939      11.96482277
Pd       6.87097415       6.85831372      11.95140951
Pd       9.64205429       6.82915781      11.94515418
Pd      12.39111484       6.85622887      11.94896407
Pd       1.36637799       9.66996052      11.99466687
Pd       4.11777592       9.66324146      11.95099537
Pd       6.89476706       9.64088005      11.95142944
Pd       9.64982872       9.59779534      11.89439304
Pd      12.42487279       9.60955999      11.94161946
Pd       1.38190990      12.37209436      12.02956148
Pd       4.15844110      12.38423766      11.98485879
Pd       6.86816975      12.39901143      11.97280504
Pd       9.63028672      12.36702810      11.91406436
Pd      12.40306193      12.36469428      11.99760897
Pd       2.96845419       0.00837870      13.95309211
Pd       7.58434563      13.49052013      14.32535830
Pd       9.46516958       1.08302430      15.93863262
Pd      10.77732055      13.75088726      13.85779697
Pd      13.64146636       0.06900652      14.07189269
Pd       0.02148084       2.72039543      13.87487962
Pd       2.68983689       2.79231214      13.95589164
Pd       5.32393789       2.65378184      13.84546851
Pd       8.35770924       2.72252737      13.99935431
Pd      11.09041990       2.65823603      14.12798459
Pd       0.02963860       5.43892078      13.96181226
Pd       2.72619215       5.53848883      13.97295103
Pd       5.44395405       5.63837301      14.11578155
Pd       8.27526148       5.52974406      14.02888390
Pd      11.01453526       5.38071379      13.93324218
Pd       0.05295095       8.26544055      13.93211854
Pd       2.74942919       8.25808433      13.93343915
Pd       5.45118748       8.37598620      13.90139247
Pd       8.26714787       8.31072088      13.88662017
Pd      11.05863383       8.22164766      14.02547304
Pd      13.64231080      11.02350033      14.28141597
Pd       2.86374240      10.96941924      13.99801774
Pd       5.66062323      11.15462904      13.96717735
Pd       8.36338623      11.01692154      13.95209864
Pd      11.00421179      10.92395571      13.89156604
Pd      12.54497620       6.68965382      16.05065675
Pd       9.93735529       9.61576307      16.36723243
Pd       2.53630562      12.40585032      16.33561350
Pd       1.36681061       6.23549911      16.39853625
Pd      12.76787179       9.40580828      16.37302196
Pd       8.30392697       2.58450756      18.43706495
Pd       6.66800874       1.40359644      16.73012227
Pd       7.59188576      11.15060837      16.57179671
Pd       5.15549256      13.02506891      15.76772546
Pd      11.03231096      12.47156102      16.16448668
Pd       0.15193008       3.59576969      16.36289341
Pd       3.55656503       4.18462581      16.22179648
Pd      10.52312430       3.44239760      16.78368290
Pd       4.40443393      10.13071074      16.05221608
Pd       6.49444887       7.87463820      16.32532883
Pd       8.22703285      13.50237017      17.99290975
Pd       9.74249342       6.81247337      16.03200612
Pd       7.15179727       4.10883463      16.47910820
Pd       1.55297975       1.26603069      15.84736150
Pd       3.95264974       7.05011250      16.03402392
O        8.84461550       4.24159682      17.51562411
O       11.45310348      10.65116357      17.05519458
O       12.89044294      12.58876287      15.47584150
O       11.06863709       3.12480927      18.87673712
O       10.01924751       2.87330360      19.61140156
O        3.56899319       8.64102703      17.02834924
O        6.76014890       1.57309428      14.78118644
O        3.15084837       1.26010748      17.07633674
O        9.24195768      12.19073918      17.05128174
O        1.52587595      10.96729297      15.52021345
O        3.71434051      13.73583755      17.21675549
O        1.80903014       4.44072860      17.03941792
O        6.93249850       6.02424709      15.62267839
O        6.20277147       9.75699416      16.88712910
O        5.38106924       3.94391387      15.49729288
O       12.16849814       2.71017562      15.97681572
O       11.06277334       5.38123513      16.05505302
O        0.36413679       7.96287516      15.98069541
O        7.00026719       1.10694908      18.70795303
O        8.50241173       8.31187279      15.96352085
