115
Lattice="13.75323 0.0 0.0 0.0 13.75323 0.0 0.0 0.0 23.89" Properties=species:S:1:pos:R:3 input=/mnt/d/download/trae-research-code/ssw/PdO.xyz system=pdo pbc_mode=slab fixed_bottom_fraction=0.35 pbc="T T F"
Pd       0.00000000       0.00000000      10.00000000
Pd       2.75064538       0.00000000      10.00000000
Pd       5.50129076       0.00000000      10.00000000
Pd       8.25193614       0.00000000      10.00000000
Pd      11.00258152       0.00000000      10.00000000
Pd       0.00000000       2.75064538      10.00000000
Pd       2.75064538       2.75064538      10.00000000
Pd       5.50129076       2.75064538      10.00000000
Pd       8.25193614       2.75064538      10.00000000
Pd      11.00258152       2.75064538      10.00000000
Pd       0.00000000       5.50129076      10.00000000
Pd       2.75064538       5.50129076      10.00000000
Pd       5.50129076       5.50129076      10.00000000
Pd       8.25193614       5.50129076      10.00000000
Pd      11.00258152       5.50129076      10.00000000
Pd       0.00000000       8.25193614      10.00000000
Pd       2.75064538       8.25193614      10.00000000
Pd       5.50129076       8.25193614      10.00000000
Pd       8.25193614       8.25193614      10.00000000
Pd      11.00258152       8.25193614      10.00000000
Pd       0.00000000      11.00258152      10.00000000
Pd       2.75064538      11.00258152      10.00000000
Pd       5.50129076      11.00258152      10.00000000
Pd       8.25193614      11.00258152      10.00000000
Pd      11.00258152      11.00258152      10.00000000
Pd       1.41046587       1.40287723      12.03838318
Pd       4.12731473       1.37927258      12.03731214
Pd       5.47827221       0.01018742      14.11167735
Pd       9.57512057       1.39592898      11.89594876
Pd      12.38684272       1.37174114      11.92044161
Pd       1.37293732       4.13142496      11.96680301
Pd       6.82137914       4.08710739      11.99204954
Pd       6.81531636       1.37636079      12.01986774
Pd       9.56728621       4.13975942      11.94281254
Pd      12.36578195       4.13265160      11.93417299
Pd       1.37110082       6.89256210      11.94010419
Pd       4.13935064       6.87026939      11.96482277
Pd       6.87097415       6.85831372      11.95140951
Pd       9.64205429       6.82915781      11.94515418
Pd      12.39111484       6.85622887      11.94896407
Pd       1.39948425       9.64193353      11.96320113
Pd       4.11777592       9.66324146      11.95099537
Pd       6.89476706       9.64088005      11.95142944
Pd       9.64982872       9.59779534      11.89439304
Pd      12.42487279       9.60955999      11.94161946
Pd       1.38494364      12.41661949      11.97465367
Pd       4.14182817      12.40525939      12.00363906
Pd       6.86816975      12.39901143      11.97280504
Pd       9.63028672      12.36702810      11.91406436
Pd      12.39845235      12.36797961      11.93304303
Pd       2.65953166       0.00681117      14.02545364
Pd       8.22921758      13.59933112      13.94372409
Pd       9.80501547       1.80395578      16.82972946
Pd      10.95833687       0.05025147      13.85359779
Pd      12.56625928       1.93938186      16.14796168
Pd       0.17949123       2.83682335      14.02160565
Pd       4.10393583       4.10293435      11.94685535
Pd       8.58811623       4.20606398      16.10338734
Pd       8.27084407       2.79280366      13.92493494
Pd      11.06034769       2.78775765      13.98402112
Pd      13.63990691       5.56416394      13.99235142
Pd       2.65557912       5.51034581      13.92119296
Pd       5.41822931       5.40772641      14.03048768
Pd       8.14432702       5.52679551      13.91540340
Pd      10.89332700       5.46763234      14.08125337
Pd       0.06404963      11.04243235      13.94862332
Pd       0.05449031       8.30339418      13.95803270
Pd       2.81700381       8.28389994      13.98524684
Pd       8.19881420       8.24108176      13.86664682
Pd      11.03108031       8.25722765      14.02117209
Pd      13.72668858       0.02797445      13.99642461
Pd       2.75999570      10.97130857      13.96744441
Pd       5.47330763       8.11807474      14.01327766
Pd       8.29182724      10.98087500      13.88486657
Pd      11.05748594      11.03918710      13.90082376
Pd      12.58915487       7.10869742      16.27467542
Pd       9.52576525       9.88872220      16.01785648
Pd       3.88714430       0.89964505      16.34287893
Pd       1.53411594       7.18763365      16.11233368
Pd      12.62684604       9.84049114      16.07449036
Pd       8.07924858       3.10899567      18.87748566
Pd       6.82308899       1.47495249      16.22591087
Pd       7.52632454      11.78825083      16.49456468
Pd       5.56163152      10.89207884      13.93294105
Pd      10.66756703      13.11670843      16.51180170
Pd       0.79747592       4.51532744      16.31493782
Pd       5.57619484       3.98590710      16.56082203
Pd      11.05510010       4.24429232      17.48873752
Pd       4.23306978      11.98685719      16.02180597
Pd       5.95356562       8.88065067      16.61222710
Pd       8.02794891       0.22773719      18.34049239
Pd       9.48439984       7.10985405      16.11185217
Pd       7.51465690       6.01546862      17.96324847
Pd       2.99175484       2.77426992      14.19245901
Pd       4.36958976       6.38242858      16.52685846
O        9.09321931       4.66723803      18.13633479
O       11.09047533      11.10634075      16.01007041
O       12.27920844       0.09143138      15.55320588
O       10.80458988       2.47029568      18.50054602
O        9.89684257       2.50283739      19.56516851
O        5.89220948       7.14689472      17.50356544
O        8.56278251       1.28513927      15.33684764
O        4.72674700       3.69458272      14.82026407
O        9.03526906      12.57154641      17.45683460
O        2.67163170      13.17579399      15.99474800
O        5.19505785       2.05526548      17.09922347
O        2.60820756       5.51322403      15.98107028
O        8.85387802       7.35865874      17.95963591
O        5.85268598      10.79775356      16.01112641
O        6.46045252       4.32704887      18.29831617
O       12.93571831       3.63471569      17.02656563
O       11.06976138       5.83991395      16.20827190
O        0.18807443       8.51022371      16.67030351
O        7.18876946       1.50992204      19.45969033
O        8.07939834       8.56145209      15.88536602
