54
Lattice="21.66 0.0 0.0 0.0 5.10531 0.0 0.0 0.0 22.55266" Properties=species:S:1:pos:R:3 trial_index=4 seed_entry_id=3 discovered_entry_id=4 energy=-200.32028198242188 status=accepted pbc="T T F"
Cu       0.00000000       0.00000000      10.00000000
Cu       3.61000000       0.00000000      10.00000000
Cu       7.22000000       0.00000000      10.00000000
Cu      10.83000000       0.00000000      10.00000000
Cu      14.44000000       0.00000000      10.00000000
Cu      18.05000000       0.00000000      10.00000000
Cu       0.00000000       2.55265548      10.00000000
Cu       3.61000000       2.55265548      10.00000000
Cu       7.22000000       2.55265548      10.00000000
Cu      10.83000000       2.55265548      10.00000000
Cu      14.44000000       2.55265548      10.00000000
Cu      18.05000000       2.55265548      10.00000000
Cu       1.80500000       1.27632774      11.27632774
Cu       5.41500000       1.27632774      11.27632774
Cu       9.02500000       1.27632774      11.27632774
Cu      12.63500000       1.27632774      11.27632774
Cu      16.24500000       1.27632774      11.27632774
Cu      19.85500000       1.27632774      11.27632774
Cu       1.80500000       3.82898322      11.27632774
Cu       5.41500000       3.82898322      11.27632774
Cu       9.02500000       3.82898322      11.27632774
Cu      12.63500000       3.82898322      11.27632774
Cu      16.24500000       3.82898322      11.27632774
Cu      19.85500000       3.82898322      11.27632774
Cu      21.62755249       5.06020066      12.58099621
Cu       3.62559416       5.05218759      12.51400204
Cu       5.98311749       0.10625873      13.44665740
Cu      10.82069484       5.07335028      12.47403247
Cu      14.42354705       5.07663192      12.54615737
Cu      18.02461638       0.03824067      12.43178209
Cu      21.60472273       2.49655994      12.62013183
Cu       3.62366092       2.49722068      12.48109744
Cu       7.22259997       2.81347215      12.49967024
Cu      10.80722585       2.51354630      12.60547698
Cu      13.56768007       2.61343500      13.54321358
Cu      18.00417216       2.55340731      12.49163995
Cu       5.16516013       2.92735722      14.45884278
Cu       8.64811315       1.26429805      13.77053882
Cu      19.70017986       1.20897761      13.83749748
Cu       9.19893324       3.82228385      13.87059165
Cu       7.66114610       4.69829525      15.54389987
Cu       1.92161659       1.20434558      14.07792960
Cu       1.90224927       3.76414072      14.09436154
Cu      10.79713068       0.72851300      14.81291980
Cu      19.76163223       3.65349110      13.81964122
Cu      16.65910478       4.17403024      14.13364864
O        5.89829977       4.45895293      15.26496168
O        0.61416255       5.04613927      14.41178723
O       18.41149962       4.88594751      14.44876041
O       12.12438603       1.43626027      13.69457184
O        9.50080051       4.78572579      15.58361066
O        6.75390330       1.81171896      14.06941385
O       14.85962209       3.86835887      13.94763257
O        3.22991882       2.49141993      14.44424712
