54
Lattice="21.66 0.0 0.0 0.0 5.10531 0.0 0.0 0.0 22.55266" Properties=species:S:1:pos:R:3 trial_index=6 seed_entry_id=5 discovered_entry_id=6 energy=-201.01177978515625 status=accepted pbc="T T F"
Cu       0.00000000       0.00000000      10.00000000
Cu       3.61000000       0.00000000      10.00000000
Cu       7.22000000       0.00000000      10.00000000
Cu      10.83000000       0.00000000      10.00000000
Cu      14.44000000       0.00000000      10.00000000
Cu      18.05000000       0.00000000      10.00000000
Cu       0.00000000       2.55265548      10.00000000
Cu       3.61000000       2.55265548      10.00000000
Cu       7.22000000       2.55265548      10.00000000
Cu      10.83000000       2.55265548      10.00000000
Cu      14.44000000       2.55265548      10.00000000
Cu      18.05000000       2.55265548      10.00000000
Cu       1.80500000       1.27632774      11.27632774
Cu       5.41500000       1.27632774      11.27632774
Cu       9.02500000       1.27632774      11.27632774
Cu      12.63500000       1.27632774      11.27632774
Cu      16.24500000       1.27632774      11.27632774
Cu      19.85500000       1.27632774      11.27632774
Cu       1.80500000       3.82898322      11.27632774
Cu       5.41500000       3.82898322      11.27632774
Cu       9.02500000       3.82898322      11.27632774
Cu      12.63500000       3.82898322      11.27632774
Cu      16.24500000       3.82898322      11.27632774
Cu      19.85500000       3.82898322      11.27632774
Cu      21.60995324       5.06158409      12.51717771
Cu       3.61462287       5.00877434      12.58644529
Cu       5.86401946       0.34864595      13.78011675
Cu      10.81964666       5.05544400      12.55758907
Cu      14.43031686       5.08710274      12.49073954
Cu      18.02610069       0.03736643      12.42827845
Cu      21.57687929       2.50087312      12.58497303
Cu       3.59282198       2.45557000      12.53988583
Cu       8.22458568       2.77266945      13.37899436
Cu      10.80694196       2.49859360      12.55022867
Cu      13.08682574       3.29274037      13.81724930
Cu      18.01001187       2.56602851      12.50121076
Cu       4.42297946       3.51361326      14.68798330
Cu       8.37012082       0.12857597      13.27602699
Cu      19.69716076       1.22435813      13.84120811
Cu      10.16917031       3.76675872      14.78463719
Cu       7.58202442       4.56928508      15.51831404
Cu       1.67428497       1.15170267      14.02842272
Cu       1.62940577       3.73054055      14.14717253
Cu      10.24727346       1.16908547      14.87091054
Cu      19.76731916       3.68112253      13.82901891
Cu      16.53613844       4.34738416      14.13020242
O        5.76677895       4.48728612      15.38419915
O        0.32400288       5.01932469      14.44114160
O       18.36046119       4.90066478      14.41964366
O       11.51865621       2.48106125      14.46505116
O        9.31831034       5.01350177      15.87397661
O        6.89439638       1.52749433      12.75467719
O       14.70289844       4.15674074      14.09804721
O        2.94095242       2.43658384      14.50270639
