60
Properties=species:S:1:pos:R:3 trial_index=18 seed_entry_id=10 discovered_entry_id=11 energy=-493.93841552734375 status=accepted pbc="F F F"
C        1.24514928      -3.83938883      -0.51134023
C        1.96523269      -0.08006502      -2.33680064
C        2.07006313       1.79687386       1.91496592
C        2.48041583      -3.14930618      -0.44425101
C       -3.33261565       1.16445647       1.37165755
C        2.91065098       0.47977191      -0.12964418
C       -0.63358515      -3.07615596       0.92396466
C        2.66756780      -1.38820541       1.58046985
C       -2.69105324       0.79089343      -3.21678215
C        0.34283489      -0.96537697       0.29002093
C       -1.62375593       2.09560872       2.58922423
C        1.09253064       3.56014162      -0.07870145
C        0.15415745      -3.00516663      -1.21860731
C       -1.14150834       3.94961342      -0.47222520
C        0.00719813       3.01542943      -2.25530848
C        0.36280650      -0.16485145       1.26841718
C        1.01223994       2.04388823      -2.51858933
C       -1.83788948      -3.00039289       0.16563760
C       -2.45880425      -1.88170437       0.81569092
C        2.68713278       0.77768857      -1.50901553
C       -3.51536396       1.13625397      -0.92947621
C       -1.68861358      -1.77503077      -1.97196587
C       -0.65762239      -2.49400838       2.22212868
C       -3.57246025       0.33500114       0.26681906
C       -1.78859289      -1.57353360       2.05498374
C       -0.26949249       0.30521153       2.36411256
C       -2.72676690      -0.95019557      -1.46025512
C        1.78970878      -2.52906976       1.84297551
C       -1.35909334      -2.93076450      -1.19792077
C        2.53601935       1.68614071       0.57741434
C       -0.28003297      -0.06092664      -3.29743662
C        1.86804299      -1.43504964      -1.96638908
C       -1.61249139      -0.24290149       2.51869437
C       -2.09250014       3.23493225      -1.26271294
C        2.55923971       0.78747242       2.74965802
C       -0.49060276      -1.33096682      -2.67856606
C        0.64888723      -2.32310176       2.59794913
C       -2.45629564       0.90827895       2.44617440
C       -0.25693361       1.71664414       2.67552794
C        0.80542616       2.49194909       2.11339795
C        1.88146497      -3.47056797       0.76325801
C        0.12539940      -2.23864223       0.04184602
C        2.11342851       2.66283806      -0.38436491
C        2.87592732      -0.91863109       0.23459361
C        2.67111262      -1.82577594      -0.85289323
C       -3.18589488       0.28967231      -2.01100591
C       -1.39763861       0.66651336      -3.75592592
C        0.89378474       0.65004065      -2.94389986
C        0.39894530       3.46060011       1.16753035
C       -3.06487123       2.45116383      -0.58208613
C        0.13998120       3.83702604      -1.09038100
C        2.16895620       2.08877930      -1.66813003
C       -1.40644007       2.87901052      -2.48565874
C       -3.06136285       2.48129932       0.85601755
C        0.63699295      -2.07503276      -2.21539875
C        2.80743613      -0.42790287       2.58775631
C       -1.88307737       1.93692191      -3.39254687
C       -0.99138540       3.74071428       0.92037870
C       -3.04816180      -0.94931955      -0.05058208
C       -1.99690369       3.04235071       1.60260017
