60
Properties=species:S:1:pos:R:3 trial_index=13 seed_entry_id=0 discovered_entry_id=6 energy=-476.6785888671875 status=accepted pbc="F F F"
C        1.67547363      -3.45444250      -0.88341823
C        1.97937850       0.01310237      -2.38738857
C        1.94262239       1.87112717       1.97793135
C        2.49214844      -2.31407520      -1.16471553
C       -2.89899658       1.06479929       2.37789491
C        2.45072332       0.63317486      -0.01062457
C       -0.10144259      -3.77088753       0.99902814
C        2.54106464      -1.62536955       2.29466393
C       -2.51440395       0.92464871      -3.22353291
C       -0.09402000      -1.56851904       0.05887463
C       -1.14792223       1.65062733       3.74160802
C        1.07633767       3.55178883      -0.11541151
C        0.36231893      -3.37569400      -1.37512874
C       -1.06519597       3.97787980      -0.83295886
C        0.39897212       3.32506648      -2.51947360
C        0.13288984      -0.48336056       1.01408156
C        1.38571392       2.29020827      -2.62258114
C       -2.99080333      -3.00692147       0.17162129
C       -3.28685860      -1.87023500       0.66962659
C        2.66996415       0.81531384      -1.42471416
C       -3.13572521       1.84384021      -2.33802705
C       -1.92697115      -1.76753607      -1.65022031
C       -0.05850946      -2.59512216       2.94377905
C       -2.28893435       0.25723004       1.36387332
C       -0.85604077      -1.76922485       3.48654551
C       -0.80173381       0.19197298       1.90070200
C       -2.57372773      -0.57852824      -1.13161712
C        2.04876020      -2.63568787       1.54576087
C       -1.89008198      -2.84871003      -0.70354169
C        2.54773235       1.88582577       0.66703143
C       -0.76079339      -0.69951739      -3.56612887
C        1.51826125      -1.35736583      -1.93040223
C       -1.32915951      -0.53053520       3.16031543
C       -1.85014015       3.71969699      -2.02213721
C        2.32272766       0.81075153       2.76641288
C       -0.89134549      -1.74653153      -2.66306348
C        0.71972126      -3.18529175       1.92966367
C       -2.13598799       0.65484765       3.59474398
C       -0.37599147       1.53556818       2.61230246
C        0.59325307       2.39653947       1.99339523
C        2.32377815      -2.85223571       0.16545027
C       -0.49453720      -3.00214015      -0.20204002
C        2.25365606       2.84517209      -0.33935745
C        1.26923560      -0.07401948       0.21343032
C        0.80043907      -0.93836651      -0.75851067
C       -2.89148560       0.47791604      -1.97384263
C       -0.00624645       0.44789339      -3.70880008
C        1.17153122       0.94301978      -3.12898561
C        0.19652439       3.28798816       0.97076856
C       -3.12066160       3.13722326      -2.00002614
C        0.28542015       3.89886120      -1.21119835
C        2.37015069       2.19602157      -1.61569077
C       -0.89261277       3.43786078      -3.06877783
C       -2.98109612       2.38400596       1.93145712
C        0.37074495      -2.33579605      -2.36048730
C        2.60868178      -0.44337234       2.78462662
C       -1.40976945       0.50954517      -3.92843481
C       -1.17852249       3.59438601       0.55834934
C       -2.84870827      -0.58191448       0.34810976
C       -2.31287824       3.19863428       1.25418831
