60
Properties=species:S:1:pos:R:3 trial_index=8 seed_entry_id=3 discovered_entry_id=8 energy=-493.1502380371094 status=accepted pbc="F F F"
C        1.46876999      -0.65096320       3.89467296
C       -0.83082055       2.29880675       1.75026723
C       -3.17230241      -0.91070710       0.40853707
C        0.09384526      -0.77493396       3.75626741
C        0.68422371      -0.90198968      -3.56647512
C       -2.76710836       0.72389957       2.03375493
C        1.40965687      -1.26672819       1.49827718
C       -0.51406336      -3.27235806       2.54716338
C        0.46906101       2.97023177      -1.49901554
C        0.13568964      -0.82069538       1.38801484
C       -1.33953538      -1.68465581      -2.79624270
C       -3.63154188       1.36293090      -1.31007984
C        2.18508367       0.22402120       3.01487597
C       -2.40912613       1.72909291      -3.24076693
C       -2.00310051       3.17230497      -1.48319559
C       -0.79080319      -1.72219070       0.73787060
C       -1.96249364       3.24204911      -0.08498834
C        3.29087408      -1.49352410      -0.01630858
C        2.74930364      -1.38128208      -1.31925784
C       -2.24387054       2.01632421       1.82331086
C        1.17799066       1.30092713      -3.12181843
C        2.76108826       0.97225648       0.24017075
C        2.36312706      -2.61989269       0.32815554
C        1.68445188      -0.02431527      -3.07833137
C        1.77659495      -2.38508314      -1.00790079
C       -0.74226293      -2.13993503      -0.64647928
C        2.37543475       1.06685379      -1.13891556
C        0.87293383      -3.06588391       2.76718049
C        3.24358469      -0.28380846       0.75339593
C       -3.56724893       0.35885863       0.90280428
C        2.25082669       3.22902580       0.98743202
C        0.07016816       1.33197634       2.35833501
C        0.43519112      -2.32453383      -1.45847739
C       -1.05906370       2.17287758      -3.33852653
C       -2.20297851      -1.44004054       1.41746705
C        2.28654243       1.89317357       1.27177886
C        1.62428604      -2.63215839       1.57817438
C        0.07410430      -1.91349767      -2.77974084
C       -1.85191504      -1.80738712      -1.48264987
C       -2.93686180      -1.00783731      -1.00750628
C        0.86586467      -1.93736955       3.68334372
C        2.54763765      -0.56808700       1.93926679
C       -3.69425721       1.51042617       0.08083916
C       -1.93855711      -0.33426274       2.33684149
C       -0.50134940      -0.09410276       2.55214335
C        1.45909978       1.98804728      -1.90041636
C        1.61045898       4.13612840       0.39919347
C       -0.70020089       3.20036256       0.58833304
C       -3.28590122       0.08888100      -1.86117422
C       -0.06528373       1.29999343      -3.79232844
C       -3.01397264       2.37667077      -2.10770682
C       -2.90601948       2.53531930       0.67765348
C       -0.78204053       2.98679956      -2.20068153
C       -0.39274310      -0.05786214      -4.07419908
C        1.50542972       1.32373553       2.38560899
C       -1.35372605      -2.64447592       1.79351539
C        0.43910112       3.58973168      -0.19325389
C       -2.62266301       0.32502267      -3.11914643
C        2.48351101      -0.14237354      -1.92613576
C       -1.63676154      -0.56021163      -3.59118678
