60
Properties=species:S:1:pos:R:3 trial_index=13 seed_entry_id=12 discovered_entry_id=13 energy=-488.7112121582031 status=accepted pbc="F F F"
C        0.27990140       2.89263154       3.01075929
C        1.18068665       2.89964487      -0.06749055
C       -2.93604178       0.62415996      -0.25962233
C       -0.87360191       3.33765077       2.83613302
C        0.01659409      -3.14020026      -1.58236145
C       -1.40669068       2.12178394       0.80814606
C       -0.67835262       0.17302000       2.60643764
C       -3.09802062      -0.04902897       3.93680623
C        2.19927068       0.59329197      -2.27643143
C       -0.02246306       0.91739995      -0.56276479
C       -2.16930949      -2.45564512      -1.64646130
C       -2.05697984       1.39897662      -2.73294093
C        1.14439743       1.86680164       2.71491528
C       -0.83785216      -0.10255218      -3.98863289
C        0.29190215       1.75380916      -3.26108005
C       -2.46946193      -0.13217330       0.84789928
C        0.36138695       2.77304158      -2.30945324
C        1.18217805      -1.80293535       2.40134939
C        1.10372747      -2.60387984       1.22593508
C       -0.01960527       2.08186065       0.17231273
C        1.76074584      -1.78210786      -2.20154815
C        2.50453906      -0.16521860       1.08369832
C       -0.19758697      -2.06026127       2.75491467
C        1.30373080      -2.69853795      -1.21740067
C       -0.31486916      -2.71687625       1.47485368
C       -2.33393762      -1.49357339       0.44072582
C        2.43210190      -0.98299619      -0.11451462
C       -2.31362684      -1.06859626       3.89777253
C        1.61614952      -0.48227014       2.18329187
C       -2.37345638       1.88626840      -0.35349460
C        3.45021931       2.08252185       0.23072266
C        2.33717418       2.88802209       0.77691250
C       -1.31617631      -2.52135567       0.50727222
C        0.50636688      -0.47079431      -3.77588773
C       -2.62261035       1.70020627       2.59095312
C        3.04219283       1.13470266       1.24129752
C       -1.09793074      -1.06316396       3.21912682
C       -1.16366863      -3.04065058      -0.81457962
C       -2.89066783      -1.54481817      -0.88778549
C       -3.14500409      -0.24648265      -1.35656862
C       -1.70846032       0.77810396       1.73198759
C        0.70739234       0.52040787       2.62222546
C       -1.95484680       2.32000608      -1.65996107
C       -1.92485278       2.84964436       2.06082100
C       -0.38571331      -0.08674661      -1.22658243
C        2.38173976      -0.65998037      -1.58436554
C        3.80045979       1.92937514      -1.04111865
C        1.51861688       2.76797461      -1.46217049
C       -2.65326095       0.11500936      -2.60394555
C        0.79955002      -1.71011077      -3.23158543
C       -0.97097676       1.25808762      -3.61014827
C       -0.83965100       3.12279916      -1.73081406
C        1.19551791       0.66775086      -3.26676730
C       -0.27167678      -2.55651045      -2.87274609
C        2.29607168       2.10536791       1.95777189
C       -3.40835073       1.18007038       3.56689904
C        2.60187437       1.85987785      -1.74094891
C       -1.89152934      -0.82123856      -3.38947106
C        1.74893490      -2.25079994       0.03539050
C       -1.60612249      -2.08978173      -2.88235924
