60
Properties=species:S:1:pos:R:3 trial_index=1 seed_entry_id=0 discovered_entry_id=1 energy=-477.70172119140625 status=accepted pbc="F F F"
C        0.36259318      -2.26658269      -3.40103262
C        2.51875686       0.28694866      -1.63193555
C        1.38229385      -1.60223155       2.55363036
C        1.50398425      -1.93441180      -2.63002788
C       -3.19826834       0.84017588       2.13554427
C        2.18163385      -1.26744934       0.31444347
C       -1.60337660      -1.83359198      -1.90666270
C        0.32288979      -3.86222101       0.03120214
C       -0.86100141       3.77656101      -1.58592434
C       -0.85585938      -1.01258057      -1.04975493
C       -2.07557808      -0.74422490       3.62661025
C        2.26677702       1.08203588       2.52473900
C       -0.42889528      -1.12307822      -3.69512125
C        1.03431687       3.01010172       2.39959583
C        2.73370797       2.89410691       0.84161124
C       -0.51152477      -1.16661304       0.38492208
C        3.17702940       1.86002617      -0.04934247
C       -3.88323530      -0.16446824      -2.63086939
C       -4.12507473       0.21514602      -1.44844522
C        3.00912097      -0.38117784      -0.44680905
C       -1.03239660       3.92605758      -0.18471692
C       -1.79420620       1.05725826      -2.57422235
C       -2.48463813      -3.08959965      -0.23632297
C       -3.17852345       0.36644291       0.79425720
C       -3.03830507      -2.34550564       0.60063500
C       -1.29772104      -1.10624057       1.50016974
C       -2.25081792       1.65320197      -1.32376912
C       -0.16220384      -3.58327109      -1.19922821
C       -2.53377308      -0.05948214      -3.06283507
C        2.45441866      -1.12657610       1.71126076
C       -0.02250936       2.54334456      -3.46047910
C        1.37474515      -0.41601452      -2.36205050
C       -2.80337344      -1.08023543       1.29382153
C        0.80619719       4.04509526       1.40623019
C        0.94490978      -2.86735938       2.22859637
C       -0.47413217       1.25534359      -3.17154938
C       -1.54914427      -3.12188276      -1.30385699
C       -3.09769866      -0.50944292       2.73655921
C       -0.92240255      -0.86892929       2.84347368
C        0.49666723      -0.56391864       3.03339621
C        0.62689984      -2.99483221      -2.25317974
C       -1.73194525      -1.23621111      -3.19413941
C        3.04005166       0.16694773       1.81996012
C        0.84777338      -1.05549132      -0.01351160
C        0.45682599      -0.58603577      -1.26541032
C       -1.67433500       2.86852313      -0.95403322
C        0.43782499       3.73851683      -4.00384682
C        2.75474961       1.63548971      -1.38416207
C        0.96602706       0.77409691       3.02893718
C       -0.45647973       4.35033307       0.92164952
C        2.26797229       2.41626511       2.10168747
C        3.44065840       0.57540504       0.51017065
C        1.97245907       4.03771405       0.56180029
C       -2.37747557       1.82009900       2.64813525
C        0.29031917       0.04922213      -3.37137133
C        0.66251523      -3.66215046       1.25366152
C       -0.21039046       3.77401358      -2.77087324
C        0.17049816       2.01531862       2.97524211
C       -3.26546566       0.86186050      -0.54283019
C       -1.20698273       2.09726192       2.96141807
