60
Properties=species:S:1:pos:R:3 trial_index=2 seed_entry_id=1 discovered_entry_id=2 energy=-478.5207824707031 status=accepted pbc="F F F"
C        3.83570364      -0.40182066      -1.23404712
C        1.49893583       2.57406299      -0.70646929
C       -0.03070795       0.66398286       3.31741574
C        3.50118917       0.74618890      -0.46866987
C       -3.05252188      -2.26626699       0.27133545
C        1.36214660       1.61884404       1.59411499
C        1.91203841      -2.00497810      -0.94381359
C        2.78262930      -1.26545642       2.27830259
C       -1.52302867       1.75577493      -2.37734197
C        1.06300901      -0.99807142      -0.47564930
C       -2.46332096      -2.09772969       2.63693177
C       -1.68527185       2.63235185       2.16879926
C        2.98448418      -0.59413992      -2.34859552
C       -3.50511832       2.43847826       0.77697050
C       -1.88722261       3.87339091      -0.00527267
C        0.39005069      -0.78274490       0.83061949
C       -0.47197039       3.70297791      -0.11032237
C        0.33672611      -3.11857220      -3.17338513
C       -0.75981158      -3.14712651      -2.54164629
C        1.43549253       2.76220614       0.71736895
C       -2.84510334       1.33385848      -2.11479078
C        0.26351446      -0.70692719      -3.08709186
C        1.43695488      -3.40504047       0.75812644
C       -1.88087086      -2.36108783      -0.53171506
C        0.19801696      -3.55852512       0.81506057
C       -0.61923572      -1.48341682       1.42753698
C       -1.06418387      -0.79836743      -2.53431410
C        3.19469409      -1.54851907       1.02177481
C        1.05854193      -1.89519301      -3.10962619
C        0.48837266       1.86629593       2.69769646
C        0.49563665       1.79837839      -3.49132040
C        2.20441531       1.29623053      -1.16322820
C       -1.03569547      -2.77839385       0.75142296
C       -3.78645155       2.76472884      -0.60422226
C        0.93131490      -0.27283345       3.61796953
C        0.99981286       0.52585568      -3.21951356
C        2.46275864      -2.56167639       0.24864814
C       -2.42529871      -2.84417676       1.47921733
C       -1.49814012      -1.09585881       2.46718910
C       -1.37005272       0.29968947       2.89543607
C        3.71445235      -0.53641071       0.13351148
C        2.24839878      -1.78857677      -2.31241612
C       -0.33053124       2.93372763       2.24914239
C        1.01315775       0.49228397       0.86112888
C        1.34195072       0.36364880      -0.48237088
C       -1.78373924       0.41368207      -2.45286210
C        0.10549982       2.99259213      -3.87157363
C        0.25295537       3.09204015      -1.19828617
C       -2.20314969       1.31768506       2.35611116
C       -3.98487631       1.75665580      -1.54735701
C       -2.43751852       3.25428771       1.16534958
C        0.26562048       3.48580209       1.06742202
C       -2.89037469       3.83794392      -0.97748176
C       -3.83240805      -1.14423914       0.45327279
C        2.21953098       0.57978966      -2.50093913
C        2.00020483      -0.87197275       3.21911806
C       -0.38411504       2.63325078      -2.45538152
C       -3.37623126       1.17803299       1.46523682
C       -1.43560861      -2.10526489      -1.87487192
C       -3.86698426      -0.00961832       0.96116622
