60
Properties=species:S:1:pos:R:3 trial_index=10 seed_entry_id=9 discovered_entry_id=10 energy=-489.3649597167969 status=accepted pbc="F F F"
C       -0.49947366       1.67916461       3.69939784
C       -2.54631215       1.86811827       0.76017222
C       -1.38576307      -2.05748590       0.70942793
C       -1.14298847       0.88349114       2.58985183
C        2.24116091      -0.84334400      -2.64790650
C       -2.90541724      -0.43158287       1.71256165
C        1.24241826       0.39005931       2.44274353
C        0.84756731      -2.01744625       3.76705238
C       -0.85091837       2.22162812      -2.36133919
C       -0.63508819      -0.31877947      -0.41420217
C        1.07868151      -2.66313997      -1.80835019
C       -2.87182682      -1.62752986      -1.65817194
C        0.33182331       2.47237082       2.90633454
C       -1.64018340      -1.00927552      -3.55443091
C       -2.74024464       0.65940445      -2.51262082
C       -0.21473808      -1.02228926       0.86390133
C       -3.22226533       1.11765258      -1.30475934
C        3.26819853       1.27901412       1.04793074
C        3.33455055       0.77055402      -0.27847233
C       -3.30467479       0.67111469       0.92640183
C        1.15894866       1.11757270      -3.10791704
C        1.44859169       2.79202619       0.23907492
C        3.25692131      -0.07151035       1.61594112
C        2.29600921       0.55347004      -2.48323352
C        3.15786694      -0.54624374       0.26406201
C        0.95153999      -1.90689997       0.33569776
C        1.56303089       2.28067867      -1.11290720
C        1.98051558      -1.67141763       3.29206733
C        2.21098210       2.18951350       1.29859164
C       -2.67936837      -1.50713149       0.79116278
C       -0.30413059       4.54206984      -0.09651748
C       -1.48843125       2.02467472       1.66639909
C        2.20654928      -1.46847452      -0.21740771
C       -0.93110178       0.20128839      -3.86148528
C       -1.56064273      -1.27168395       3.62319736
C        0.32885684       3.56695898       0.70084822
C        2.31470100      -0.52685618       2.57420684
C        2.15920017      -1.77469349      -1.59027923
C        0.36236615      -2.80682567      -0.59651305
C       -1.05451454      -2.83781038      -0.46299268
C       -0.00669088       0.01537749       1.96817880
C        1.47810382       1.80119685       2.43244127
C       -3.30620962      -1.15347724      -0.44160893
C       -2.09182088      -0.25343182       2.85022930
C       -0.49441456      -0.64242369      -1.61697418
C        0.58337804       2.11666991      -2.26932963
C       -1.15269788       4.17497013      -0.93689813
C       -2.58546702       2.20303423      -0.65728518
C       -1.71898754      -2.45464419      -1.65395765
C        0.47049611       0.11567110      -3.81256649
C       -2.80431677      -0.71788528      -2.76929652
C       -3.65496852       0.19583147      -0.35290618
C       -1.55667660       1.21278110      -3.07798032
C        1.15637126      -1.12213512      -3.54446781
C       -0.38743487       2.91952554       1.75657267
C       -0.45704785      -1.82911674       3.90993385
C       -1.64387422       2.96946893      -1.40835274
C       -0.83988849      -1.73609798      -2.57879032
C        2.60027729       1.30938648      -1.33737344
C        0.42880005      -2.22783501      -2.99559764
