60
Properties=species:S:1:pos:R:3 source_escape=runs/20260728-block-krylov-fixed-starter-escape/output/cases/bootstrap_quenched-seed42-deep_refinement/escape.xyz pbc="F F F"
C        2.68991061      -1.42276665      -2.74777307
C       -0.01541202       1.30208918      -3.06324170
C        1.34233621       3.13498357       1.11411671
C        2.37929972      -0.07445924      -3.09734729
C       -0.79093513       0.31005179       3.37321899
C        1.28107590       2.43949036      -1.16832588
C        2.98980142      -2.54023430      -0.46275742
C        3.90836540       0.93765890      -0.02596371
C       -3.73300820      -1.59357408      -1.39064408
C        1.25005805      -0.84986370      -0.54286991
C        1.37065634       1.03086927       3.92240652
C       -1.38488460       2.69063200       0.47812238
C        1.55944139      -2.20514119      -2.39137068
C       -3.72783261       1.78040102       0.80465761
C       -3.03046859       2.34545771      -1.35283743
C        1.28072321       0.21420838       0.39242402
C       -1.89888146       2.39537501      -2.25490501
C        0.35563071      -2.85004433       1.14494909
C        0.00984246      -1.74522967       1.85402976
C        0.39080769       2.48335041      -2.30561876
C       -4.36154119      -0.78825681      -0.42196923
C       -0.82768586      -2.13729815      -0.82086468
C        3.24536148      -1.46352549       1.40561019
C       -0.61602333       0.49679827       1.81894067
C        2.44501905      -1.37489742       2.35745128
C        0.92516029       0.33494600       1.76303903
C       -1.66218642      -1.37251893       0.09896456
C        3.87457964      -0.24142839      -0.75377665
C        0.35563411      -2.69808596      -0.21655841
C        0.86356562       3.38460780      -0.18535715
C       -2.02617164      -2.24118641      -2.97396793
C        0.82495581       0.01470111      -2.90810596
C        1.05810919      -0.93021214       2.58937625
C       -4.73996516       1.42736782      -0.22050018
C        2.46145535       2.33096774       1.54297153
C       -0.84733187      -1.95904911      -2.27894571
C        3.65486650      -1.45257276       0.03452656
C        0.54631591      -0.09226206       3.80596065
C        1.46187393       1.56228445       2.54066548
C        0.44348338       2.53765739       2.01049003
C        3.37077267      -0.41276088      -2.08917441
C        1.60443011      -2.25665092      -0.91095671
C       -0.55808605       3.43325325      -0.41104626
C        1.23302055       1.14393273      -0.69167833
C        0.90951154       0.06619964      -1.48682610
C       -2.98859907      -1.18933216      -0.30573043
C       -3.04115532      -2.69225505      -3.81119199
C       -1.40134562       1.40977931      -3.11732533
C       -0.75153692       1.97242016       1.52376895
C       -5.26860953       0.13663427      -0.10936041
C       -2.68460967       2.36792648       0.03116082
C       -0.76611891       3.10534609      -1.78069555
C       -4.35952164       1.96411853      -1.46540962
C       -2.01335437       0.59657637       3.87783535
C        0.39367202      -1.52169230      -2.88286473
C        3.48049703       1.77928137       0.80486888
C       -3.39126664      -2.14658013      -2.57926319
C       -3.63272840       1.36420279       2.09876020
C       -1.00863712      -0.89099168       1.30442952
C       -3.03540515       1.01035179       3.16743960
