60
Properties=species:S:1:pos:R:3 trial_index=4 seed_entry_id=2 discovered_entry_id=3 energy=-493.1684265136719 status=accepted pbc="F F F"
C        1.52976254      -3.90072908      -1.40222769
C        2.25670133       0.61839746      -1.99757001
C        2.16944652       2.74070843       2.06451975
C        1.56726838      -5.07596179      -0.90258848
C       -3.08025722       0.57143380       1.28617570
C        3.19728214       1.48135275       0.11166713
C       -1.21437295      -3.74087883      -0.25365117
C        2.67592621       0.08128154       2.06902783
C       -3.11862002       0.73560170      -3.06092921
C        1.15575643      -1.16677800       0.82083922
C       -1.49080298       1.81357748       2.41728335
C        0.83790022       4.05735256      -0.02674366
C        0.81180627      -2.76701902      -1.49105666
C       -1.40981294       3.92762369      -0.53980940
C        0.03979603       3.36806610      -2.23420062
C        1.33459648      -0.38624411       2.03819855
C        1.22420717       2.64348593      -2.41479814
C       -1.01522167      -1.72890594       1.69582001
C       -3.12722453      -1.99100385       1.08666089
C        2.96528418       1.61831572      -1.29314172
C       -3.48311854       1.07055997      -1.69642852
C       -1.20748509      -1.54364905      -1.63223214
C       -1.81230646      -3.85216345       0.98969022
C       -3.53721101      -0.66643725       0.81665588
C       -2.10353583      -2.68643150       1.76083210
C        0.20340107       0.25761620       2.58123227
C       -2.59395397      -1.34275400      -1.47587642
C       -0.17454840      -5.99868615       0.58196429
C       -0.07808092      -1.81502766       0.62591595
C        2.70263744       2.69116616       0.73408181
C       -0.09805910       0.57737206      -2.85491559
C        2.07213090      -0.67701741      -1.46687482
C       -1.04244559      -0.45709759       2.37958844
C       -2.08832619       2.99341003      -1.38292858
C        2.87883400       2.09446126       3.08343104
C       -0.18975843      -0.79946341      -2.34860102
C       -1.00060290      -4.89867010       0.53689408
C       -2.06331646       0.51244985       2.28019750
C       -0.08090701       1.70200218       2.59862745
C        0.73041017       2.78753104       2.09503660
C        0.91076361      -5.89829681      -0.12226776
C       -0.47885488      -2.53216422      -0.70267260
C        2.09596378       3.49578445      -0.28907475
C        3.02530663       0.20106169       0.68399972
C        2.22759980      -0.77036137      -0.05688070
C       -3.25251338      -0.22998422      -2.04984174
C       -1.17621807       1.47415282      -3.25975668
C        1.15300372       1.23169054      -2.65647892
C        0.12496104       3.67525860       1.15065636
C       -3.01690692       2.06365261      -0.80477601
C       -0.11084072       4.18038850      -1.08231200
C        2.32349660       2.87103112      -1.54076880
C       -1.19899830       2.68698642      -2.47156240
C       -2.95358950       1.84923938       0.61613393
C        1.06257872      -1.47356586      -2.06250885
C        3.17926268       0.86536276       3.11697813
C       -2.28805553       1.11706392      -4.03303566
C       -1.26853920       3.63404243       0.83681920
C       -3.23393243      -1.55280495      -0.22135511
C       -2.05587601       2.63745153       1.41542938
