60
Properties=species:S:1:pos:R:3 trial_index=8 seed_entry_id=3 discovered_entry_id=5 energy=-488.4349670410156 status=accepted pbc="F F F"
C        1.51024281      -3.55841291      -1.61815114
C        1.96466104      -0.01481322      -1.92609823
C        2.08595495       2.08102019       2.01862604
C        2.75589847      -3.29799691      -1.47326320
C       -3.24071563       0.62320492       1.07032513
C        3.12141545       0.71364246       0.15282117
C        1.33818311      -3.61967310       0.99327151
C        2.35944039      -0.32705819       2.30538521
C       -3.61357551       1.07885335      -3.26718301
C        0.58130190      -1.24574100       1.16358761
C       -1.67077327       1.78693285       2.31278344
C        1.04884891       3.57759870      -0.11891932
C        0.31215270      -3.06633744      -1.10486936
C       -1.17173977       3.72996002      -0.71893181
C        0.25155186       2.98761553      -2.37737752
C        0.93414627      -0.58216393       2.33271800
C        1.37020697       2.13428502      -2.51676859
C       -1.50851062      -1.87669969       2.03891849
C       -3.92360934      -1.90064680       0.50399878
C        2.86294905       0.84620478      -1.24698811
C       -3.87798969       1.45346950      -1.90846075
C       -2.17633541      -0.73684705      -2.76235061
C       -2.63053918      -2.68293159       2.10017044
C       -3.72442331      -0.51245077       0.44371030
C       -3.72765187      -2.87771304       1.47931621
C       -0.16781436       0.14203512       2.83108625
C       -3.40490027      -0.98585693      -2.04575050
C        3.28880521      -2.09623888       0.58569997
C       -0.45471047      -2.16694752       1.10833152
C        2.66674781       1.95435188       0.72260037
C       -0.13571281       0.28171986      -3.09154263
C        1.26035910      -0.97678764      -1.17956085
C       -1.45831873      -0.50576071       2.55388734
C       -1.95059877       2.89178006      -1.57388054
C        2.59233493       1.10442024       2.87235251
C       -0.72362281      -0.94158475      -2.58301952
C        2.45290826      -3.09183676       1.19782708
C       -2.35217856       0.53496615       2.20745180
C       -0.30238335       1.57732119       2.63944273
C        0.69320899       2.44812298       2.06165322
C        3.55283170      -2.62725177      -0.67420542
C        0.12671462      -3.27922264       0.32693675
C        2.21631795       2.82786096      -0.31836873
C        2.81398234      -0.59053903       0.84006307
C        1.52393041      -0.99667402       0.17933398
C       -4.28340115       0.16737555      -2.32773428
C       -1.17312345       1.23621785      -3.34140665
C        1.14404892       0.74884525      -2.79794572
C        0.25266637       3.35792405       1.04997397
C       -3.04405105       2.13817810      -1.00524231
C        0.16625963       3.79481384      -1.21568629
C        2.42364851       2.17902542      -1.55127942
C       -1.07787246       2.47840348      -2.65938454
C       -3.00133871       1.90363245       0.42111753
C        0.11533856      -1.70484257      -1.68406830
C        3.17840242       0.11653896       3.50767390
C       -2.34268161       0.49530201      -3.47328893
C       -1.12519291       3.47965287       0.67438182
C       -3.61587383      -1.30131275      -0.70989426
C       -2.06641420       2.61434130       1.24164922
