60
Properties=species:S:1:pos:R:3 trial_index=6 seed_entry_id=3 discovered_entry_id=4 energy=-490.87054443359375 status=accepted pbc="F F F"
C        0.09271763      -3.12175801      -1.51081550
C        2.87743615       0.61546653      -1.54087468
C        1.34873341       3.70241911       1.57977102
C       -0.52008481      -2.59705637      -2.73304670
C       -3.21131550       0.08059796       1.36616530
C        2.99588619       2.27712633       0.29887089
C       -0.51495178      -3.58090353       0.66276008
C        2.47838273       1.39508568       2.54072792
C       -2.33476526      -1.55078633      -2.92623569
C        1.65599391      -0.62215329       1.69546038
C       -1.91701207       1.85205504       1.87738740
C        0.13374747       3.79345333      -0.97363729
C        1.20527305      -2.70970455      -0.60982234
C       -1.81523644       2.68045211      -1.59100307
C        0.02590017       2.25236293      -2.87957493
C        1.36589999       0.50782190       2.56379977
C        1.43334021       2.05892294      -2.76030514
C       -0.52379060      -1.46799116       2.42585426
C       -2.68081910      -2.28660081       1.84266797
C        3.03365082       1.93121461      -1.08030293
C       -2.98505801      -1.03481384      -1.77719637
C       -0.51837018      -0.86705026      -0.83610421
C       -1.16628848      -3.76530367       1.83686487
C       -3.51703066      -1.27560128       1.43198604
C       -1.45696477      -2.55907435       2.47187260
C        0.02841786       0.93869852       2.69360143
C       -1.32805307      -1.21209512       0.03883344
C       -2.20773588      -3.29399740      -1.32696684
C        0.70845637      -1.70084506       1.66985602
C        2.11911865       3.42674910       0.40996325
C        0.92161335      -0.20328451      -2.73854906
C        2.76924833      -0.48153959      -0.59339083
C       -0.96920869      -0.11431658       2.64391284
C       -2.04637469       1.34738741      -2.09666301
C        1.98172573       3.65750138       2.83838075
C        0.66758449      -0.76294487      -1.47697108
C       -0.94702200      -3.60278485      -0.71260374
C       -2.18879544       0.51506211       2.25058914
C       -0.57461313       2.18634572       2.19359296
C       -0.01458808       3.27286201       1.43385716
C       -1.90781309      -2.91626781      -2.64317539
C        0.66830758      -2.76797655       0.71164695
C        1.52695164       3.65732689      -0.88368810
C        3.01702201       1.21526852       1.22909660
C        2.67367586      -0.12618955       0.78126142
C       -2.95862133      -2.18747801      -0.87063678
C       -0.33346160      -0.06867554      -3.40824735
C        1.95684693       0.72936214      -2.66442193
C       -0.65522165       3.58637352       0.18964590
C       -2.83445928       0.37512037      -1.30184185
C       -0.57895766       3.21897193      -2.06666958
C        2.16565651       2.80704967      -1.80319345
C       -0.92754298       1.15449377      -3.03031278
C       -3.07450857       0.83791940       0.10773892
C        1.78889278      -1.46558852      -0.96430395
C        2.51365073       2.58852517       3.25453440
C       -0.99384507      -1.29725354      -3.26873531
C       -1.88084664       2.97922195      -0.22615043
C       -2.54175955      -1.81666510       0.42476444
C       -2.48346200       2.05633832       0.60032332
