60
Properties=species:S:1:pos:R:3 trial_index=12 seed_entry_id=3 discovered_entry_id=7 energy=-489.39251708984375 status=accepted pbc="F F F"
C        0.69678120      -3.54675039      -2.05667259
C        2.80320913       0.43118093      -1.61926187
C        1.71324454       3.33987774       1.81924291
C       -0.33733760      -3.12462984      -2.62583172
C       -3.16469934       0.11730189       1.21545987
C        3.16668364       1.89738680       0.33575564
C       -0.70025344      -3.68451568       0.06779218
C        2.63486277       0.84957393       2.51846384
C       -2.97654217      -0.46857746      -3.08683160
C        1.62971496      -1.01337393       1.51878082
C       -1.71392488       1.76360335       2.02361185
C        0.42739850       3.81674681      -0.64780881
C        1.47205147      -3.07359373      -0.91561358
C       -1.68354799       3.11942885      -1.26762662
C        0.03400107       2.41731642      -2.62593142
C        1.45401015       0.05184962       2.49374489
C        1.40114035       2.05150687      -2.59288395
C       -0.65363072      -1.73318700       2.11790294
C       -2.96322753      -1.88478652       1.67303060
C        3.11983016       1.68566326      -1.07462563
C       -3.25469464      -0.22680097      -1.76193433
C       -0.23796780      -1.46208925      -0.64349469
C       -1.77575719      -3.53284912       0.91587687
C       -3.94825843      -0.97897598       2.01543233
C       -1.80306308      -2.60676432       1.98727401
C        0.16222481       0.58437893       2.66469227
C       -1.42652952      -0.92354297      -0.30999122
C       -2.40563207      -2.62344162      -1.53723271
C        0.57391948      -1.96701876       1.37045024
C        2.40954624       3.10745934       0.59333792
C        0.63987610      -0.22452483      -2.64652875
C        2.80984806      -0.74774366      -0.77715942
C       -0.92434501      -0.36210318       2.47387446
C       -2.11520250       1.89197527      -1.85376712
C        2.37371561       3.10860563       3.04109720
C        0.71620404      -1.13571120      -1.61962272
C       -1.93643682      -3.50141610      -0.50774205
C       -2.06386387       0.41720588       2.17472461
C       -0.33343922       1.94090176       2.33336140
C        0.30550478       3.06385457       1.69719891
C       -1.49884040      -2.35235853      -2.61846183
C        0.37888130      -2.69867906       0.05876249
C        1.79578242       3.51214088      -0.64579890
C        3.11838828       0.76140595       1.17596307
C        2.67719237      -0.51120940       0.62628803
C       -2.78639009      -1.33821370      -0.94545069
C       -0.70965485       0.08024232      -3.04797322
C        1.74291395       0.66819611      -2.58311873
C       -0.34178941       3.59821589       0.53240988
C       -3.04231416       1.07409592      -1.14530619
C       -0.38691560       3.45358010      -1.76169998
C        2.29138845       2.68590334      -1.67661047
C       -1.04885223       1.43867432      -2.72560341
C       -3.19287274       1.29731533       0.27200056
C        1.95406967      -1.75869010      -1.27527878
C        2.79972992       1.95687963       3.34172172
C       -1.66545172      -0.97901088      -3.16460222
C       -1.66896442       3.23753130       0.13734853
C       -2.60576566      -1.08788798       0.46615539
C       -2.37669932       2.29949494       0.89254032
