60
Properties=species:S:1:pos:R:3 trial_index=35 seed_entry_id=20 discovered_entry_id=22 energy=-493.084228515625 status=accepted pbc="F F F"
C        0.51871053      -3.79159735      -1.79033841
C        2.62080423       0.50354150      -1.19755300
C        1.68186393       2.95871825       2.44847971
C        0.47095965      -4.99348690      -2.10222031
C       -3.21993158       0.71029643       0.75430066
C        3.14123908       1.62458475       0.93953279
C       -1.68260129      -4.76523734       0.37601760
C        2.19128114       0.58972196       2.93763690
C       -2.23527805      -0.08681266      -4.15150054
C        1.02838033      -0.94247338       1.65866551
C       -1.98247063       2.10548812       2.10557246
C        0.87914040       4.11382916       0.00539625
C        0.24112689      -2.57889514      -1.02984230
C       -1.18963569       3.84973057      -0.99051776
C        0.61716664       3.20721232      -2.26179849
C        0.88258528       0.01523690       2.70588520
C        1.82352800       2.50394659      -2.09677868
C       -1.32656434      -1.47374864       1.99260930
C       -3.04109868      -1.87054848       0.58263832
C        3.20134424       1.58298064      -0.48281310
C       -2.97085158       0.78539274      -2.07328277
C       -0.70781409      -1.67103506      -1.98989344
C       -1.41706601      -3.49465089       0.77176225
C       -3.38601976      -0.56103677       0.19430381
C       -2.23490556      -2.50735191       1.53460494
C       -0.36912477       0.63980226       2.87030853
C       -2.09048889      -1.38449988      -1.93447988
C       -0.89622888      -6.55130024      -1.14445639
C       -0.10026192      -1.71160978       1.32867051
C        2.52239679       2.87643880       1.29852985
C        0.70775991       0.43606692      -2.81352254
C        2.20751794      -0.69974219      -0.54014730
C       -1.54403828      -0.14733582       2.46875451
C       -1.65613427       2.84842958      -1.88488879
C        2.10061520       2.10136265       3.45816174
C        0.45317428      -0.88334626      -2.31066848
C       -1.53969312      -5.87903030      -0.20166760
C       -2.51133303       0.77987381       1.99101256
C       -0.65427048       2.05459443       2.61785795
C        0.27522045       3.06498003       2.17434515
C        0.01118800      -6.27191916      -2.02878267
C       -0.27868499      -2.71229185       0.35169799
C        2.16827742       3.56379503       0.09371453
C        2.83944150       0.44499381       1.62996813
C        2.19546422      -0.62528725       0.89865477
C       -2.64646204      -0.30922837      -2.77153371
C       -0.29774067       1.26106744      -3.44167634
C        1.82281117       1.07948494      -2.23689800
C       -0.08668519       3.84205925       1.02830093
C       -2.69316669       1.91523712      -1.40145423
C        0.19618428       4.09698614      -1.24341611
C        2.67434224       2.81291148      -1.00037637
C       -0.53996246       2.50177235      -2.74776355
C       -2.98857017       1.93253596       0.03463130
C        1.27699203      -1.46923479      -1.29072343
C        2.66695258       1.21613608       4.22773156
C       -1.21208379       0.63570453      -4.27274966
C       -1.37241374       3.73408682       0.41048511
C       -2.83878658      -1.44872234      -0.72934716
C       -2.29430860       2.81624495       0.91737585
