60
Properties=species:S:1:pos:R:3 entry_id=25 rank=0 energy=-504.1820983886719 pbc="F F F"
C        0.61469287      -3.94335202      -0.06427881
C        1.78123986       0.58971178      -2.55666356
C        2.04732879       1.04749261       2.12232453
C        1.74385497      -3.13909668       0.16461159
C       -3.11485718       0.75700629       1.02766919
C        2.68564461       0.40258202      -0.16216623
C       -0.20839723      -3.84035074       1.11715705
C       -0.15377001      -1.38990260       3.69162309
C       -1.09274734       0.51527195      -3.04391162
C        2.13790561      -1.33048053       1.55755016
C       -1.40187540       1.06497331       2.58297610
C        1.48693757       3.57038158       0.91640041
C       -0.20951612      -3.75228000      -1.20009621
C       -0.73858141       4.00773102       0.42988769
C        0.71480333       4.15068391      -1.31772220
C        1.08303961      -0.65839128      -2.59524178
C        1.77494987       3.44894186      -1.94531126
C       -2.39920148      -2.35153370       1.00673938
C       -3.11582308      -2.11962419      -0.22927747
C        2.47627568       1.10129455      -1.42557175
C       -2.83402481       1.29084876      -1.23601755
C       -2.21049356      -2.05454390      -2.38193532
C       -0.18946321      -2.69000789       3.18311364
C       -3.44146531       0.37524395      -0.28257932
C       -1.34533805      -1.87842787       3.11790854
C       -0.29847913      -0.67520466      -3.01273087
C       -2.90257647      -0.83115362      -2.13731682
C        0.55391518      -3.27498243       2.15953692
C       -2.52386882      -2.91093796      -1.27856461
C        2.61912795       1.38480004       0.88288943
C        1.23161331       2.97686907      -3.17421047
C        1.32536306      -1.89984492      -1.89132212
C       -2.20413883      -1.40136793       2.09234413
C       -0.24985510       3.02938403      -3.05369153
C        1.79768340      -0.31861531       2.49451410
C       -0.85171498      -1.95170291      -2.73445199
C       -1.51600252      -3.47731319       0.71632145
C       -2.34131228       0.04795257       2.02523570
C       -0.06584864       0.93555405       3.06738175
C        0.95500907       1.83655997       2.58801843
C        1.69476049      -2.68215455       1.53354868
C       -1.55187278      -3.72483573      -0.70923660
C        2.39385107       2.67190745       0.30411813
C        2.47171293      -0.95625796       0.17772278
C        2.06866597      -2.04638257      -0.68934656
C       -2.36646033       0.47622733      -2.35947950
C       -0.29862962       1.63528610      -3.36333292
C        1.14489732       1.57004139      -3.37849192
C        0.65394876       3.05361651       1.97823688
C       -2.37978961       2.43677988      -0.47217419
C        0.61852888       4.31958865       0.06814955
C        2.41752075       2.51091391      -1.12349169
C       -0.53293503       3.69492639      -1.83498112
C       -2.62577469       2.09166838       0.90723610
C        0.15942438      -2.73695959      -2.10218716
C        0.61276667      -0.29330781       3.32264762
C       -1.41801516       3.46781859      -0.71934987
C       -0.71372194       3.31006122       1.67128663
C       -3.48491417      -0.90096291      -0.82886304
C       -1.68498860       2.32420380       1.92168969
60
Properties=species:S:1:pos:R:3 entry_id=24 rank=1 energy=-500.0892333984375 pbc="F F F"
C        0.58579749      -3.82617487       0.26005769
C        1.77212912       0.50349090      -2.50298620
C        2.10031512       1.07735930       2.13586059
C        1.76977942      -3.08951722       0.34604076
C       -3.20234809       0.80253096       1.10327982
C        2.76863113       0.40864184      -0.15439992
C       -0.21722140      -3.50553306       1.39808765
C       -0.04970466      -1.70363374       3.12448719
C       -1.09129405       0.39807706      -2.92791367
C        2.36606034      -1.25794664       1.57874909
C       -1.42595734       1.06510291       2.58273401
C        1.47080058       3.54080471       0.89750290
C       -0.22204918      -3.81851799      -0.90455458
C       -0.75084860       3.98264891       0.42097760
C        0.68708658       4.09211370      -1.34045765
C        1.06994662      -0.75253137      -2.48298145
C        1.74565439       3.38970437      -1.96883894
C       -2.47354712      -2.30171102       1.20116014
C       -3.12043678      -2.11062811      -0.05289365
C        2.49712823       1.07093492      -1.41601719
C       -2.86215031       1.25072383      -1.16740555
C       -2.20267785      -2.13804951      -2.18599744
C       -0.23817218      -1.93046605      -0.72696935
C       -3.49839873       0.37859501      -0.20055743
C       -1.41713854      -1.70756295       3.27830315
C       -0.30180339      -0.79141254      -2.88194386
C       -2.86985492      -0.90756878      -1.97372193
C        0.54035446      -2.72152194       2.28734400
C       -2.49480818      -2.92495649      -1.04398743
C        2.67166155       1.40229390       0.88715008
C        1.19407408       2.86974973      -3.17299855
C        1.35094777      -1.97160799      -1.76168255
C       -2.30535470      -1.32549751       2.28943365
C       -0.28282223       2.91349423      -3.03708109
C        1.90842501      -0.28361603       2.47669254
C       -0.86001916      -2.07287046      -2.60784782
C       -1.54082472      -3.35836572       0.97267718
C       -2.43983013       0.11874952       2.11538572
C       -0.06942640       0.82545703       2.97068221
C        0.94313272       1.78968865       2.56679574
C        1.78519439      -2.52484197       1.64635275
C       -1.56268462      -3.72631238      -0.41196813
C        2.39501032       2.66382755       0.28627001
C        2.62486353      -0.95635984       0.19578315
C        2.15651645      -2.08996098      -0.58998492
C       -2.34949801       0.38728775      -2.23793234
C       -0.31889655       1.51135483      -3.31070420
C        1.12029518       1.45591131      -3.33964778
C        0.64184545       3.01189736       1.96032776
C       -2.41322879       2.41456404      -0.43689546
C        0.60335274       4.28710302       0.04476291
C        2.40984050       2.48120210      -1.13786048
C       -0.55979010       3.61324016      -1.83590846
C       -2.67382352       2.11855855       0.94842107
C        0.16067018      -2.85433894      -1.92270883
C        0.61584528      -0.43289878       3.08564639
C       -1.43770003       3.42059591      -0.71178629
C       -0.71888162       3.29535489       1.66627711
C       -3.48584327      -0.92206797      -0.69414365
C       -1.69931297       2.33176002       1.93837464
60
Properties=species:S:1:pos:R:3 entry_id=26 rank=2 energy=-498.0066833496094 pbc="F F F"
C        0.31192972      -3.99706598       0.24226037
C        2.10886177       0.23924266      -2.20651647
C        1.74687611       1.04766935       2.59940604
C        1.37989074      -3.23555988       0.74333098
C       -2.18680185       1.26772230      -1.11160667
C        2.51212030       0.23605302       0.37154440
C       -0.84733029      -3.62300927       1.00822114
C       -1.19437017      -0.68724460       3.17388152
C        0.42166326      -0.41267445      -4.33556841
C        1.49666230      -1.31327339       2.02862651
C       -1.20060139       2.17965424       4.35953839
C        1.05449442       3.34811101       1.19854599
C       -0.02991586      -3.98489758      -1.13304751
C       -1.13796702       4.12468530       1.38990941
C       -0.21332660       3.14824082      -0.84333906
C        1.79092191      -1.13683105      -2.42079571
C        1.02874913       2.79025464      -1.50774285
C       -2.47456646      -1.93182904      -0.17367964
C       -2.66478866      -1.89338614      -1.59707602
C        2.40864860       0.83976305      -0.94751468
C       -1.38997430       0.92669675      -3.32343925
C       -1.24198543      -2.56350374      -3.32031181
C       -1.31315422      -1.97926525       2.64700259
C       -2.36900711       0.53312540      -2.35698976
C       -2.03063170      -0.95468320       2.03670300
C        0.92410394      -1.46492620      -3.49767028
C       -1.77775516      -1.28344265      -3.63309087
C       -0.43355045      -2.94820611       2.17953198
C       -2.00282235      -3.01442994      -2.19844053
C        2.33423117       1.28431955       1.34187641
C        0.73533752       2.15672120      -2.74441216
C        1.71410201      -2.24127125      -1.46497217
C       -2.42705719      -0.70648431       0.64320470
C       -0.66187803       1.98890228      -2.77541338
C        1.15492945      -0.22236171       2.86842788
C        0.16270516      -2.61867972      -3.17176258
C       -1.84984227      -3.21142891       0.09619449
C       -2.37022669       0.54110946       0.03216460
C       -0.11501237       1.43501614       3.99305990
C        0.97295756       2.05040368       3.25075886
C        0.94465878      -2.61921628       1.97743393
C       -1.44280936      -3.77660080      -1.18130863
C        2.03519059       2.49445703       0.66209468
C        2.19578368      -1.08538404       0.76703338
C        1.99774665      -2.24437105      -0.07212481
C       -0.97390386      -0.19973236      -4.07793533
C        1.29708513       0.64012269      -4.51804868
C        1.61017730       1.13926062      -3.26566633
C        0.66713908       3.23259318       2.57098135
C       -3.08656444       4.46530651       2.44113458
C       -0.11092953       3.70602557       0.45054186
C        2.05385744       2.22410266      -0.73480870
C       -1.24264508       2.38923761      -1.50820614
C       -2.87138558       3.97523607       3.63208246
C        0.73903700      -3.17032590      -1.98502732
C       -0.06216943       0.02454616       3.59784297
C       -2.45046682       4.58473172       1.27730271
C       -0.64952409       3.73184503       2.67509931
C       -2.59755591      -0.83805937      -2.53155670
C       -1.57828991       3.34365374       3.71629164
60
Properties=species:S:1:pos:R:3 entry_id=16 rank=3 energy=-497.01251220703125 pbc="F F F"
C        0.70487332      -3.52714259      -0.05820216
C        0.96253730       0.67094302      -2.61239100
C        2.32089750       1.15046801       1.64968991
C        2.08330388      -3.22757978      -0.38383916
C       -3.67866140       1.42363342       2.65776989
C        2.61437273       0.47420356      -0.71772643
C        0.12104690      -2.69759883       0.92209128
C        4.27716960      -1.98170170       2.20267712
C       -1.85197807       0.31489033      -2.33973809
C        2.02876315      -0.98972417       1.07682522
C       -1.31575193       1.25265943       2.85896282
C        1.15358480       3.38132365       0.32839119
C       -0.15869713      -3.85083781      -1.16521985
C       -1.14338251       3.56806579       0.13012344
C        0.22648044       4.13120713      -1.86267222
C        0.42400785      -0.61470778      -2.65231592
C        0.84977753       2.95779441      -2.34644779
C       -1.27945772      -2.50066363       1.19521671
C       -2.40833879      -2.80968593       0.40891308
C        2.14140570       1.06963053      -1.93270803
C       -3.16726679       0.59503646      -0.08911215
C       -2.47264030      -2.49293116      -1.84361806
C       -0.10690816      -0.75484114       2.26652503
C       -3.25156606      -0.51038250       0.85893181
C       -1.37827749      -1.36573711       2.06686397
C       -0.99430389      -0.75813824      -2.73562395
C       -3.18829023      -1.42592711      -1.24929264
C        3.92769622      -2.97960971       1.39725597
C       -2.27522872      -3.54527926      -0.83364906
C        2.62503768       1.49224359       0.28354308
C       -0.84888654       4.67257804      -2.59755292
C        0.97719918      -1.84355691      -2.12510926
C       -2.56259855      -0.58480350       2.10374682
C       -1.92290349       4.01109182      -2.64618498
C        2.81742715      -0.15250381       1.98483581
C       -1.29172628      -2.12977797      -2.47502085
C        0.83207704      -1.58390713       1.52331971
C       -2.58414851       0.55528429       2.92389686
C       -0.02931300       0.65891322       2.57702098
C        1.01163760       1.58165902       2.08260610
C        3.11116361      -3.36992760       0.51559043
C       -1.35253502      -4.52924798      -0.99376854
C        2.18505510       2.70584153      -0.32175380
C        2.38212575      -0.87422243      -0.31613943
C        2.00409608      -1.97660907      -1.15378429
C       -2.89637390      -0.02981977      -1.40884707
C       -1.34146582       1.66317149      -2.48803379
C        0.07185728       1.81686740      -2.70121648
C        0.57827472       2.81536665       1.50526157
C       -2.97474845       1.95117945       0.29109420
C        0.09237716       3.96716620      -0.46698185
C        2.03985588       2.48038798      -1.71501907
C       -2.11534093       2.78260247      -1.98063721
C       -3.04064475       2.22901912       1.70888460
C       -0.09021548      -2.78369367      -2.11059587
C        3.92594220      -0.78320506       2.53254058
C       -2.20959369       2.87618450      -0.52939423
C       -0.79323779       3.14652473       1.45447902
C       -3.28411591      -1.71524812       0.12448258
C       -1.69559032       2.43297154       2.20067538
60
Properties=species:S:1:pos:R:3 entry_id=21 rank=4 energy=-495.4715576171875 pbc="F F F"
C        1.12030799      -3.44987083      -0.01509858
C        1.09152479       0.67329668      -2.80318333
C        2.16942672       1.52061989       1.27182011
C        2.33545996      -2.74047258      -0.14554481
C       -2.95466863      -0.03747858       1.81056195
C        2.75719236       0.80916291      -1.01355205
C        0.31471010      -2.57451656       0.95369537
C        1.05597368      -1.43733020       3.00956189
C       -1.73242573       0.04609357      -2.44181827
C        2.86594723      -0.75827490       0.83371783
C       -0.99500233       0.83128027       2.69765658
C        0.80440865       3.63939021       0.02648045
C        0.44827448      -3.89150545      -1.16309307
C       -2.07011243       3.68219614       0.51146981
C       -0.48088782       3.52921675      -1.87457401
C        0.65241525      -0.60082080      -2.27723324
C        0.53214190       2.88495122      -2.62168767
C       -1.11765886      -2.65715911       1.53898942
C       -2.14453793      -2.96486024       0.60384453
C        2.19522780       1.32241115      -2.22427895
C       -3.31735056       0.27257710      -0.45962117
C       -1.91612318      -2.73022966      -1.68687461
C        0.37373710      -0.57587869      -0.77543563
C       -3.37949907      -0.67914387       0.64208666
C       -0.16802456      -1.70765483       3.58876212
C       -0.72891989      -0.95159731      -2.74328665
C       -2.82236125      -1.76959565      -1.25387203
C        1.41843367      -2.30249876       1.92671626
C       -1.72739155      -3.68001577      -0.62250569
C        2.49951455       1.83271956      -0.03884200
C       -0.90744215       5.39486383      -0.37255596
C        1.44362082      -1.86018688      -2.17580714
C       -1.23010767      -1.71658353       2.68597836
C       -1.95632279       5.05045873       0.25769507
C        2.38889243       0.20523155       1.72607594
C       -0.83393774      -2.33075768      -2.44236239
C        0.17031259      -1.40219064       0.13512904
C       -1.79210429      -0.38406341       2.56601871
C        0.41429700       0.96333706       2.66679345
C        0.98832842       2.03440499       1.87226542
C        2.53953132      -2.08579804       1.09852959
C       -0.72207827      -4.55445638      -0.81737711
C        1.86394022       2.94737412      -0.63513222
C        2.87361174      -0.54930479      -0.57627425
C        2.46980147      -1.81461958      -1.19478638
C       -2.80051917      -0.39895305      -1.61277534
C       -1.25994637       1.40690567      -2.48389774
C        0.05393537       1.61399300      -2.98900090
C        0.23354567       3.05975684       1.21977432
C       -3.04524946       1.54884600       0.08429507
C       -0.03495706       4.41363763      -0.84647114
C        1.78568762       2.69492532      -2.01670995
C       -1.56302382       2.59992617      -1.66757041
C       -2.86211976       1.35224581       1.48244018
C        0.44930704      -2.87994557      -2.14343877
C        1.37962095      -0.09903137       2.68707099
C       -2.39248288       2.67826028      -0.50147827
C       -1.17497924       3.04897459       1.46946270
C       -3.03368432      -1.94156791       0.14071884
C       -1.73936295       1.90919749       2.10816066
60
Properties=species:S:1:pos:R:3 entry_id=20 rank=5 energy=-494.997802734375 pbc="F F F"
C        1.08531551      -3.47106007       0.01084469
C        1.09499515       0.63585526      -2.81542907
C        2.23329075       1.50657645       1.31781589
C        2.30586096      -2.77140643      -0.12459712
C       -2.93007664       0.02678774       1.79230853
C        2.74125079       0.78015714      -0.98834958
C        0.28445602      -2.57801618       0.97181437
C        1.04163849      -1.44915976       3.02963221
C       -1.74029727       0.00313963      -2.51766573
C        2.85786373      -0.79414661       0.85126862
C       -0.96308439       0.86802594       2.70203629
C        0.80457708       3.59142540       0.07292501
C        0.41363784      -3.91721408      -1.13406391
C       -1.66543741       3.63006373       0.25997044
C       -0.52409569       3.44252642      -1.90824692
C        0.63872610      -0.64033557      -2.29658879
C        0.52604818       2.85603906      -2.63088451
C       -1.14831415      -2.63497928       1.56018680
C       -2.17512146      -2.93977195       0.62486091
C        2.17434313       1.29117153      -2.19542096
C       -3.29088169       0.30766718      -0.48281803
C       -1.93159835      -2.73452020      -1.66926757
C        0.32876902      -0.61566637      -0.80134770
C       -3.36378214      -0.62877395       0.63202622
C       -0.19080887      -1.69080454       3.60543968
C       -0.73510875      -1.00151466      -2.78216244
C       -2.82062478      -1.75483132      -1.24674362
C        1.38988078      -2.31490607       1.94393917
C       -1.75948409      -3.67144591      -0.59206526
C        2.51402665       1.81781750      -0.01110021
C       -1.73295957       6.29874911       0.02592806
C        1.42628522      -1.90135236      -2.16386035
C       -1.24987863      -1.68026993       2.69927744
C       -1.33985503       5.04676829      -0.11437285
C        2.40990521       0.17583495       1.75312669
C       -0.85057231      -2.37223464      -2.44462898
C        0.14291920      -1.41874552       0.13196079
C       -1.78203955      -0.33530416       2.56509013
C        0.45635884       0.96927723       2.72088384
C        1.08430134       2.04565335       1.96880567
C        2.51577523      -2.11736400       1.11856884
C       -0.76472592      -4.55956625      -0.77718578
C        1.85859936       2.93654939      -0.61271398
C        2.85594392      -0.58185780      -0.55720044
C        2.44507476      -1.84724359      -1.17517864
C       -2.78856027      -0.39299540      -1.63352355
C       -1.27287998       1.35667737      -2.62374826
C        0.06990996       1.57922613      -3.06191939
C        0.34905234       3.06161776       1.31994463
C       -3.00373028       1.59119026       0.04713055
C       -0.30440262       4.12379562      -0.67677496
C        1.76597098       2.66472441      -1.99603409
C       -1.60688085       2.52005719      -1.82427404
C       -2.82027847       1.41643966       1.45279785
C        0.42891652      -2.91948913      -2.12757231
C        1.39772142      -0.11639030       2.71794459
C       -2.31663389       2.64636303      -0.59867838
C       -1.05866970       3.04825188       1.44021116
C       -3.04012922      -1.90395642       0.14778732
C       -1.68464969       1.95678609       2.07951367
60
Properties=species:S:1:pos:R:3 entry_id=23 rank=6 energy=-494.8575744628906 pbc="F F F"
C        1.17389280      -3.31242998      -0.29971850
C        0.92158716       1.13171492      -2.58539852
C        2.14894796       1.50007106       1.66940172
C        2.35724436      -2.54140684      -0.35767712
C       -2.95062118      -0.26086824       1.97834152
C        2.58204765       1.11062387      -0.73488268
C        0.35433827      -2.59872776       0.78646156
C        1.09931384      -1.71710462       2.96286643
C       -1.86169911       0.32134462      -2.33520851
C        2.84130165      -0.68872612       0.86729218
C       -1.00687995       0.53757298       2.97214824
C        0.59291587       3.66388102       0.75364306
C        0.49981784      -3.63414579      -1.48429600
C       -1.70709421       3.43517018       0.81485318
C       -0.77540964       3.69912747      -1.25366510
C        0.53807340      -0.21834197      -2.20537470
C        0.32421277       3.47282138      -2.11307941
C       -1.06364877      -2.79719486       1.37963340
C       -2.09247470      -3.02134099       0.42420632
C        1.92448452       1.75898832      -1.84153662
C       -3.37590905       0.28588765      -0.23296453
C       -1.90777783      -2.50792207      -1.82784844
C        0.25486419      -0.42343383      -0.71380202
C       -3.38179523      -0.78631646       0.75197117
C       -0.11207368      -2.08450695       3.51702351
C       -0.81654798      -0.59386823      -2.72271712
C       -2.82461424      -1.63089650      -1.26531692
C        1.46653253      -2.41298872       1.76748189
C       -1.67054507      -3.56784076      -0.88459091
C        2.36911353       2.00022032       0.38401118
C        0.15740265       3.34365210      -3.59054645
C        1.39234156      -1.44887639      -2.24533345
C       -1.18566008      -1.99969067       2.63221462
C        0.23674715       3.93753626      -4.76344846
C        2.37602263       0.12663278       1.90304051
C       -0.86090998      -1.99907210      -2.56795464
C        0.14097905      -1.34226332       0.11652324
C       -1.77495657      -0.67241406       2.68102011
C        0.41145645       0.69334172       3.00158300
C        0.99659284       1.89418303       2.41984828
C        2.56460478      -2.05122286       0.95955548
C       -0.64039259      -4.37644892      -1.20092257
C        1.64741306       3.16242430      -0.03896387
C        2.78792678      -0.28712436      -0.49891254
C        2.42788090      -1.47739767      -1.27461095
C       -2.86264187      -0.22883125      -1.47402033
C       -1.45772593       1.70307631      -2.33518415
C       -0.15356287       2.02917023      -2.90552693
C        0.22170005       2.96339213       1.95590612
C       -3.12315293       1.50081933       0.44726281
C       -0.61760413       4.03568939       0.10341166
C        1.51004193       3.06701810      -1.44481641
C       -1.78555427       2.70119731      -1.37225266
C       -2.91445518       1.16626229       1.82613791
C        0.44959572      -2.51453673      -2.33752638
C        1.39356347      -0.34070427       2.82992297
C       -2.44846828       2.61551768      -0.09020911
C       -1.19713826       2.84699929       2.00928923
C       -3.00831967      -1.97034582       0.10074873
C       -1.78631136       1.66900549       2.50734268
60
Properties=species:S:1:pos:R:3 entry_id=31 rank=7 energy=-494.56561279296875 pbc="F F F"
C        0.23903699      -3.91632179       1.36793113
C        2.26244067      -1.04462006      -2.08027437
C        1.45130736       1.65625823       1.85178399
C        1.23751010      -3.01303543       1.76740257
C       -2.12620763       0.69369366      -1.85983681
C        2.38680696       0.09779854       0.17161681
C       -1.02765667      -3.33457667       1.74249186
C       -1.62996528       0.18162087       2.64817607
C        1.54045286      -1.64697077      -3.21905325
C        1.19759302      -0.74309719       2.18613719
C       -1.73300657       3.18616801       2.59721393
C        1.05659692       3.43583855      -0.23638255
C        0.16031179      -4.36490554       0.02598476
C       -1.31161016       3.90414785      -0.48615704
C       -0.35234655       2.53252137      -2.03235091
C        2.64003128      -2.38255760      -1.66123038
C        0.74414900       1.77276229      -2.57601368
C       -2.41398088      -2.18813870      -0.17075625
C       -2.20268248      -2.49386598      -1.55881999
C        2.24931385       0.14082116      -1.28747067
C       -0.37163201      -0.10160435      -3.58948677
C       -0.42275065      -3.57624742      -2.63716607
C       -1.69709065      -1.22291168       2.64795895
C       -1.59737784      -0.27539234      -2.79740779
C       -2.42516768      -0.53782705       1.68465131
C        1.93075683      -2.97045568      -2.79939410
C       -0.71584592      -2.36637023      -3.30185685
C       -0.78120117      -2.26620696       2.64401598
C       -1.46078413      -3.72295408      -1.66812267
C        2.13928444       1.43225056       0.65273840
C        0.14547141       6.97330523       3.01805654
C        2.16813781      -3.02355463      -0.48020312
C       -2.67132508      -0.81676146       0.25815496
C        0.42892603       0.97831640      -3.63672327
C        0.76347152       0.57147605       2.46512613
C        0.91331778      -3.83332902      -2.27224184
C       -1.84227870      -3.29094920       0.57810099
C       -2.63610768       0.17249568      -0.69235617
C       -0.57148273       2.50508129       2.66732491
C        0.69029894       2.84489602       2.02910756
C        0.62074308      -1.98536037       2.56574483
C       -1.18979099      -4.17198958      -0.38000039
C        1.85453261       2.27977687      -0.44050305
C        2.09440522      -0.98662066       1.05424515
C        2.07158232      -2.40778715       0.78588183
C        0.24170460      -1.42504840      -3.69377792
C        0.00759170       6.00069956       2.23387145
C       -0.11493920       4.99418207       1.30008449
C        0.82253727       3.90485865       1.11178179
C       -3.50701819       3.02914421      -0.19584501
C       -0.07859043       3.53736246      -1.05482494
C        1.78989196       1.48242856      -1.61953603
C       -1.71184712       2.10848172      -1.86466890
C       -3.58876854       3.48472112       1.00106707
C        1.17882724      -3.97795410      -0.87545663
C       -0.53218695       1.03860956       2.84707409
C       -2.33587474       3.04865946      -0.96604914
C       -1.36833569       4.52584892       0.76083579
C       -1.78951590      -1.67279987      -2.64161329
C       -2.36000197       3.92452044       1.65726857
60
Properties=species:S:1:pos:R:3 entry_id=22 rank=8 energy=-494.5006103515625 pbc="F F F"
C        1.21635075      -3.42844174      -0.04903569
C        1.03592833       0.73984762      -2.78247375
C        2.13190184       1.56930950       1.38726901
C        2.40131335      -2.66615579      -0.16288206
C       -2.96830571      -0.15848861       1.79568731
C        2.66192714       0.92367648      -0.93802538
C        0.36924463      -2.59696293       0.92842981
C        1.06341507      -1.48053987       3.01508159
C       -1.76571114      -0.04567958      -2.52405822
C        2.85590963      -0.68824735       0.86198432
C       -1.04739031       0.75650264       2.73090749
C        0.58576423       3.58032765       0.18125628
C        0.57185880      -3.88034287      -1.20710937
C       -1.74641944       3.43826992       0.27497899
C       -0.74352643       3.43572515      -1.82940317
C        0.63926812      -0.57162523      -2.29939545
C        0.34750039       2.92953613      -2.54088990
C       -1.05939951      -2.73356551       1.51134451
C       -2.06607315      -3.06888268       0.56572778
C        2.07189749       1.43472320      -2.13416979
C       -3.32992764       0.14528997      -0.47348962
C       -1.82295689      -2.80019917      -1.72287273
C        0.31371448      -0.60177581      -0.80839488
C       -3.36021731      -0.81448005       0.62036911
C       -0.15876970      -1.78988876       3.58068996
C       -0.71102679      -0.99287628      -2.80297370
C       -2.75660525      -1.87322760      -1.28060887
C        1.45683367      -2.30193301       1.91087738
C       -1.61010910      -3.75096565      -0.66570973
C        2.38773672       1.92469737       0.06370428
C       -0.67748463       5.62776639      -0.42157602
C        1.48859967      -1.79490290      -2.18753983
C       -1.21120240      -1.80462718       2.66699709
C       -0.69401532       6.87086548      -0.31691473
C        2.36518894       0.23651516       1.78870112
C       -0.76077974      -2.37426160      -2.49315136
C        0.17049800      -1.43020199       0.11010993
C       -1.80598033      -0.48254351       2.56075535
C        0.36995486       0.91566825       2.76598997
C        0.95972056       2.03468113       2.04924355
C        2.57517665      -2.03202335       1.09635323
C       -0.57494961      -4.58773214      -0.86944950
C        1.66237717       3.01816756      -0.51596657
C        2.84406193      -0.44160832      -0.54145918
C        2.49801900      -1.71146608      -1.19086098
C       -2.79069043      -0.50464556      -1.63980492
C       -1.35954720       1.32690965      -2.60904267
C       -0.02935541       1.63763947      -3.02392024
C        0.18617580       3.02263085       1.42189840
C       -3.10754463       1.42890283       0.08503030
C       -0.65078459       4.16729433      -0.52324170
C        1.59424161       2.77768540      -1.90637245
C       -1.74917282       2.43736699      -1.78872699
C       -2.92950186       1.24514455       1.48963382
C        0.54328901      -2.86288076      -2.17977251
C        1.36040452      -0.12604912       2.73934451
C       -2.42864171       2.49710856      -0.53974120
C       -1.22937415       2.94915438       1.50402474
C       -2.97481749      -2.06288087       0.10948398
C       -1.82214181       1.82858666       2.13279040
60
Properties=species:S:1:pos:R:3 entry_id=9 rank=9 energy=-494.3072509765625 pbc="F F F"
C        0.55290215      -3.80428446       0.02165853
C        0.93102586       0.50801268      -2.37239840
C        2.55399352       1.57592147       1.69381723
C        1.94447352      -3.60148437      -0.31997257
C       -3.46112423       1.49179842       2.78843520
C        2.82703076       0.73422648      -0.53392997
C        0.08613766      -2.79325475       0.89224126
C        4.04367024      -1.83888247       1.81635438
C       -1.90276613       0.19949414      -2.19039925
C        1.88095669      -1.39062104       0.09172314
C       -1.09490600       1.34053686       2.75026250
C        1.15851671       3.58211602       0.17417239
C       -0.36505625      -4.05598044      -1.04893805
C       -1.15190898       3.61774440       0.03495291
C        0.14518478       4.05208366      -2.04274098
C        0.36335990      -0.78745526      -2.44000654
C        0.77566015       2.83634683      -2.40286332
C       -1.25239078      -2.49095102       1.25716816
C       -2.46163040      -2.82083979       0.61440371
C        2.11793388       1.04258657      -1.75584216
C       -3.14543940       0.59351906       0.05174983
C       -2.61414268      -2.55362588      -1.63523994
C        0.09756598      -0.65272494       1.94735969
C       -3.19824921      -0.48073679       1.03237806
C       -1.18868839      -1.27134728       2.00805166
C       -1.05748402      -0.89013036      -2.54318334
C       -3.27627462      -1.45759934      -1.03788033
C        3.64560389      -2.90737212       1.22045616
C       -2.43639265      -3.59819326      -0.61587860
C        2.82529587       1.88104535       0.28603408
C       -0.95662518       4.48884784      -2.79951204
C        0.84669203      -2.09159304      -1.99907300
C       -2.37799802      -0.52005383       2.19290385
C       -2.03288445       3.83049514      -2.75954985
C        3.30470602       0.57386074       2.25889081
C       -1.42950291      -2.24356171      -2.28505677
C        0.89326480      -1.61890293       1.12005377
C       -2.33730775       0.64079435       2.97038668
C        0.16980050       0.78211869       2.33189666
C        1.15042220       1.81936621       1.95540525
C        3.01311931      -3.78856906       0.51922416
C       -1.59622939      -4.64188763      -0.82199881
C        2.23488174       2.95095917      -0.44728538
C        2.91178210      -0.46597730       0.20093666
C        1.82077789      -2.31269153      -1.00625011
C       -2.94261127      -0.08181150      -1.24743192
C       -1.38287835       1.52276088      -2.39880846
C        0.02854219       1.64527569      -2.59930588
C        0.64627109       3.01908968       1.37456236
C       -2.92743192       1.95947006       0.36827111
C        0.04398071       4.03477857      -0.63155231
C        1.98106712       2.46395911      -1.75392902
C       -2.17086264       2.66767176      -1.97481800
C       -2.92530135       2.29195304       1.77519734
C       -0.26446190      -2.96929609      -1.97191883
C        3.57743851      -0.54378247       1.52728833
C       -2.22226177       2.85722359      -0.53304179
C       -0.73798611       3.28260263       1.36186548
C       -3.31948442      -1.70662443       0.34353779
C       -1.55592751       2.53347947       2.16678718
60
Properties=species:S:1:pos:R:3 entry_id=27 rank=10 energy=-494.2459716796875 pbc="F F F"
C        0.27200069      -4.06437596       0.38554511
C        2.42444067      -0.15799185      -1.97626450
C        1.70349692       1.04009863       2.60674537
C        1.33803196      -3.30203423       0.88786695
C       -2.21796382       1.16155474      -1.14314144
C        2.52589620       0.15596616       0.44760691
C       -0.90023606      -3.66179851       1.11971842
C       -1.26163592      -0.65703152       3.19160571
C        0.46435142      -0.60972630      -4.16488415
C        1.44791123      -1.33747356       2.10243647
C       -1.23284784       2.24569388       4.33397586
C        1.01511629       3.27934102       1.12459199
C       -0.04355714      -4.09169355      -0.99469733
C       -1.15983384       4.10222181       1.32354092
C       -0.25679144       3.02016162      -0.87132740
C        1.99710613      -1.38865189      -2.32019666
C        0.98163073       2.67963962      -1.58474930
C       -2.50102669      -1.99538338      -0.13816728
C       -2.65394942      -1.98848794      -1.56755920
C        2.50298068       0.68185522      -0.92802356
C       -1.41270226       0.84441202      -3.35710178
C       -1.17219182      -2.68350805      -3.22664851
C       -1.38117044      -1.96574691       2.70447536
C       -2.36309979       0.42261665      -2.38674607
C       -2.09688534      -0.96220716       2.06017280
C        1.03594280      -1.62341375      -3.43654951
C       -1.70178946      -1.41313012      -3.58678777
C       -0.50099551      -2.95148464       2.27556205
C       -1.97597312      -3.12222238      -2.12706591
C        2.28879993       1.23816144       1.34096088
C        0.59339285       2.42190910      -2.96628465
C        1.78609935      -2.45703583      -1.34687624
C       -2.48570474      -0.75538062       0.65756030
C       -0.75428922       1.95902219      -2.82536406
C        1.09788584      -0.21840078       2.89900821
C        0.22577956      -2.75527169      -3.05152899
C       -1.88259573      -3.26981055       0.17657372
C       -2.43021735       0.47556001       0.01942224
C       -0.16248633       1.47571844       3.97599513
C        0.93690507       2.06310053       3.22654870
C        0.88222301      -2.63649480       2.08401360
C       -1.44898062      -3.86518215      -1.07836807
C        1.96688153       2.39657126       0.58546184
C        2.18710983      -1.15560350       0.85360744
C        2.00452252      -2.35922444       0.05156344
C       -0.86790251      -0.32150296      -4.02965175
C        1.31866335       2.59061072      -4.12511860
C        1.99224817       2.88340044      -5.14095956
C        0.65145901       3.22787876       2.51063764
C       -3.08169756       4.53350735       2.39136025
C       -0.15035766       3.62496181       0.39245466
C        2.01950687       2.09737336      -0.81166653
C       -1.28537115       2.27353248      -1.52962434
C       -2.85988493       4.07362511       3.59342367
C        0.76238352      -3.32197283      -1.85793579
C       -0.12661998       0.05657801       3.60741027
C       -2.46094586       4.59458747       1.21428515
C       -0.65726932       3.74947124       2.61346973
C       -2.55189800      -0.95537331      -2.52641257
C       -1.58284602       3.40914744       3.67605987
60
Properties=species:S:1:pos:R:3 entry_id=11 rank=11 energy=-493.8824462890625 pbc="F F F"
C       -0.35778979      -3.21520628       0.09671374
C       -0.70544507      -0.41574013      -3.09795914
C        2.57523413       0.95089362       0.05519147
C        8.85541838      -4.04064121       4.13710475
C       -2.43906503       2.73272809       2.95057415
C        1.38211444      -0.45564639      -1.63190925
C       -0.24128443      -2.33600595       1.16992490
C        6.23032977      -1.79436829       2.47797762
C       -3.11157039       0.00247552      -1.70707845
C        0.90833463      -1.40049186      -0.66219387
C       -0.24829320       2.14284344       2.29023545
C        1.12855759       2.88479316      -1.49637694
C       -1.50674439      -3.99027533      -0.20777230
C       -1.01623199       3.53637248      -0.89982614
C       -0.55785282       3.18991907      -3.31240434
C       -1.41900835      -1.52303345      -2.65474984
C       -0.35197193       1.81183409      -3.53202382
C       -1.23391439      -1.86037717       2.06585403
C       -2.62400265      -2.11467932       1.94288140
C        0.66782342      -0.16003807      -2.85005633
C       -3.20844738       1.13917743       0.66993188
C       -3.62927244      -2.36624266      -0.10309410
C        0.36499175      -0.14688643       1.71588851
C       -2.96407360       0.35700741       1.88199904
C       -0.82308881      -0.53482639       2.43599599
C       -2.70466665      -1.32314788      -2.08436401
C       -3.89917033      -1.05722107       0.34642953
C        7.11333117      -2.53171575       3.05044432
C       -3.07630618      -3.13359603       1.01078423
C        2.14705203       0.70949470      -1.30499592
C       -1.77259964       3.76835363      -3.74381359
C       -0.84287933      -2.69495626      -2.07290872
C       -1.80954016       0.45688684       2.71351419
C       -2.83408579       3.41359904      -3.16144657
C        3.49533815       0.19756760       0.72185495
C       -3.01980447      -2.51012633      -1.34264256
C        0.64167159      -1.23157206       0.77837362
C       -1.40959776       1.75802076       3.05433109
C        0.72191553       1.24887947       1.71677754
C        1.58208285       1.80183284       0.69504919
C        8.02089356      -3.16447711       3.72768991
C       -2.40180603      -4.29535966       0.77968802
C        1.67507306       1.77581638      -2.14439566
C        5.33020297      -1.14427541       1.86932374
C        0.15607034      -2.56738032      -1.06883469
C       -3.60463079       0.14826400      -0.36482105
C       -2.56530503       1.11529440      -2.46715620
C       -1.37639892       0.86325370      -3.23160333
C        1.05299187       2.86696974      -0.07748683
C       -2.75744237       2.47625305       0.46943982
C       -0.10697444       3.45605422      -2.00347453
C        0.89635688       1.20794672      -3.17861118
C       -2.88771267       2.48448337      -2.09939094
C       -2.19766952       3.13116888       1.62971565
C       -1.93502788      -3.41448679      -1.45443974
C        4.41492716      -0.44219751       1.27717082
C       -2.32806322       2.95853910      -0.84023447
C       -0.18920272       3.44867205       0.26491878
C       -3.42371908      -0.95850676       1.66488498
C       -0.75837811       3.17425793       1.48561129
60
Properties=species:S:1:pos:R:3 entry_id=14 rank=12 energy=-493.8800354003906 pbc="F F F"
C       -0.17580259      -3.20676009       0.03193187
C       -0.89133099      -0.38113171      -3.07808360
C        2.55533814       1.08445372      -0.16259816
C        9.05495810      -3.86138373       3.62872442
C       -2.28988283       2.60386180       3.13659024
C        1.30336324      -0.34896339      -1.77924854
C       -0.01737218      -2.33621801       1.10669843
C        6.31801083      -1.69284702       2.04609302
C       -3.19950016      -0.08842604      -1.50049129
C        0.94654014      -1.32699331      -0.79234582
C       -0.13290645       2.12368959       2.30040027
C        0.91556616       2.97743297      -1.56705830
C       -1.31123519      -4.02728716      -0.19611492
C       -1.20364629       3.52267492      -0.79764481
C       -0.91679628       3.23033861      -3.24395207
C       -1.51938888      -1.52522260      -2.59961750
C       -0.66927332       1.86566639      -3.50095606
C       -0.95804415      -1.91649696       2.08320731
C       -2.34079934      -2.23151089       2.06564074
C        0.48469363      -0.06811537      -2.93333623
C       -3.16326620       1.00998675       0.89594576
C       -3.48873328      -2.49975435       0.09862214
C        0.53265782      -0.12968349       1.64093085
C       -2.79128879       0.22365041       2.07239239
C       -0.57771787      -0.57938055       2.44330307
C       -2.76438777      -1.38960645      -1.92899123
C       -3.77917483      -1.21028462       0.58957415
C        7.23326620      -2.41469937       2.58728114
C       -2.81980851      -3.25719749       1.15410661
C        2.03743716       0.84561420      -1.49044474
C       -2.18375232       3.76232401      -3.57468813
C       -0.85061828      -2.67951910      -2.08494199
C       -1.58091156       0.36396284       2.81366041
C       -3.17788385       3.35172244      -2.91472936
C        3.53539408       0.34271141       0.42585670
C       -2.97035734      -2.59954998      -1.18597124
C        0.78339497      -1.18837434       0.66683305
C       -1.21248491       1.67669392       3.14572373
C        0.82619438       1.28040444       1.63833913
C        1.58001854       1.88373715       0.56358105
C        8.11000043      -3.08001327       3.27296021
C       -2.11476904      -4.38353674       0.85087278
C        1.45723695       1.90154612      -2.27254597
C        5.42557482      -1.01602300       1.45831376
C        0.21756890      -2.52163288      -1.15919020
C       -3.59348177       0.01643643      -0.12191795
C       -2.76259352       1.05766340      -2.28227556
C       -1.62564184       0.86852059      -3.13890086
C        0.94942279       2.93617636      -0.14713034
C       -2.78712893       2.36814413       0.68335866
C       -0.37921321       3.49930777      -1.96875677
C        0.62732777       1.31342851      -3.25380400
C       -3.11367264       2.40661942      -1.86838797
C       -2.16898529       3.03199965       1.80829558
C       -1.85975488      -3.45400973      -1.39594468
C        4.48149052      -0.30483664       0.92450394
C       -2.48081534       2.88692569      -0.64703470
C       -0.28681227       3.45703934       0.29884354
C       -3.20894543      -1.10819147       1.86959439
C       -0.74833720       3.14223640       1.55489642
60
Properties=species:S:1:pos:R:3 entry_id=13 rank=13 energy=-493.8764953613281 pbc="F F F"
C       -0.17847979      -3.16498297       0.13211753
C       -0.68670858      -0.39753811      -3.06684168
C        2.55409891       1.12399174       0.04680713
C        8.62431926      -4.33097913       3.83402759
C       -2.49566872       2.69803422       2.99064278
C        1.41690677      -0.33768763      -1.62684745
C       -0.09229859      -2.27547772       1.19976438
C        6.15551926      -1.89584463       2.20060850
C       -3.09281212      -0.08283276      -1.64877419
C        0.99615904      -1.29935837      -0.64897810
C       -0.28849086       2.20449491       2.30578477
C        1.01133604       2.99149256      -1.49822495
C       -1.29361543      -3.99416315      -0.15652706
C       -1.15340006       3.54893151      -0.87909279
C       -0.70776614       3.21068866      -3.29576163
C       -1.34437918      -1.53465622      -2.61174305
C       -0.44038392       1.84263160      -3.51310092
C       -1.09365623      -1.84064351       2.10674128
C       -2.47171101      -2.15959006       2.00415617
C        0.67649902      -0.07850251      -2.83768617
C       -3.21657850       1.05943820       0.72495458
C       -3.48341787      -2.46455687      -0.03077382
C        0.42048777      -0.05817571       1.73059271
C       -2.92470127       0.29503948       1.93787330
C       -0.73960150      -0.49603420       2.46648233
C       -2.63070388      -1.39020759      -2.02643590
C       -3.80819895      -1.16767374       0.41726792
C        6.99798969      -2.70276115       2.73912821
C       -2.88570791      -3.20172806       1.07947848
C        2.12720511       0.86393110      -1.30942793
C       -1.95323265       3.72955927      -3.71456159
C       -0.71030719      -2.67870972      -2.03443808
C       -1.76582897       0.45173163       2.75439545
C       -2.99141540       3.33108253      -3.11840078
C        3.47676223       0.36359122       0.70276919
C       -2.88402677      -2.58718931      -1.27742209
C        0.73437212      -1.13393300       0.79324985
C       -1.42174969       1.77141512       3.08549381
C        0.71350233       1.35246832       1.72315316
C        1.53818269       1.93989535       0.69239690
C        7.93302409      -3.50080141       3.15217339
C       -2.16261885      -4.33257909       0.84304703
C        1.60010343       1.90496954      -2.14752797
C        5.26941594      -1.11842868       1.73917326
C        0.29336921      -2.50148852      -1.04215275
C       -3.57691397       0.04652991      -0.30154342
C       -2.60623412       1.05047364      -2.41869291
C       -1.41628107       0.84931968      -3.19613151
C        0.95390757       2.97731476      -0.07822457
C       -2.82927852       2.41485667       0.51424266
C       -0.25445838       3.50400358      -1.99333104
C        0.83821521       1.29809395      -3.17170260
C       -2.98720892       2.40493529      -2.05212469
C       -2.28781767       3.10036648       1.66524147
C       -1.76204779      -3.44376777      -1.40022318
C        4.37999215      -0.34289380       1.20162294
C       -2.43631560       2.91081402      -0.80172600
C       -0.30993941       3.50373440       0.27626911
C       -3.32597959      -1.04151790       1.73090085
C       -0.85357955       3.20873556       1.50363579
60
Properties=species:S:1:pos:R:3 entry_id=10 rank=14 energy=-493.8703308105469 pbc="F F F"
C       -0.62126446      -3.29040980      -0.14263044
C       -0.79271098      -0.28818188      -3.16005746
C        2.59097667       0.67509024       0.04209297
C        9.08316729      -3.44830346       4.69829878
C       -2.29459066       2.60081851       3.07458752
C        1.29371043      -0.55218651      -1.71297715
C       -0.44099404      -2.48801851       0.98126233
C        6.31989114      -1.82125181       2.59585158
C       -3.16332759       0.20321842      -1.73343349
C        0.76012503      -1.52007941      -0.79918170
C       -0.15017194       1.90894080       2.36250040
C        1.26152976       2.78383443      -1.38099086
C       -1.81971710      -3.96881230      -0.48522241
C       -0.83396810       3.54014216      -0.73181427
C       -0.40740122       3.30696671      -3.16367701
C       -1.57768274      -1.37081811      -2.78139771
C       -0.29455476       1.93346681      -3.46404870
C       -1.39769542      -2.00213759       1.91036154
C       -2.80167752      -2.15601257       1.78071955
C        0.59505502      -0.13794641      -2.90492342
C       -3.17418089       1.20016542       0.70901297
C       -3.82938684      -2.21749467      -0.26852779
C        0.30876407      -0.37971066       1.65189426
C       -2.97701067       0.33223551       1.87046631
C       -0.89932836      -0.73080988       2.35646812
C       -2.84644944      -1.12178957      -2.19209281
C       -4.00938896      -0.92269157       0.26009357
C        7.24767375      -2.38015944       3.28767402
C       -3.32503785      -3.08507890       0.79355505
C        2.14095966       0.53614034      -1.32588811
C       -1.58222467       3.98980518      -3.55194022
C       -1.07801937      -2.61041467      -2.27399087
C       -1.81621980       0.30662285       2.69871034
C       -2.66151587       3.67053351      -2.98212515
C        3.50167740      -0.10829541       0.68532045
C       -3.23676594      -2.32797325      -1.51976604
C        0.51202644      -1.42249554       0.65069710
C       -1.33056468       1.55662472       3.11234368
C        0.75459761       0.98767831       1.72946775
C        1.64367778       1.54115327       0.73417419
C        8.29714400      -2.82877391       3.90542102
C       -2.73096418      -4.27311716       0.48760723
C        1.73151724       1.68005126      -2.09480206
C        5.34954877      -1.31497134       1.95659699
C       -0.06965728      -2.60815340      -1.27070277
C       -3.63907897       0.30116775      -0.38043784
C       -2.54664295       1.32136126      -2.42932891
C       -1.37863991       1.03787631      -3.21476878
C        1.18692068       2.68571353       0.03358616
C       -2.63698241       2.51469995       0.58489209
C        0.06506495       3.46552625      -1.84489858
C        0.91147818       1.22860042      -3.15342131
C       -2.77540862       2.68471753      -1.97766365
C       -2.03197529       3.06148304       1.77816451
C       -2.21342727      -3.29273049      -1.69230545
C        4.42010758      -0.69378647       1.30006325
C       -2.18079920       3.04546826      -0.69696240
C       -0.01129503       3.32827237       0.41978451
C       -3.52317805      -0.93475209       1.57819484
C       -0.59323524       3.01902257       1.62596744
60
Properties=species:S:1:pos:R:3 entry_id=12 rank=15 energy=-493.8702087402344 pbc="F F F"
C       -0.17021982      -3.18514661      -0.05563996
C       -0.85296556      -0.31952859      -3.13198775
C        2.60722978       1.06616897      -0.20307784
C        8.08755473      -4.32271255       4.46085512
C       -2.20581906       2.61624792       3.12061891
C        1.34414194      -0.32628274      -1.83681691
C        0.00084318      -2.32936291       1.02909692
C        5.95682107      -1.90719976       2.38178897
C       -3.15291797      -0.01783424      -1.54441536
C        0.97543580      -1.31084820      -0.86042665
C       -0.05700939       2.11929571       2.27369665
C        0.99463107       3.00233808      -1.58722384
C       -1.31279505      -3.99325672      -0.29191792
C       -1.11606869       3.56520970      -0.80582806
C       -0.83952965       3.29354882      -3.25616718
C       -1.49482451      -1.46154647      -2.66637281
C       -0.60652050       1.92939504      -3.52957803
C       -0.92973646      -1.91027621       2.01496377
C       -2.31595120      -2.21013246       1.99766406
C        0.52710796      -0.02350254      -2.98688323
C       -3.10069442       1.05473833       0.86397066
C       -3.46545958      -2.44208748       0.02749353
C        0.58145939      -0.13558984       1.58909795
C       -2.73805421       0.25108824       2.03198541
C       -0.53341078      -0.58137937       2.38851272
C       -2.73606878      -1.31886817      -1.99020356
C       -3.74138400      -1.15532616       0.53327916
C        6.69457880      -2.70676333       3.06638788
C       -2.80483587      -3.21940031       1.07289650
C        2.09544620       0.85479284      -1.53664313
C       -2.10299966       3.83993827      -3.57189752
C       -0.83930107      -2.62953908      -2.16639734
C       -1.52432620       0.36987399       2.77171228
C       -3.10530111       3.43834367      -2.91870945
C        3.52583810       0.27617616       0.42163538
C       -2.95493811      -2.53443526      -1.26047768
C        0.81398346      -1.18599570       0.60083469
C       -1.14032246       1.67529639       3.11569248
C        0.89042534       1.27217520       1.60008372
C        1.64738580       1.87736730       0.52871467
C        7.53605717      -3.40900371       3.75904471
C       -2.11604099      -4.35178205       0.75472157
C        1.52391194       1.92724281      -2.30419444
C        5.17481861      -1.17549708       1.70997152
C        0.23082468      -2.49252719      -1.23929063
C       -3.54272690       0.07690273      -0.16431848
C       -2.70404691       1.13183284      -2.31316934
C       -1.57285737       0.93893218      -3.17617502
C        1.03193066       2.94818674      -0.16764617
C       -2.70959922       2.41114906       0.66588303
C       -0.29542800       3.54256465      -1.97974423
C        0.68462433       1.36038938      -3.29076405
C       -3.04018596       2.47949361      -1.88352305
C       -2.08229997       3.05660490       1.79645178
C       -1.85639629      -3.40058837      -1.48456739
C        4.36101671      -0.41216249       1.04702921
C       -2.39938909       2.94063795      -0.65916407
C       -0.19736872       3.47835705       0.28773569
C       -3.17075011      -1.07399571       1.81439066
C       -0.66088251       3.15405450       1.54103916
60
Properties=species:S:1:pos:R:3 entry_id=17 rank=16 energy=-493.384033203125 pbc="F F F"
C        1.19111388      -3.49574530      -0.30930930
C        0.91572506       0.83459182      -2.70568707
C        2.37741872       1.38704081       1.38825505
C        2.37382786      -2.73395703      -0.36875015
C       -3.23111666       0.85968055       2.94771956
C        2.71863937       0.83572717      -0.96038942
C        0.47090300      -2.79817076       0.73032279
C        0.75793748      -1.65803184       2.67157092
C       -1.77634117       0.11896120      -2.15477561
C        2.90385464      -0.85275343       0.80298557
C       -0.93659551       1.07148721       2.83062095
C        0.97230347       3.59544521       0.22479571
C        0.45613233      -3.88424404      -1.44341260
C       -1.33904766       3.43782955       0.25623416
C       -0.22926337       4.15625681      -1.86631082
C        0.54893058      -0.51274250      -2.73014805
C        0.52084142       3.08349077      -2.39486781
C       -0.79929869      -2.96428585       1.40004253
C       -1.91859498      -3.23691962       0.59291630
C        2.08008404       1.38184174      -2.11865082
C       -2.80306162       0.19026203       0.27197535
C       -1.98556385      -2.70057278      -1.65512007
C        0.14141197      -0.10854342       0.85044783
C       -2.62403387      -0.94990906       1.18355859
C       -0.73594752      -1.94621235       2.43320194
C       -0.84811049      -0.82512798      -2.69523490
C       -2.74582329      -1.75456139      -0.95824961
C        1.44691676      -2.46164785       1.73778951
C       -1.68997813      -3.79523971      -0.74715528
C        2.65135817       1.81429874       0.07062265
C       -1.43244756       4.53131753      -2.49718548
C        1.29488312      -1.66773548      -2.27304210
C       -1.85601831      -1.04449401       2.38999763
C       -2.40812142       3.73509270      -2.42036412
C        2.48302363       0.01311794       1.80300087
C       -0.95266358      -2.22261620      -2.44845577
C        0.15629926      -1.22400492       0.22554533
C       -1.99627135       0.17303986       3.08753656
C        0.31737035       0.67931884       2.17293718
C        1.17687911       1.88239833       1.91551423
C        2.58415767      -2.19217783       0.95522615
C       -0.68445549      -4.61365927      -1.12995273
C        2.01947269       2.98993817      -0.47956672
C        2.81496446      -0.51225724      -0.58282952
C        2.33965731      -1.66030860      -1.30244272
C       -2.63250709      -0.35080556      -1.10023194
C       -1.46817300       1.51617644      -2.32763100
C       -0.12315090       1.85104116      -2.68505649
C        0.57415812       3.05572318       1.47633278
C       -2.85115409       1.55755930       0.60690715
C       -0.22880085       3.98747790      -0.47044982
C        1.80569451       2.76170810      -1.85881512
C       -2.35291567       2.50137689      -1.74203964
C       -2.87459414       1.84215978       2.01823156
C        0.34822913      -2.74932462      -2.28350464
C        1.30968868      -0.35217866       2.61477059
C       -2.33573649       2.57748728      -0.28961195
C       -0.83989508       3.13734617       1.55899293
C       -2.72477664      -2.10655884       0.39907692
C       -1.54156560       2.25549015       2.36172916
60
Properties=species:S:1:pos:R:3 entry_id=18 rank=17 energy=-493.1756591796875 pbc="F F F"
C        0.20130475      -2.97211793       1.37091796
C       -0.33494542      -0.27940747      -3.21131511
C        1.94945574       1.10382915       0.77061491
C        8.30846965      -4.69699995       0.90583289
C       -3.33601010       2.79088251       2.89423730
C        1.90425580      -1.05639765      -2.95611414
C        0.15929157      -1.81501878       2.17931366
C        5.15491909      -2.58244889       0.88568633
C       -2.71731468      -0.21835831      -1.65290386
C        2.71376073      -2.18099966      -2.86203025
C       -0.98221649       2.56008217       2.70444120
C        0.80237766       2.99461147      -0.99253515
C       -0.12183357      -3.55074438       0.08551946
C       -1.40777613       3.58804824      -0.71417661
C       -0.57809539       3.29861472      -3.03688686
C       -0.84325202      -1.46732991      -2.71798133
C       -0.16469636       1.97291283      -3.25032825
C       -1.12868026      -1.51426674       2.72203132
C       -2.32022235      -2.08781083       2.25051179
C        1.05653723       0.03195097      -3.12937627
C       -3.34215863       0.91872523       0.66192008
C       -2.74668022      -2.58908303       0.07195601
C        0.11345088       0.41612236       2.81324385
C       -3.17916541       0.25007688       1.95423024
C       -1.14319162      -0.15266141       3.12969448
C       -2.05742075      -1.44971892      -1.97460717
C       -3.44559513      -1.38861746       0.37460523
C        6.17984303      -3.29804803       0.83788116
C       -2.23914597      -3.15123271       1.29216120
C        2.26317411       1.20522151      -0.56793911
C       -1.79569293       3.73711537      -3.61445727
C        0.02442975      -2.50439423      -2.24870171
C       -2.31349439       0.64646683       3.01235344
C       -2.85490930       3.21146325      -3.16845079
C        2.11536259      -0.18795405       1.49446205
C       -1.97552539      -2.56779166      -1.07987278
C        0.96307894      -0.58817205       2.25770670
C       -2.20568830       2.02727406       3.27768664
C        0.19189872       1.77859449       2.44490311
C        1.01711705       2.09251733       1.31032289
C        7.21804964      -4.08787548       0.66971542
C       -0.97416472      -3.75282691       1.19640857
C        1.60157345       1.94037508      -1.54179974
C        4.12375077      -1.79085594       1.06049228
C        1.37387895      -2.35284987      -2.54059138
C       -3.34552943      -0.16219573      -0.35557588
C       -2.35002789       0.96603877      -2.41566462
C       -1.11773292       0.91548220      -3.15225447
C        0.55071021       3.06877528       0.40121447
C       -3.14213549       2.30958403       0.43810561
C       -0.34765564       3.52238294      -1.67525141
C        1.12320377       1.44194651      -2.82821921
C       -2.91418221       2.26463048      -2.11943487
C       -2.90027084       3.12340372       1.60703003
C       -0.65946740      -3.12378512      -1.14763487
C        3.14669840      -1.03369316       1.19891198
C       -2.61392438       2.82376299      -0.81412171
C       -0.74397493       3.62869018       0.55381323
C       -3.28058543      -1.14801182       1.75013012
C       -1.47848503       3.39452898       1.69273675
60
Properties=species:S:1:pos:R:3 entry_id=15 rank=18 energy=-493.1525573730469 pbc="F F F"
C        0.05560760      -2.99908871       1.31601051
C       -0.46623395      -0.34206368      -3.27666171
C        1.98289988       0.96693790       0.69786758
C        8.72629666      -4.24461399       1.43930974
C       -3.19073972       2.91737767       2.87615712
C        1.72864631      -1.24907386      -3.10106123
C        0.08188332      -1.84463048       2.13193200
C        5.33417275      -2.54063414       1.28068037
C       -2.80299459      -0.14670230      -1.66111681
C        2.45842488      -2.43176106      -3.09523319
C       -0.85380197       2.57500774       2.65303206
C        0.88378302       2.87152270      -1.07648636
C       -0.32200222      -3.56944627       0.04036344
C       -1.28405243       3.59230042      -0.76873906
C       -0.50823198       3.24296598      -3.10113450
C       -1.02964877      -1.50208634      -2.77562634
C       -0.17060213       1.89573576      -3.31134150
C       -1.18329685      -1.48347234       2.68886715
C       -2.40791192      -2.00660178       2.24567764
C        0.94200338      -0.10832066      -3.22153882
C       -3.32475418       1.03350841       0.65756296
C       -2.90428546      -2.50138268       0.08133875
C        0.14528955       0.38538889       2.76807544
C       -3.16807334       0.36622521       1.95141022
C       -1.13319384      -0.12326315       3.09582697
C       -2.21618234      -1.41215409      -1.99262593
C       -3.54027501      -1.26819783       0.38980576
C        6.42637594      -3.15240677       1.32965813
C       -2.39318585      -3.07808113       1.29317943
C        2.26234591       1.01971785      -0.65104703
C       -1.70967572       3.74498139      -3.66110580
C       -0.20720553      -2.58601929      -2.33082423
C       -2.26725516       0.72785209       2.99190557
C       -2.78800528       3.27964901      -3.19636708
C        2.13563552      -0.29660920       1.48111933
C       -2.16174905      -2.52410278      -1.08880600
C        0.95011160      -0.65805345       2.21914304
C       -2.09199912       2.10339974       3.24762344
C        0.28058109       1.73901692       2.38543563
C        1.09898726       2.00023723       1.23391590
C        7.50427005      -3.90549038       1.35260660
C       -1.15548250      -3.73037143       1.17170813
C        1.61460863       1.76813713      -1.62568397
C        4.25166290      -1.80138068       1.30066541
C        1.13469441      -2.51577776      -2.68456256
C       -3.39913123      -0.05244149      -0.35121641
C       -2.39246837       1.01366419      -2.43821793
C       -1.17967171       0.89385149      -3.19809966
C        0.66166946       2.98162602       0.31889328
C       -3.06312357       2.41187448       0.41976660
C       -0.24429927       3.45918145      -1.74519757
C        1.09214076       1.29355772      -2.90710465
C       -2.88096215       2.34220660      -2.14046630
C       -2.76099870       3.21866211       1.57916568
C       -0.87707503      -3.14469894      -1.18773673
C        3.21459439      -1.11410188       1.31028846
C       -2.53001858       2.89187254      -0.84404891
C       -0.59905711       3.60922645       0.48765459
C       -3.33566906      -1.02718672       1.75957923
C       -1.32673145       3.42030447       1.63985456
60
Properties=species:S:1:pos:R:3 entry_id=28 rank=19 energy=-493.0639343261719 pbc="F F F"
C       -0.38760819      -3.92994010       0.73840174
C        2.94045672      -0.83259082      -1.33663627
C        1.58152108       1.00672464       2.92485461
C        0.69214936      -3.35146188       1.42522548
C       -1.50988901       1.54877641      -1.76371665
C        2.61957995      -0.23870440       1.03893808
C       -1.56063678      -3.19793423       1.13653641
C       -1.64751944      -0.01160687       2.87445306
C        1.68108851      -1.32024501      -3.93900483
C        1.00026407      -1.34909983       2.52516260
C       -1.37618750       2.62918159       4.26600497
C        1.21974802       2.98870586       1.06926713
C       -0.39782700      -4.05793320      -0.66946821
C       -1.05615340       3.17125603       0.73809757
C        0.40821785       2.82919589      -1.24850786
C        2.44500023      -2.04017966      -1.67040195
C        1.51702347       1.95628258      -1.58529603
C       -2.40220276      -1.34284788      -0.58201584
C       -2.22367316      -1.51331687      -2.00475422
C        2.86338006       0.11130220      -0.37370123
C        0.27718727       0.62712838      -3.30924268
C       -0.62380943      -2.74285344      -3.19655599
C       -1.97924680      -1.29392262       2.42715325
C       -1.06782837       0.61120835      -2.72155706
C       -2.23999307      -0.22438214       1.56000607
C        1.78975689      -2.29445789      -2.98329318
C       -0.69136863      -1.42780225      -3.72559538
C       -1.27149673      -2.47937779       2.31609294
C       -1.73980788      -2.83448394      -2.29952301
C        2.36586097       0.97680660       1.75412362
C       -1.27344413       3.80178637      -2.89648639
C        1.78507956      -2.89074005      -0.68891267
C       -2.37504394      -0.06115246       0.12366120
C        1.32513775       1.24030778      -2.73455676
C        0.74849979      -0.11760621       3.17138927
C        0.64277198      -3.13187204      -2.70300752
C       -2.17770304      -2.68852913      -0.03428111
C       -2.15738731       1.28872242      -0.51196770
C       -0.32268464       1.76796904       4.08343886
C        0.86817138       2.17977918       3.34793159
C        0.15827725      -2.48794836       2.44859539
C       -1.64794588      -3.52258675      -1.10014589
C        2.19439186       2.02131405       0.79934413
C        1.98233376      -1.43051355       1.45611220
C        1.70683840      -2.65390657       0.70721289
C        0.47775316      -0.66957247      -3.99982595
C       -1.71754641       4.68738367      -3.70915771
C       -2.16628499       5.56378484      -4.52695480
C        0.59215400       3.12287366       2.34931282
C       -3.27414791       2.69872393       1.33094345
C        0.21238392       3.14426568       0.08659029
C        2.39796372       1.51174098      -0.51128765
C       -0.83955436       2.88578874      -2.04184572
C       -3.12214814       3.13489362       2.51760909
C        0.74290855      -3.60758771      -1.36387478
C       -0.51783535       0.40368706       3.61210487
C       -2.25231087       2.46286512       0.36732416
C       -0.78805535       3.39927209       2.11097412
C       -1.60296200      -0.66711694      -2.93849587
C       -1.80812155       3.22235680       3.10415730
60
Properties=species:S:1:pos:R:3 entry_id=30 rank=20 energy=-492.5645446777344 pbc="F F F"
C        0.06458362      -3.75837568       1.34074096
C        2.75740803      -1.00888379      -1.86728648
C        1.65099029       1.72066477       1.93213806
C        1.13691570      -2.92825362       1.70723151
C       -2.00709774       0.81434969      -2.14516376
C        2.64147525       0.13041884       0.31387851
C       -1.13688164      -3.06570071       1.72662977
C       -1.44606554       0.42555246       2.65586987
C        1.21574484      -2.20084585      -4.05559122
C        1.30634634      -0.68516858       2.22909542
C       -1.39512445       3.38924346       3.02584652
C        1.00843150       3.24052299      -0.22360630
C       -0.09791767      -4.23152357       0.01862723
C       -1.41662562       3.13099642      -0.15074943
C       -0.19779222       2.33857983      -2.15713417
C        2.35162270      -2.29284467      -1.82875867
C        0.97481655       1.51669809      -2.51440629
C       -2.40879977      -1.78637419      -0.23368883
C       -2.37781284      -2.27892092      -1.59233901
C        2.68847851       0.13715815      -1.15965641
C       -0.33017561      -0.30623619      -3.68050669
C       -0.78745625      -3.60357663      -2.68428466
C       -1.64078422      -0.95478583       2.60408559
C       -1.59332519      -0.30167592      -2.93928034
C       -2.17548136      -0.18467693       1.56655283
C        1.56131620      -2.90352676      -2.93416575
C       -1.08841408      -2.47953277      -3.49635273
C       -0.79984258      -2.05414016       2.65305839
C       -1.76539487      -3.57601706      -1.63733783
C        2.33491461       1.46429151       0.73707650
C       -0.12107490       7.24845926       2.18975522
C        1.91586571      -2.92329131      -0.58968150
C       -2.46603034      -0.37807966       0.15971675
C        0.69289896       0.52746354      -3.41134167
C        0.96485287       0.64884474       2.56063133
C        0.56658603      -3.74189585      -2.30330621
C       -1.95029393      -2.92503312       0.57183515
C       -2.42774952       0.79081830      -0.74886026
C       -0.26615104       2.64136347       2.91035538
C        0.90701178       2.92472964       2.10747642
C        0.62192757      -1.88432906       2.55736269
C       -1.44807921      -3.94084143      -0.33787443
C        1.98131377       2.23219674      -0.40160993
C        2.18058926      -0.95729491       1.09138922
C        1.97446705      -2.35167185       0.70789821
C       -0.05851549      -1.70067744      -4.09152797
C       -0.15464282       6.08372641       1.71846737
C       -0.18346934       4.84694723       1.11591442
C        0.86931469       3.86440092       1.06130482
C       -3.51092597       2.47938222       0.76447366
C       -0.20539140       3.04181294      -0.91833543
C        2.05129440       1.41960036      -1.55616462
C       -1.45810139       2.01223713      -2.63482456
C       -3.53804269       3.29111787       1.74455035
C        0.88671122      -3.86631856      -0.92067203
C       -0.30068661       1.17134895       2.99407597
C       -2.48773899       2.12924770      -0.13829957
C       -1.39147585       4.09720339       0.87574161
C       -1.99448395      -1.63452087      -2.78420349
C       -2.21835891       3.82417895       2.04148174
60
Properties=species:S:1:pos:R:3 entry_id=29 rank=21 energy=-491.5987854003906 pbc="F F F"
C        2.33265914      -2.82325298      -0.44934941
C        2.16086510       1.23746591      -2.91100889
C        2.58229768      -0.70281188       1.01257123
C        3.45530371      -2.87252780      -1.39810520
C       -3.83715703       0.94430905       0.81116846
C        3.45732020       0.41233172      -0.90377030
C       -1.89546097      -3.75285589       2.68506738
C       -2.71334850      -1.56178356       4.18759893
C       -0.76971428       0.98731914      -2.92733118
C        4.27636067      -1.83100881      -0.29431321
C       -2.40379643       0.68237576       2.54954590
C        1.23844815       2.42261576       1.33911495
C        0.98537294      -2.78068173      -1.00978303
C       -0.77016671       3.56778073       1.05070851
C        0.78709462       4.01992121      -0.49495823
C        1.54872872      -0.02486853      -3.13505257
C        1.84961774       3.60384927      -1.29936215
C       -2.72391069      -1.96315428       1.39262174
C       -2.54439622      -1.84291365      -0.01833905
C        2.93349881       1.45512672      -1.73234502
C       -2.76203267       1.45673766      -1.21366269
C       -1.42070508      -1.67907247      -2.05463391
C       -3.47780417      -2.80825089       4.10677271
C       -3.54482916       0.48023200      -0.46887348
C       -3.94773640      -1.63562551       3.45192689
C        0.10852344      -0.12371442      -3.15012622
C       -2.36178294      -0.65230827      -2.01209437
C       -2.83445114      -3.86201493       3.56996931
C       -1.41593566      -2.40869232      -0.78865109
C        2.82979614       0.50021247       0.39046189
C        1.34165796       3.58832988      -2.64555444
C        2.06099086      -1.30215306      -2.68869762
C       -3.78818066      -1.28055097       2.08530625
C       -0.14440663       3.53937376      -2.52352893
C        2.95180851      -1.87945487       0.44356491
C       -0.22357998      -1.43454275      -2.70191110
C       -1.76353944      -2.39689802       2.37000971
C       -3.55565409       0.11344555       1.94259776
C       -1.25479124      -0.03305894       3.03464027
C       -0.02326364       0.60390988       2.86898028
C        4.73552941      -3.06992423      -0.79060031
C       -0.24889938      -2.99724739      -0.39264761
C        2.22458763       1.84888110       0.47469943
C        4.01860701      -0.79569892      -1.31533970
C        3.32448560      -1.63290279      -2.19789999
C       -2.01958663       0.72621585      -2.23451192
C       -0.10848542       2.23236015      -3.12283610
C        1.31935358       2.31714386      -3.28736394
C        0.19811101       1.80023519       2.25208456
C       -2.52129684       2.56274573      -0.31514369
C        0.63973670       3.62381263       0.84130271
C        2.46876170       2.45187752      -0.82070719
C       -0.44453839       3.87036766      -1.18344529
C       -3.11078740       2.17283473       0.94239452
C        0.95879164      -2.06356906      -2.24918666
C       -1.54829216      -1.41501420       3.41439755
C       -1.43400281       3.48149333      -0.22766060
C       -0.99869761       2.59130731       2.01929281
C       -3.12220140      -0.81116021      -0.81169461
C       -2.25586515       2.00944704       2.05853713
60
Properties=species:S:1:pos:R:3 entry_id=8 rank=22 energy=-486.1237487792969 pbc="F F F"
C        0.38964740      -3.68128038       0.14954356
C        1.28892756       0.62187591      -2.44348567
C        2.09955839       1.64743146       1.79964400
C        1.80013856      -3.48952243      -0.14189801
C       -3.59542139       0.55459579       2.91420978
C        2.78056076       0.80172224      -0.28167033
C       -0.03968458      -2.77437470       1.14506524
C        3.69532953      -1.70922539       2.21337941
C       -1.69069599       0.65664922      -1.92171021
C        1.69800810      -1.27366913       0.34122543
C       -1.35433263       1.12290714       2.85543109
C        0.59430492       3.00440239      -0.25862193
C       -0.54560257      -3.78805478      -0.92179352
C       -1.29173367       2.96276870      -1.65591090
C        0.65870030       4.05678652      -2.49788769
C        0.49094505      -0.56673842      -2.33598205
C        1.48332928       2.90995485      -2.73035396
C       -1.29080859      -2.62094818       1.83072307
C       -2.53409777      -2.61500282       1.16531440
C        2.35766022       1.09214625      -1.61958598
C       -3.68898780       1.41189136      -0.42858326
C       -2.40063204      -1.82953712      -0.92024130
C        0.02811319      -0.78606049       2.38558259
C       -3.33940860      -0.78513135       2.45872535
C       -1.08883884      -1.55891576       2.77035987
C       -0.93327684      -0.48103106      -2.27900075
C       -2.70455915      -0.71131010      -0.08771740
C        3.37829428      -2.78462431       1.56648802
C       -2.49144812      -3.06739939      -0.19447108
C        2.59522159       1.96148185       0.48019848
C       -0.06970341       4.30155701      -3.65966535
C        0.83935482      -1.91108395      -1.85554077
C       -2.22285899      -0.96419355       3.32282311
C       -0.74555081       4.46479900      -4.85964701
C        2.85952986       0.73322859       2.52372442
C       -1.42309086      -1.76661398      -1.89868426
C        0.73664539      -1.59454472       1.36760545
C       -2.30613495       0.42383617       3.65668944
C       -0.04846454       0.62585925       2.56746285
C        0.68430356       1.53979130       1.71531026
C        2.81028570      -3.63914392       0.78150449
C       -1.84820448      -4.17679567      -0.64377524
C        1.99992794       2.94606185      -0.36690859
C        2.73629283      -0.37455747       0.49710473
C        1.71273627      -2.17448111      -0.78118044
C       -2.34903414       0.71821074      -0.57051784
C       -0.51677759       1.94632919      -3.70202475
C        0.81419864       1.75675338      -3.19243409
C       -0.04490948       2.05553436       0.58359855
C       -4.19955333       1.66384001       0.71018906
C       -0.12186761       3.60046301      -1.35525733
C        2.32596013       2.51399838      -1.68464519
C       -0.60968497       3.18693684      -4.34632620
C       -3.44953003       1.48744259       1.87773804
C       -0.35858349      -2.66846265      -1.79339238
C        3.25297495      -0.41102471       1.88621169
C       -1.39744940       1.90564645      -2.52348753
C       -1.45255395       1.62730363       0.46839991
C       -3.11861695      -1.25964632       1.15589932
C       -2.05300084       1.60107279       1.74186964
60
Properties=species:S:1:pos:R:3 entry_id=6 rank=23 energy=-484.0982971191406 pbc="F F F"
C        1.07508981      -3.19968229       0.01904141
C        1.27993279      -0.08773013      -2.45578320
C        2.31696070       1.28648550       1.56128917
C        2.40242863      -3.25951305      -0.49849608
C       -3.46630436       1.38020380       1.76355201
C        2.86469941       0.29755925      -0.59672786
C        0.22209337      -2.58306023       1.10249235
C        4.09993001      -2.00336339       1.65805775
C       -2.43214482      -0.70281304      -2.41540081
C        1.02603723      -0.58166157       0.47071461
C       -1.34382111       1.90867304       2.56678675
C        1.34550767       3.30996579      -0.28036319
C       -0.10935029      -3.27230038      -0.76988056
C       -0.89075895       3.54930884      -0.69282775
C        0.45972269       3.43408499      -2.63829938
C        0.22521773      -0.62241775      -0.65091665
C        1.18349670       2.22037220      -2.78146861
C       -1.95837157      -2.14769964       2.60367342
C       -2.76939533      -2.26589602       1.51161303
C        2.42063676       0.53990039      -1.90381008
C       -3.52037491       1.02332625      -1.13187685
C       -2.69049412      -2.36579989      -0.78903729
C       -0.31661593      -0.32112697       2.49718790
C       -3.52408745      -0.05012550       1.81343326
C       -1.54150187      -0.89112167       3.00645813
C       -1.11611468      -0.76086844      -0.65028694
C       -3.60241082      -1.32141114      -0.43620959
C        4.10665433      -3.05671478       0.91257541
C       -2.25830884      -2.97469577       0.39408900
C        2.77386386       1.45916957       0.17734105
C       -0.69019079       3.58058489      -3.40940290
C        0.89628584      -1.39729523      -1.74017518
C       -2.68267400      -0.04410670       2.98388047
C       -1.88371687       2.86715481      -1.42129965
C        2.89835023       0.19525837       2.16247480
C       -1.63504512      -1.74621636      -1.62757313
C        0.40207278      -1.19112678       1.58895286
C       -2.59500362       1.36231841       2.96165654
C       -0.12975137       1.14326711       2.45775852
C        0.99115592       1.86202793       1.79292095
C        3.59285444      -3.80131781      -0.02246970
C       -0.89033040      -3.16024507       0.40162258
C        2.39959635       2.51048841      -0.69933868
C        2.42974117      -0.90373614       0.09180937
C        2.10041009      -1.94343931      -0.91532089
C       -3.48731435      -0.27434567      -1.42268914
C       -0.98373443       1.18736134      -3.11097784
C        0.45379209       1.03138230      -2.96401709
C        0.65590972       2.95383119       0.93026428
C       -2.89757802       2.12099737      -0.64582829
C        0.38683316       3.74524066      -1.25110317
C        2.31457752       1.95736086      -2.00597687
C       -1.43370542       2.58100378      -2.77306069
C       -2.85605229       2.23949501       0.81638885
C       -0.29437506      -2.42415724      -1.89070992
C        3.24101088      -0.93935949       1.44330934
C       -1.85165817       0.16554195      -3.23379055
C       -0.69436430       3.29318766       0.69090285
C       -3.54818819      -1.17330005       0.97742104
C       -1.68122458       2.70142676       1.44021571
60
Properties=species:S:1:pos:R:3 entry_id=2 rank=24 energy=-482.7808532714844 pbc="F F F"
C        1.18091975      -2.96843312      -0.25527246
C        1.33907962       0.17951482      -2.57954695
C        2.40450551       1.29125493       1.56440397
C        2.50633873      -3.12720687      -0.80958342
C       -3.31456748       1.40151818       1.74376087
C        2.90397735       0.43685858      -0.65861909
C        0.31389407      -2.52864786       0.91115252
C        4.18413818      -1.98854747       1.40548460
C       -1.95982687       0.49271674      -1.45119641
C        1.07713766      -0.47152753       0.41017110
C       -1.22958493       1.83968875       2.62338511
C        1.43106386       3.46662088      -0.10113414
C       -0.04349880      -3.08023834      -0.99176809
C       -0.80749501       3.91929859      -0.35238907
C        0.30893286       3.43905173      -2.25795134
C        0.23791491      -0.25906322      -0.68315667
C        1.26057584       2.53075210      -2.73120175
C       -3.23464890      -3.19768447       0.93589820
C       -4.08442666      -2.32013000       1.26878713
C        2.46555511       0.77820252      -1.94676845
C       -3.82000252       1.66662084      -0.99053051
C       -2.56229352      -1.95202366      -1.03955559
C       -0.21215333      -0.37641009       2.45196825
C       -3.52140594      -0.01182999       1.66450605
C       -1.42005700      -0.88704454       2.89957815
C       -0.95482362       0.32873031      -0.59273340
C       -3.51837794      -0.93798397      -0.62489140
C        4.22362305      -2.97509058       0.58153081
C       -2.22794513      -2.86058196       0.00416577
C        2.83216318       1.54760486       0.18696348
C       -1.78653801      -0.83047808      -3.19184098
C        0.82631259      -1.07905335      -1.84355653
C       -2.58424086      -0.21686444       2.82508921
C       -1.75023082       3.20555131      -1.15959812
C        2.97013581       0.15735990       2.10015968
C       -1.64397850      -1.79773802      -2.18546791
C        0.51352970      -1.18996878       1.47474834
C       -2.47028309       1.21881184       2.91702564
C       -0.01565820       1.11270948       2.46307471
C        1.08859848       1.86744578       1.85120357
C        3.71109129      -3.65014890      -0.41969815
C       -0.84159858      -3.03057702       0.15268689
C        2.44219570       2.65722753      -0.60772249
C        2.45405070      -0.78908877      -0.02393767
C        2.01846925      -1.78550396      -1.03163347
C       -3.36273273       0.38885301      -1.13998646
C       -0.79564358       1.59232945      -3.08991312
C        0.59658555       1.31446414      -3.09900294
C        0.76375222       3.04357890       1.09574896
C       -2.89815957       2.60828899      -0.46533663
C        0.46510195       4.02067871      -0.99396662
C        2.36450308       2.20713847      -1.95218490
C       -0.99128282       2.83276700      -2.35495551
C       -2.74239095       2.43420718       0.95002781
C       -0.26237032      -2.13148222      -1.99674433
C        3.29664199      -0.92703457       1.29771828
C       -1.63250121       0.46282525      -2.86752731
C       -0.57435039       3.48513652       0.96357006
C       -3.96182564      -0.99470454       0.74972652
C       -1.55897643       2.79841209       1.63184016
60
Properties=species:S:1:pos:R:3 entry_id=19 rank=25 energy=-482.7022705078125 pbc="F F F"
C        1.62666337      -2.25586007      -3.86113489
C        3.28896148       0.75999139      -2.59697405
C        2.39573580       1.42538833       1.96372627
C        2.59215857      -1.48728553      -3.61765266
C       -3.39297262       1.25088312       1.24181903
C        3.61508706       0.85835257      -0.08438940
C       -0.17046154      -1.87077837       3.46832812
C        1.11803917      -1.93798405       3.04523663
C       -3.60332136       0.28312586      -2.52672602
C        1.44434159      -1.63457220      -0.68646255
C       -1.32083901       1.45934242       2.22019623
C        1.58057982       3.62994335       0.26010582
C        0.38983993      -2.68143358      -3.64231712
C       -0.61490763       3.83850132      -0.43169040
C        0.86741907       3.35916369      -2.11159877
C        1.44452719      -0.55023491       0.30080017
C        2.14898009       2.76095451      -2.40188111
C       -0.72019521      -1.21038644       0.81742535
C       -1.81101273      -1.44126161       1.67679086
C        3.73277619       1.41899339      -1.39048225
C       -3.17081472       1.23737258      -1.63083442
C       -1.90361536      -1.95214040      -1.12319805
C       -2.54378776      -1.54057705       4.00120431
C       -3.86445305      -0.10607344       1.53065623
C       -3.58419159      -0.80766811       4.06548053
C        0.29865392      -0.27025382       1.09965564
C       -2.95392527      -1.17690518      -0.46397100
C        1.17195271      -2.87894871       1.96871724
C       -0.72960189      -2.05674031      -0.35110677
C        3.17792983       1.86422036       0.84953663
C       -3.00022487      -1.88730496      -3.36003798
C        3.04114989      -0.67398442      -2.59086320
C       -3.56251412       0.04528199       2.96872846
C       -1.36964068       3.11844545      -1.42927304
C        2.54424943       0.20760844       2.69455540
C       -1.92263435      -2.28564643      -2.52814127
C       -1.46751202      -1.68641954       3.09710720
C       -2.69574262       1.07505649       2.51014694
C        0.00857030       0.88858682       1.97986205
C        1.04878748       1.90186422       1.93076354
C        0.97709183      -3.26612327       0.80379163
C        0.56233575      -2.73933240      -0.47862846
C        2.78191483       2.97231523       0.02285362
C        2.77280142      -0.23698477      -0.14608368
C        2.64087037      -1.10292397      -1.28918677
C       -3.44057910      -0.08302126      -1.17688522
C       -3.88890535      -1.70338901      -4.40825167
C        2.44659915       1.67039280      -3.24785659
C        0.74383810       3.14170606       1.30298230
C       -2.52426167       2.32235733      -0.97660693
C        0.74245385       3.97749257      -0.83368005
C        3.08687394       2.67664003      -1.32268513
C       -0.44684371       2.96655709      -2.49266484
C       -2.64845291       2.16129934       0.43420422
C       -0.75631705      -2.67609763      -3.15306127
C        2.06326587      -0.86485612       3.10785657
C       -3.66824728      -0.63746634      -3.53533230
C       -0.59398551       3.40514263       0.89612765
C       -3.01687503      -1.14066141       0.97659229
C       -1.57069210       2.52747449       1.28940788
60
Properties=species:S:1:pos:R:3 entry_id=1 rank=26 energy=-482.1226501464844 pbc="F F F"
C        0.98353897      -3.74383877      -1.02296131
C        1.60258793       0.07659599      -2.53307334
C        2.18159634       2.01477423       1.61295747
C        2.08684293      -2.94887933      -0.57072889
C       -3.08002436       1.19957948       2.39094371
C        2.60826254       0.67770431      -0.35401878
C       -0.11077526      -3.91519170      -0.06745839
C        3.59602806      -1.28721847       2.07311009
C       -1.35462174       0.89878479       0.07438736
C        0.36342000      -1.69336701       0.37489810
C       -0.83710824       1.70149581       3.46597651
C        1.15952180       3.59684334      -0.52303390
C       -0.05373612      -3.20759011      -1.87636582
C       -1.03479691       3.75151095      -1.15477518
C        0.42849553       3.23745502      -2.83447350
C        0.51537043      -0.37606059       0.87327489
C        1.46668635       2.33659784      -3.01712599
C       -3.27887297      -3.28475860       0.15089508
C       -3.85156706      -2.46675040       0.94496994
C        2.52841643       0.81784223      -1.75878255
C       -3.39507743       1.65761420      -1.13613642
C       -2.26276834      -1.59225624      -1.19758387
C       -0.74506194      -2.64945521       2.14314561
C       -3.08121102      -0.16021671       1.88386636
C       -1.22812937      -1.65640760       2.73027293
C       -0.63074663       0.49553963       1.35559043
C       -3.03559268      -0.69834679      -0.38408863
C        3.49841440      -2.31148504       1.29939879
C       -2.30851931      -2.95506908      -0.82819739
C        2.66224106       1.95281220       0.25694647
C       -1.06273492       0.34317406      -2.29083880
C        1.12771215      -1.17687701      -2.06029550
C       -1.66477063      -0.31972681       2.37041088
C       -1.77071154       3.09181468      -2.17287350
C        2.75354994       1.05743765       2.44183135
C       -1.27592277      -1.11095870      -2.12401636
C       -0.10257264      -2.87204619       0.92649744
C       -1.93691836       0.90223857       3.28792854
C       -0.16135479       1.65252217       2.28738521
C        0.82172094       2.52042563       1.67715686
C        3.07264916      -3.09095984       0.35526031
C       -1.11690377      -3.66946455      -1.06924496
C        2.33653973       2.89185331      -0.76459043
C        1.74173276      -0.28966319       0.13620017
C        1.46338534      -1.55865356      -0.63675826
C       -2.74906920       0.70585660      -0.38020026
C       -0.51550551       1.18025203      -3.34243858
C        0.91147870       1.05904089      -3.31686698
C        0.35351281       3.34473854       0.63019597
C       -3.01705643       2.57930682      -1.88835673
C        0.30419948       3.86576447      -1.59848874
C        2.42640668       2.20640005      -2.01693994
C       -0.79756272       2.59395060      -3.12044056
C       -2.88712326       2.37710470       1.69237624
C       -0.08514502      -1.86625848      -2.33248329
C        3.31817392      -0.08208847       2.49359580
C       -0.71172795       0.94807732      -1.11715517
C       -1.05603742       3.54340096       0.27424227
C       -3.58084036      -1.06712590       0.87599498
C       -2.13499905       3.13334150       1.04608308
60
Properties=species:S:1:pos:R:3 entry_id=7 rank=27 energy=-481.7936096191406 pbc="F F F"
C        1.41730965      -2.66916113       1.01071339
C        1.39780184       0.45402388      -1.58317024
C        6.11307975       1.34229505      -1.27004351
C        2.72683805      -2.19587868       0.69311022
C       -4.33712049       0.33542164       0.76943092
C        3.75798384       0.96770376      -1.06620680
C        0.32038074      -2.98541000       1.95996132
C        5.75615725      -1.95110426       0.17013476
C       -1.60758391      -1.09723213      -2.64620107
C       -0.51736866      -0.84438740       2.74785473
C       -3.45058693       1.30052305       2.82183307
C        4.31734863       4.57264651      -1.05122534
C        0.50106213      -2.76233337      -0.03992673
C       -1.72517600       3.16790066      -0.91377628
C       -0.57981859       3.50777929      -1.80130087
C       -1.19364039       0.17412774       2.50249296
C        0.60496344       2.64932250      -1.62690527
C       -3.49309192      -2.20923053       2.33173071
C       -3.12119995      -2.64342765       1.02758306
C        2.44205179       1.42137960      -1.28586241
C       -3.64914289       0.21114092      -2.18053888
C       -1.94721891      -2.53604801      -0.91379865
C       -1.47928882      -2.74649920       3.61802642
C       -4.69974153      -1.03207408       0.68499691
C       -2.71715920      -2.63037634       3.41107549
C       -2.15076157       1.09781348       2.15210196
C       -3.20807676      -1.96843075      -1.17307698
C        5.09286949      -2.72286931       0.96607703
C       -1.87408816      -3.01193455       0.42887906
C        4.82981551       1.89778699      -1.27542612
C       -0.98026865       3.63773554      -3.15240839
C        1.52128972      -0.90091328      -1.15287422
C       -4.47047793      -1.13322800       2.14855785
C       -2.41449761       2.32075193      -1.79217733
C        6.37149314       0.13049695      -0.96741483
C       -0.92558440      -1.91038125      -1.66291594
C       -0.31947989      -2.20130711       2.99499778
C       -4.29430429       0.30816920       2.21225428
C       -3.67937381       2.63170764       3.17459430
C       -3.00927020       3.55028120       2.53152269
C        3.83218097      -2.78008094       1.25323971
C       -0.55237857      -3.23119123       0.81722737
C        4.54102466       3.26995626      -1.51851296
C        3.96586278      -0.39467361      -0.66471187
C        2.77388280      -1.21253899      -0.41377774
C       -3.06176441      -1.00517077      -2.22057518
C       -0.72931357       1.12010806      -2.96374651
C        0.33817363       1.31485976      -2.05413504
C       -2.27480431       3.97260317       1.53834961
C       -3.31517697       1.28693953      -1.38422675
C        4.55983149       4.37082636      -2.38665052
C        1.94432088       2.72919966      -1.29787516
C       -1.56055144       2.35672661      -2.96589928
C       -3.41440131       1.14651223       0.05926257
C        0.41187013      -1.87315820      -1.12714563
C        5.39110948      -0.80807017      -0.50658578
C       -1.05681442      -0.11960219      -3.37421025
C       -1.99312076       3.06679691       0.50406521
C       -3.93121587      -2.01071098       0.02894449
C       -2.40493248       1.71419946       0.84705448
60
Properties=species:S:1:pos:R:3 entry_id=3 rank=28 energy=-481.24505615234375 pbc="F F F"
C       -0.03309653      -3.15445449       0.27901341
C        0.79589360      -0.07138538      -2.67825369
C        3.92653676       1.61516604       0.48224605
C        1.17964214      -2.93192185      -0.28858989
C       -2.01721477      -0.14841800       1.90798775
C        2.84618083       0.12765894      -1.19777102
C       -0.38592631      -3.33459929       1.70025463
C        5.22948147       1.15501060       3.67678240
C       -2.27298427       1.02422228      -1.17035054
C        0.99328660      -0.07760338       0.39533120
C        0.88099847       0.71487437       1.57953419
C        2.08749928       3.16734848      -0.91939147
C       -1.18547158      -2.83188307      -0.49058383
C       -0.20036775       3.41720529      -0.57739176
C        0.49961295       3.30238524      -2.78820842
C       -0.10088997      -0.15593219      -0.47805548
C        1.15408844       2.18167905      -3.32424605
C       -4.81429276      -2.98298149       0.24201025
C       -5.26476368      -2.01375382       0.91688024
C        2.12374627       0.35866234      -2.39417642
C       -3.82170115       2.20952122      -0.69757212
C       -3.50333919      -1.60281894      -1.20902464
C       -1.41216612      -4.19882114       2.00949922
C       -3.26386125      -0.93010223       1.60148578
C       -2.42632144      -3.42362992       1.45985428
C       -1.28000515       0.54291659      -0.21359908
C       -4.12623849      -0.49956485      -0.53883955
C        3.92402309       0.97576510       3.84501875
C       -3.63820299      -2.83676354      -0.52835882
C        3.58408011       1.31880103      -0.89101144
C       -2.31520646      -0.48473785      -3.04242417
C        0.16173597      -1.07871575      -1.66247879
C       -2.62763755      -2.11491792       2.01466908
C       -1.39738030       3.30426612      -1.37484638
C        5.09626810       1.44806066       1.17969000
C       -2.36273298      -1.49249805      -2.11122720
C       -0.26039024      -2.14965049       2.44210605
C       -1.40593879      -1.42473391       2.38096466
C        2.12371075       1.18414914       2.19407300
C        2.68754342       1.99717428       1.13997092
C        2.74937284       0.90445062       3.37466889
C       -2.43440161      -3.24189164       0.03589369
C        2.96861244       2.36163759      -1.66554179
C        2.13097731      -0.69271294      -0.29492580
C        1.39179966      -1.81388343      -0.98194930
C       -3.69546274       0.80754396      -0.79329327
C       -1.05265755       1.64099691      -3.14723234
C        0.22688619       1.08700665      -3.32116573
C        1.77172997       2.77674512       0.40020954
C       -2.51560651       2.54657463      -1.00650704
C        0.88725855       3.63168704      -1.48896348
C        2.33159175       1.71526859      -2.75775894
C       -0.89876588       2.97221965      -2.68445308
C       -1.40233119       0.94033991       1.17005982
C       -1.10301043      -1.98665825      -1.62375123
C        5.47478469       1.34105916       2.38145831
C       -2.02397325       0.74621600      -2.63442015
C        0.33913530       2.76804262       0.61423885
C       -4.45218333      -0.84734515       0.82883687
C       -0.17608652       1.68982813       1.44105174
60
Properties=species:S:1:pos:R:3 entry_id=4 rank=29 energy=-479.32073974609375 pbc="F F F"
C        0.34513738      -3.51218602      -0.75690644
C        0.73368472       0.17987033      -2.82689501
C        3.95221099       1.80772997       0.28497679
C        1.46347178      -2.94890757      -0.98978534
C       -2.24694052       0.27218056       1.84634892
C        2.81198177       0.37465737      -1.39818876
C       -1.92831239      -4.94408608       4.62465041
C        5.39649620       1.24590389       3.38692033
C       -2.29191951       1.03712219      -1.12133404
C        1.05326063      -0.04434617       0.25580259
C        0.96799668       0.72676221       1.45425951
C        2.00074124       3.37526298      -0.96021740
C       -0.93324789      -2.99208148      -0.96325171
C       -0.27998776       3.50697761      -0.49881839
C        0.30479135       3.52819173      -2.73904234
C       -0.06656235      -0.11357015      -0.58557812
C        0.97861250       2.46936034      -3.36703503
C       -4.46562478      -3.17288644       0.27403174
C       -4.89483806      -2.26473200       1.03322709
C        2.04783380       0.64523295      -2.55894351
C       -3.85632180       2.11541966      -0.50408496
C       -3.36116658      -1.64849431      -1.19033816
C       -1.18712761      -3.79061068       2.34358052
C       -3.03097559      -0.85336031       1.78050961
C       -1.97696995      -3.20632254       1.30089219
C       -1.23043155       0.55569050      -0.25991018
C       -3.99983134      -0.61710838      -0.42624421
C        4.10847691       0.98845527       3.58753626
C       -3.35787530      -2.91777114      -0.56512271
C        3.54254710       1.56536407      -1.08078202
C       -2.39297695      -0.35456240      -3.06156448
C        0.20448115      -0.92451128      -1.85986944
C       -2.44603664      -2.14736767       2.16475352
C       -1.51404246       3.36348367      -1.23209892
C        5.16030360       1.66255744       0.91575101
C       -2.32829210      -1.41189772      -2.18457659
C       -1.71210851      -4.05558156       3.68694352
C       -1.71674046      -2.64182377       3.29591910
C        2.22972319       1.20262328       2.02679570
C        2.72337290       2.09956593       1.00768227
C        2.92027994       0.88003712       3.15922484
C       -2.07626043      -3.27740200      -0.12546765
C        2.87089648       2.63207325      -1.78272385
C        2.20375476      -0.56974089      -0.51875060
C        1.51601705      -1.61402737      -1.30983197
C       -3.67231473       0.72707761      -0.66564499
C       -1.20170335       1.82374889      -3.11805998
C        0.09120012       1.33912499      -3.38203799
C        1.76540678       2.89858845       0.34866573
C       -2.58356262       2.53771936      -0.85364570
C        0.75150272       3.81449769      -1.44855498
C        2.19911173       2.02069227      -2.87422077
C       -1.07240741       3.12893249      -2.58214358
C       -1.34703614       0.97662476       1.14837793
C       -1.01697925      -1.89687247      -1.87012357
C        5.58805036       1.51068578       2.09714452
C       -2.11294130       0.86068497      -2.60953883
C        0.35110433       2.82768523       0.62425664
C       -4.19694715      -1.03764001       0.94020692
C       -0.08809516       1.70940809       1.40030125
60
Properties=species:S:1:pos:R:3 entry_id=5 rank=30 energy=-475.30377197265625 pbc="F F F"
C       -0.73902968      -3.90523715      -0.47866830
C        0.64976282      -0.33475370      -2.57505440
C        4.94231317       3.33467300       0.89479870
C        0.50175596      -3.71326762      -1.00132289
C       -2.00920486      -1.52007075       2.10831134
C        2.81588868      -0.87844155      -1.37132290
C       -1.15520856      -4.59647113       0.76325027
C        3.06156511       5.48846929       0.65304797
C       -1.75833333       0.92689878      -0.29249262
C        1.24176185      -1.21164514       0.31716390
C        1.29976161      -0.98055349       1.69929655
C        3.08607821       2.68709991      -0.57124352
C       -1.79544586      -3.08203874      -0.95210752
C        0.90031481       3.47171061       0.07370062
C        1.09955551       3.01381936      -2.17567299
C        0.05909553      -0.79725764      -0.32763037
C        1.44133012       1.87785844      -2.92001147
C       -5.37699701      -2.58856134      -0.00642167
C       -5.58934632      -1.80030525       0.96375041
C        2.04483053      -0.24420476      -2.37708248
C       -2.87392125       2.26985437       0.58271488
C       -3.70791054      -1.16975402      -0.93608358
C       -2.37014935      -5.23751049       0.78069424
C       -3.39952467      -1.75730975       1.77546538
C       -3.19863219      -4.13077728       0.68262751
C       -0.92362709      -0.08927224       0.37206869
C       -3.96220678      -0.22669793       0.11374872
C        2.34982319       5.56355241       1.73209705
C       -4.17589551      -2.48799632      -0.73738566
C        3.65806700       0.12194347      -0.79804633
C       -2.49585138       0.12525435      -2.53003698
C       -0.08771107      -1.38525829      -1.72380105
C       -3.13756685      -3.15724929       1.73762327
C       -0.46463265       3.17096887      -0.40292584
C        4.18801831       3.72046906      -0.24114413
C       -2.65085794      -1.07972212      -1.91500067
C       -0.80719386      -3.87485327       1.90592006
C       -1.76898486      -2.96748482       2.20299025
C        3.37822406       3.69844530       2.81709737
C        3.91817054       3.01983570       1.75140405
C        2.23083711       4.26093221       2.22431264
C       -3.11849136      -3.37124593      -0.52242418
C        3.31066403       1.36794999      -1.31692453
C        2.05520731      -1.85556115      -0.69758121
C        0.97268422      -2.54877840      -1.45861480
C       -3.16447703       0.93980039       0.21882901
C       -0.77079913       1.75919666      -2.39173474
C        0.28439288       1.01275790      -2.94337250
C        2.82437855       2.61733296       0.90984795
C       -1.56151746       2.43179990       0.14249100
C        1.79065268       3.28757247      -1.00614704
C        2.48713905       1.10071247      -2.45476302
C       -0.26408493       2.91413179      -1.78634625
C       -1.03963054      -0.50574883       1.78321922
C       -1.53077041      -1.94845018      -1.75313311
C        3.79607069       5.03680444      -0.28677904
C       -1.81601578       1.01353263      -1.81853982
C        1.68846798       3.32087744       1.26643118
C       -4.46116091      -0.97924688       1.26079682
C        0.25033516      -0.65955415       2.34789932
60
Properties=species:S:1:pos:R:3 entry_id=0 rank=31 energy=-474.6695861816406 pbc="F F F"
C        1.73337876      -3.37336124      -0.91503591
C        2.05228048       0.14874374      -2.30059863
C        1.91361830       1.86907364       2.12901947
C        2.53022452      -2.20834312      -1.15217931
C       -2.92142139       1.05280982       2.39642135
C        2.47249915       0.67178443       0.13264322
C       -0.04062082      -3.76386657       0.95345161
C        2.54657675      -1.61403261       2.33174904
C       -2.62111773       0.78930404      -3.27699657
C       -0.06710918      -1.52195715       0.07074491
C       -1.20654741       1.61978351       3.80355611
C        1.12426237       3.57923923       0.02794440
C        0.41960374      -3.26480449      -1.41279458
C       -0.98334822       3.98418887      -0.79162525
C        0.58893038       3.45438307      -2.41907106
C        0.13148368      -0.45983918       1.05573197
C        1.59316618       2.42589582      -2.51739904
C       -2.92939876      -2.99312099       0.16986815
C       -3.24990588      -1.86924062       0.68206462
C        2.73162313       0.89429337      -1.26158106
C       -3.00737530       1.85971476      -2.43080987
C       -1.87706597      -1.71617728      -1.63121224
C       -0.05128481      -2.59232038       2.92457054
C       -2.28418497       0.26083216       1.38922662
C       -0.86732617      -1.79385800       3.48320478
C       -0.81641719       0.19546966       1.94164563
C       -2.52195066      -0.54107965      -1.09472739
C        2.06934941      -2.60212309       1.54495477
C       -1.83454639      -2.81468855      -0.70609101
C        2.56779373       1.90574616       0.84556148
C       -1.21366977      -1.06723838      -3.92676579
C        1.56752543      -1.24253062      -1.89523324
C       -1.35572448      -0.55248592       3.18096976
C       -1.68387715       3.76885500      -2.04440176
C        2.26962739       0.79311362       2.90920194
C       -0.89550102      -1.68055145      -2.71237738
C        0.74174796      -3.16625837       1.91140577
C       -2.18512546       0.62160941       3.62429824
C       -0.41471057       1.52582027       2.68551292
C        0.56489797       2.39315227       2.09894557
C        2.35989989      -2.78680021       0.16153654
C       -0.44065545      -2.96543468      -0.22610741
C        2.32550363       2.89969098      -0.14575949
C        1.28036070      -0.03287000       0.29101287
C        0.84067540      -0.87230733      -0.71761878
C       -2.77658289       0.52457892      -1.93796295
C       -1.42257280      -0.69892615      -5.25063321
C        1.47127750       1.13665202      -3.09472212
C        0.19735604       3.28027828       1.06275728
C       -2.92768117       3.15345881      -2.15329053
C        0.38635824       3.94273338      -1.09710479
C        2.49859967       2.28557145      -1.42338931
C       -0.65991876       3.57830675      -3.03693192
C       -2.98774331       2.37010990       1.93659747
C        0.40383912      -2.20337905      -2.38055655
C        2.57621598      -0.45674703       2.88037294
C       -2.02636157       0.05707177      -4.24661882
C       -1.15993262       3.57317035       0.58886564
C       -2.82032340      -0.57501175       0.36646949
C       -2.31175098       3.17505727       1.25429117
