60
Properties=species:S:1:pos:R:3 entry_id=0 rank=30 energy=-474.6693420410156 pbc="F F F"
C        1.73356887      -3.37257812      -0.91542958
C        2.05031452       0.14976520      -2.30059753
C        1.91424449       1.86852757       2.12916779
C        2.52917835      -2.20683905      -1.15208625
C       -2.92187475       1.05225543       2.39614059
C        2.47180340       0.67195908       0.13230707
C       -0.04078899      -3.76374519       0.95412350
C        2.54698930      -1.61414822       2.33243605
C       -2.62101246       0.78853319      -3.27671515
C       -0.06682272      -1.52247161       0.07087100
C       -1.20698738       1.61952002       3.80296470
C        1.12437354       3.57899428       0.02839858
C        0.41949559      -3.26514033      -1.41276225
C       -0.98258232       3.98397297      -0.79199411
C        0.59066049       3.45752648      -2.41969870
C        0.13121816      -0.46039795       1.05568703
C        1.59378926       2.42765066      -2.51758761
C       -2.92873162      -2.99345687       0.17109863
C       -3.25069776      -1.86998120       0.68309725
C        2.73067615       0.89469476      -1.26181264
C       -3.00537069       1.85957054      -2.43014605
C       -1.87741163      -1.71703816      -1.63112211
C       -0.05121230      -2.59195858       2.92503106
C       -2.28503763       0.26015389       1.38890587
C       -0.86714000      -1.79373072       3.48386757
C       -0.81676478       0.19455363       1.94178778
C       -2.52214924      -0.54182660      -1.09459658
C        2.06871755      -2.60117628       1.54480156
C       -1.83445214      -2.81525022      -0.70571588
C        2.56807759       1.90565405       0.84556646
C       -1.21475147      -1.06823054      -3.92658284
C        1.56610801      -1.24210348      -1.89593459
C       -1.35592941      -0.55264304       3.18143078
C       -1.68223446       3.76994663      -2.04539443
C        2.27124705       0.79302556       2.90935707
C       -0.89603491      -1.68137763      -2.71236239
C        0.74172888      -3.16619246       1.91198844
C       -2.18545769       0.62108483       3.62406447
C       -0.41479682       1.52509563       2.68520815
C        0.56521696       2.39207559       2.09876771
C        2.35970094      -2.78608185       0.16146031
C       -0.44046686      -2.96526837      -0.22569096
C        2.32586245       2.90001001      -0.14536093
C        1.27965839      -0.03262763       0.29055009
C        0.83985408      -0.87207767      -0.71801785
C       -2.77645542       0.52420985      -1.93746174
C       -1.42278322      -0.70024480      -5.25043310
C        1.47043490       1.13832921      -3.09451723
C        0.19714654       3.27922945       1.06270378
C       -2.92516748       3.15318602      -2.15324613
C        0.38705008       3.94301684      -1.09682029
C        2.49866490       2.28617903      -1.42319039
C       -0.65792012       3.58262188      -3.03839031
C       -2.98763830       2.36954060       1.93586929
C        0.40331022      -2.20384040      -2.38068386
C        2.57756274      -0.45702421       2.88081966
C       -2.02701107       0.05622246      -4.24682778
C       -1.16020088       3.57256400       0.58826650
C       -2.82111951      -0.57587095       0.36627543
C       -2.31272605       3.17478764       1.25316217
