60
Properties=species:S:1:pos:R:3 entry_id=17 rank=13 energy=-489.37127685546875 pbc="F F F"
C        2.38500482      -4.57509307      -0.25122054
C        2.37320435       0.15077134      -2.38215415
C        2.07380509       1.90863657       1.75109783
C        1.46696116      -3.78952722      -0.95668154
C       -2.42792642       2.24836683       2.48820532
C        3.22467469       1.03062118      -0.05554375
C       -0.53796953      -2.61525872       0.55386867
C        1.12323483      -0.81636727       2.69297214
C       -2.92524636      -0.14616084      -1.49460252
C        0.37717469      -0.34228416      -0.54007637
C       -1.34289477       1.78330824       3.22289126
C        0.85164960       3.55127544      -0.18099513
C        0.53021231      -3.03814614      -1.66810873
C       -1.36498529       3.58652725      -0.79876040
C        0.07522392       2.86296000      -2.39729802
C        2.28467902      -1.11909611       0.65234648
C        1.28956581       2.20238547      -2.60699789
C       -2.79391724      -1.60997734      -0.90571348
C       -2.85051715      -1.83725253       0.49478311
C        2.97611577       1.10036519      -1.46650189
C       -3.89172011       0.97285361      -1.76863891
C       -1.34018371      -1.38982807      -2.66125440
C       -3.96794004      -1.56384880       1.30938430
C       -1.39886938      -0.86939416       2.25732898
C       -3.82417326      -0.85893430       2.35541509
C       -0.15449310      -0.19468686       2.62552044
C       -0.75214620       0.17136195      -0.46570578
C        1.47284536      -1.74931596       1.67442299
C       -1.68083543      -2.14880638      -1.55019691
C        2.69904476       2.22018985       0.52543890
C        0.09611833       0.21994732      -3.28274868
C        2.04201950      -1.16156979      -1.92583746
C       -2.61264333      -0.28404170       2.75186349
C       -2.14178178       2.82028826      -1.72640789
C        2.64951238       0.66168258       2.19747206
C       -0.02988249      -1.16847262      -3.06703449
C        0.71884521      -2.86126574       1.18710221
C       -2.54352862       1.04073579       3.22585107
C       -0.12672395       1.26931366       2.74068411
C        0.68964189       2.17704564       1.93711082
C        1.50415148      -3.75002571       0.43187892
C       -0.63412003      -2.79081926      -0.86951718
C        2.11988928       3.03564042      -0.45388740
C        3.04731476       0.02327626       0.94285514
C        1.57081122      -0.98290710      -0.58417628
C       -2.04789686       0.49373654      -0.41685761
C       -1.17310580       0.86156266      -3.03811157
C        1.30566582       0.85165223      -3.02977059
C        0.09391556       3.11091104       0.97241972
C       -3.26290767       2.08287519      -1.22782207
C       -0.04280770       3.70584062      -1.27032284
C        2.34065982       2.36928502      -1.68580361
C       -1.19352970       2.20523456      -2.60059334
C       -2.37595209       2.51557810       1.10012756
C        0.98893499      -1.97115964      -2.54778736
C        2.16870756      -0.05263171       3.24486989
C       -2.06082140      -0.18300127      -2.68955814
C       -1.29932506       3.24890209       0.58577995
C       -1.57246720      -1.86163690       1.19624494
C       -2.77133836       1.60955319       0.08376056
