60
Properties=species:S:1:pos:R:3 entry_id=24 rank=2 energy=-497.2953186035156 pbc="F F F"
C        2.91781682      -3.33363756      -1.02880149
C        2.25521296       0.11577740      -2.24762760
C        1.83366080       1.82343955       1.75600026
C        1.81254959      -4.01778271      -1.57789880
C       -2.53163752       2.91393313       2.73796311
C        3.07455208       0.98275297      -0.00815350
C       -0.01371132      -3.07168484       0.30183159
C        0.76155615      -1.63916365       1.93388146
C       -2.95766820      -0.58592545      -1.69260301
C       -0.39452542      -2.03795953       1.25254311
C       -1.42549267       2.35219667       3.42041633
C        0.73141153       3.58561031      -0.13925909
C        0.71863355      -3.25045548      -1.98607983
C       -1.52326397       3.34477052      -0.69199036
C       -0.10612231       2.71223272      -2.32102075
C        2.69078180      -1.48568930       0.45293361
C        1.16002308       2.15081633      -2.57347921
C       -2.57215655      -1.72887156      -0.90731756
C       -2.76524877      -1.40249579       0.48067626
C        2.85426922       1.08920384      -1.39797901
C       -3.52954030       0.35297067      -0.83600416
C       -1.27111400      -1.62391457      -2.76889623
C       -3.60533808      -0.25212169       0.44194022
C       -1.60665772      -0.24495944       2.49891556
C       -3.52008889       0.75000911       1.41151610
C       -0.32469747       0.34022303       2.90058904
C       -1.08313813       0.19189926       0.44588121
C        1.86603366      -2.30441971       1.27668374
C       -1.49474934      -2.37026608      -1.58460862
C        2.55656464       2.18018690       0.59730330
C        0.06174935       0.11907309      -3.35437028
C        2.20513509      -1.29945037      -2.00730195
C       -2.77470403       0.51191805       2.57891828
C       -2.29081549       2.42954277      -1.47269847
C        1.90941886       0.41471504       1.89462300
C        0.02982611      -1.28787605      -3.17202674
C        1.29661426      -3.45498606       0.69040776
C       -2.64329156       1.66086231       3.36787167
C       -0.23463556       1.75752271       3.00237073
C        0.65649690       2.49513994       2.14260265
C        2.10423006      -4.15007906      -0.19872423
C       -0.37969709      -3.11514820      -1.07196238
C        1.98017275       2.99968896      -0.39443189
C        2.73734560      -0.11074904       0.83431338
C        2.88029951      -1.92628419      -0.90039175
C       -1.06723934       1.42440347       0.51440000
C       -1.24974557       0.66952129      -3.07124456
C        1.22936576       0.79159306      -2.99380793
C        0.05472698       3.32514384       1.11902314
C       -3.27457038       1.71867813      -0.70693726
C       -0.22926214       3.57413207      -1.21101876
C        2.20865026       2.35854186      -1.64158793
C       -1.34369606       1.95906589      -2.48431179
C       -2.61415980       2.96392117       1.33878325
C        1.10310146      -2.01670193      -2.59053238
C        0.85823946      -0.33064689       2.45275805
C       -2.09424199      -0.44590196      -2.78488145
C       -1.31211410       2.83264869       0.69796502
C       -1.48185191      -1.03100841       1.18010212
C       -3.43633092       1.98721971       0.72974576
