60
Properties=species:S:1:pos:R:3 entry_id=26 rank=0 energy=-497.47723388671875 pbc="F F F"
C        2.95015188      -3.37607864      -1.07095110
C        2.28740615       0.09399942      -2.26036679
C        2.00993693       1.74740542       1.85754183
C        1.84285246      -4.05521687      -1.62634792
C       -2.58384148       2.87832297       2.66452308
C        3.12374925       0.93138567      -0.00584189
C       -0.01995480      -3.16226804       0.28380711
C        0.77243965      -1.68251541       1.87853890
C       -2.92763326      -0.61858140      -1.71843367
C       -0.43689401      -2.14518737       1.27607069
C       -1.41183517       2.33662157       3.28470136
C        0.71349747       3.46653949      -0.07308634
C        0.75186756      -3.27500265      -2.01848000
C       -1.67541753       3.51195216      -0.78590424
C       -0.11354552       2.67150845      -2.23492460
C        2.72639775      -1.53705343       0.40971936
C        1.15888425       2.12679392      -2.51589907
C       -2.49579480      -1.74099198      -0.92253785
C       -2.70070534      -1.41260745       0.45802528
C        2.88705825       1.05499786      -1.39344661
C       -3.51267720       0.31333540      -0.85507502
C       -1.24861703      -1.65563737      -2.81894734
C       -3.59366292      -0.29050036       0.41955643
C       -1.49149446       0.00483434       2.02177227
C       -3.64434045       0.72501724       1.39245080
C       -0.24421365       0.33661632       2.82600852
C       -1.30921628       0.97258042       0.93374931
C        1.85921148      -2.34041156       1.20237532
C       -1.45086779      -2.39416288      -1.61938452
C        2.63652033       2.12151260       0.63445322
C        0.08075439       0.10840788      -3.34995789
C        2.24614056      -1.32798389      -2.04740186
C       -2.83069256       0.48208968       2.52717156
C       -2.32255335       2.42350693      -1.47700615
C        2.03736725       0.32869561       1.93259852
C        0.05691572      -1.30320579      -3.20067072
C        1.31065266      -3.50910620       0.64226165
C       -2.63407215       1.64463957       3.27430104
C       -0.12031435       1.73189298       3.14466783
C        0.83690237       2.40670603       2.28012948
C        2.13039523      -4.19531018      -0.24578883
C       -0.34864605      -3.14982584      -1.10352002
C        2.00884890       2.94675471      -0.34547803
C        2.81590448      -0.17525442       0.82728695
C        2.92675497      -1.96793464      -0.94726752
C       -1.02288713       2.24498850       0.88338335
C       -1.23230515       0.64636904      -3.06350828
C        1.24327033       0.78147506      -2.97575234
C        0.17597914       2.95308759       1.15477357
C       -3.28614637       1.69370160      -0.70786718
C       -0.27054718       3.55316772      -1.13925027
C        2.22407131       2.32383502      -1.60208031
C       -1.33369420       1.91803754      -2.42530079
C       -3.04947111       3.12196300       1.32868019
C        1.13267636      -2.03745913      -2.62324954
C        0.92496800      -0.38795249       2.42714042
C       -2.08079749      -0.47779939      -2.82569061
C       -1.88229510       3.37541921       0.59894554
C       -1.61562570      -1.36702360       1.36857485
C       -3.58388740       1.96808463       0.70121981
