60
Properties=species:S:1:pos:R:3 checkpoint_path=runs/20260728-direction-conditioned-checkpoint-shooting/output-v3/cases/intermediate_accepted-seed44-balanced_refinement/proposal_trajectories/trial0001_proposal001_step007_proposal_relax.xyz pbc="F F F"
C       -1.16038617      -3.02866912      -0.92466229
C        1.84736671      -2.28383946       2.77443996
C       -1.45317537       0.11907112       2.26462908
C       -0.20548247       2.98504398      -2.57586575
C       -2.28805421       1.68088859      -3.15641494
C        0.55911119      -0.91800834       3.50764797
C       -2.37704552      -2.29165357      -1.03187523
C       -2.35501416      -3.18891273       1.09617048
C        0.24778674       4.14961373       0.62876520
C        1.20905439       2.94650001      -2.39274348
C       -2.65076668       2.29511636      -0.72671954
C        0.52593130       2.19149583       1.81780132
C        0.11285226      -2.58765413      -1.48652075
C        0.48690768       4.34920637      -0.75533010
C        2.65213441       3.79970680       2.07395816
C       -3.14476812      -1.05045176       0.92588476
C        2.17974963       0.10955512       2.13210592
C        1.18287246       0.59127581      -2.91862794
C       -0.17367610       0.63969844      -3.33086080
C       -0.11753672      -3.56742528       1.22117177
C        2.45342918       1.58651592      -0.99719286
C        2.35252006      -0.81105696      -1.35605308
C       -2.93883710       0.42336635      -3.40938758
C       -2.76908915      -1.25143004      -1.88858238
C       -3.64788934      -0.28114066      -1.31651620
C       -3.41327655       0.06395945       0.06550681
C        2.63954760       0.27923929      -0.44633609
C       -3.01967268      -2.29060963       0.25605369
C        1.45353655      -0.70546670      -2.43397486
C       -0.10248006       0.11182557       2.78631317
C        2.81980350      -1.75920840       0.65336482
C        1.16048909      -3.37470406       0.68090955
C       -3.85512792       0.71178110      -2.28991982
C        1.64153479       3.72680028      -1.27638659
C       -2.26603702      -1.06642637       2.08766884
C        2.40381255      -2.02879590      -0.67943773
C       -2.16519536      -0.73958079      -3.05366916
C       -3.12968747       1.91525736      -2.01542021
C       -2.77514658       1.32285343       0.35629059
C       -1.80447972       1.26989035       1.43817984
C       -1.23317969      -3.69066163       0.35767442
C        0.25696989      -1.52274100      -2.48481063
C        0.98306610       0.94572600       2.27264204
C        0.46563714      -2.29271532       3.17760411
C        2.17151289      -2.70984879       1.48222083
C        2.74081439      -0.33224391       0.90092857
C       -0.99816627       3.43425579       0.65278785
C        1.97851960      -0.90714453       3.13458705
C       -0.83444581       2.28007805       1.40966793
C        1.80176300       1.68432289      -2.29413722
C        1.22872103       3.43965166       1.50657250
C       -0.52242520      -2.87603979       2.39483270
C        2.48412054       2.90201663      -0.44848318
C       -0.88825893       1.85855089      -3.18918344
C        1.27106454      -2.89433921      -0.67655566
C       -1.87006726      -2.45277063       2.25286192
C        2.61863894       3.23429792       0.89225519
C       -1.67828534       3.35201437      -0.58126983
C       -0.76042493      -0.66870391      -3.14303853
C       -0.69056244       3.81294602      -1.51329222
