60
Properties=species:S:1:pos:R:3 checkpoint_path=runs/20260728-direction-conditioned-checkpoint-shooting/output-v3/cases/intermediate_accepted-seed44-balanced_refinement/proposal_trajectories/trial0001_proposal001_step006_proposal_relax.xyz pbc="F F F"
C       -2.69523687      -2.14695478      -0.27561860
C        1.79285159      -3.59282472       0.69750190
C        0.23603899      -0.45397474       2.50146586
C       -0.44899714       3.62257740      -1.83163548
C       -2.76272425       3.08339153      -0.97737770
C        1.93354034      -2.36781881       2.25233452
C       -3.32177796      -1.14125855       0.49951598
C       -2.56427752      -2.68939774       2.00647985
C        2.19281322       3.15645712       0.20732977
C        0.62376970       3.17784920      -2.65018586
C       -1.33976266       2.79084005       1.04566690
C        2.46656583       0.94377782       0.91095909
C       -1.91169163      -1.86872650      -1.47979824
C        1.67774947       4.01870785      -0.81652344
C        4.74587257       2.17479729      -0.38805208
C       -2.28416932      -0.46824645       2.58140233
C        2.91771127      -1.38058545       0.30785803
C       -0.65131909       1.16837856      -3.16311714
C       -1.83546677       1.68815412      -2.58218503
C       -1.02451160      -3.66361128       0.64094283
C        1.78072839       1.19299517      -2.48013420
C        0.54624629      -0.84364105      -2.62513214
C       -3.90061783       2.21492540      -0.81668125
C       -3.61448458       0.18796502       0.16047759
C       -3.54063275       1.12066090       1.23393675
C       -2.42811693       0.88565798       2.14900276
C        1.70761151      -0.18611055      -2.04209251
C       -3.11539269      -1.40467849       1.89274495
C       -0.67372322      -0.23156389      -2.96251824
C        1.58473543      -0.98924745       2.23096599
C        1.55162513      -2.41997704      -1.35999958
C       -0.29552806      -3.56947811      -0.55462349
C       -3.79186992       2.37202690       0.64502520
C        1.90994377       3.46208649      -2.08367483
C       -1.02158056      -1.13835308       2.87435576
C        0.43520547      -2.14145276      -2.17297718
C       -3.62978416       0.83155675      -1.09925898
C       -2.57868250       3.09441454       0.42984728
C       -1.21816560       1.60658346       1.86120258
C        0.04225594       0.84504032       1.92055928
C       -2.35114993      -3.18350403       0.67369152
C       -1.89813790      -0.64208757      -2.28085119
C        2.59438676      -0.40198506       1.29472432
C        1.01637239      -3.39465002       1.88690021
C        1.13389324      -3.46278963      -0.52380126
C        2.27012959      -1.25405891      -1.01032480
C        1.03365752       2.69131605       0.81132265
C        2.76575490      -2.61940543       1.05250316
C        1.14402377       1.36561415       1.19479964
C        0.58516473       1.83409426      -3.05101935
C        3.21321879       2.06306968       0.18704662
C       -0.38205524      -3.35393943       1.87385725
C        2.67919751       2.24311466      -2.13863905
C       -1.73684932       2.94442620      -1.92977165
C       -0.74141259      -2.68007775      -1.59172998
C       -1.26917925      -2.54459827       2.64380802
C        3.71784595       2.03812141      -1.20761609
C       -0.14379611       3.38144188       0.56590011
C       -2.66377063       0.59037947      -2.09731761
C        0.17656140       4.08486527      -0.63326846
