60
Properties=species:S:1:pos:R:3 checkpoint_path=runs/20260728-direction-conditioned-checkpoint-shooting/output-v3/cases/plateau_accepted-seed44-deep_refinement/macro_checkpoints/step003_checkpoint.xyz pbc="F F F"
C       -0.76422851       2.55536673       1.93572897
C       -1.23565111      -0.41965530       2.00645676
C        1.66841994      -1.39112498       1.40364807
C        0.19514383       0.40332646      -3.74175479
C        1.53342417       2.24772525      -2.82076330
C        0.23987189       0.63968560       0.18621423
C        0.60930071       2.74593747       1.54189172
C        0.60167518       1.38731349       3.35186097
C        0.88521910      -2.73959717      -2.38351560
C       -1.09604494      -0.16954137      -3.90540470
C        2.73066367       0.24874722      -1.72898503
C        1.21554074      -3.05265915      -0.14790780
C       -1.84696347       2.25505097       1.03811615
C        0.30113154      -1.89624388      -3.34457206
C       -0.99626352      -2.80581365      -0.68200261
C        2.23326901       0.92741039       1.85795496
C       -0.78819290      -2.37782170       0.68123020
C       -2.07715224       1.56285668      -2.53810472
C       -0.83024384       2.24789519      -2.51463746
C       -1.70715249       1.07897528       3.80347592
C       -3.00527956      -0.67575125      -2.78235880
C       -3.47441012       0.65850782      -0.77235076
C        1.61800712       3.34180920      -1.90228866
C        1.21632892       3.04706804       0.31291830
C        2.48353517       2.44911766       0.04083424
C        2.75287317       1.16164727       0.56715271
C       -3.60955505      -0.54152469      -1.53215476
C        1.41801888       1.94605588       2.37256712
C       -2.66098853       1.69094682      -1.24790364
C       -0.34258447       0.18822357       1.19183127
C       -2.92108148      -1.11788440       0.58772748
C       -2.20879053       0.46291330       2.63734626
C        2.79222088       2.71094223      -1.30470765
C       -1.04378758      -1.56969385      -3.57151673
C        1.75695756      -0.33325280       2.37740319
C       -3.27233394       0.28486122       0.57595320
C        0.58813048       3.38915850      -0.90054453
C        2.63916947       1.58747960      -2.17968769
C        2.87634660       0.03897471      -0.30551243
C        2.53110068      -1.23342172       0.24440726
C       -0.69390636       1.89370558       3.23004821
C       -1.79295953       2.46413660      -0.38723086
C        0.64398390      -2.39480425       0.98526062
C        0.05997789      -0.54733413       4.47444236
C       -0.76247451      -0.85602267       5.56941581
C       -3.14261686      -1.61638931      -0.71390212
C        2.13099658      -2.11813589      -1.99486620
C       -1.77756288      -1.55729216       1.30330558
C        2.32760133      -2.32575572      -0.62671471
C       -2.25098314       0.40470041      -3.31935507
C        0.26693990      -3.22409539      -1.20319693
C       -1.18028733       0.12871892       4.70127067
C       -2.15920743      -1.85517539      -2.75792354
C        0.29291577       1.72086910      -3.20587010
C       -2.72083831       1.19919540       1.50218431
C        0.91345519       0.02089405       3.53256695
C       -2.14083257      -2.35463544      -1.41104883
C        2.18851116      -0.79987430      -2.52867861
C       -0.68597026       2.91398186      -1.24290476
C        1.08303968      -0.67708175      -3.42978211
