60
Properties=species:S:1:pos:R:3 checkpoint_path=runs/20260728-direction-conditioned-checkpoint-shooting/output-v3/cases/plateau_accepted-seed44-deep_refinement/macro_checkpoints/step004_checkpoint.xyz pbc="F F F"
C        0.72762311       2.75388259       1.59677355
C       -2.46173094       0.93784951       1.69433794
C       -0.98366402      -1.85152665       1.61942045
C        1.35104021      -0.75761667      -3.44149540
C        3.22051677      -0.25577656      -1.93241993
C       -2.00179722       0.14098586       2.81024340
C        1.85525846       1.91350416       1.80729726
C        0.48772672       1.70895140       3.66340735
C       -0.96792151      -3.05745345      -2.19794634
C        0.20116529      -0.28059951      -4.13431950
C        2.04615562      -2.08126614      -0.54894551
C       -1.80246739      -3.12191863      -0.08402910
C        0.05679532       2.94146611       0.34256342
C       -0.38681868      -2.30252095      -3.23063141
C       -2.75017460      -1.45346822      -1.36022928
C        1.40430315      -0.27082485       2.78363384
C       -2.77909740      -1.02202992       0.03660500
C        0.46097283       1.90606654      -3.12626952
C        1.72465689       1.49843920      -2.59239552
C       -1.44525169       2.96135709       2.80707699
C       -1.68565199       0.96384136      -3.83500723
C       -1.60007574       2.62782283      -2.02716163
C        3.82763249       0.63607757      -0.98813657
C        2.71891626       1.31837503       0.87613803
C        3.05448510      -0.04981371       1.08108856
C        2.05197518      -0.89608061       1.65543445
C       -2.33546323       1.74410561      -2.87082320
C        1.59528775       1.13158777       2.96077159
C       -0.19626319       2.69038709      -2.13170194
C       -0.99691543      -0.90396082       2.64244730
C       -2.95055336       1.28341276      -0.68182591
C       -1.96578379       2.30626968       1.65365334
C        3.85406059      -0.45272882      -0.00681536
C       -0.89609251      -1.19602433      -3.92850513
C        0.13625649      -0.51909814       3.38288664
C       -2.12163855       2.44433466      -0.71349752
C        2.94453187       1.65562048      -0.47830733
C        3.16074165      -1.29265203      -0.92929032
C        1.49020761      -1.93419342       0.79706009
C        0.16266819      -2.50006797       1.00224582
C       -0.05326204       2.71414562       2.82239393
C        0.65936457       2.79685336      -0.96680948
C       -2.12518491      -2.05295248       0.78589418
C       -1.70852254       0.74615267       4.07804605
C       -2.36887613       1.87089321       4.55922649
C       -3.08153272       0.85461416      -2.02535197
C        0.09803723      -3.38357208      -1.27789516
C       -2.87255423       0.36679421       0.41117729
C       -0.40124690      -3.37646613       0.02506288
C       -0.26736945       1.05117864      -3.98116364
C       -2.11861665      -2.73899038      -1.42598295
C       -2.22148319       2.99610345       3.98506791
C       -2.04215492      -0.42985915      -3.61331001
C        2.22023084       0.18260336      -2.81848705
C       -1.37231504       2.76489720       0.42191467
C       -0.29599485       0.64204082       4.14586480
C       -2.82817449      -0.49220552      -2.40583208
C        1.25805323      -2.63661878      -1.60641419
C        1.92309224       2.14147463      -1.31941187
C        0.99843804      -2.02818937      -2.88238225
