60
Properties=species:S:1:pos:R:3 entry_id=1 rank=10 energy=-474.8531494140625 pbc="F F F"
C        1.80980234      -3.41915692      -0.83712975
C        2.14131506       0.10350716      -2.26441860
C        1.91569410       1.87565689       2.14222107
C        2.62695097      -2.26456335      -1.06666563
C       -2.92393432       1.06615524       2.30371535
C        2.51871147       0.66978638       0.16150158
C       -0.02993178      -3.77504776       0.97754985
C        2.53392356      -1.61717483       2.39955214
C       -2.99193867       0.90998104      -3.38858613
C       -0.00774239      -1.54531312       0.07384990
C       -1.24508924       1.62290414       3.75644288
C        1.14004658       3.58067634       0.02606835
C        0.51178700      -3.31276199      -1.37512911
C       -0.96417607       3.99425249      -0.78476609
C        0.57843822       3.37584607      -2.40765301
C        0.16026974      -0.46250812       1.04421469
C        1.60352137       2.36513992      -2.49694856
C       -2.89156292      -2.95738151       0.09980364
C       -3.20907016      -1.81481322       0.56983319
C        2.79494545       0.88102699      -1.23208980
C       -3.15180096       1.89184047      -2.36321797
C       -1.76830527      -1.71903158      -1.68758598
C       -0.08240801      -2.59132071       2.92979407
C       -2.25601419       0.29717378       1.29506057
C       -0.90961636      -1.78085111       3.45168230
C       -0.81055731       0.20310201       1.89954419
C       -2.44986655      -0.52430559      -1.22736646
C        2.07868361      -2.62009351       1.61822122
C       -1.76365413      -2.79491197      -0.74163161
C        2.58207625       1.91081291       0.86454191
C       -1.06166177      -1.24180154      -3.98030122
C        1.68370554      -1.30024916      -1.84802501
C       -1.38396466      -0.54182518       3.12608654
C       -1.68853769       3.72046083      -2.00483346
C        2.25933966       0.80164534       2.93041028
C       -0.73895301      -1.73812558      -2.74711030
C        0.73834374      -3.17535992       1.94658679
C       -2.22273809       0.62718324       3.54616382
C       -0.42195860       1.53327262       2.66201557
C        0.56919050       2.40493357       2.10118101
C        2.41284514      -2.82586904       0.24756330
C       -0.38575664      -2.98537282      -0.22149329
C        2.33602362       2.89016406      -0.13936272
C        1.33360725      -0.05046696       0.30749517
C        0.93165381      -0.91680459      -0.69158668
C       -2.80190697       0.52913230      -2.05891975
C       -1.84536619      -0.50965247      -4.64355165
C        1.51758591       1.06520630      -3.05784992
C        0.21404650       3.30178365       1.06878880
C       -2.96136778       3.15918775      -2.04014864
C        0.40221931       3.92595724      -1.10472144
C        2.52063779       2.26477358      -1.41028663
C       -0.68713138       3.45409250      -3.00162142
C       -3.00517369       2.39377542       1.88086147
C        0.54930428      -2.26095790      -2.35015463
C        2.55987015      -0.44967619       2.92647478
C       -2.75418346       0.45193732      -4.63215995
C       -1.14023511       3.60441688       0.59554566
C       -2.76805694      -0.52912222       0.25000178
C       -2.30495935       3.20986847       1.23754409
