60
Properties=species:S:1:pos:R:3 entry_id=12 rank=1 energy=-477.95745849609375 pbc="F F F"
C        2.09808892      -3.67892426       0.75887791
C        2.70333176      -0.50422100      -2.89149780
C        1.37630549       3.40378126       1.09582536
C        2.97652779      -2.90995868       1.35913466
C       -1.99465364       2.38636524       1.43929182
C        2.25510853       0.60181001      -0.61046855
C       -1.77584502      -4.81276437       0.04065959
C        3.78177243       0.63473164       2.20452360
C       -3.04767796       1.18081759      -2.97137659
C        0.09364540      -3.54424974      -0.77503448
C       -0.07456928       2.88567230       4.36520619
C        1.43317911       3.74576607      -0.28526721
C        1.04833222      -3.99305378       0.11249598
C       -0.88995723       4.40514806      -1.06067506
C        0.15383493       4.41843481      -3.58805934
C        0.80409024       0.70505700       1.60750366
C        1.09193858       4.28205974      -2.53379698
C       -2.17714480      -2.26141263       1.25377457
C       -2.19287935      -1.25452376       2.04584751
C        2.16740139      -0.48024757      -1.62375709
C       -3.12686505       1.92154286      -1.83431365
C       -2.42471026      -1.15778249      -0.73435366
C       -2.48945287      -7.12578862       0.86443978
C       -1.54229396       1.16966827       1.93535261
C       -2.82036754      -8.31096953       1.22850400
C       -0.11972589       1.24126521       2.38889559
C       -2.64173049       0.02835773      -0.02943746
C        3.83330162      -0.62937138       2.10429195
C       -2.04256485      -2.37282615      -0.14734925
C        2.70075478       1.82185121      -0.88985382
C       -0.98330475      -1.65061523      -3.64316538
C        1.30611345      -1.49824321      -1.08950079
C       -3.16106292      -9.40129118       1.81390991
C       -1.73341037       4.07824258      -2.20128662
C        2.44672550       2.69457048       1.63557854
C       -0.16938050      -2.23710297      -2.87325928
C       -2.12562523      -5.96461622       0.40659888
C       -0.19330299       3.14900013       5.59083065
C        0.13353427       2.58184907       3.05121562
C        0.15888243       3.45243437       1.86625433
C        3.54185752      -1.85974838       1.79925852
C       -1.32502133      -3.64378191      -0.48698260
C        2.45203754       3.12572363      -1.16067996
C        1.39412105       0.10825914       0.56300918
C        0.98231422      -1.18532302       0.20664671
C       -3.06476265       1.34084301      -0.48426682
C       -1.90233490      -0.80337376      -3.96945374
C        3.18401456      -0.61251921      -4.04403063
C       -1.12472495       3.50348797       1.26644492
C       -2.86384222       3.35853860      -1.66856007
C        0.50168158       4.31420660      -1.19221203
C        2.36327391       3.72542752      -2.46271561
C       -1.11482040       4.24479711      -3.44748291
C       -2.98846366       2.40374094       0.43268713
C        0.53607721      -2.53468728      -1.75463376
C        3.28278145       1.84007892       2.03981644
C       -2.63596051       0.20719696      -3.66335281
C       -1.61258841       4.20428517       0.12703815
C       -2.18642320       0.00374519       1.41750484
C       -2.85861023       3.61977911      -0.26962606
