60
Properties=species:S:1:pos:R:3 entry_id=0 rank=11 energy=-474.66973876953125 pbc="F F F"
C        1.73318550      -3.37410962      -0.91495785
C        2.05305886       0.14790824      -2.30020568
C        1.91353228       1.86935701       2.12895180
C        2.52995903      -2.20911688      -1.15171006
C       -2.92093694       1.05264815       2.39649395
C        2.47307548       0.67161691       0.13314741
C       -0.04154187      -3.76227297       0.95354687
C        2.54699725      -1.61381353       2.33209724
C       -2.62035464       0.79046043      -3.27685342
C       -0.06722964      -1.52124286       0.07026859
C       -1.20637301       1.62010813       3.80366344
C        1.12409711       3.57918188       0.02757203
C        0.41915841      -3.26511592      -1.41270715
C       -0.98423839       3.98434626      -0.79114295
C        0.58744083       3.45212829      -2.41864197
C        0.13164433      -0.45965722       1.05558501
C        1.59239621       2.42428381      -2.51731550
C       -2.93039539      -2.99389711       0.16823816
C       -3.24911253      -1.86942116       0.68031631
C        2.73257890       0.89365224      -1.26117261
C       -3.00893732       1.86029535      -2.43132024
C       -1.87712423      -1.71558791      -1.63278205
C       -0.05084858      -2.59193212       2.92441498
C       -2.28383780       0.26089080       1.38923759
C       -0.86600871      -1.79315943       3.48424634
C       -0.81585915       0.19532604       1.94219087
C       -2.52158801      -0.54036284      -1.09531462
C        2.06922188      -2.60192983       1.54522814
C       -1.83491760      -2.81378962      -0.70733099
C        2.56795408       1.90597234       0.84562679
C       -1.21259994      -1.06622861      -3.92705842
C        1.56785346      -1.24322268      -1.89520395
C       -1.35499850      -0.55226674       3.18181064
C       -1.68493117       3.76766699      -2.04355538
C        2.26895901       0.79345460       2.90923088
C       -0.89432460      -1.67971647      -2.71282377
C        0.74164563      -3.16544069       1.91123406
C       -2.18469165       0.62161403       3.62422168
C       -0.41450783       1.52641457       2.68564955
C        0.56513032       2.39383173       2.09912327
C        2.35933447      -2.78743702       0.16180946
C       -0.44118644      -2.96383344      -0.22618164
C        2.32551987       2.89964958      -0.14611308
C        1.28086489      -0.03313275       0.29105932
C        0.84129718      -0.87238027      -0.71772076
C       -2.77671218       0.52569874      -1.93784652
C       -1.42273147      -0.69864181      -5.25068996
C        1.47159689       1.13505415      -3.09485342
C        0.19750459       3.28065532       1.06274529
C       -2.92928415       3.15382963      -2.15271610
C        0.38544218       3.94201765      -1.09717695
C        2.49829803       2.28470642      -1.42344433
C       -0.66163654       3.57486057      -3.03606833
C       -2.98822088       2.36984856       1.93655031
C        0.40428069      -2.20336989      -2.38024726
C        2.57593702      -0.45648020       2.87959008
C       -2.02481151       0.05825736      -4.24620286
C       -1.16003771       3.57355783       0.58943051
C       -2.81982652      -0.57496821       0.36608150
C       -2.31123694       3.17436746       1.25499555
