60
Properties=species:S:1:pos:R:3 system=runs/20260728-safe-lbfgs-strict-quench-200-production/output-c60-seed42 state_id=plateau_accepted pbc="F F F"
C       -2.95080106       1.25514141       1.29674377
C       -0.50576124      -0.30586774       2.15339055
C        2.03655472       1.09914663       1.67574307
C        0.46983355       0.06032992      -3.58083971
C       -0.35746359       2.33814323      -3.19533336
C       -0.43203126       0.74507516      -0.30322682
C       -2.13750572       2.35740343       0.98508437
C       -1.45086623       1.57740253       3.02957397
C        3.28305468      -0.67513619      -1.82931197
C        0.28349257      -1.34399382      -3.41873054
C        1.70487190       2.48724028      -1.74195194
C        3.43256425      -0.23442620       0.38607568
C       -3.06816510       0.13323499       0.41987048
C        2.42118604      -0.95455038      -2.89856993
C        2.07736364      -2.08195241      -0.02851927
C        0.19525002       2.57853207       1.73444079
C        1.65914026      -1.40884564       1.20252523
C       -1.92856885      -1.04094230      -2.70660422
C       -1.80512950       0.39159510      -2.93273664
C       -2.79063824      -0.34639514       3.41131154
C       -0.46565469      -3.14317526      -2.28842357
C       -2.15632407      -2.40733728      -0.78036662
C       -1.33665259       3.09664104      -2.49343110
C       -1.79088377       2.87117568      -0.28131731
C       -0.54510126       3.55265341      -0.39058995
C        0.51486394       3.10709932       0.41981663
C       -1.10961287      -3.39030505      -1.08826216
C       -1.18209051       2.47662904       2.00620546
C       -2.69607797      -1.27796361      -1.55446869
C       -0.44270514       0.34069566       0.86797484
C       -0.50886341      -2.44315457       0.93273713
C       -1.94395772      -0.72655117       2.34213738
C       -0.32102057       3.83117126      -1.76294927
C        1.44492864      -1.99326842      -2.94541326
C        0.92369735       1.57586546       2.45503787
C       -1.80695997      -2.02050300       0.51598393
C       -2.19129746       2.41520790      -1.58037630
C        0.66465038       3.06827296      -2.46213882
C        1.67513332       2.64426819      -0.28441763
C        2.50704735       1.81888654       0.47962070
C       -2.65878792       0.90974825       2.70326314
C       -3.07416527       0.03829337      -1.00210813
C        2.46498176      -0.24870809       1.42361105
C       -0.74535907       0.07380168       4.63252774
C       -1.46856614      -0.10386822       5.84851282
C       -0.06315738      -3.34023811      -0.06245381
C        3.34463997       0.75547195      -1.61353501
C        0.32373823      -1.54895728       1.67604197
C        3.45168044       1.02686582      -0.23920140
C       -0.87068433      -1.94877079      -2.97605261
C        3.15941944      -1.27255833      -0.55691045
C       -2.08617095      -0.37491260       4.62423902
C        0.98693494      -3.06017158      -2.09020378
C       -0.59571731       0.96253307      -3.41984807
C       -2.50392379      -0.98762416       1.08003515
C       -0.24483572       0.70326509       3.30545599
C        1.21734225      -3.06474336      -0.66756645
C        2.35292550       1.38291110      -2.38548748
C       -2.56752851       1.08211581      -1.90829948
C        1.81312954       0.34163731      -3.25327066
