60
Properties=species:S:1:pos:R:3 trial_index=28 seed_entry_id=23 discovered_entry_id=24 energy=-500.46673583984375 status=accepted pbc="F F F"
C        0.18893454      -2.65562571       1.22020348
C        3.10553206       0.28580118      -0.78851120
C        0.96420373       2.85156035       2.16954144
C       -0.94415189      -3.54452970       1.31710169
C       -3.76225359      -0.18348016      -1.41249857
C        2.91371406       1.80877279       1.36363006
C       -2.83337541      -0.36099555       1.36243011
C        1.21939764       1.67363794       2.90584417
C       -0.82545237       0.81483293      -3.38376446
C        0.90930936      -0.59507345       2.74341355
C       -2.56754706       2.12247221       1.14888773
C        0.68038982       3.76243835      -0.49257716
C        0.72742975      -2.55658868      -0.16168192
C       -1.24645765       3.36725607      -1.69336244
C        0.98327446       2.34466385      -2.49514890
C        0.25438665       0.65817845       3.00062334
C        2.31267277       2.09925002      -2.03112599
C       -1.87228836      -3.60844414       0.23482450
C       -1.53090978      -3.18336824      -1.03087459
C        3.25571546       1.48075772       0.00838467
C       -2.87710791       0.35000392      -3.40181949
C       -0.06160584      -1.98682654      -2.30052858
C       -1.24321745      -1.53342659       2.88211623
C       -3.19573116      -1.39494993      -0.86763036
C       -1.95264695      -2.57131009       3.48282164
C       -1.09257015       0.89569858       2.62843315
C       -1.37595442      -1.55991738      -2.66241614
C       -2.76450796      -2.84139681       1.03707453
C       -0.18108457      -2.89311536      -1.20934305
C        2.08983831       3.00662472       1.31263972
C        1.44822172       0.03775517      -2.62046967
C        2.87125199      -1.05321460      -0.33317717
C       -1.86745827      -0.30148308       2.41804339
C       -2.27153859       2.49479167      -2.18461928
C        3.24563053      -1.26001187       2.07267828
C        1.12064458      -1.24047692      -2.10283773
C       -3.08702031      -1.54289589       0.57979049
C       -3.15599129       0.88299707       0.75816635
C       -1.41560961       2.14681108       1.98206623
C       -0.35420155       3.11073871       1.68045924
C       -2.00167425      -3.10919853       2.23745178
C        0.11765390      -1.68699784       2.30897172
C        1.96092064       3.43062928      -0.02842609
C        2.44726921       1.05632164       2.46782861
C        2.32072718      -0.35466661       2.59687534
C       -1.60681838      -0.39907316      -3.39548630
C       -3.56026925       0.97027697      -0.60745913
C        2.54653646       0.69911966      -2.03329243
C       -0.42606316       3.82010250       0.43264651
C       -2.05457520       1.56514406      -3.21019406
C        0.18506790       3.28995721      -1.77786218
C        2.79089267       2.59397914      -0.81098791
C       -3.16902129       2.24890626      -1.08798055
C       -4.00335700      -0.02197041      -2.78005621
C        1.70848068      -1.69091412      -0.85334269
C        3.45039549      -1.50946808       0.85864371
C        0.50623063       1.07276798      -3.02513784
C       -1.59507625       3.74819597      -0.35482604
C       -2.28399318      -2.14882352      -1.67200102
C       -2.71241542       3.01564381       0.05323203
