60
Properties=species:S:1:pos:R:3 trial_index=19 seed_entry_id=16 discovered_entry_id=17 energy=-492.0294189453125 status=accepted pbc="F F F"
C       -1.40346418      -3.34663700      -2.13424646
C        1.54429245       1.99231591      -2.33864807
C        3.08838284       1.79276803       1.81973652
C       -1.36266899      -3.95714302      -0.89801674
C       -2.09364932      -1.01361846       1.27858043
C        3.33623897       1.85986673      -0.61245853
C       -1.54130497      -4.61369239       3.44063343
C        3.57871247      -0.46518150       0.37284890
C       -3.74391602       2.62289344      -1.44823160
C        2.09111295      -1.48351977      -1.08878699
C       -0.23762264       0.04305007       2.12961803
C        1.14924640       3.68546668       1.15380469
C        0.26441941      -1.59851972      -2.56866748
C       -1.16364505       3.48340130       1.13112781
C       -0.18493640       4.44721042      -0.72657814
C        2.49165764      -1.41274557       0.34521569
C        0.87527529       4.06128822      -1.55366849
C       -2.64352862      -3.76236682      -1.58654031
C       -3.79883572      -3.19855457      -1.27772391
C        2.61039137       2.58756861      -1.60220283
C       -3.07699513       1.05114405       0.18580214
C       -1.92767843      -0.95007927      -2.37610531
C       -0.67347116      -3.96248357       2.60680472
C       -2.84794911      -2.08501081       0.69962587
C       -0.08270206      -3.50087175       1.39315705
C        1.51382755      -1.27288920       1.38754520
C       -2.99147341      -0.89688129      -1.44281254
C       -2.40314854      -3.35805606       1.20302103
C       -1.09099772      -2.07289253      -2.58309142
C        3.21749973       2.57465495       0.62459010
C       -1.72389494       1.54442439      -2.45206256
C        1.42054649       0.57011958      -2.35648401
C        0.28894736      -2.10545037       1.49798982
C       -2.07121053       3.31756177       0.04147851
C        4.12587384       0.92975017       2.24875329
C       -1.14556613       0.25473544      -2.65490585
C       -2.15329245      -3.75748665       2.53019873
C       -0.76918008      -1.19889427       1.75377300
C        1.16680405       0.06967770       1.96856060
C        1.71589857       1.40561198       1.98297598
C       -1.20494651      -3.74238947       0.45351169
C        1.22890462      -2.22214771      -1.83144223
C        2.32852517       3.69023812       0.38810129
C        3.29992218       0.45845289      -0.68966431
C        2.37367617      -0.14906162      -1.58292016
C       -3.30685447       0.43330443      -1.07567180
C       -0.96023273       2.71776209      -2.14661325
C        0.46174989       2.92359893      -2.33349706
C        0.79250540       2.50335656       1.85734103
C       -3.17937641       2.47113420      -0.13482669
C       -0.04820149       4.28578299       0.67139826
C        2.14963102       3.80569824      -1.02113153
C       -1.32349276       3.65462459      -1.12132833
C       -2.31016667       0.43655224       1.20825304
C        0.23123809      -0.14795366      -2.70355622
C        4.26091381      -0.09192166       1.51277185
C       -3.10322758       1.52628931      -2.03129356
C       -0.63513936       2.36163388       1.81732565
C       -3.39015381      -2.01994928      -0.61967486
C       -1.16683679       1.05975679       1.86131912
