60
Properties=species:S:1:pos:R:3 trial_index=24 seed_entry_id=19 discovered_entry_id=20 energy=-495.1449890136719 status=accepted pbc="F F F"
C       -0.09020660      -2.99637509       0.08561925
C        2.53932317       0.71355386      -1.37731891
C        1.71669307       2.50406567       2.57795711
C       -1.35654928      -3.60167883       0.15121520
C       -3.22527358       0.00534811       0.45190755
C        3.18093615       1.45221645       0.89603358
C       -2.36609271      -1.14844690       2.24914222
C        2.33460636       0.12798256       2.72752720
C       -2.13112129       0.92361024      -3.57995403
C        1.33719300      -1.48907443       1.43426326
C       -1.83930565       1.25471631       1.82139784
C        0.97235035       3.83830457       0.22431454
C        0.31580625      -2.52247927      -1.20139950
C       -0.93061410       3.55731455      -1.06071222
C        1.07164385       3.68261618      -2.21656256
C        1.17859723      -0.66170134       2.61322555
C        2.25379624       2.94498298      -2.02625943
C       -1.57151289      -3.92923964      -2.14355768
C       -2.14258723      -3.30980586      -1.01936969
C        3.26236221       1.59322421      -0.50687494
C       -2.87966352       1.19734675      -1.65356196
C       -1.05068713      -1.65582138      -2.74062972
C       -0.48560331      -2.64994127       2.47088407
C       -3.23653007      -1.38699107       0.10741261
C       -1.11635219      -3.86075493       2.58967747
C       -0.16074763      -0.20430691       2.84940338
C       -2.32309010      -1.24783033      -2.24089199
C       -3.22126853      -3.42651497       1.57872357
C       -0.64398940      -2.92190050      -2.21268941
C        2.63387021       2.64424730       1.44825001
C        0.05841923       0.39475283      -3.49886979
C        1.97533425      -0.52445785      -0.88199641
C       -1.07854788      -1.33711201       2.76066168
C       -1.14311697       2.91830755      -2.32490514
C        2.13239865       2.42035695       4.02775649
C        0.10606916      -0.80182238      -2.72900354
C       -3.11009975      -2.08056141       1.39653682
C       -2.66769723       0.12621355       1.74797579
C       -0.54355417       1.17328781       2.43982324
C        0.34615746       2.28589260       2.10134834
C       -1.91123275      -3.88767853       1.44365586
C        0.39589050      -2.50465857       1.30912187
C        2.33184981       3.51350924       0.35009421
C        2.83851877       0.20095294       1.39402218
C        2.19820520      -0.77267855       0.53026943
C       -2.75858302       0.06865455      -2.54103948
C        0.78714381       1.54568387      -3.11258473
C        2.00871195       1.58116985      -2.38861667
C        0.00026897       3.14592012       1.01515327
C       -2.18005503       2.02292506      -2.59248142
C        0.40163173       4.09710597      -1.04626395
C        2.94843691       2.95449471      -0.81421629
C        0.15430325       2.81156917      -2.92330509
C       -2.93003741       1.19987589      -0.25419060
C        0.94660491      -1.27458188      -1.61337515
C        2.29972432       1.23630259       3.53553748
C       -1.06624737       0.60099300      -4.32745243
C       -1.18694549       2.99636077       0.22839515
C       -2.76763195      -2.00265502      -1.08961072
C       -2.10172160       2.00783966       0.61793286
