60
Properties=species:S:1:pos:R:3 trial_index=14 seed_entry_id=5 discovered_entry_id=12 energy=-494.36065673828125 status=accepted pbc="F F F"
C       -1.69364153      -4.11148445      -1.08263311
C        2.31370166       0.72027232      -1.71421474
C        2.05705167       2.99422834       2.13670974
C       -0.97532107      -5.29706151      -1.10858367
C       -3.12553987       0.31901347       1.13046707
C        3.20957166       1.63557585       0.42350697
C        0.16222821      -3.44388692       1.72598481
C        2.52453432       0.30695921       2.43963478
C       -2.70551828       0.86102919      -3.10912143
C        1.35830244      -1.29933267       1.23393944
C       -1.53990315       1.77592003       2.02747581
C        1.00267448       4.08790329      -0.21319349
C        0.25164021      -2.36613153      -0.61287807
C       -1.08511501       3.72854924      -1.15221680
C        0.72124188       3.59863702      -2.59279002
C        1.27980757      -0.42549897       2.43651567
C        1.91894508       2.87024132      -2.51199527
C       -3.07026010      -3.95520832      -0.85463723
C       -3.88260673      -3.07620941      -0.48540220
C        3.12241118       1.65811541      -0.99914014
C       -3.14329148       1.35992729      -1.12105159
C       -1.58031498      -1.67178087      -1.81822609
C       -0.67500606      -2.83351284       2.65194676
C       -3.66561676      -0.83323305       0.68575964
C       -1.20521212      -1.73327286       2.89656800
C        0.09436130       0.32899398       2.74317082
C       -2.86545545      -1.13974535      -1.52761693
C        0.56380435      -5.69869996       0.64599790
C       -1.01494718      -2.83460052      -1.15192750
C        2.78832953       2.92261175       0.90477474
C       -0.56442737       0.19728409      -3.20368173
C        1.80657460      -0.44046414      -1.04198016
C       -1.19300417      -0.36318494       2.75717050
C       -1.49245826       2.92396318      -2.26287815
C        2.64365931       2.52024996       3.33625971
C       -0.44456706      -0.87118658      -2.26198182
C        0.49172847      -4.74709618       1.46398858
C       -2.15830550       0.52524761       2.20933655
C       -0.16151762       1.74469268       2.40816032
C        0.65506900       2.81704459       1.89548817
C       -0.06873090      -5.96744997      -0.54246631
C        0.65032077      -2.42777463       0.75593987
C        2.34821188       3.68362053      -0.24027776
C        2.87389174       0.43361690       1.06067733
C        2.18005957      -0.57375110       0.31774489
C       -3.21548035       0.16455242      -1.91672957
C        0.26721384       1.36419985      -3.13995039
C        1.61916568       1.47789693      -2.70132154
C        0.13644064       3.56338292       0.79048346
C       -2.57983615       2.05510427      -2.25169484
C        0.25034236       4.20662232      -1.41123305
C        2.77330905       2.98304784      -1.40561885
C       -0.30457988       2.67119234      -3.01876805
C       -2.96065491       1.49956385       0.25869453
C        0.66393360      -1.22702822      -1.42042120
C        2.83162616       1.27016611       3.38109419
C       -1.76863443       0.35088218      -3.91774505
C       -1.16380417       3.34271196       0.21984654
C       -3.63837129      -1.67449014      -0.36629561
C       -2.01466493       2.40025708       0.84730360
