60
Properties=species:S:1:pos:R:3 trial_index=34 seed_entry_id=29 discovered_entry_id=30 energy=-499.25762939453125 status=accepted pbc="F F F"
C        0.77641187      -2.83221038       1.24158332
C        2.98467960       0.76076905      -0.60962187
C        0.83294984       2.88300961       2.16418960
C       -0.33389139      -3.89209237       1.32308452
C       -3.72152968      -0.37080205      -1.38060535
C        2.91734318       2.21109158       1.33971742
C       -2.87973742      -0.48663642       1.39021807
C        1.22285459       1.62823491       2.69072862
C       -0.83950977       0.88096125      -3.32257218
C        0.88194894      -0.52292557       2.14139138
C       -2.72576196       2.00273911       1.21776474
C        0.41893915       3.90219362      -0.41650598
C        1.03195014      -2.45025886      -0.19185403
C       -1.47486370       3.37860989      -1.62014142
C        0.83551231       2.57419058      -2.45073202
C        0.27290588       0.60450557       2.70194068
C        2.18449345       2.44580293      -1.98975260
C       -1.41834626      -3.54332846       0.39267695
C       -1.18698690      -3.13519643      -0.91311700
C        3.27471910       2.01140392      -0.00030645
C       -2.84259392       0.24282743      -3.34449892
C        0.17039276      -1.87139619      -2.27513637
C       -1.13935868      -1.66324377       2.55166029
C       -3.05629778      -1.53789257      -0.83681070
C       -1.81795541      -2.92301327       2.46303982
C       -1.13129299       0.79921216       2.59243931
C       -1.18782618      -1.54460395      -2.59758060
C       -2.38844213      -2.86156071       1.13403418
C        0.13822747      -2.81998243      -1.21278858
C        1.93357805       3.27452553       1.35474500
C        1.47079156       0.31017317      -2.52936525
C        2.44100597      -0.32747675       0.11206220
C       -1.86756407      -0.42708970       2.39483927
C       -2.42794199       2.43161738      -2.12498722
C        2.85452073      -1.71063167       2.00619904
C        1.23929603      -0.97961343      -2.00151420
C       -2.98475576      -1.68605753       0.60350877
C       -3.26853987       0.73939408       0.81122726
C       -1.54649193       2.06016012       2.02617324
C       -0.52542538       3.07646516       1.72917370
C       -0.96155092      -4.05464754       2.56422700
C        0.15376187      -1.68299860       2.00390583
C        1.73497218       3.72393261       0.02492275
C        2.47567028       1.14769615       2.15351282
C        2.21262565      -2.78706421       1.82747362
C       -1.51404865      -0.39757158      -3.32331282
C       -3.63422929       0.80173174      -0.56860382
C        2.49992172       1.05966045      -1.91923095
C       -0.67476167       3.82751593       0.51648337
C       -2.12953155       1.52553436      -3.15344954
C       -0.04033916       3.42636692      -1.71052141
C        2.66056378       3.04356660      -0.80660610
C       -3.30729499       2.10547849      -1.03306484
C       -3.94959133      -0.22318858      -2.75162160
C        1.74430056      -1.30357843      -0.65021417
C        2.30297536      -0.29460190       1.64916823
C        0.46460501       1.26095749      -2.97180002
C       -1.84263793       3.69964153      -0.26972467
C       -2.03810651      -2.19327059      -1.59752339
C       -2.90733758       2.88657474       0.12075907
