60
Properties=species:S:1:pos:R:3 trial_index=29 seed_entry_id=24 discovered_entry_id=25 energy=-490.17840576171875 status=accepted pbc="F F F"
C       -0.88457267      -3.60651390       2.50916579
C        3.94617455       1.14889425      -1.41985059
C        0.81808676       2.10819593       1.91375584
C       -2.09558655      -4.05242021       1.93666635
C       -3.41467345      -0.24917516      -1.50735688
C        2.73425573       1.40792711       0.79562985
C       -3.36465865      -0.36108589       1.38190387
C        0.93757433       0.70444059       2.02778448
C       -0.36150287       1.07540141      -3.08056475
C        0.01266236      -1.38261965       2.85884915
C       -2.76311765       2.03932027       1.16732600
C        0.64365418       3.86899531      -0.20202584
C        0.19394966      -3.81924184       1.58241174
C       -1.19746992       3.47820557      -1.53411192
C        1.17108580       2.91170363      -2.40169728
C       -0.11872613      -0.04666980       2.62356662
C        2.56164306       2.91501676      -2.08646569
C       -2.23952189      -3.55836293       0.60871000
C       -1.17061576      -3.01415052      -0.15960768
C        3.50071060       1.85694150      -0.30094809
C       -2.25043020       0.23666863      -3.08300068
C        0.95012641      -0.87800884      -1.23712638
C       -2.32742058      -1.69260325       3.15274686
C       -2.83622252      -1.33934875      -0.75939684
C       -3.39597249      -2.53132872       3.40142192
C       -1.43393638       0.55686100       2.54605321
C       -0.47084900      -1.05166703      -1.61254898
C       -3.37186625      -2.83835757       0.98026336
C        0.06473514      -3.49207154       0.34206893
C        1.97568469       2.55598316       1.25158023
C        2.05077966       0.78311753      -2.84316725
C        4.25052707      -0.19913958      -1.32257076
C       -2.51372273      -0.40836161       2.53259653
C       -2.11383580       2.54822335      -2.13855479
C        3.04827176      -1.36381556      -0.36082750
C        1.95393436      -0.48721002      -2.23110890
C       -3.46316420      -1.51921483       0.54317964
C       -3.43760103       0.87516540       0.70181439
C       -1.60471421       1.86615806       1.97236958
C       -0.45405339       2.71061447       1.71277350
C       -3.32499385      -3.34882109       2.34188039
C       -1.00712177      -2.27106848       2.98600477
C        1.93351957       3.51267186       0.21536849
C        1.91812977       0.22953730       1.04577811
C        1.77881120      -0.84549666       0.05590924
C       -0.89533018      -0.18647048      -2.65777907
C       -3.52455718       0.93547545      -0.72166649
C        3.12156898       1.62588879      -2.46903219
C       -0.49751419       3.70934927       0.67660477
C       -1.71105825       1.61098894      -3.11548063
C        0.23379381       3.57690644      -1.55429892
C        2.91018717       3.11837682      -0.73992590
C       -3.07559770       2.21819849      -1.12714580
C       -3.48489152      -0.26548865      -2.90529414
C        3.18668144      -1.04863449      -1.77165482
C        4.31895586      -0.85317412      -0.04099804
C        0.90225364       1.63623813      -2.97717664
C       -1.62389762       3.72200347      -0.18136883
C       -1.50280379      -1.86627009      -0.94460498
C       -2.75298183       2.95116790       0.07855687
