60
Properties=species:S:1:pos:R:3 trial_index=33 seed_entry_id=28 discovered_entry_id=29 energy=-499.3435363769531 status=accepted pbc="F F F"
C        0.40574986      -2.86231276       1.14483640
C        2.93599317       0.67976723      -0.56035692
C        0.82125179       2.83522120       2.15923362
C       -0.60114644      -3.90716707       1.23818086
C       -3.77230531      -0.29733683      -1.44239098
C        2.91623721       2.17125239       1.36741191
C       -2.92401811      -0.46977941       1.33413802
C        1.17838688       1.56111748       2.65131706
C       -0.84386769       0.89485005      -3.33513220
C        0.92145122      -0.67518684       2.27086630
C       -2.72304362       2.01029451       1.19593473
C        0.44981839       3.88398208      -0.40725852
C        0.87631873      -2.51763792      -0.16246457
C       -1.44347874       3.39430625      -1.62272636
C        0.85629005       2.54389888      -2.43868199
C        0.26418642       0.50419918       2.69773805
C        2.19576265       2.38203435      -1.96265593
C       -1.64792744      -3.58754798       0.27635504
C       -1.33394902      -3.15606685      -1.00561231
C        3.26250379       1.93499312       0.03113417
C       -2.85845134       0.30360275      -3.39279302
C        0.09545658      -1.88889645      -2.27897397
C       -1.22046656      -1.71832905       2.55648920
C       -3.13997069      -1.48558643      -0.91579882
C       -1.94311157      -2.93438842       2.36471013
C       -1.12958791       0.73589012       2.53424600
C       -1.24725503      -1.52772487      -2.64634625
C       -2.53834843      -2.83821433       1.04661419
C        0.01450946      -2.85490481      -1.23894683
C        1.94164203       3.24506327       1.37988398
C        1.43451523       0.26200666      -2.49028554
C        2.38294224      -0.40911197       0.15802748
C       -1.89359262      -0.46631645       2.33103736
C       -2.41048657       2.46976807      -2.13989579
C        3.40448322      -1.26064497       2.17485246
C        1.17220240      -1.02246425      -1.95650597
C       -3.07521784      -1.64197970       0.52589908
C       -3.29450514       0.76830312       0.77389422
C       -1.53724151       2.02147439       1.99617683
C       -0.52313456       3.04646614       1.72054719
C       -1.19463964      -4.12159269       2.49157180
C        0.13662978      -1.83274299       2.09783971
C        1.75963899       3.68424844       0.04236687
C        2.42300779       1.11610753       2.14621289
C        4.33414314      -2.03546608       2.48121205
C       -1.54315690      -0.36775681      -3.36301630
C       -3.66432252       0.85710746      -0.60685992
C        2.47057379       0.98718888      -1.87324289
C       -0.65251394       3.82217578       0.51978378
C       -2.11973130       1.56756915      -3.17443197
C       -0.00768417       3.41473506      -1.70429811
C        2.67341082       2.97569210      -0.78091563
C       -3.30343068       2.15579763      -1.05474196
C       -3.98465726      -0.13167355      -2.81372332
C        1.64775706      -1.36250100      -0.60745633
C        2.34545658      -0.35017577       1.73744755
C        0.46187753       1.23687299      -2.95839565
C       -1.81505990       3.71502443      -0.27337494
C       -2.13755927      -2.16788074      -1.67966287
C       -2.89096057       2.91398666       0.11027291
