115
Lattice="13.75323 0.0 0.0 0.0 13.75323 0.0 0.0 0.0 23.89" Properties=species:S:1:pos:R:3 entry_id=20 rank=8 energy=-573.6859130859375 pbc="T T F"
Pd       0.00000000       0.00000000      10.00000000
Pd       2.75064538       0.00000000      10.00000000
Pd       5.50129076       0.00000000      10.00000000
Pd       8.25193614       0.00000000      10.00000000
Pd      11.00258152       0.00000000      10.00000000
Pd       0.00000000       2.75064538      10.00000000
Pd       2.75064538       2.75064538      10.00000000
Pd       5.50129076       2.75064538      10.00000000
Pd       8.25193614       2.75064538      10.00000000
Pd      11.00258152       2.75064538      10.00000000
Pd       0.00000000       5.50129076      10.00000000
Pd       2.75064538       5.50129076      10.00000000
Pd       5.50129076       5.50129076      10.00000000
Pd       8.25193614       5.50129076      10.00000000
Pd      11.00258152       5.50129076      10.00000000
Pd       0.00000000       8.25193614      10.00000000
Pd       2.75064538       8.25193614      10.00000000
Pd       5.50129076       8.25193614      10.00000000
Pd       8.25193614       8.25193614      10.00000000
Pd      11.00258152       8.25193614      10.00000000
Pd       0.00000000      11.00258152      10.00000000
Pd       2.75064538      11.00258152      10.00000000
Pd       5.50129076      11.00258152      10.00000000
Pd       8.25193614      11.00258152      10.00000000
Pd      11.00258152      11.00258152      10.00000000
Pd       1.33305437       1.38035701      12.05221797
Pd       4.08925664       1.38750338      11.98771029
Pd       6.82888190       1.38154444      11.99332965
Pd       9.57512057       1.39592898      11.89594876
Pd      12.38684272       1.37174114      11.92044161
Pd       1.37065655       4.09970544      12.00656864
Pd       4.10125007       4.12393621      12.00820233
Pd       6.82444734       4.12497179      12.00908219
Pd       9.56728621       4.13975942      11.94281254
Pd      12.36578195       4.13265160      11.93417299
Pd       1.37110082       6.89256210      11.94010419
Pd       4.13935064       6.87026939      11.96482277
Pd       6.87097415       6.85831372      11.95140951
Pd       9.64205429       6.82915781      11.94515418
Pd      12.39111484       6.85622887      11.94896407
Pd       1.35216595       9.69735034      11.99083951
Pd       4.11777592       9.66324146      11.95099537
Pd       6.89476706       9.64088005      11.95142944
Pd       9.64982872       9.59779534      11.89439304
Pd      12.42487279       9.60955999      11.94161946
Pd       1.35802606      12.41462245      12.04582394
Pd       4.10624816      12.40887780      12.00662317
Pd       6.86816975      12.39901143      11.97280504
Pd       9.63028672      12.36702810      11.91406436
Pd      12.41879361      12.34804731      11.97632258
Pd      11.00893319      13.72853911      13.90821578
Pd      13.71174097       0.07192463      13.96505165
Pd       2.75846082      13.63782972      14.01922320
Pd       5.50567932      13.69425506      14.03768321
Pd       8.33403664       2.78170464      13.96483820
Pd       2.76643804       2.83238273      14.06983152
Pd       5.52800074       2.67126578      14.10315740
Pd       8.22397069       5.66066144      14.10427259
Pd      11.00322289       2.72440868      13.93467763
Pd      13.64718899       2.84495323      14.16429366
Pd      13.72569503       5.55072499      14.02787469
Pd       2.75509926       5.54848584      13.84855456
Pd       5.53064105       5.40567266      14.02506036
Pd       8.20538945       8.31681750      13.88709980
Pd      10.99060255       5.42808285      13.96518850
Pd      13.64971518       8.26520557      13.97459108
Pd       2.64798717       8.24483189      14.03257757
Pd       5.44438355       8.17091843      13.96199234
Pd       8.31653196      11.03668952      13.90875982
Pd      10.91550755       8.26696403      13.89774323
Pd       0.07687955      11.01982093      14.07493344
Pd       2.80283567      10.93873007      14.00924813
Pd       5.53666804      10.95385981      13.95226113
Pd       8.16826443       0.05067524      13.99421214
Pd      11.07623174      10.96548437      13.94617523
Pd      11.74210027       6.99704545      16.01896724
Pd       9.34672999       8.31046035      16.34789336
Pd       1.56707922      12.24623884      16.24056054
Pd       0.54099243       7.24438225      16.47638174
Pd      12.07095340       9.63965659      16.29728857
Pd       9.89352695      11.80702468      16.37815702
Pd       4.68891361       1.11553504      16.41819008
Pd       6.82820396       9.61089209      16.03898778
Pd       4.35460842      12.21516916      16.04055901
Pd      12.48754032      12.33025461      15.99471349
Pd      12.36330521       4.26873942      16.95576966
Pd       1.64134060       4.65074010      15.98524080
Pd      10.09528241       1.60936336      16.30491387
Pd       3.99676040       9.57721417      16.35297465
Pd       4.15208176       3.79962272      16.51496095
Pd       6.96894775      12.93180505      16.45394391
Pd       9.56929925       4.92069833      16.58946205
Pd       7.24579261       2.35880607      16.42025308
Pd       1.21861506       1.80398309      16.45851201
Pd       3.98766009       6.47176419      16.13987108
O        9.62791609      13.62877419      15.48035287
O       10.26127967       9.95375992      17.01613722
O        2.62008129       7.90613982      16.16728788
O       11.09306489       0.50050444      17.79189945
O       11.32106621      12.95125522      17.60562897
O        5.43252387       8.21458630      16.05566569
O        2.94187045       1.23936731      15.54343360
O        0.28921759       5.41215124      17.24244850
O        7.91228367      11.25583963      15.95112693
O        2.92423463      11.07484557      16.98672524
O        0.32150661       0.01353676      15.98920149
O       11.16313014       5.78949017      17.50366304
O        8.07763313       3.96141751      15.64914545
O        8.55024703       6.55249000      16.01839191
O        2.38758825       3.23264810      17.24990488
O       13.17730433       2.62697447      16.21562746
O       10.58647963       3.29971562      17.13628970
O        0.16256133       9.12773991      15.84570942
O        6.39286351       0.84563535      17.31282817
O        5.46223869       5.17421872      16.04048701
