115
Lattice="13.75323 0.0 0.0 0.0 13.75323 0.0 0.0 0.0 23.89" Properties=species:S:1:pos:R:3 entry_id=29 rank=27 energy=-572.01025390625 pbc="T T F"
Pd       0.00000000       0.00000000      10.00000000
Pd       2.75064538       0.00000000      10.00000000
Pd       5.50129076       0.00000000      10.00000000
Pd       8.25193614       0.00000000      10.00000000
Pd      11.00258152       0.00000000      10.00000000
Pd       0.00000000       2.75064538      10.00000000
Pd       2.75064538       2.75064538      10.00000000
Pd       5.50129076       2.75064538      10.00000000
Pd       8.25193614       2.75064538      10.00000000
Pd      11.00258152       2.75064538      10.00000000
Pd       0.00000000       5.50129076      10.00000000
Pd       2.75064538       5.50129076      10.00000000
Pd       5.50129076       5.50129076      10.00000000
Pd       8.25193614       5.50129076      10.00000000
Pd      11.00258152       5.50129076      10.00000000
Pd       0.00000000       8.25193614      10.00000000
Pd       2.75064538       8.25193614      10.00000000
Pd       5.50129076       8.25193614      10.00000000
Pd       8.25193614       8.25193614      10.00000000
Pd      11.00258152       8.25193614      10.00000000
Pd       0.00000000      11.00258152      10.00000000
Pd       2.75064538      11.00258152      10.00000000
Pd       5.50129076      11.00258152      10.00000000
Pd       8.25193614      11.00258152      10.00000000
Pd      11.00258152      11.00258152      10.00000000
Pd       1.33305437       1.38035701      12.05221797
Pd       4.08925664       1.38750338      11.98771029
Pd       6.82888190       1.38154444      11.99332965
Pd       9.57512057       1.39592898      11.89594876
Pd      12.38684272       1.37174114      11.92044161
Pd       1.37065655       4.09970544      12.00656864
Pd       4.10125007       4.12393621      12.00820233
Pd       6.82444734       4.12497179      12.00908219
Pd       9.56728621       4.13975942      11.94281254
Pd      12.36578195       4.13265160      11.93417299
Pd       1.37110082       6.89256210      11.94010419
Pd       4.13935064       6.87026939      11.96482277
Pd       6.87097415       6.85831372      11.95140951
Pd       9.64205429       6.82915781      11.94515418
Pd      12.39111484       6.85622887      11.94896407
Pd       1.35216595       9.69735034      11.99083951
Pd       4.11777592       9.66324146      11.95099537
Pd       6.89476706       9.64088005      11.95142944
Pd       9.64982872       9.59779534      11.89439304
Pd      12.42487279       9.60955999      11.94161946
Pd       1.35802606      12.41462245      12.04582394
Pd       4.10624816      12.40887780      12.00662317
Pd       6.86816975      12.39901143      11.97280504
Pd       9.63028672      12.36702810      11.91406436
Pd      12.41879361      12.34804731      11.97632258
Pd      10.99782684      13.74460111      14.00574286
Pd      13.72729309       0.00507511      14.01757614
Pd       2.78977624      13.74426547      14.05603252
Pd       5.53772016       0.00651052      14.06492747
Pd       8.24985438      13.68864668      14.03562300
Pd       2.72869146       2.81371132      14.05641551
Pd       5.47098994       2.73785635      14.04301086
Pd       8.19558719       2.71481969      13.92532801
Pd      10.95377111       2.78474021      13.94361707
Pd      13.64462890       2.84166677      13.97555697
Pd       0.11951227       5.56526818      14.08836318
Pd       2.83322105       5.53406928      14.06026995
Pd       5.57667030       5.52118114      13.92078523
Pd       8.37087889       5.44728576      14.08827662
Pd      11.11610471       5.51461043      14.04695547
Pd      13.71801763       8.26323354      13.96310778
Pd       2.72448241       8.23707528      13.99625156
Pd       5.46988959       8.30128538      13.99179685
Pd       8.19150982       8.15047127      13.87260849
Pd      10.93983144       8.26468231      13.87926466
Pd      13.70803952      10.99262736      13.99101970
Pd       2.71376150      10.97127230      14.08452502
Pd       5.46926164      11.03794449      13.91587861
Pd       8.20778954      10.91274082      13.94252604
Pd      10.96598327      11.01241219      13.90804959
Pd      11.42068122       7.82573406      16.45796252
Pd       9.19441343       9.28763061      15.92470383
Pd       1.06399122      11.52310571      16.36957530
Pd       1.23857432       7.84528202      16.60245349
Pd      12.23956316      10.40522291      16.24168646
Pd       9.47082133      12.14709405      15.92408461
Pd       4.52880642       1.28483864      16.38867651
Pd       6.59897240      10.43857268      16.32119663
Pd       4.28992792      12.20371896      16.01532974
Pd      12.12593415      13.11207718      16.59049156
Pd      12.77954809       4.67932843      16.73558951
Pd       2.15590351       4.26506611      16.47731362
Pd      11.54048316       1.86765195      16.67848812
Pd       3.58381829       9.54772985      16.41038733
Pd       4.85723312       4.18620108      16.40237212
Pd       6.90257435      13.59382678      16.59474537
Pd      10.04744185       5.46671248      16.85496545
Pd       7.35905228       3.23449375      16.39697199
Pd       1.19468941       1.66388443      16.11348075
Pd       4.32700444       6.75094908      16.34536262
O        9.55358466       1.43786945      14.78559630
O       10.35975287      10.60775406      16.96688817
O        3.01465981       7.66396260      17.39801329
O       10.04054123       0.91536459      17.52285997
O       10.35691657      13.31651308      17.48660661
O        5.43112754       8.91434903      15.97271276
O        2.77071359       0.50065441      16.05348805
O        0.72464450       5.68686894      16.15656939
O        7.70762822      11.88342293      16.96479708
O        1.73302409       9.82471917      17.01720711
O        0.24500005      13.30590584      16.03170888
O       11.83467128       6.18903065      17.59401517
O        8.38886729       4.83988192      16.02453205
O        9.54113529       7.47984317      16.90385815
O        3.52811730       3.01002293      17.19856142
O       13.26805166       2.75676210      16.04831511
O       11.09926541       3.77245343      17.28145620
O       13.23409759       8.43615070      15.94995374
O        6.37353290       1.67244196      16.98416161
O        5.91566275       5.74463269      15.86343800
