115
Lattice="13.75323 0.0 0.0 0.0 13.75323 0.0 0.0 0.0 23.89" Properties=species:S:1:pos:R:3 entry_id=5 rank=32 energy=-571.3924560546875 pbc="T T F"
Pd       0.00000000       0.00000000      10.00000000
Pd       2.75064538       0.00000000      10.00000000
Pd       5.50129076       0.00000000      10.00000000
Pd       8.25193614       0.00000000      10.00000000
Pd      11.00258152       0.00000000      10.00000000
Pd       0.00000000       2.75064538      10.00000000
Pd       2.75064538       2.75064538      10.00000000
Pd       5.50129076       2.75064538      10.00000000
Pd       8.25193614       2.75064538      10.00000000
Pd      11.00258152       2.75064538      10.00000000
Pd       0.00000000       5.50129076      10.00000000
Pd       2.75064538       5.50129076      10.00000000
Pd       5.50129076       5.50129076      10.00000000
Pd       8.25193614       5.50129076      10.00000000
Pd      11.00258152       5.50129076      10.00000000
Pd       0.00000000       8.25193614      10.00000000
Pd       2.75064538       8.25193614      10.00000000
Pd       5.50129076       8.25193614      10.00000000
Pd       8.25193614       8.25193614      10.00000000
Pd      11.00258152       8.25193614      10.00000000
Pd       0.00000000      11.00258152      10.00000000
Pd       2.75064538      11.00258152      10.00000000
Pd       5.50129076      11.00258152      10.00000000
Pd       8.25193614      11.00258152      10.00000000
Pd      11.00258152      11.00258152      10.00000000
Pd       1.33305437       1.38035701      12.05221797
Pd       4.08925664       1.38750338      11.98771029
Pd       6.82888190       1.38154444      11.99332965
Pd       9.57512057       1.39592898      11.89594876
Pd      12.38684272       1.37174114      11.92044161
Pd       1.37065655       4.09970544      12.00656864
Pd       4.10125007       4.12393621      12.00820233
Pd       6.82444734       4.12497179      12.00908219
Pd       9.56728621       4.13975942      11.94281254
Pd      12.36578195       4.13265160      11.93417299
Pd       1.37110082       6.89256210      11.94010419
Pd       4.13935064       6.87026939      11.96482277
Pd       6.87097415       6.85831372      11.95140951
Pd       9.64205429       6.82915781      11.94515418
Pd      12.39111484       6.85622887      11.94896407
Pd       1.35216595       9.69735034      11.99083951
Pd       4.11777592       9.66324146      11.95099537
Pd       6.89476706       9.64088005      11.95142944
Pd       9.64982872       9.59779534      11.89439304
Pd      12.42487279       9.60955999      11.94161946
Pd       1.35802606      12.41462245      12.04582394
Pd       4.10624816      12.40887780      12.00662317
Pd       6.86816975      12.39901143      11.97280504
Pd       9.63028672      12.36702810      11.91406436
Pd      12.41879361      12.34804731      11.97632258
Pd      10.94217232      13.71687811      13.90528580
Pd      13.68361678       0.01083250      14.00698980
Pd       2.71663565       0.08599596      14.07424154
Pd       5.42347976       0.13004657      13.96716599
Pd       8.26083142      13.71893681      13.96986482
Pd       2.77390323       2.88892695      14.09632216
Pd       5.53924226       2.81976969      14.14495521
Pd       8.26374124       2.64204407      13.90767796
Pd      10.93738971       2.63515593      13.87853491
Pd      13.62767389       2.80020808      13.96760654
Pd       0.02193896       5.54017794      14.01297378
Pd       2.69521791       5.56440623      14.02059108
Pd       5.46458576       5.55001228      13.95488052
Pd       8.21239976       5.36734562      13.97652010
Pd      11.05496373       5.32978272      13.94811759
Pd      13.68517492       8.26579424      13.98060453
Pd       2.87035564       8.29528394      13.93362175
Pd       5.60109604       8.37226667      14.03116376
Pd       8.27889150       8.16742548      13.95851444
Pd      11.01622706       8.10316093      14.02169797
Pd      13.73279998      10.98988912      14.07495650
Pd       2.77918398      11.03439982      13.98045421
Pd       5.54791753      11.16668616      14.07318021
Pd       8.27179305      10.97947256      13.93704838
Pd      10.98261534      10.92825551      13.91559500
Pd      12.35306441       6.39763045      16.37555383
Pd       9.59617726       9.38778586      16.06688248
Pd       1.36009926      11.88395072      16.27804590
Pd       1.48253539       7.23421901      16.44032188
Pd      12.34407305       9.42527202      16.25695754
Pd       8.95361740       0.34811724      16.97109464
Pd       4.92170641       1.32816062      16.55782573
Pd       7.23553532      10.57987179      16.43678427
Pd       3.98475808      12.41441036      16.12361575
Pd      12.28849082      12.34090253      16.05304197
Pd       0.43531597       4.51345980      16.63587275
Pd       3.05828598       4.37793444      17.65846378
Pd      11.29574061       2.72249901      16.57788811
Pd       4.33592308       9.73305146      16.24805741
Pd       5.42945525       4.43344070      16.61324424
Pd       6.63619352      13.08967188      16.07717336
Pd       9.68118096       6.29931302      16.15228087
Pd       7.67268341       3.11351133      16.45075759
Pd       1.17474022       1.52608149      16.19048506
Pd       4.01364423       6.89576499      16.03376919
O        9.44247565       2.27755359      17.07805754
O       10.94650323      10.86982205      16.00925083
O        1.43999825       8.77652586      15.24718196
O       11.74505644       1.01654299      17.53337682
O       11.00373016      13.68027445      17.17383411
O        6.12310141       9.03186032      15.94756228
O        3.06181358       0.64583875      16.15356393
O        2.11844459       3.26510039      16.07492962
O        8.13563639      12.23176020      17.13178158
O        2.85214577      10.80706459      16.91680856
O        0.17345747      13.49262386      16.09362434
O        1.59237516       5.71545350      17.69981258
O        8.22415020       4.91133282      15.94001461
O        8.47475050       7.81554329      16.03543217
O        4.53460106       3.06616448      17.68026949
O       13.24048296       2.84957074      16.03331341
O       11.09958005       4.85912313      16.01573831
O       13.34444466       7.92977125      17.05514972
O        6.88724834       1.36945118      17.04443016
O        5.86976851       6.14367027      15.83668224
