115
Lattice="13.75323 0.0 0.0 0.0 13.75323 0.0 0.0 0.0 23.89" Properties=species:S:1:pos:R:3 entry_id=8 rank=25 energy=-572.1316528320312 pbc="T T F"
Pd       0.00000000       0.00000000      10.00000000
Pd       2.75064538       0.00000000      10.00000000
Pd       5.50129076       0.00000000      10.00000000
Pd       8.25193614       0.00000000      10.00000000
Pd      11.00258152       0.00000000      10.00000000
Pd       0.00000000       2.75064538      10.00000000
Pd       2.75064538       2.75064538      10.00000000
Pd       5.50129076       2.75064538      10.00000000
Pd       8.25193614       2.75064538      10.00000000
Pd      11.00258152       2.75064538      10.00000000
Pd       0.00000000       5.50129076      10.00000000
Pd       2.75064538       5.50129076      10.00000000
Pd       5.50129076       5.50129076      10.00000000
Pd       8.25193614       5.50129076      10.00000000
Pd      11.00258152       5.50129076      10.00000000
Pd       0.00000000       8.25193614      10.00000000
Pd       2.75064538       8.25193614      10.00000000
Pd       5.50129076       8.25193614      10.00000000
Pd       8.25193614       8.25193614      10.00000000
Pd      11.00258152       8.25193614      10.00000000
Pd       0.00000000      11.00258152      10.00000000
Pd       2.75064538      11.00258152      10.00000000
Pd       5.50129076      11.00258152      10.00000000
Pd       8.25193614      11.00258152      10.00000000
Pd      11.00258152      11.00258152      10.00000000
Pd       1.33305437       1.38035701      12.05221797
Pd       4.08925664       1.38750338      11.98771029
Pd       6.82888190       1.38154444      11.99332965
Pd       9.57512057       1.39592898      11.89594876
Pd      12.38684272       1.37174114      11.92044161
Pd       1.37065655       4.09970544      12.00656864
Pd       4.10125007       4.12393621      12.00820233
Pd       6.82444734       4.12497179      12.00908219
Pd       9.56728621       4.13975942      11.94281254
Pd      12.36578195       4.13265160      11.93417299
Pd       1.37110082       6.89256210      11.94010419
Pd       4.13935064       6.87026939      11.96482277
Pd       6.87097415       6.85831372      11.95140951
Pd       9.64205429       6.82915781      11.94515418
Pd      12.39111484       6.85622887      11.94896407
Pd       1.35216595       9.69735034      11.99083951
Pd       4.11777592       9.66324146      11.95099537
Pd       6.89476706       9.64088005      11.95142944
Pd       9.64982872       9.59779534      11.89439304
Pd      12.42487279       9.60955999      11.94161946
Pd       1.35802606      12.41462245      12.04582394
Pd       4.10624816      12.40887780      12.00662317
Pd       6.86816975      12.39901143      11.97280504
Pd       9.63028672      12.36702810      11.91406436
Pd      12.41879361      12.34804731      11.97632258
Pd      10.94859852      13.66821678      13.91140557
Pd      13.65130503       0.11706278      14.00777675
Pd       2.65156474      13.72865541      14.08300233
Pd       5.44216057       0.07328732      14.09474353
Pd       8.13632773      13.68034003      13.95509617
Pd       2.82035005       2.82768788      14.04246478
Pd       5.52933150       2.76365756      14.08076243
Pd       8.30069361       2.62336897      13.87708013
Pd      11.02243053       2.70524748      13.90354103
Pd      13.73544982       2.85078262      14.09431377
Pd      13.62693291       5.61557820      13.87929532
Pd       2.73552346       5.62162852      13.96268719
Pd       5.40798635       5.53454975      13.95693592
Pd       8.17291297       5.38604782      14.22871271
Pd      10.91781935       5.37232713      13.98122192
Pd       0.12924867       8.33608229      13.97283949
Pd       2.83163823       8.30880864      14.02831195
Pd       5.54570843       8.32378662      13.92809538
Pd       8.29150979       8.18549256      13.90020818
Pd      11.10143312       8.17263188      14.03168048
Pd       0.00275939      11.06692174      14.12994385
Pd       2.75567915      10.99715045      14.02490499
Pd       5.53783722      11.10337170      14.00545181
Pd       8.32633372      10.98405097      13.92490335
Pd      11.03977040      10.93200145      13.94437498
Pd      12.49104389       6.53090646      16.16090662
Pd       9.72537544       9.61292499      16.10155976
Pd       1.40166181      12.25770295      16.25379955
Pd       2.04418029       7.77547328      16.64322851
Pd      12.57504595       9.42950261      16.22042792
Pd       9.41438715      13.42934245      16.21869915
Pd       4.27724779       1.40035243      16.45141392
Pd       7.07639638      10.54788334      16.29469250
Pd       4.17335969      12.48238123      16.02359571
Pd      12.30291298      12.26179778      16.24400725
Pd       0.20491401       4.78152123      17.63824295
Pd       2.54323282       4.28399086      16.46213603
Pd      11.78916229       2.19818847      16.53109527
Pd       4.12157969       9.87385454      16.34655560
Pd       5.31039014       4.29535694      16.53307881
Pd       6.72152707      13.29316164      16.57027893
Pd       9.67422433       6.73831760      16.05259825
Pd       7.22522605       2.44638933      16.36304568
Pd       0.86136010       2.09765816      16.63336588
Pd       5.17133856       6.96315922      16.45635530
O       10.44677326       1.25971282      15.43657887
O       11.21348364      10.70826574      16.78383398
O        3.82611119       8.06050991      17.35493262
O       11.44497078       0.82474729      18.03347162
O       11.03002442      13.37175172      17.64422377
O        5.84769657       8.97498274      15.88311845
O        2.47443624       1.45670975      15.60648924
O        1.21585701       4.58496263      14.96981148
O        8.20058002      12.01707685      16.96951359
O        2.85174214      11.21883972      17.02132936
O       13.73519723      13.63328714      16.02576170
O        1.68587263       6.00894726      17.57197214
O        8.44788382       3.69911334      15.52674514
O        8.39113697       8.18529433      15.93783397
O        3.93902825       3.27024985      17.45194457
O       13.16276459       3.00997539      17.64363224
O       11.00021960       5.29518378      16.07066209
O        0.15047376       7.92499824      16.02630221
O        6.01960256       1.23725994      17.32199960
O        6.47696395       5.66493056      15.72724476
