115
Lattice="13.75323 0.0 0.0 0.0 13.75323 0.0 0.0 0.0 23.89" Properties=species:S:1:pos:R:3 entry_id=25 rank=21 energy=-573.2305908203125 pbc="T T F"
Pd       0.00000000       0.00000000      10.00000000
Pd       2.75064538       0.00000000      10.00000000
Pd       5.50129076       0.00000000      10.00000000
Pd       8.25193614       0.00000000      10.00000000
Pd      11.00258152       0.00000000      10.00000000
Pd       0.00000000       2.75064538      10.00000000
Pd       2.75064538       2.75064538      10.00000000
Pd       5.50129076       2.75064538      10.00000000
Pd       8.25193614       2.75064538      10.00000000
Pd      11.00258152       2.75064538      10.00000000
Pd       0.00000000       5.50129076      10.00000000
Pd       2.75064538       5.50129076      10.00000000
Pd       5.50129076       5.50129076      10.00000000
Pd       8.25193614       5.50129076      10.00000000
Pd      11.00258152       5.50129076      10.00000000
Pd       0.00000000       8.25193614      10.00000000
Pd       2.75064538       8.25193614      10.00000000
Pd       5.50129076       8.25193614      10.00000000
Pd       8.25193614       8.25193614      10.00000000
Pd      11.00258152       8.25193614      10.00000000
Pd       0.00000000      11.00258152      10.00000000
Pd       2.75064538      11.00258152      10.00000000
Pd       5.50129076      11.00258152      10.00000000
Pd       8.25193614      11.00258152      10.00000000
Pd      11.00258152      11.00258152      10.00000000
Pd       1.33305437       1.38035701      12.05221797
Pd       4.08925664       1.38750338      11.98771029
Pd       6.82888190       1.38154444      11.99332965
Pd       9.57512057       1.39592898      11.89594876
Pd      12.38684272       1.37174114      11.92044161
Pd       1.37065655       4.09970544      12.00656864
Pd       4.10125007       4.12393621      12.00820233
Pd       6.82444734       4.12497179      12.00908219
Pd       9.56728621       4.13975942      11.94281254
Pd      12.36578195       4.13265160      11.93417299
Pd       1.37110082       6.89256210      11.94010419
Pd       4.13935064       6.87026939      11.96482277
Pd       6.87097415       6.85831372      11.95140951
Pd       9.64205429       6.82915781      11.94515418
Pd      12.39111484       6.85622887      11.94896407
Pd       1.35216595       9.69735034      11.99083951
Pd       4.11777592       9.66324146      11.95099537
Pd       6.89476706       9.64088005      11.95142944
Pd       9.64982872       9.59779534      11.89439304
Pd      12.42487279       9.60955999      11.94161946
Pd       1.35802606      12.41462245      12.04582394
Pd       4.10624816      12.40887780      12.00662317
Pd       6.86816975      12.39901143      11.97280504
Pd       9.63028672      12.36702810      11.91406436
Pd      12.41879361      12.34804731      11.97632258
Pd      10.98427202       0.00226400      13.89962074
Pd      13.71907117       0.02765585      13.99990701
Pd       2.77266688       0.00456158      14.06480421
Pd       5.47900203      13.68330507      14.10015328
Pd       8.33440375       2.70392949      13.95544821
Pd       2.72723469       2.77540008      14.02858617
Pd       5.51379732       2.62158803      14.04191553
Pd       8.20118530       5.67542996      14.07567505
Pd      11.00336351       2.75490257      13.90918192
Pd      13.65088078       2.84606019      14.03666372
Pd      13.73247137       5.53914665      14.06404276
Pd       2.73166958       5.53627020      13.91549978
Pd       5.51464832       5.41720212      14.02817002
Pd       8.19944008       8.33391853      13.89620735
Pd      10.99651969       5.45215704      13.95144801
Pd      13.66272724       8.23959784      13.95887690
Pd       2.67337964       8.26630020      14.00984035
Pd       5.46733587       8.18687372      13.92058875
Pd       8.31837579      10.99406840      13.94070686
Pd      10.91442813       8.27532323      13.88538319
Pd       0.09799531      11.00864457      14.12753507
Pd       2.84251278      10.99972872      14.01648087
Pd       5.59038028      10.95473365      13.95070929
Pd       8.12044833      13.73318123      13.98399243
Pd      11.07511621      10.96949317      13.91207619
Pd      11.80793767       7.02719388      15.98258064
Pd       9.36481521       8.30775040      16.31687210
Pd       1.55561689      12.10877958      16.30282081
Pd       0.59845560       7.41775947      16.49207016
Pd      12.10351237       9.67149819      16.25696439
Pd       9.79327087      11.71370080      16.21534482
Pd       4.56790951       0.99454024      16.59654717
Pd       6.90744571       9.82441571      16.16823111
Pd       4.53780508      12.11178453      16.10357229
Pd      12.27824613      12.36486127      15.98829957
Pd      12.47310543       4.33168733      16.85560601
Pd       1.71892457       4.95242983      16.28886798
Pd      10.09573488       1.60431775      16.19989246
Pd       4.12213675       9.54827669      16.33131688
Pd       4.32183784       3.84248145      16.19231801
Pd       6.93744572      13.15292094      16.77321961
Pd       9.62750643       4.93459755      16.50385606
Pd       7.10739833       2.59962587      16.38662365
Pd       1.16397299       1.56580272      16.23732468
Pd       4.05550161       6.57660561      16.15625732
O        9.54904783      13.59195383      15.45411593
O       10.27838320       9.93586454      16.94445825
O        2.66081372       7.98655933      16.14715019
O       11.03740729       0.61544021      17.79103773
O       11.31490451      13.09145724      17.70025470
O        5.64928729       8.30389271      15.95321891
O        2.75151130       0.38814845      16.16026731
O        0.25350719       5.64651079      17.37946359
O        7.82677720      11.42509511      16.77081422
O        3.01541777      11.01346040      16.98152476
O        0.18257959      13.54738993      16.10952842
O       11.20353977       5.78198246      17.43877501
O        8.12235947       4.03859530      15.51943548
O        8.56580093       6.56400012      15.99981940
O        2.47141872       3.08071176      16.18023632
O       13.31804309       2.71081192      16.03687248
O       10.68348255       3.31463648      16.93428798
O        0.21759100       9.30861537      15.75885354
O        6.32156777       1.15498058      17.38866816
O        5.57794354       5.32879963      16.08808207
