115
Lattice="13.75323 0.0 0.0 0.0 13.75323 0.0 0.0 0.0 23.89" Properties=species:S:1:pos:R:3 entry_id=31 rank=5 energy=-573.7507934570312 pbc="T T F"
Pd       0.00000000       0.00000000      10.00000000
Pd       2.75064538       0.00000000      10.00000000
Pd       5.50129076       0.00000000      10.00000000
Pd       8.25193614       0.00000000      10.00000000
Pd      11.00258152       0.00000000      10.00000000
Pd       0.00000000       2.75064538      10.00000000
Pd       2.75064538       2.75064538      10.00000000
Pd       5.50129076       2.75064538      10.00000000
Pd       8.25193614       2.75064538      10.00000000
Pd      11.00258152       2.75064538      10.00000000
Pd       0.00000000       5.50129076      10.00000000
Pd       2.75064538       5.50129076      10.00000000
Pd       5.50129076       5.50129076      10.00000000
Pd       8.25193614       5.50129076      10.00000000
Pd      11.00258152       5.50129076      10.00000000
Pd       0.00000000       8.25193614      10.00000000
Pd       2.75064538       8.25193614      10.00000000
Pd       5.50129076       8.25193614      10.00000000
Pd       8.25193614       8.25193614      10.00000000
Pd      11.00258152       8.25193614      10.00000000
Pd       0.00000000      11.00258152      10.00000000
Pd       2.75064538      11.00258152      10.00000000
Pd       5.50129076      11.00258152      10.00000000
Pd       8.25193614      11.00258152      10.00000000
Pd      11.00258152      11.00258152      10.00000000
Pd       1.33305437       1.38035701      12.05221797
Pd       4.08925664       1.38750338      11.98771029
Pd       6.82888190       1.38154444      11.99332965
Pd       9.57512057       1.39592898      11.89594876
Pd      12.38684272       1.37174114      11.92044161
Pd       1.37065655       4.09970544      12.00656864
Pd       4.10125007       4.12393621      12.00820233
Pd       6.82444734       4.12497179      12.00908219
Pd       9.56728621       4.13975942      11.94281254
Pd      12.36578195       4.13265160      11.93417299
Pd       1.37110082       6.89256210      11.94010419
Pd       4.13935064       6.87026939      11.96482277
Pd       6.87097415       6.85831372      11.95140951
Pd       9.64205429       6.82915781      11.94515418
Pd      12.39111484       6.85622887      11.94896407
Pd       1.35216595       9.69735034      11.99083951
Pd       4.11777592       9.66324146      11.95099537
Pd       6.89476706       9.64088005      11.95142944
Pd       9.64982872       9.59779534      11.89439304
Pd      12.42487279       9.60955999      11.94161946
Pd       1.35802606      12.41462245      12.04582394
Pd       4.10624816      12.40887780      12.00662317
Pd       6.86816975      12.39901143      11.97280504
Pd       9.63028672      12.36702810      11.91406436
Pd      12.41879361      12.34804731      11.97632258
Pd      11.01748492       0.02024908      13.90101498
Pd       0.01667816       0.03741381      13.99510362
Pd       2.80060672      13.64303904      14.04272077
Pd       5.51026942       2.72104499      14.09810915
Pd       8.15568059       0.00568105      13.99546782
Pd       2.74741215       2.77410713      14.01174994
Pd       5.47349277       5.45187009      14.01159347
Pd       8.31698479       2.74672944      13.95954429
Pd      10.97999576       2.76227274      13.94259719
Pd      13.64141912       2.81115783      14.01161606
Pd      13.72263933       5.49999432      14.01928501
Pd       2.66693024       5.49607788      14.03320598
Pd       5.48358255       8.23142692      13.94458845
Pd       8.19148998       5.67921100      14.05069872
Pd      10.99084332       5.47459275      13.98381156
Pd      13.66988123       8.22177417      13.92832670
Pd       2.69800604       8.21402492      14.00569310
Pd       5.58370076      11.01192682      13.97574573
Pd       8.21802743       8.34892823      13.90600352
Pd      10.93253853       8.23597439      13.90836341
Pd      13.70918883      11.00337500      14.05426412
Pd       2.86065066      10.92014136      14.05446026
Pd       5.52608884       0.02142427      14.02608343
Pd       8.30313152      11.02287526      13.94010772
Pd      11.00454311      10.99433418      13.85528284
Pd      12.26275409       7.00843407      15.91892138
Pd       9.51148024       8.36237013      16.29425489
Pd       1.89144207      12.38217290      16.62605667
Pd       0.88820081       8.87403397      16.32577984
Pd      12.16103044       9.73061042      15.95427870
Pd       9.90649639      11.75387825      16.23093932
Pd       4.62685311       1.36614205      16.45361393
Pd       7.07506972       9.91433305      16.17978475
Pd       4.59331649      12.45062892      16.06376397
Pd      12.40207983      12.47324403      15.98202612
Pd      12.30171410       4.21764402      16.57692286
Pd       1.05900082       5.36280413      16.59537024
Pd       9.96737434       1.63073942      16.29652265
Pd       4.40453555       9.83312866      16.51105194
Pd       3.68923808       4.08259550      16.28828214
Pd       7.02553214      13.24172187      16.83906886
Pd       9.62027920       5.00208376      16.49938197
Pd       7.22296004       2.57759470      16.42532905
Pd       1.06177061       1.81351564      16.28279091
Pd       4.06564581       6.72507093      16.10800116
O        9.60290369      13.61568279      15.45514261
O       10.41647105       9.97605289      16.94748850
O        2.93512948       8.35801821      16.15376059
O       11.10436751       0.66764770      17.78788333
O       11.40780925      13.15213133      17.67931244
O        5.74563163       8.44897718      15.96611414
O        2.87863395       1.29307937      15.58338964
O        0.26930479       7.12425798      16.96674128
O        7.94487932      11.52732117      16.82517408
O        3.42994634      11.36105844      17.29974953
O        0.42300518      13.61857349      16.06975343
O       11.30306216       5.80870012      17.26549884
O        8.10059294       4.09301518      15.55290158
O        8.65063814       6.65230144      15.92511779
O        1.86576049       3.57246657      16.80789260
O       13.00897867       2.51879340      15.98264228
O       10.47916549       3.32082873      17.11948802
O        1.34112778      10.66837998      15.56027903
O        6.29836167       1.21056273      17.43151785
O        5.28983386       5.18386315      16.02561366
