115
Lattice="13.75323 0.0 0.0 0.0 13.75323 0.0 0.0 0.0 23.89" Properties=species:S:1:pos:R:3 entry_id=19 rank=18 energy=-573.3115234375 pbc="T T F"
Pd       0.00000000       0.00000000      10.00000000
Pd       2.75064538       0.00000000      10.00000000
Pd       5.50129076       0.00000000      10.00000000
Pd       8.25193614       0.00000000      10.00000000
Pd      11.00258152       0.00000000      10.00000000
Pd       0.00000000       2.75064538      10.00000000
Pd       2.75064538       2.75064538      10.00000000
Pd       5.50129076       2.75064538      10.00000000
Pd       8.25193614       2.75064538      10.00000000
Pd      11.00258152       2.75064538      10.00000000
Pd       0.00000000       5.50129076      10.00000000
Pd       2.75064538       5.50129076      10.00000000
Pd       5.50129076       5.50129076      10.00000000
Pd       8.25193614       5.50129076      10.00000000
Pd      11.00258152       5.50129076      10.00000000
Pd       0.00000000       8.25193614      10.00000000
Pd       2.75064538       8.25193614      10.00000000
Pd       5.50129076       8.25193614      10.00000000
Pd       8.25193614       8.25193614      10.00000000
Pd      11.00258152       8.25193614      10.00000000
Pd       0.00000000      11.00258152      10.00000000
Pd       2.75064538      11.00258152      10.00000000
Pd       5.50129076      11.00258152      10.00000000
Pd       8.25193614      11.00258152      10.00000000
Pd      11.00258152      11.00258152      10.00000000
Pd       1.33305437       1.38035701      12.05221797
Pd       4.08925664       1.38750338      11.98771029
Pd       6.82888190       1.38154444      11.99332965
Pd       9.57512057       1.39592898      11.89594876
Pd      12.38684272       1.37174114      11.92044161
Pd       1.37065655       4.09970544      12.00656864
Pd       4.10125007       4.12393621      12.00820233
Pd       6.82444734       4.12497179      12.00908219
Pd       9.56728621       4.13975942      11.94281254
Pd      12.36578195       4.13265160      11.93417299
Pd       1.37110082       6.89256210      11.94010419
Pd       4.13935064       6.87026939      11.96482277
Pd       6.87097415       6.85831372      11.95140951
Pd       9.64205429       6.82915781      11.94515418
Pd      12.39111484       6.85622887      11.94896407
Pd       1.35216595       9.69735034      11.99083951
Pd       4.11777592       9.66324146      11.95099537
Pd       6.89476706       9.64088005      11.95142944
Pd       9.64982872       9.59779534      11.89439304
Pd      12.42487279       9.60955999      11.94161946
Pd       1.35802606      12.41462245      12.04582394
Pd       4.10624816      12.40887780      12.00662317
Pd       6.86816975      12.39901143      11.97280504
Pd       9.63028672      12.36702810      11.91406436
Pd      12.41879361      12.34804731      11.97632258
Pd      11.00215341      13.70641380      13.91074323
Pd      13.71826709       0.04402440      13.99332591
Pd       2.75915987      13.63722226      14.02275706
Pd       5.49323861      13.72208831      14.06363839
Pd       8.33133076       2.77520917      13.95453636
Pd       2.77494269       2.83824192      14.06369910
Pd       5.53551669       2.68471429      14.07409114
Pd       8.20217643       5.66864326      14.14682736
Pd      10.97909429       2.70712256      13.94478176
Pd      13.62557810       2.86503002      13.99355138
Pd      13.65824831       5.53833253      14.00608187
Pd       2.64658592       5.49278806      14.11676724
Pd       5.47535151       5.43831746      13.93789742
Pd       8.22404242       8.31669652      13.90581684
Pd      10.94982405       5.41418152      13.95404218
Pd      13.69597793       8.28516714      13.97643658
Pd       2.72354638       8.30083356      13.97319756
Pd       5.49290190       8.27329961      13.91865643
Pd       8.32564434      11.02099266      13.89581346
Pd      10.94420024       8.23749644      13.91168941
Pd       0.07542605      11.00673805      14.05201481
Pd       2.82185941      10.94751243      14.00469342
Pd       5.56401805      10.97601831      13.97745688
Pd       8.16093385       0.04173767      13.98794883
Pd      11.08114962      10.93247672      13.94073400
Pd      11.69339347       6.91778935      16.04317815
Pd       9.38265708       8.28939427      16.37018801
Pd       1.56694112      12.11599593      16.23323051
Pd       0.49588523       6.91882463      16.38007053
Pd      12.14352250       9.53328960      16.28863895
Pd       9.87537360      11.77205137      16.34782126
Pd       4.59700418       1.17855688      16.44963311
Pd       6.88717030       9.51079230      16.18190695
Pd       4.34227614      12.26560970      16.02191004
Pd      12.45207208      12.23733036      15.97728083
Pd      12.42321582       4.15094910      16.85612317
Pd       2.21928547       3.98771102      16.92905950
Pd      10.09374901       1.56409785      16.32421054
Pd       4.16799402       9.52919843      16.31037573
Pd       5.03012782       4.09138452      16.51075475
Pd       6.94877477      12.92483529      16.42415145
Pd       9.65546694       4.88211814      16.63163515
Pd       7.25853340       2.36404294      16.43323070
Pd       1.08240694       1.81726078      16.12707080
Pd       4.38207012       6.74236503      16.04343422
O        9.60106654      13.60117216      15.48172779
O       10.32516224       9.93520866      16.97357399
O        2.44452272       7.01577223      15.61496347
O       11.10238964       0.44147166      17.78358652
O       11.29434335      12.88802894      17.60205827
O        5.57800353       8.21305787      16.82693810
O        2.87597390       1.27707388      15.52301156
O        0.53789735       5.02206986      16.92041435
O        7.87832511      11.21897888      15.91221941
O        2.99952131      10.99698350      16.90058375
O        0.26503367      13.57105223      16.06442172
O       11.30417235       5.69321695      17.55496628
O        8.17894087       3.92264741      15.66494515
O        8.62922525       6.51208700      16.06873138
O        3.80116096       2.91832417      17.43063544
O       13.06344567       2.53137919      15.99349046
O       10.63830425       3.24160048      17.16480694
O        0.21527757       8.84846388      15.93954369
O        6.34678570       0.84365799      17.27147439
O        6.02614121       5.63679715      15.89569747
