60
Properties=species:S:1:pos:R:3 system=runs/20260728-safe-lbfgs-strict-quench-200-production/output-c60-seed42 state_id=plateau_accepted pbc="F F F"
C        0.47501898       2.44257630       2.87262123
C       -0.72495179      -0.73021795      -2.32639020
C       -1.51115124      -1.80740827       1.31412376
C        2.02742052      -0.32185395      -2.61060733
C        3.53463441      -0.34594479      -0.61120419
C       -1.50307054      -1.80604644      -3.08092913
C        1.21735636       1.24660686       3.09634242
C       -0.99127220       0.87324457       3.76231168
C       -0.30974085      -2.64180080      -3.01999682
C        1.11136663       0.36126096      -3.44884061
C        1.93222819      -2.30071980      -0.15356674
C       -2.13670744      -2.44573167      -0.86465653
C        0.30681587       3.01612840       1.56350745
C        0.76022447      -1.91520002      -3.63771198
C       -3.13810592      -0.54913911      -1.76334574
C        0.11706584      -0.94921409       2.87867224
C       -2.75947566      -0.41816183      -0.36689656
C        1.18851998       2.21122443      -1.89870700
C        2.25587750       1.58054168      -1.19104529
C       -1.83076819       2.97702322       2.66866605
C       -0.88945296       1.74796206      -3.12275987
C       -0.87102533       3.17244001      -1.08298519
C        3.85037185       0.23893781       0.66652981
C        2.30191050       0.71712862       2.33725101
C        2.41706018      -0.71869648       2.21520688
C        1.21889592      -1.46688314       2.11734733
C       -1.52651254       2.53707886      -2.17804251
C        0.28825272       0.27467117       3.56976441
C        0.49916708       2.99075895      -0.92889833
C       -1.09619063      -0.54169119      -3.69807172
C       -2.38342418       1.73208389      -0.32360781
C       -0.66147300       0.03478441      -1.29210348
C        3.48049512      -0.99274845       1.32499887
C        0.31045899      -0.62817793      -4.11347051
C       -1.26548331      -1.09390417       2.54322637
C       -1.67494185       2.96075299       0.08437273
C        2.96804984       1.25116034       1.17168138
C        3.14386242      -1.55302025       0.06489908
C        0.95190248      -2.23394063       0.94024683
C       -0.42336191      -2.47507626       0.65027774
C       -0.85892185       2.25222862       3.45147688
C        1.09191488       2.80342138       0.39076196
C       -2.51885734      -1.67530622       0.25950095
C       -3.34111007       0.38511982       3.25183670
C       -3.65071770       1.65305008       3.13349670
C       -2.66089865       1.81331841      -1.73690530
C        0.13334507      -3.02466936      -1.71337695
C       -1.62795287       0.46550110      -0.37666852
C       -0.81616685      -2.89066335      -0.65638716
C        0.52872454       1.57089070      -3.00428371
C       -2.55501091      -1.82250979      -2.08439205
C       -3.20703293       2.84078443       2.84307773
C       -1.77977003       0.67452253      -3.46896173
C        2.73293233       0.32340946      -1.55863072
C       -1.13069036       3.20802378       1.39307300
C       -2.02077853      -0.02705590       3.26379381
C       -2.85390677       0.64221293      -2.53254188
C        1.46716130      -2.52600650      -1.51416570
C        2.26437239       1.98376203       0.19336472
C        1.76782394      -1.70896790      -2.65470525
