60
Properties=species:S:1:pos:R:3 system=runs/20260728-safe-lbfgs-strict-quench-200-production/output-c60-seed42 state_id=intermediate_accepted pbc="F F F"
C       -2.75022348      -1.93095981       0.34848002
C        0.78014771      -2.35674334      -2.82519002
C        1.91064080      -1.91548808       0.95981467
C       -0.42038716       3.57873994       1.02443722
C       -1.47513190       2.49523188       2.82068433
C        2.24471084      -2.83093304      -1.46526142
C       -2.39635210      -1.77767780       1.72710599
C       -1.33228016      -3.67659333       0.99311919
C        2.71730162       2.34295761      -0.07919263
C       -1.53564328       5.54592330      -3.44213582
C        0.78916090       1.30405786       2.70938152
C        3.48328124       0.22310311      -0.17438916
C       -2.96779638      -0.87599652      -0.62357539
C        1.75710456       3.37801807      -0.20915524
C        2.32087472       0.81292763      -2.14354942
C       -0.11538213      -2.27868864       2.34260591
C        2.61299554      -0.61966929      -2.12792521
C       -2.76975458       2.80258331      -0.66092291
C       -2.64356047       2.55570411       0.70537896
C       -1.38860056      -3.22242492      -1.24243441
C       -0.50599499       3.17535711      -2.97855519
C       -2.27909357       1.26484985      -2.56454062
C       -2.41284303       1.52487508       3.29322143
C       -2.35333080      -0.61787930       2.51771651
C       -1.25557283      -0.47296264       3.41394052
C       -0.01245553      -1.01395122       2.97649093
C       -1.09609360       1.89824765      -3.09008896
C       -1.41987597      -2.77013945       2.06164688
C       -2.89569229       1.58480713      -1.31733734
C        2.63027963      -2.09294831      -0.28770947
C       -0.73840497      -0.35515166      -3.24418881
C       -1.56685803      -2.22842651      -2.20465554
C       -1.31994555       0.82055025       3.96890558
C        1.33050809       3.66416533      -1.45790072
C        0.77698663      -2.73462030       1.32504574
C       -2.07675723      -0.10401049      -2.79582003
C       -2.90667824       0.65558842       2.25737927
C       -0.39109039       1.73646381       3.36647294
C        1.03897551      -0.12749419       2.58466724
C        2.06389099      -0.62717267       1.66943633
C       -2.16061606      -3.17063461      -0.05917039
C       -3.13854891       0.52106925      -0.31730815
C        3.19380696      -0.92736605      -0.86675338
C        0.95768890      -3.33590313      -1.77065232
C       -0.45753206      -1.72272009      -2.97013727
C       -0.05340863       0.89592564      -3.22092746
C        2.60855755       1.73164169       1.20510732
C        2.10689955      -1.85285905      -2.60418955
C        2.94809774       0.36107543       1.13229022
C       -1.06695585       4.42207088      -3.14946977
C        3.05885591       1.33980837      -1.00277832
C       -0.07156424      -3.65422124      -0.89614466
C        0.85515474       2.89166951      -2.45764039
C       -1.58245532       3.09661345       1.54196061
C       -2.49927142      -1.16075184      -1.95607305
C        0.02970494      -3.67188937       0.52111138
C        1.17751153       1.46885230      -2.71676135
C        1.47710680       2.21152319       1.86164057
C       -3.06076558       1.18708720       0.96931677
C        0.88722552       3.27508674       1.03324673
