115
Lattice="13.75323 0.0 0.0 0.0 13.75323 0.0 0.0 0.0 23.89" Properties=species:S:1:pos:R:3 entry_id=16 rank=24 energy=-571.39013671875 pbc="T T F"
Pd       0.00000000       0.00000000      10.00000000
Pd       2.75064538       0.00000000      10.00000000
Pd       5.50129076       0.00000000      10.00000000
Pd       8.25193614       0.00000000      10.00000000
Pd      11.00258152       0.00000000      10.00000000
Pd       0.00000000       2.75064538      10.00000000
Pd       2.75064538       2.75064538      10.00000000
Pd       5.50129076       2.75064538      10.00000000
Pd       8.25193614       2.75064538      10.00000000
Pd      11.00258152       2.75064538      10.00000000
Pd       0.00000000       5.50129076      10.00000000
Pd       2.75064538       5.50129076      10.00000000
Pd       5.50129076       5.50129076      10.00000000
Pd       8.25193614       5.50129076      10.00000000
Pd      11.00258152       5.50129076      10.00000000
Pd       0.00000000       8.25193614      10.00000000
Pd       2.75064538       8.25193614      10.00000000
Pd       5.50129076       8.25193614      10.00000000
Pd       8.25193614       8.25193614      10.00000000
Pd      11.00258152       8.25193614      10.00000000
Pd       0.00000000      11.00258152      10.00000000
Pd       2.75064538      11.00258152      10.00000000
Pd       5.50129076      11.00258152      10.00000000
Pd       8.25193614      11.00258152      10.00000000
Pd      11.00258152      11.00258152      10.00000000
Pd       1.33305437       1.38035701      12.05221797
Pd       4.08925664       1.38750338      11.98771029
Pd       6.82888190       1.38154444      11.99332965
Pd       9.57512057       1.39592898      11.89594876
Pd      12.38684272       1.37174114      11.92044161
Pd       1.37065655       4.09970544      12.00656864
Pd       4.10125007       4.12393621      12.00820233
Pd       6.82444734       4.12497179      12.00908219
Pd       9.56728621       4.13975942      11.94281254
Pd      12.36578195       4.13265160      11.93417299
Pd       1.37110082       6.89256210      11.94010419
Pd       4.13935064       6.87026939      11.96482277
Pd       6.87097415       6.85831372      11.95140951
Pd       9.64205429       6.82915781      11.94515418
Pd      12.39111484       6.85622887      11.94896407
Pd       1.35216595       9.69735034      11.99083951
Pd       4.11777592       9.66324146      11.95099537
Pd       6.89476706       9.64088005      11.95142944
Pd       9.64982872       9.59779534      11.89439304
Pd      12.42487279       9.60955999      11.94161946
Pd       1.35802606      12.41462245      12.04582394
Pd       4.10624816      12.40887780      12.00662317
Pd       6.86816975      12.39901143      11.97280504
Pd       9.63028672      12.36702810      11.91406436
Pd      12.41879361      12.34804731      11.97632258
Pd      13.56039180       0.03789262      14.01455629
Pd       2.78297398       0.02621094      13.99811101
Pd       5.51602364       0.00266468      14.00607786
Pd       8.25973432      13.72867606      13.90894032
Pd      10.91738538       0.02481284      13.90362403
Pd       0.03903029       2.85715286      13.98247787
Pd       2.79918825       2.75795787      14.13431183
Pd       5.50894479       2.78109824      14.08006700
Pd       8.34425934       2.76599085      13.96397418
Pd      11.06937790       2.68887412      13.89696297
Pd      13.58184035       5.54210944      14.06130080
Pd       2.58300886       5.47954718      13.98527590
Pd       5.33383674       5.53158004      14.06209120
Pd       8.10187166       5.50391808      13.91563570
Pd      10.86330770       5.39890334      14.00921744
Pd       0.06577832       8.19984883      13.95506009
Pd       2.80743600       8.20128599      13.95577651
Pd       5.51678837       8.28478036      13.88060286
Pd       8.28657428       8.24192122      14.01449337
Pd      11.05022743       8.22761291      14.01517390
Pd       0.03268728      10.99528285      13.99998845
Pd       2.77013567      10.95249374      13.98475410
Pd       5.57016819      11.05582821      13.98051571
Pd       8.32291222      11.01095865      13.95848744
Pd      11.06901662      11.02841068      14.04257296
Pd      11.70196839       6.53253227      16.42198405
Pd       9.32654852       9.52679061      16.49733458
Pd       0.90803700      12.15702261      16.29249896
Pd       0.74843571       6.79177036      16.39971850
Pd      12.63425319       9.48522762      15.94689804
Pd       6.99455478       1.37654360      15.88022451
Pd       4.33834599       1.22447471      16.08059185
Pd       4.40870795       9.71332480      15.90867985
Pd       3.82377834      12.22909229      15.95232034
Pd       9.56862511      13.02687891      16.45890110
Pd       1.70901533       2.29715588      16.76808742
Pd       3.62473957       4.03921001      16.55273662
Pd      10.33627504       2.92115114      16.49178464
Pd       1.68969058       9.41789233      16.00100532
Pd       6.48061469       7.20695263      16.25442131
Pd       6.57701739      12.29261243      16.40820648
Pd       8.86134890       6.20881386      16.28943079
Pd       6.89198739       4.27423287      16.14236669
Pd      12.36307488       1.37274987      16.15414210
Pd       3.53400961       7.24108432      16.53621947
O        8.32465828       2.93721083      16.13136776
O       11.04160719      10.56533272      16.89986700
O       11.12165058      11.78538162      16.08590593
O       10.59359544       0.95099258      16.92453711
O        7.85751936       0.02758654      17.09847023
O        4.96656736       8.36520351      17.24338117
O        1.29637860       0.05762022      15.35049763
O        0.27123888       0.86297982      17.78141173
O        8.43193928      11.36116346      16.02593185
O        0.36292222      10.45609528      17.09227721
O        0.61685572      13.36960144      17.98237238
O        2.39915375       5.70704749      16.02242258
O        5.35725368       5.50304565      16.23018529
O        9.97567060       7.70398049      17.07991604
O        3.49965706       2.29775562      17.55228237
O        0.00950270       2.74249556      15.95501632
O       10.50264229       4.91487325      16.06955201
O       12.97927553       7.81948995      17.08092335
O        4.99792117      13.27225837      17.13741218
O        7.59467284       8.77475711      15.89977893
