115
Lattice="13.75323 0.0 0.0 0.0 13.75323 0.0 0.0 0.0 23.89" Properties=species:S:1:pos:R:3 entry_id=10 rank=27 energy=-570.6724853515625 pbc="T T F"
Pd       0.00000000       0.00000000      10.00000000
Pd       2.75064538       0.00000000      10.00000000
Pd       5.50129076       0.00000000      10.00000000
Pd       8.25193614       0.00000000      10.00000000
Pd      11.00258152       0.00000000      10.00000000
Pd       0.00000000       2.75064538      10.00000000
Pd       2.75064538       2.75064538      10.00000000
Pd       5.50129076       2.75064538      10.00000000
Pd       8.25193614       2.75064538      10.00000000
Pd      11.00258152       2.75064538      10.00000000
Pd       0.00000000       5.50129076      10.00000000
Pd       2.75064538       5.50129076      10.00000000
Pd       5.50129076       5.50129076      10.00000000
Pd       8.25193614       5.50129076      10.00000000
Pd      11.00258152       5.50129076      10.00000000
Pd       0.00000000       8.25193614      10.00000000
Pd       2.75064538       8.25193614      10.00000000
Pd       5.50129076       8.25193614      10.00000000
Pd       8.25193614       8.25193614      10.00000000
Pd      11.00258152       8.25193614      10.00000000
Pd       0.00000000      11.00258152      10.00000000
Pd       2.75064538      11.00258152      10.00000000
Pd       5.50129076      11.00258152      10.00000000
Pd       8.25193614      11.00258152      10.00000000
Pd      11.00258152      11.00258152      10.00000000
Pd       1.33305437       1.38035701      12.05221797
Pd       4.08925664       1.38750338      11.98771029
Pd       6.82888190       1.38154444      11.99332965
Pd       9.57512057       1.39592898      11.89594876
Pd      12.38684272       1.37174114      11.92044161
Pd       1.37065655       4.09970544      12.00656864
Pd       4.10125007       4.12393621      12.00820233
Pd       6.82444734       4.12497179      12.00908219
Pd       9.56728621       4.13975942      11.94281254
Pd      12.36578195       4.13265160      11.93417299
Pd       1.37110082       6.89256210      11.94010419
Pd       4.13935064       6.87026939      11.96482277
Pd       6.87097415       6.85831372      11.95140951
Pd       9.64205429       6.82915781      11.94515418
Pd      12.39111484       6.85622887      11.94896407
Pd       1.35216595       9.69735034      11.99083951
Pd       4.11777592       9.66324146      11.95099537
Pd       6.89476706       9.64088005      11.95142944
Pd       9.64982872       9.59779534      11.89439304
Pd      12.42487279       9.60955999      11.94161946
Pd       1.35802606      12.41462245      12.04582394
Pd       4.10624816      12.40887780      12.00662317
Pd       6.86816975      12.39901143      11.97280504
Pd       9.63028672      12.36702810      11.91406436
Pd      12.41879361      12.34804731      11.97632258
Pd      13.69859042       0.01096976      14.09684689
Pd       2.81787380       0.11208731      14.06367601
Pd       5.57750525      13.68211152      14.02633100
Pd       8.30326559       0.07535042      13.94407787
Pd      10.97633282       0.02217802      13.81681309
Pd      13.57374834       2.77637680      13.99169560
Pd       2.63145174       2.86327622      14.12387165
Pd       5.41081301       2.67218558      14.05635919
Pd       8.21859020       2.72463185      13.96053322
Pd      10.88893094       2.69815480      13.89710692
Pd       0.05103195       5.51346411      13.89176371
Pd       2.73441336       5.58142965      14.04124981
Pd       5.42567835       5.46490134      14.04835681
Pd       8.29283085       5.47516587      14.02594007
Pd      11.00436304       5.40913431      13.97079160
Pd       0.01154303       8.34878966      13.93350966
Pd       2.75827867       8.30084891      13.93547466
Pd       5.51051881       8.22957177      13.84213333
Pd       8.27244773       8.19746612      13.97615839
Pd      10.99607685       8.16896235      14.10790174
Pd      13.73352087      10.96262918      14.66219687
Pd       2.77133156      11.08008901      13.99714472
Pd       5.52366605      10.97472218      13.89589171
Pd       8.28229316      11.07741297      13.97158759
Pd      11.09662545      10.85435587      13.85453233
Pd      12.70528169       6.49588001      16.10117328
Pd       9.22834972       9.86696219      16.57985641
Pd       1.96019680      12.46100073      16.38737695
Pd       1.64941959       7.05177669      16.33293165
Pd      12.25012786       9.38013746      16.46671015
Pd       8.42580372       1.25357421      16.88595480
Pd       4.76678768       0.87026617      16.49480899
Pd       5.61310313       9.57450819      16.18338394
Pd       4.55752013      12.00696974      16.08893207
Pd      11.02479201      12.34635036      15.98988666
Pd       0.98273023       4.41256721      16.33887105
Pd       3.94414721       4.28213976      16.30104650
Pd      11.26211034       3.10524297      16.57699578
Pd       2.95320997       9.62485544      16.27706884
Pd       7.58992943       6.86101118      16.60418555
Pd       7.26474620      12.72375951      16.21023779
Pd      10.13650876       6.74499782      16.52773884
Pd       7.48105354       3.57187830      16.40865484
Pd       1.12438508       1.69365055      16.16738963
Pd       4.24883450       7.12568383      15.95063556
O        9.31292493       3.04969493      17.08499187
O       10.95619539      10.58438851      17.26490131
O       12.95091901      12.63222768      15.63631431
O       11.45148613       1.25542747      17.26297762
O       10.41084932       0.41421315      17.08816085
O        5.80755966       7.73770156      17.05529099
O        2.77239536       0.55365577      16.15459326
O        0.57992679       0.74280417      17.95165021
O        9.05581066      11.76094211      15.90612317
O        1.23550379      10.65848653      16.42421959
O        0.94351198      13.25650306      18.06989539
O        2.51720571       5.41835005      17.07484449
O        6.87663304       5.35032238      15.57577113
O        8.96816078       8.05905552      17.40075392
O        5.48997918       3.02223885      16.09644001
O       13.30590825       3.01294171      16.05555709
O       11.24331043       5.11676112      16.03492434
O        0.00987509       8.16549602      16.00770467
O        6.57025822       0.54005034      17.18048059
O        7.60882999       9.55580763      15.44501424
