115
Lattice="13.75323 0.0 0.0 0.0 13.75323 0.0 0.0 0.0 23.89" Properties=species:S:1:pos:R:3 entry_id=6 rank=22 energy=-571.4259033203125 pbc="T T F"
Pd       0.00000000       0.00000000      10.00000000
Pd       2.75064538       0.00000000      10.00000000
Pd       5.50129076       0.00000000      10.00000000
Pd       8.25193614       0.00000000      10.00000000
Pd      11.00258152       0.00000000      10.00000000
Pd       0.00000000       2.75064538      10.00000000
Pd       2.75064538       2.75064538      10.00000000
Pd       5.50129076       2.75064538      10.00000000
Pd       8.25193614       2.75064538      10.00000000
Pd      11.00258152       2.75064538      10.00000000
Pd       0.00000000       5.50129076      10.00000000
Pd       2.75064538       5.50129076      10.00000000
Pd       5.50129076       5.50129076      10.00000000
Pd       8.25193614       5.50129076      10.00000000
Pd      11.00258152       5.50129076      10.00000000
Pd       0.00000000       8.25193614      10.00000000
Pd       2.75064538       8.25193614      10.00000000
Pd       5.50129076       8.25193614      10.00000000
Pd       8.25193614       8.25193614      10.00000000
Pd      11.00258152       8.25193614      10.00000000
Pd       0.00000000      11.00258152      10.00000000
Pd       2.75064538      11.00258152      10.00000000
Pd       5.50129076      11.00258152      10.00000000
Pd       8.25193614      11.00258152      10.00000000
Pd      11.00258152      11.00258152      10.00000000
Pd       1.33305437       1.38035701      12.05221797
Pd       4.08925664       1.38750338      11.98771029
Pd       6.82888190       1.38154444      11.99332965
Pd       9.57512057       1.39592898      11.89594876
Pd      12.38684272       1.37174114      11.92044161
Pd       1.37065655       4.09970544      12.00656864
Pd       4.10125007       4.12393621      12.00820233
Pd       6.82444734       4.12497179      12.00908219
Pd       9.56728621       4.13975942      11.94281254
Pd      12.36578195       4.13265160      11.93417299
Pd       1.37110082       6.89256210      11.94010419
Pd       4.13935064       6.87026939      11.96482277
Pd       6.87097415       6.85831372      11.95140951
Pd       9.64205429       6.82915781      11.94515418
Pd      12.39111484       6.85622887      11.94896407
Pd       1.35216595       9.69735034      11.99083951
Pd       4.11777592       9.66324146      11.95099537
Pd       6.89476706       9.64088005      11.95142944
Pd       9.64982872       9.59779534      11.89439304
Pd      12.42487279       9.60955999      11.94161946
Pd       1.35802606      12.41462245      12.04582394
Pd       4.10624816      12.40887780      12.00662317
Pd       6.86816975      12.39901143      11.97280504
Pd       9.63028672      12.36702810      11.91406436
Pd      12.41879361      12.34804731      11.97632258
Pd      13.70134213      13.69941302      14.07957458
Pd       2.73055801       0.13160290      14.07178531
Pd       5.50184646      13.73334586      13.99279149
Pd       8.26427739       0.09536351      13.96058922
Pd      10.97908934       0.06369096      13.84230860
Pd      13.64153583       2.69330916      13.98638802
Pd       2.65048474       2.85496423      14.08510239
Pd       5.46541589       2.71254991      14.05964010
Pd       8.20603985       2.76941787      14.02794605
Pd      10.90625344       2.71863601      13.83617190
Pd       0.04494465       5.45917721      13.94296948
Pd       2.75665489       5.58012971      14.03369964
Pd       5.51183213       5.47436218      14.10662125
Pd       8.26674979       5.52149164      13.98461466
Pd      10.99925602       5.41760586      13.93873601
Pd      13.72498775       8.24196530      13.92487090
Pd       2.73008574       8.28804111      13.90348879
Pd       5.49581982       8.21668079      13.86948914
Pd       8.23007234       8.21163410      13.98003490
Pd      10.94773078       8.19236688      14.05540372
Pd       0.09882556      10.92490423      14.22419654
Pd       2.80394685      11.06503514      13.92973859
Pd       5.54073647      11.00203385      13.88922681
Pd       8.32538566      11.08288803      13.98043761
Pd      11.12518373      10.88590348      14.06968105
Pd      12.48073314       6.53043490      16.06807873
Pd       9.09368249       9.81241740      16.60875169
Pd       1.63348836      12.58695346      16.17692272
Pd       1.44655006       6.94046472      16.23774920
Pd      12.04150531       9.33316239      16.45431834
Pd       7.89738836       1.51052142      16.78436716
Pd       4.39607316       0.78631922      16.43438351
Pd       5.45168020       9.65351573      16.16066494
Pd       4.26108095      12.01045929      16.00029559
Pd      10.26555092      13.30872019      16.56589069
Pd       0.90628960       4.17005288      16.30432148
Pd       3.73900914       4.20315763      16.30441219
Pd      11.17961830       2.97175820      16.47368847
Pd       2.71541894       9.64789437      16.21950948
Pd       7.18490789       6.82660153      16.64176462
Pd       6.93594870      12.50398011      15.97705267
Pd       9.78290013       6.49312181      16.33681968
Pd       7.81387313       4.20568035      16.33873931
Pd      13.54104904       0.94708690      16.81903722
Pd       4.08018117       7.22427563      15.97601608
O        9.22962040       2.99100066      16.93776748
O       10.72354903      10.15707886      17.52118748
O       11.52762905      12.51735244      15.26175549
O       11.52444343       1.07988004      17.04350695
O        9.02410010       0.29712696      17.78572892
O        5.54469755       7.92152697      17.18980321
O        2.40155784       0.70647070      16.10315660
O       13.66820013      13.29294300      18.21146854
O        8.93430850      11.78345059      16.09183260
O        0.98828024      10.73202924      16.10014862
O        1.05499094      12.63264891      18.17402262
O        2.31592937       5.34891932      17.03402767
O        6.14347610       5.24408095      16.08771375
O        8.73912658       7.92305150      17.20117945
O        4.95769419       2.72323123      16.01671712
O       13.21132726       2.81030745      15.99259692
O       11.13557994       5.02037118      15.99475094
O       13.61571343       8.17858230      15.99123309
O        6.26639573       0.37361209      16.95635262
O        7.51859698       9.61614243      15.39380925
