115
Lattice="13.75323 0.0 0.0 0.0 13.75323 0.0 0.0 0.0 23.89" Properties=species:S:1:pos:R:3 entry_id=32 rank=2 energy=-574.0885009765625 pbc="T T F"
Pd       0.00000000       0.00000000      10.00000000
Pd       2.75064538       0.00000000      10.00000000
Pd       5.50129076       0.00000000      10.00000000
Pd       8.25193614       0.00000000      10.00000000
Pd      11.00258152       0.00000000      10.00000000
Pd       0.00000000       2.75064538      10.00000000
Pd       2.75064538       2.75064538      10.00000000
Pd       5.50129076       2.75064538      10.00000000
Pd       8.25193614       2.75064538      10.00000000
Pd      11.00258152       2.75064538      10.00000000
Pd       0.00000000       5.50129076      10.00000000
Pd       2.75064538       5.50129076      10.00000000
Pd       5.50129076       5.50129076      10.00000000
Pd       8.25193614       5.50129076      10.00000000
Pd      11.00258152       5.50129076      10.00000000
Pd       0.00000000       8.25193614      10.00000000
Pd       2.75064538       8.25193614      10.00000000
Pd       5.50129076       8.25193614      10.00000000
Pd       8.25193614       8.25193614      10.00000000
Pd      11.00258152       8.25193614      10.00000000
Pd       0.00000000      11.00258152      10.00000000
Pd       2.75064538      11.00258152      10.00000000
Pd       5.50129076      11.00258152      10.00000000
Pd       8.25193614      11.00258152      10.00000000
Pd      11.00258152      11.00258152      10.00000000
Pd       1.33305437       1.38035701      12.05221797
Pd       4.08925664       1.38750338      11.98771029
Pd       6.82888190       1.38154444      11.99332965
Pd       9.57512057       1.39592898      11.89594876
Pd      12.38684272       1.37174114      11.92044161
Pd       1.37065655       4.09970544      12.00656864
Pd       4.10125007       4.12393621      12.00820233
Pd       6.82444734       4.12497179      12.00908219
Pd       9.56728621       4.13975942      11.94281254
Pd      12.36578195       4.13265160      11.93417299
Pd       1.37110082       6.89256210      11.94010419
Pd       4.13935064       6.87026939      11.96482277
Pd       6.87097415       6.85831372      11.95140951
Pd       9.64205429       6.82915781      11.94515418
Pd      12.39111484       6.85622887      11.94896407
Pd       1.35216595       9.69735034      11.99083951
Pd       4.11777592       9.66324146      11.95099537
Pd       6.89476706       9.64088005      11.95142944
Pd       9.64982872       9.59779534      11.89439304
Pd      12.42487279       9.60955999      11.94161946
Pd       1.35802606      12.41462245      12.04582394
Pd       4.10624816      12.40887780      12.00662317
Pd       6.86816975      12.39901143      11.97280504
Pd       9.63028672      12.36702810      11.91406436
Pd      12.41879361      12.34804731      11.97632258
Pd       0.00515172      13.71779751      14.02483702
Pd       2.78275457      13.75255748      13.99453578
Pd       5.54470916       0.04703657      14.01444985
Pd       8.25603818       0.02556801      14.01135942
Pd      10.95057054      13.68511190      13.89620990
Pd      13.64360258       2.75389090      14.16054875
Pd       2.71980735       2.73390727      13.99438462
Pd       5.42444541       2.79762422      14.02825151
Pd       8.17331233       2.76476847      13.96328124
Pd      10.88615277       2.65546672      13.91204243
Pd      13.70911017       5.54125708      13.97939018
Pd       2.71194521       5.52990236      13.95509458
Pd       5.47497109       5.52519419      14.03085770
Pd       8.22118401       5.53278161      13.96855337
Pd      10.94402804       5.44702032      13.96541379
Pd       0.05376231       8.28678379      14.05285452
Pd       2.77459700       8.27269434      13.92952287
Pd       5.52505342       8.26452040      13.94014033
Pd       8.27383071       8.29060528      13.98756943
Pd      11.14280803       8.17148597      13.96336079
Pd       0.08098796      11.02237171      14.06644122
Pd       2.78383216      11.00094563      14.06339931
Pd       5.55812900      11.03973101      14.04819561
Pd       8.32192288      11.04483975      13.88716413
Pd      11.08148815      10.96143497      13.91221122
Pd      12.71436186       6.99944234      16.50732744
Pd      10.14556428       7.86688483      17.16523337
Pd       1.76783694      11.12679123      16.69227370
Pd       1.59623688       7.69808258      16.34948683
Pd      12.89055086      10.05986602      16.35073534
Pd       8.22320753       1.42026683      16.49638893
Pd       5.42641501       1.54147591      16.37377354
Pd       6.90119157       9.66781356      16.19980509
Pd       4.15028060      12.38493221      15.96646580
Pd      10.00526128      12.35410069      16.58076649
Pd       1.94487483       0.92757970      16.48340579
Pd       3.04565387       3.89160539      16.48105470
Pd      12.01570161       3.92877077      16.07175719
Pd       4.08529063       9.55951959      15.96167325
Pd       6.92476828       6.91370036      15.95807434
Pd       6.88598103      12.43672268      16.37665748
Pd       8.84732317       5.05530101      16.65922062
Pd       6.25515402       4.14363789      16.38267343
Pd      12.25233490       1.05076281      16.10242638
Pd       4.24316450       6.87903435      16.34024072
O        8.04799502       3.31122255      15.96541315
O       11.22083423      10.96441786      15.88171458
O       11.34161957      13.52939264      17.27316062
O       10.79686608       2.36703826      15.97183190
O        8.47768421      13.42139075      17.28800336
O        5.57156279       8.33930980      16.92928446
O        1.48841815       2.75287861      15.71796038
O        0.19090030       0.05344667      16.02997981
O        8.33186627      11.12490269      15.91772285
O        0.88896202       9.41249732      16.97062029
O        2.55210088      12.88415911      17.10145088
O        2.49731662       5.89503912      15.96586967
O        4.62610238       4.91744808      17.13266965
O       10.77853483       5.05109874      17.16570376
O        3.56169334       2.04067245      17.07557159
O       13.43098861       5.28511178      15.96641646
O        9.76433086       8.56011509      15.32518971
O       11.94422490       8.57432673      17.39292832
O        5.41303278      13.45547170      17.16455203
O        8.49307880       6.87843374      17.30834475
