115
Lattice="13.75323 0.0 0.0 0.0 13.75323 0.0 0.0 0.0 23.89" Properties=species:S:1:pos:R:3 entry_id=2 rank=33 energy=-569.511962890625 pbc="T T F"
Pd       0.00000000       0.00000000      10.00000000
Pd       2.75064538       0.00000000      10.00000000
Pd       5.50129076       0.00000000      10.00000000
Pd       8.25193614       0.00000000      10.00000000
Pd      11.00258152       0.00000000      10.00000000
Pd       0.00000000       2.75064538      10.00000000
Pd       2.75064538       2.75064538      10.00000000
Pd       5.50129076       2.75064538      10.00000000
Pd       8.25193614       2.75064538      10.00000000
Pd      11.00258152       2.75064538      10.00000000
Pd       0.00000000       5.50129076      10.00000000
Pd       2.75064538       5.50129076      10.00000000
Pd       5.50129076       5.50129076      10.00000000
Pd       8.25193614       5.50129076      10.00000000
Pd      11.00258152       5.50129076      10.00000000
Pd       0.00000000       8.25193614      10.00000000
Pd       2.75064538       8.25193614      10.00000000
Pd       5.50129076       8.25193614      10.00000000
Pd       8.25193614       8.25193614      10.00000000
Pd      11.00258152       8.25193614      10.00000000
Pd       0.00000000      11.00258152      10.00000000
Pd       2.75064538      11.00258152      10.00000000
Pd       5.50129076      11.00258152      10.00000000
Pd       8.25193614      11.00258152      10.00000000
Pd      11.00258152      11.00258152      10.00000000
Pd       1.33305437       1.38035701      12.05221797
Pd       4.08925664       1.38750338      11.98771029
Pd       6.82888190       1.38154444      11.99332965
Pd       9.57512057       1.39592898      11.89594876
Pd      12.38684272       1.37174114      11.92044161
Pd       1.37065655       4.09970544      12.00656864
Pd       4.10125007       4.12393621      12.00820233
Pd       6.82444734       4.12497179      12.00908219
Pd       9.56728621       4.13975942      11.94281254
Pd      12.36578195       4.13265160      11.93417299
Pd       1.37110082       6.89256210      11.94010419
Pd       4.13935064       6.87026939      11.96482277
Pd       6.87097415       6.85831372      11.95140951
Pd       9.64205429       6.82915781      11.94515418
Pd      12.39111484       6.85622887      11.94896407
Pd       1.35216595       9.69735034      11.99083951
Pd       4.11777592       9.66324146      11.95099537
Pd       6.89476706       9.64088005      11.95142944
Pd       9.64982872       9.59779534      11.89439304
Pd      12.42487279       9.60955999      11.94161946
Pd       1.35802606      12.41462245      12.04582394
Pd       4.10624816      12.40887780      12.00662317
Pd       6.86816975      12.39901143      11.97280504
Pd       9.63028672      12.36702810      11.91406436
Pd      12.41879361      12.34804731      11.97632258
Pd      13.74754605       0.03069889      14.04763851
Pd       2.73555581      13.70239074      14.10365034
Pd       5.50595510      13.69867829      14.02918910
Pd       8.19247338       0.05101690      14.00184432
Pd      10.86126544       0.11074378      13.81066785
Pd      13.63849258       2.77385156      14.06960990
Pd       2.61826370       2.77202098      14.07959469
Pd       5.42158434       2.70011002      14.05612070
Pd       8.28994512       2.80877259      14.00086797
Pd      10.95017718       2.75618162      13.92838821
Pd       0.06838155       5.51874214      13.92203513
Pd       2.78520879       5.50273486      13.99751767
Pd       5.57928003       5.45470673      13.98086316
Pd       8.28321851       5.58780553      14.04310097
Pd      11.00680297       5.41692964      13.90364670
Pd       0.06023705       8.34226878      13.93191890
Pd       2.73888693       8.19665818      13.88833418
Pd       5.41715251       8.21956129      13.99054826
Pd       8.43443170       8.33383791      13.95249933
Pd      11.11114288       8.13132955      14.11469750
Pd      13.70632745      11.06770818      14.11521199
Pd       2.68921685      10.94927004      14.04125281
Pd       5.48574016      10.99286075      13.86942089
Pd       8.24983757      11.07302424      14.01410156
Pd      10.98483744      10.81359775      13.94845675
Pd      12.92126161       6.86174595      16.07881810
Pd       9.81681368       9.48755650      16.26340600
Pd       0.99778210      11.60385336      16.70368296
Pd       1.86964273       7.01483742      16.38190369
Pd      12.71706297       9.67029169      16.44484949
Pd       8.10835615       1.50081204      16.49181644
Pd       4.48585584       1.14047766      16.30696993
Pd       6.12792052      10.14042169      16.30660483
Pd       4.28262596      12.17703214      16.02351079
Pd      11.84464796      12.49280266      16.30989793
Pd       1.25529411       4.37719876      16.19385252
Pd       4.11989825       3.98430124      15.99081392
Pd      11.30477830       3.61173761      16.82274161
Pd       3.73871086       9.10750098      16.17146723
Pd       7.05985336       6.87161807      16.49400722
Pd       6.96978492      12.75877480      16.38965097
Pd      10.11551887       6.59643176      16.40342407
Pd       8.14588432       4.12841481      16.52660390
Pd       1.05152871       0.46694220      16.59673193
Pd       4.47318386       6.63499901      16.04899659
O        9.74786375       4.74731836      17.43390469
O       11.23770118      10.74246810      17.09769116
O       12.20048485       0.42962475      15.29816247
O       10.69611623       1.97134101      17.76599713
O        9.97075928       1.08849377      17.07693877
O        6.91533303       8.46723588      15.36166896
O        2.59805718       1.36523421      15.70756358
O        0.11941915       2.15503423      17.24471462
O       10.27346344      12.35964443      15.07828200
O        2.71044789      10.82503137      16.20910590
O       13.48007570      12.93006056      17.39221028
O        2.89615290       5.38358311      16.97618263
O        6.93621685       5.29078931      17.53711954
O        8.84893968       7.88829056      17.08116605
O        6.87412437       2.92124639      15.57567685
O       13.34791642       3.06410902      16.28703633
O       11.63309120       5.38029164      15.87850397
O        0.44536971       8.39154202      16.02138085
O        6.25631710       0.70906467      17.03673550
O        7.93058859      11.04766033      16.07065180
