60
Properties=species:S:1:pos:R:3 system=runs/20260728-safe-lbfgs-strict-quench-200-production/output-c60-seed42 state_id=plateau_accepted pbc="F F F"
C       -2.23193914       1.97525776      -1.88048486
C       -2.75299905       0.25761978       0.70365465
C       -0.39249099       1.45823821       2.50444191
C        2.95377255      -1.06689883      -1.17930694
C        2.95519429       1.25987753      -1.99036553
C       -0.28761950       0.19662350      -0.25835996
C       -1.16883348       2.85345065      -1.52166969
C       -2.72584673       2.93357820       0.16387168
C        2.33289881      -1.58129741       2.22556025
C        2.40511316      -2.36722863      -1.26836865
C        2.77889953       1.57988519       0.56929972
C        0.67336678      -0.42559181       3.30231991
C       -2.07798936       0.63636486      -2.38415954
C        2.76906620      -2.01572420       0.96061861
C       -0.12542142      -2.09701449       1.95711485
C       -0.53327615       3.17039412       0.80052762
C       -1.16452153      -1.10260087       2.10151613
C        0.75278417      -1.58995463      -2.83817860
C        1.40485925      -0.31654122      -2.91020087
C       -4.24411326       1.35597899      -0.48981992
C        0.46922302      -3.53149116      -1.31844942
C       -1.45725074      -2.23153585      -2.11296620
C        2.24912301       2.31982484      -2.63916522
C        0.18649933       2.87754024      -1.89233670
C        1.11317032       3.33546252      -0.91371802
C        0.83203205       3.09049045       0.45273944
C       -0.90171339      -3.28364586      -1.32356474
C       -1.44270370       3.36033872      -0.23996085
C       -0.63881592      -1.35179540      -2.84951366
C       -1.42605744       0.53738491       0.18085836
C       -2.23238296      -2.00524026       0.05524236
C       -3.62900761       0.18949233      -0.54636604
C        2.40852880       3.10371438      -1.41422535
C        2.18163002      -2.91190854       0.00842475
C       -1.18133652       2.42238898       1.81530487
C       -2.42819894      -1.59933543      -1.31572480
C        0.84019697       2.06587229      -2.84206833
C        3.06614320       2.00347899      -0.77507023
C        1.65427205       2.22968939       1.23214436
C        1.05386787       1.61384193       2.37717318
C       -3.30985883       2.26771325      -0.93940988
C       -0.87861514       0.08368115      -2.94589274
C       -0.60473910       0.04022336       2.84225458
C       -3.38142890       1.25483864       1.64781727
C       -4.07966201       0.97600531       2.31876880
C       -1.28446363      -3.03729399       0.03185997
C        2.72321829      -0.17661600       2.33049930
C       -2.26394717      -1.11193790       1.15438221
C        1.68440071       0.51789353       2.99782224
C        1.29687377      -2.65666649      -2.08359423
C        1.00587693      -1.67936970       2.71502443
C       -4.50052035       1.28024535       1.15548401
C        0.93527559      -3.50958353       0.06730928
C        2.57579888      -0.08277177      -2.14222953
C       -2.91568117      -0.32443905      -1.66761375
C       -2.60902745       2.41627635       1.48726605
C       -0.15583853      -3.04316294       0.88628517
C        3.17557854       0.28071553       1.04104143
C        0.43340304       0.73189428      -3.09889218
C        3.23713513      -0.86726561       0.20964806
