60
Properties=species:S:1:pos:R:3 trajectory=trial0001_proposal001_step004_proposal_relax trajectory_step=0 pbc="F F F"
C       -2.46008601      -2.05900360       0.71707831
C        2.30185656      -3.08773161       0.14844437
C        1.21662358      -0.06970435       2.36994939
C       -1.00900744       3.38510454      -2.14123639
C       -2.78238421       3.23726327      -0.24622145
C        2.72963372      -1.82825338       1.73557492
C       -3.12069019      -1.19976955       1.73347524
C       -1.41505374      -2.59614867       2.81993414
C        2.22469152       2.97297918      -0.73067658
C       -0.41308032       2.61064150      -3.26311510
C       -0.70972236       3.01060736       1.24869701
C        2.97411535       1.68946399       0.98876882
C       -2.38501150      -2.09768893      -0.72369966
C        1.26904406       3.09521804      -1.81644385
C        2.69183356       0.62866996      -1.10317224
C       -1.17941470      -0.35986084       2.87539333
C        3.02206753      -0.36524910      -0.02944928
C       -1.66622208       0.66841374      -2.91950720
C       -2.38320263       1.42539254      -1.90772052
C       -0.42113871      -3.55476161       0.96586823
C        0.57048215       0.61359963      -4.16238123
C       -0.77322604      -1.48314623      -3.37347877
C       -3.76883159       2.34319851       0.38376295
C       -3.59438958       0.16047926       1.46788723
C       -2.82994307       1.24424018       2.09768803
C       -1.50690284       1.00384147       2.56650173
C        0.47352750      -0.66913462      -3.56576537
C       -2.17003442      -1.36796594       2.82300217
C       -1.83291762      -0.69872108      -2.70806781
C        2.54922328      -0.54229160       2.28700799
C        0.81201038      -1.81888759      -1.56862445
C       -0.21535389      -3.31950083      -0.31857462
C       -3.11367102       2.55640442       1.61440468
C        0.98071341       2.52625632      -3.01964821
C        0.09040704      -0.90192010       2.48043407
C       -0.39992048      -2.33125321      -2.32049661
C       -3.68691736       0.87773241       0.16377759
C       -2.06105158       3.37805951       1.04190979
C       -0.43607851       1.70458630       1.93066063
C        0.93603220       1.32884525       2.06269376
C       -1.58704010      -2.89494090       1.44060261
C       -2.64214380      -0.90044907      -1.48866603
C        2.95643764       0.30087366       1.19031527
C        1.91444259      -2.96889827       1.56532372
C        1.15839249      -2.99145833      -0.74220739
C        1.21570630      -0.67944513      -2.38440470
C        1.56147916       3.31489457       0.57679730
C        3.04481285      -1.77425607       0.31524265
C        1.90885596       2.36649027       1.62466778
C       -0.67222578       1.26467397      -3.69196638
C        2.92045445       1.83465155      -0.46609211
C        0.62176225      -3.28987541       1.97635172
C        1.69423380       1.35412330      -3.55407359
C       -2.13505471       2.76216953      -1.44825131
C       -1.23336023      -2.88261170      -1.28351848
C        0.01360415      -2.24231506       2.68889784
C        2.12750936       0.46088487      -2.43972631
C        0.20887759       3.49947425       0.20703450
C       -3.03433907       0.43501696      -1.03714903
C        0.09015442       3.56127539      -1.24560697
60
Properties=species:S:1:pos:R:3 trajectory=trial0001_proposal001_step004_proposal_relax trajectory_step=1 pbc="F F F"
C       -2.46620299      -2.06339908       0.72661611
C        2.29871387      -3.06681024       0.14387431
C        1.21594408      -0.05277405       2.36944431
C       -1.01473540       3.36947646      -2.13788394
C       -2.77197126       3.22999702      -0.24664092
C        2.72751993      -1.83560718       1.73464666
C       -3.11681292      -1.19678900       1.72314676
C       -1.42114218      -2.58379130       2.80716890
C        2.20688091       2.99267183      -0.73530628
C       -0.40838982       2.60305425      -3.26431709
C       -0.71176952       3.00359065       1.22844425
C        2.97510254       1.66701928       0.98640814
C       -2.37765868      -2.09134750      -0.73164688
C        1.28407609       3.09809009      -1.79286758
C        2.70463940       0.62106903      -1.10902923
C       -1.18258595      -0.36278475       2.86235286
C        3.00048537      -0.37558955      -0.03844040
C       -1.66943381       0.67754724      -2.90840201
C       -2.38238065       1.41603903      -1.88679936
C       -0.42953102      -3.54656848       1.00124639
C        0.55504868       0.61018155      -4.16245224
C       -0.76765473      -1.47557274      -3.36721844
C       -3.76393790       2.34296957       0.37251906
C       -3.57787150       0.17959850       1.46102536
C       -2.82997757       1.24031926       2.11682381
C       -1.50787795       0.98666707       2.55210607
C        0.46238387      -0.67547049      -3.56695052
C       -2.16846411      -1.36377856       2.83747692
C       -1.82482291      -0.70437658      -2.71967262
C        2.54934361      -0.52909774       2.28601594
C        0.81700585      -1.82336113      -1.59257798
C       -0.19953086      -3.32786477      -0.35880184
C       -3.10363082       2.55109795       1.62940862
C        1.00130762       2.51307070      -3.04732874
C        0.08667183      -0.88628392       2.48529941
C       -0.40189733      -2.33152585      -2.29728600
C       -3.69136800       0.87589960       0.15522389
C       -2.07431461       3.36837120       1.04308483
C       -0.42857341       1.73838439       1.93254281
C        0.92284056       1.33638431       2.06464892
C       -1.59377734      -2.91144216       1.44438000
C       -2.63207411      -0.90398950      -1.49796472
C        2.98579380       0.30578738       1.18989354
C        1.92221890      -2.98658577       1.55308043
C        1.15194367      -2.97388666      -0.73592676
C        1.22200757      -0.67040298      -2.37172400
C        1.55748593       3.32086233       0.56244223
C        3.03858902      -1.78112252       0.31595108
C        1.89462809       2.35045347       1.60589765
C       -0.67220811       1.27290986      -3.69852246
C        2.92520464       1.83301990      -0.45507151
C        0.62745332      -3.28457321       1.96422440
C        1.68758862       1.36255598      -3.54492990
C       -2.13459350       2.76307941      -1.46359361
C       -1.23004381      -2.87854402      -1.27152318
C        0.00763007      -2.27515451       2.70456483
C        2.12030453       0.45516547      -2.41285137
C        0.20626505       3.50058962       0.22358108
C       -3.03809653       0.44641283      -1.02807918
C        0.07882109       3.56644201      -1.23152467
60
Properties=species:S:1:pos:R:3 trajectory=trial0001_proposal001_step004_proposal_relax trajectory_step=2 pbc="F F F"
C       -2.47562360      -2.07070551       0.73093389
C        2.29111969      -3.04115334       0.13207270
C        1.21119502      -0.03259270       2.36970063
C       -1.01175803       3.34726744      -2.13623620
C       -2.75821109       3.21812043      -0.25088211
C        2.72407378      -1.83881833       1.73827087
C       -3.10962891      -1.18748904       1.71352190
C       -1.42902533      -2.57005999       2.79491317
C        2.20660368       3.00030050      -0.72580721
C       -0.39553690       2.59620329      -3.26412828
C       -0.71931354       2.99417552       1.20491191
C        2.97143576       1.65404454       0.98166081
C       -2.36722710      -2.08372512      -0.73278773
C        1.27917537       3.09803411      -1.79331096
C        2.72414279       0.61668242      -1.10667071
C       -1.18161784      -0.36701645       2.84256238
C        2.97249785      -0.38934045      -0.04652548
C       -1.67023021       0.68516520      -2.89623621
C       -2.37745680       1.40679432      -1.86081365
C       -0.42548454      -3.53745165       0.99304036
C        0.53760696       0.60467519      -4.16145537
C       -0.76004110      -1.47391948      -3.35223258
C       -3.75169669       2.34263695       0.36818448
C       -3.55462197       0.19807887       1.45006471
C       -2.83022299       1.23712699       2.14202265
C       -1.50153647       0.97529497       2.52776392
C        0.45592455      -0.67739404      -3.56461934
C       -2.17403899      -1.35958765       2.85342673
C       -1.81639074      -0.70252868      -2.73304216
C        2.55139479      -0.51589864       2.27998510
C        0.82583707      -1.83077382      -1.62267249
C       -0.18975107      -3.35271374      -0.35740544
C       -3.09890494       2.54093356       1.64212416
C        1.02515718       2.51923362      -3.05471931
C        0.08382814      -0.88929600       2.49492163
C       -0.40258681      -2.32153970      -2.27897058
C       -3.69942042       0.87970844       0.14955824
C       -2.08529283       3.35429096       1.04354282
C       -0.43183604       1.77607888       1.94118093
C        0.91112779       1.35250710       2.06511193
C       -1.61118520      -2.92924905       1.45055727
C       -2.61935620      -0.90511573      -1.50978131
C        3.02451001       0.29260047       1.18911952
C        1.93417627      -3.01048632       1.53971017
C        1.14753057      -2.94475852      -0.73182497
C        1.22183659      -0.66083051      -2.36121997
C        1.55338649       3.32692435       0.55367361
C        3.02943203      -1.78423768       0.31584752
C        1.87876091       2.32816111       1.57335650
C       -0.68166696       1.27935933      -3.70372062
C        2.92492100       1.83951045      -0.44915972
C        0.63199370      -3.28005967       1.95020539
C        1.68136371       1.35553695      -3.53608963
C       -2.14017100       2.76190351      -1.47796185
C       -1.22704643      -2.87248995      -1.25900555
C        0.00353077      -2.29032225       2.72974315
C        2.10724615       0.45218330      -2.38452517
C        0.19811410       3.50657254       0.23835210
C       -3.03927957       0.45106554      -1.02128050
C        0.06880685       3.56866617      -1.21874990
60
Properties=species:S:1:pos:R:3 trajectory=trial0001_proposal001_step004_proposal_relax trajectory_step=3 pbc="F F F"
C       -2.49448706      -2.08043179       0.72675754
C        2.27681283      -3.01126381       0.10364205
C        1.19892404      -0.01962706       2.37174275
C       -0.99515247       3.31459582      -2.13798892
C       -2.74552956       3.20074274      -0.25989197
C        2.71860961      -1.84318115       1.74894098
C       -3.09653051      -1.16292986       1.70661358
C       -1.43232816      -2.56358189       2.78763458
C        2.20035785       3.00861823      -0.73163804
C       -0.37000651       2.59314531      -3.26081110
C       -0.74429620       2.98328240       1.19029302
C        2.96857050       1.63637993       0.97203489
C       -2.34813282      -2.07311414      -0.72226089
C        1.27530752       3.10557654      -1.77456611
C        2.74731995       0.62002448      -1.08940770
C       -1.17595248      -0.37065438       2.80979586
C        2.94570922      -0.39722096      -0.05059451
C       -1.66431680       0.68980379      -2.88537009
C       -2.35843650       1.40112547      -1.83868798
C       -0.42442686      -3.52601502       0.99523470
C        0.52159880       0.60026362      -4.15459962
C       -0.75417265      -1.47310589      -3.33392160
C       -3.72607946       2.33759807       0.38047583
C       -3.52239851       0.20247724       1.43507620
C       -2.83184362       1.23860887       2.17007052
C       -1.48130934       0.98004798       2.49033786
C        0.45904726      -0.67033300      -3.55574058
C       -2.19789240      -1.34875916       2.86198570
C       -1.81459267      -0.68694142      -2.73936233
C        2.54486211      -0.51190054       2.27146017
C        0.83852612      -1.85016266      -1.64538414
C       -0.18156759      -3.37438644      -0.36783498
C       -3.10791748       2.52741272       1.65204652
C        1.03860774       2.53840496      -3.05613061
C        0.10136053      -0.90178745       2.51065708
C       -0.39914050      -2.30318691      -2.25919116
C       -3.71057121       0.89393928       0.15456836
C       -2.08903198       3.33321685       1.03596024
C       -0.45271930       1.80609123       1.96297587
C        0.90393336       1.37882051       2.06100131
C       -1.63018134      -2.95897458       1.44445393
C       -2.60674231      -0.89995815      -1.51808684
C        3.06925530       0.27827652       1.18060566
C        1.95097455      -3.03614541       1.53581925
C        1.13972769      -2.90339043      -0.73193521
C        1.20483035      -0.65484473      -2.35786298
C        1.54636724       3.33287716       0.56461539
C        3.01199051      -1.77696723       0.31466071
C        1.85568554       2.29971892       1.52307861
C       -0.69983449       1.28652622      -3.70329364
C        2.93265327       1.83283584      -0.45051584
C        0.62221872      -3.27108532       1.93595386
C        1.67407997       1.32344669      -3.52239186
C       -2.15272945       2.75375312      -1.48522203
C       -1.21143203      -2.86920061      -1.23849370
C        0.01085290      -2.30020302       2.75588893
C        2.08381536       0.46160027      -2.36326155
C        0.18913139       3.52746006       0.22725107
C       -3.03410331       0.43382875      -1.02041548
C        0.06329466       3.55913642      -1.21856546
60
Properties=species:S:1:pos:R:3 trajectory=trial0001_proposal001_step004_proposal_relax trajectory_step=4 pbc="F F F"
C       -2.49647263      -2.08356119       0.72728374
C        2.27700101      -3.00912391       0.10740420
C        1.20632685      -0.01870075       2.37021449
C       -0.99631433       3.31040931      -2.13675014
C       -2.74929281       3.20036766      -0.25871565
C        2.71715878      -1.84564999       1.74915084
C       -3.09418615      -1.16545808       1.70164421
C       -1.43713055      -2.56215374       2.78622232
C        2.21379249       2.99836888      -0.71861367
C       -0.37037962       2.59185532      -3.26084668
C       -0.73895192       2.98888659       1.18819592
C        2.97071664       1.63953548       0.96753783
C       -2.34319178      -2.07059388      -0.72048745
C        1.27228430       3.10462944      -1.78966846
C        2.73837865       0.61418874      -1.10128483
C       -1.17281762      -0.37050511       2.80238741
C        2.95176493      -0.39365142      -0.04825020
C       -1.66169249       0.69430169      -2.88463341
C       -2.35546386       1.39520621      -1.83951304
C       -0.42284435      -3.52838231       0.97685671
C        0.52169621       0.60227845      -4.15214945
C       -0.75653451      -1.46809761      -3.33332769
C       -3.72515350       2.33316923       0.38098610
C       -3.52029429       0.20496508       1.43661380
C       -2.83039191       1.23825565       2.16939478
C       -1.48794341       0.97531398       2.49111243
C        0.45330865      -0.67282170      -3.55478018
C       -2.18894943      -1.34891730       2.85613216
C       -1.81485753      -0.69018811      -2.73625452
C        2.54119983      -0.51366932       2.26760741
C        0.83851170      -1.84318983      -1.64804834
C       -0.18141156      -3.37534130      -0.35230705
C       -3.10822496       2.53329930       1.65878509
C        1.04625929       2.53492053      -3.05061054
C        0.09912265      -0.90480985       2.51571513
C       -0.40009503      -2.30256957      -2.25992263
C       -3.70458936       0.88640087       0.15182191
C       -2.09624536       3.33050901       1.03206823
C       -0.44605143       1.80892279       1.96216200
C        0.89865201       1.37374473       2.06152788
C       -1.63646421      -2.95519925       1.44928166
C       -2.60681709      -0.90245665      -1.51152159
C        3.06524349       0.27465191       1.18800823
C        1.94736783      -3.03750665       1.53487957
C        1.13770557      -2.90609594      -0.73033631
C        1.20521523      -0.65503029      -2.35297065
C        1.54211179       3.33711340       0.55805533
C        3.00459773      -1.77397270       0.31465638
C        1.85388646       2.29431904       1.51824950
C       -0.69344748       1.28976520      -3.70397394
C        2.93322554       1.84705712      -0.45366981
C        0.62756054      -3.26867332       1.93744999
C        1.66734260       1.33134821      -3.51601509
C       -2.14622382       2.75162678      -1.48666167
C       -1.21109514      -2.86533124      -1.24144278
C        0.01198591      -2.29601885       2.75625745
C        2.08034858       0.46249138      -2.35866858
C        0.18129228       3.52938813       0.23080963
C       -3.03388045       0.43571390      -1.01729215
C        0.06392036       3.55494895      -1.22154979
60
Properties=species:S:1:pos:R:3 trajectory=trial0001_proposal001_step004_proposal_relax trajectory_step=5 pbc="F F F"
C       -2.49591793      -2.08376349       0.72708653
C        2.27690135      -3.01117710       0.10979897
C        1.20568750      -0.02122665       2.37066516
C       -0.99663546       3.31143811      -2.13729662
C       -2.75144823       3.20038379      -0.25979341
C        2.71697374      -1.84581816       1.74827035
C       -3.09447017      -1.16698143       1.70154716
C       -1.43574247      -2.56314412       2.78692892
C        2.21036867       3.00119617      -0.72068883
C       -0.37098786       2.59308582      -3.26109348
C       -0.73861130       2.99124738       1.19008025
C        2.97092740       1.64128488       0.96834932
C       -2.34286536      -2.07120832      -0.71980522
C        1.27608765       3.10387825      -1.78925081
C        2.73630783       0.61718774      -1.09965191
C       -1.17258694      -0.37044604       2.80242425
C        2.95526775      -0.39168207      -0.04812464
C       -1.66089288       0.69230349      -2.88556584
C       -2.35560226       1.39577143      -1.84076101
C       -0.42418142      -3.52888509       0.97954874
C        0.52348442       0.60276892      -4.15144934
C       -0.75835386      -1.46818371      -3.33353436
C       -3.72665988       2.33168523       0.38124636
C       -3.52215938       0.20379402       1.43751019
C       -2.83074543       1.23884030       2.16691879
C       -1.48781968       0.97644901       2.49300381
C        0.45301967      -0.67184876      -3.55476133
C       -2.18599298      -1.34900259       2.85234328
C       -1.81538950      -0.68955636      -2.73453867
C        2.54110246      -0.51568585       2.26808530
C        0.83687187      -1.84224700      -1.64430970
C       -0.18219040      -3.37206877      -0.35262964
C       -3.10949341       2.53463240       1.65964161
C        1.04439986       2.53463533      -3.04937138
C        0.09993340      -0.90399417       2.51567113
C       -0.40024401      -2.30269579      -2.26306675
C       -3.70191318       0.88449611       0.15281344
C       -2.09493009       3.33161588       1.03223438
C       -0.44658159       1.80640745       1.96113366
C        0.90068717       1.37059813       2.06100598
C       -1.63451625      -2.95401838       1.44906217
C       -2.60744742      -0.90248065      -1.50932525
C        3.06127555       0.27736343       1.18755197
C        1.94642482      -3.03552690       1.53532010
C        1.13866462      -2.90919033      -0.73052487
C        1.20526856      -0.65475479      -2.35397914
C        1.54225129       3.33588324       0.55760470
C        3.00356780      -1.77303564       0.31512673
C        1.85433472       2.29571165       1.51959326
C       -0.69188223       1.28915300      -3.70357376
C        2.93591920       1.84232691      -0.45602429
C        0.62654430      -3.26967134       1.93778729
C        1.66749393       1.33268514      -3.51498004
C       -2.14504481       2.75020930      -1.48484196
C       -1.21166995      -2.86510225      -1.24256476
C        0.01067772      -2.29416254       2.75377632
C        2.07895012       0.46170202      -2.36145547
C        0.18163676       3.52932799       0.22921202
C       -3.03285821       0.43577780      -1.01769259
C        0.06537376       3.55400105      -1.22248102
60
Properties=species:S:1:pos:R:3 trajectory=trial0001_proposal001_step004_proposal_relax trajectory_step=6 pbc="F F F"
C       -2.49697470      -2.08637840       0.72692735
C        2.27515054      -3.01068016       0.11126652
C        1.20518190      -0.02388839       2.37148800
C       -0.99520743       3.30883353      -2.13774164
C       -2.75423412       3.19746210      -0.26139928
C        2.71567266      -1.84651164       1.74761597
C       -3.09322960      -1.16756074       1.69959975
C       -1.43444112      -2.56343593       2.78683057
C        2.20942673       3.00249709      -0.72193835
C       -0.36931874       2.59437681      -3.26151175
C       -0.73976486       2.99497307       1.19118048
C        2.97178247       1.64277432       0.96728919
C       -2.33937279      -2.07059758      -0.71766071
C        1.28067363       3.10396315      -1.78838910
C        2.73307122       0.61971332      -1.09869762
C       -1.17093468      -0.36993796       2.79716007
C        2.95866695      -0.38919012      -0.04800024
C       -1.65839524       0.69108310      -2.88509775
C       -2.35313995       1.39437914      -1.84007368
C       -0.42609320      -3.52868598       0.98217641
C        0.52453630       0.60386442      -4.14937308
C       -0.76121732      -1.46649944      -3.33244770
C       -3.72621393       2.32784944       0.38276913
C       -3.52117446       0.20263926       1.43757847
C       -2.83098102       1.23976375       2.16662562
C       -1.48691822       0.97766409       2.49185942
C        0.45102970      -0.67036497      -3.55361289
C       -2.18158555      -1.34808775       2.84508669
C       -1.81595903      -0.68838932      -2.73161906
C        2.53996912      -0.51808978       2.26743839
C        0.83512193      -1.84086907      -1.64146501
C       -0.18272974      -3.36871069      -0.35270783
C       -3.11246704       2.53678762       1.66294514
C        1.04479152       2.53531974      -3.04779193
C        0.10210698      -0.90372439       2.51802906
C       -0.40034083      -2.30179983      -2.26476493
C       -3.69688497       0.88147841       0.15465027
C       -2.09606399       3.33071922       1.03101888
C       -0.44728335       1.80691033       1.96098468
C        0.90115098       1.36756503       2.05911056
C       -1.63449566      -2.95533807       1.44916908
C       -2.60631037      -0.90204661      -1.50577276
C        3.05902778       0.27975408       1.18743509
C        1.94526226      -3.03616836       1.53567651
C        1.13871605      -2.91030514      -0.73054701
C        1.20296633      -0.65417974      -2.35394087
C        1.54024294       3.33469865       0.55569672
C        2.99840340      -1.77011310       0.31553679
C        1.85192893       2.29377100       1.51503105
C       -0.69014333       1.28923005      -3.70303365
C        2.93980975       1.84212275      -0.45967581
C        0.62448226      -3.26966849       1.93728077
C        1.66594075       1.33286847      -3.51041554
C       -2.14305210       2.74616959      -1.48312837
C       -1.21063687      -2.86342697      -1.24260158
C        0.00952190      -2.29340944       2.75210637
C        2.07409482       0.46205243      -2.36088536
C        0.18045742       3.53163378       0.22629959
C       -3.03006509       0.43452745      -1.01711310
C        0.06701143       3.55089596      -1.22424997
60
Properties=species:S:1:pos:R:3 trajectory=trial0001_proposal001_step004_proposal_relax trajectory_step=7 pbc="F F F"
C       -2.49854118      -2.09156570       0.72664243
C        2.27202827      -3.00851759       0.11177869
C        1.20598524      -0.02559619       2.37257407
C       -0.99274448       3.30372114      -2.13732366
C       -2.75670571       3.19094587      -0.26245145
C        2.71276816      -1.84730992       1.74647443
C       -3.09110741      -1.16842298       1.69631491
C       -1.43371529      -2.56335798       2.78598231
C        2.21043834       3.00549398      -0.72331055
C       -0.36643954       2.59512107      -3.26273591
C       -0.74213798       2.99996814       1.19134784
C        2.97327671       1.64494612       0.96459187
C       -2.33442125      -2.06911826      -0.71505020
C        1.28437052       3.10526999      -1.78786149
C        2.72931570       0.62227367      -1.09766134
C       -1.16822217      -0.36837452       2.78800640
C        2.96017366      -0.38570361      -0.04830889
C       -1.65492654       0.69103879      -2.88243795
C       -2.34837680       1.39097268      -1.83768031
C       -0.42776881      -3.52851274       0.98251162
C        0.52495261       0.60515194      -4.14689212
C       -0.76441775      -1.46435129      -3.33064436
C       -3.72504706       2.32229003       0.38467439
C       -3.51781422       0.20129380       1.43751446
C       -2.83106507       1.24103546       2.16908792
C       -1.48596023       0.97969510       2.48775453
C        0.44726038      -0.66864047      -3.55201845
C       -2.17602347      -1.34610242       2.83483857
C       -1.81612141      -0.68740370      -2.72801825
C        2.53894101      -0.51879437       2.26666750
C        0.83273529      -1.83855684      -1.63974338
C       -0.18332964      -3.36561648      -0.35151368
C       -3.11682798       2.53867518       1.66752744
C        1.04789117       2.53702554      -3.04726488
C        0.10433543      -0.90439357       2.52130123
C       -0.40078813      -2.30063365      -2.26508518
C       -3.68935072       0.87789207       0.15727346
C       -2.10001160       3.32913424       1.02927690
C       -0.44716656       1.81053204       1.96031278
C        0.89939656       1.36525917       2.05493557
C       -1.63671118      -2.95959332       1.45044340
C       -2.60247284      -0.90156264      -1.50161200
C        3.05881820       0.28196509       1.18698028
C        1.94354760      -3.03916282       1.53646064
C        1.13704095      -2.90963909      -0.73069055
C        1.19813707      -0.65387450      -2.35242048
C        1.53713688       3.33221125       0.55203145
C        2.99050303      -1.76646215       0.31560360
C        1.84723264       2.28931308       1.50630902
C       -0.68860547       1.29009017      -3.70220479
C        2.94594047       1.84423950      -0.46263340
C        0.62217643      -3.26925596       1.93674732
C        1.66398636       1.33203597      -3.50373519
C       -2.13998046       2.74058184      -1.48154302
C       -1.20898694      -2.86077506      -1.24133827
C        0.00904775      -2.29422004       2.75137391
C        2.06703459       0.46328416      -2.35586088
C        0.17812475       3.53491373       0.22311680
C       -3.02514876       0.43223637      -1.01451801
C        0.06891039       3.54719395      -1.22569097
60
Properties=species:S:1:pos:R:3 trajectory=trial0001_proposal001_step004_proposal_relax trajectory_step=8 pbc="F F F"
C       -2.49967903      -2.09831682       0.72581425
C        2.26686802      -3.00898282       0.11207457
C        1.20538539      -0.02478825       2.37340117
C       -0.98987776       3.30012203      -2.13598623
C       -2.75670157       3.18172531      -0.26209363
C        2.70696664      -1.84473518       1.74417518
C       -3.09000331      -1.17195020       1.69297213
C       -1.43336959      -2.56429966       2.78608331
C        2.22043111       3.00672267      -0.72443590
C       -0.36406301       2.59741183      -3.26346611
C       -0.74519414       3.00725945       1.19105536
C        2.97646391       1.64736970       0.96510390
C       -2.33160445      -2.07050031      -0.71292339
C        1.28588219       3.10836209      -1.79176271
C        2.72571214       0.62616406      -1.09431185
C       -1.16599028      -0.36463761       2.77894741
C        2.95687034      -0.38378911      -0.04755634
C       -1.65046343       0.68920246      -2.87923978
C       -2.34320962       1.38834843      -1.83303424
C       -0.43022561      -3.53084448       0.98761609
C        0.52585561       0.60554907      -4.14579176
C       -0.76785098      -1.46542488      -3.33094793
C       -3.72700136       2.31594430       0.38580122
C       -3.51468438       0.19865361       1.43999166
C       -2.83326975       1.24231219       2.17288802
C       -1.48313460       0.98435112       2.48296200
C        0.44381664      -0.66765531      -3.55056301
C       -2.17004313      -1.34399852       2.82392745
C       -1.81425588      -0.68662886      -2.72517383
C        2.54269766      -0.51636928       2.26609278
C        0.82673072      -1.83731009      -1.63637029
C       -0.18460002      -3.36123735      -0.35376384
C       -3.12228924       2.53904866       1.67026985
C        1.05065093       2.54059477      -3.04983706
C        0.10876176      -0.90437956       2.52031211
C       -0.40328252      -2.30160444      -2.26538857
C       -3.67957124       0.87283904       0.16168231
C       -2.10467220       3.33011141       1.03060001
C       -0.45019431       1.81502853       1.95551675
C        0.89909523       1.36233309       2.04696226
C       -1.63824117      -2.96911787       1.45058450
C       -2.59602116      -0.90159675      -1.49692180
C        3.05930756       0.28667081       1.18674916
C        1.94293909      -3.04070692       1.53725403
C        1.13420736      -2.90842718      -0.73050386
C        1.19319073      -0.65033224      -2.34999595
C        1.53300796       3.32772762       0.54654173
C        2.98290470      -1.76252874       0.31458439
C        1.84466559       2.28641765       1.49812024
C       -0.68789315       1.29006579      -3.70058040
C        2.95083833       1.85664812      -0.46690794
C        0.61997901      -3.27301885       1.93595149
C        1.66486771       1.33060228      -3.49850071
C       -2.13599642       2.73513279      -1.47815855
C       -1.20959998      -2.85953500      -1.24007686
C        0.00779609      -2.29432739       2.75159188
C        2.05812572       0.46316409      -2.34924943
C        0.17680235       3.53554856       0.22220211
C       -3.01565708       0.42920573      -1.00928926
C        0.06838950       3.54668990      -1.22679203
60
Properties=species:S:1:pos:R:3 trajectory=trial0001_proposal001_step004_proposal_relax trajectory_step=9 pbc="F F F"
C       -2.49979365      -2.09915357       0.72596774
C        2.26733902      -3.00792792       0.11159980
C        1.20722943      -0.02410771       2.37295369
C       -0.99032642       3.29961683      -2.13583825
C       -2.75650090       3.18135208      -0.26117070
C        2.70692552      -1.84460166       1.74409026
C       -3.08964684      -1.17169660       1.69296575
C       -1.43383809      -2.56397350       2.78552764
C        2.21745268       3.00983318      -0.72588775
C       -0.36409467       2.59647450      -3.26391595
C       -0.74547000       3.00678547       1.19104833
C        2.97686059       1.64846815       0.96372479
C       -2.33161928      -2.07020565      -0.71307668
C        1.28633367       3.10896327      -1.79038346
C        2.72569486       0.62614966      -1.09480519
C       -1.16516384      -0.36485119       2.77814662
C        2.95586642      -0.38242406      -0.04788502
C       -1.65056220       0.69049329      -2.87841905
C       -2.34244102       1.38739531      -1.83286333
C       -0.42894480      -3.53129093       0.98333898
C        0.52538766       0.60559910      -4.14578532
C       -0.76729670      -1.46525759      -3.33096576
C       -3.72624985       2.31601203       0.38572273
C       -3.51413116       0.19873347       1.43969603
C       -2.83264879       1.24220412       2.17407974
C       -1.48440201       0.98391114       2.48220274
C        0.44363932      -0.66805136      -3.55052407
C       -2.17030071      -1.34396296       2.82423567
C       -1.81415533      -0.68743918      -2.72511878
C        2.54181820      -0.51546631       2.26657404
C        0.82718879      -1.83620795      -1.63802268
C       -0.18505038      -3.36285137      -0.35057454
C       -3.12225859       2.53892391       1.67027570
C        1.05158038       2.54042980      -3.05038482
C        0.10746132      -0.90481120       2.52051989
C       -0.40328489      -2.30141227      -2.26479637
C       -3.67971715       0.87289236       0.16158435
C       -2.10584659       3.32977666       1.03024103
C       -0.44853771       1.81592260       1.95540128
C        0.89718702       1.36375573       2.04659868
C       -1.63989154      -2.96904377       1.45179144
C       -2.59537393      -0.90168821      -1.49724594
C        3.06050587       0.28532212       1.18664481
C        1.94233218      -3.04161712       1.53722678
C        1.13338655      -2.90762931      -0.73038232
C        1.19171587      -0.65200567      -2.34909009
C        1.53376803       3.32766365       0.54641818
C        2.98219293      -1.76321035       0.31451023
C        1.84402262       2.28560170       1.49764865
C       -0.68762727       1.29071303      -3.70062003
C        2.95270531       1.85338361      -0.46516108
C        0.62044287      -3.27205594       1.93698444
C        1.66425721       1.33054726      -3.49862550
C       -2.13580477       2.73521033      -1.47860220
C       -1.20952868      -2.85969410      -1.23992858
C        0.00866327      -2.29534367       2.75169918
C        2.05878075       0.46452721      -2.34764557
C        0.17639018       3.53595539       0.22152522
C       -3.01542322       0.42900176      -1.00859132
C        0.06937204       3.54664590      -1.22642794
60
Properties=species:S:1:pos:R:3 trajectory=trial0001_proposal001_step004_proposal_relax trajectory_step=10 pbc="F F F"
C       -2.49979296      -2.10022907       0.72601732
C        2.26720936      -3.00811930       0.11126426
C        1.20800449      -0.02300058       2.37235238
C       -0.99053942       3.30010096      -2.13558518
C       -2.75579178       3.18064964      -0.26011997
C        2.70608204      -1.84358405       1.74358231
C       -3.08969749      -1.17235130       1.69322982
C       -1.43401337      -2.56417819       2.78534782
C        2.21782434       3.01142173      -0.72671684
C       -0.36440714       2.59629781      -3.26404084
C       -0.74574965       3.00718571       1.19111205
C        2.97793672       1.64939182       0.96373688
C       -2.33250060      -2.07109762      -0.71340635
C        1.28601039       3.10998514      -1.79112593
C        2.72550229       0.62678302      -1.09439340
C       -1.16483786      -0.36451975       2.77780479
C        2.95382658      -0.38172979      -0.04777946
C       -1.65030595       0.69064413      -2.87781425
C       -2.34169298       1.38702136      -1.83224458
C       -0.42856983      -3.53261354       0.98257696
C        0.52535498       0.60523496      -4.14612598
C       -0.76695815      -1.46624321      -3.33185997
C       -3.72664336       2.31574814       0.38540389
C       -3.51417827       0.19823308       1.44033097
C       -2.83290258       1.24217263       2.17507568
C       -1.48478862       0.98426421       2.48174610
C        0.44381049      -0.66854720      -3.55068247
C       -2.17029173      -1.34397595       2.82444205
C       -1.81347433      -0.68805729      -2.72522009
C        2.54242596      -0.51398741       2.26725319
C        0.82624705      -1.83598442      -1.63824124
C       -0.18555971      -3.36349326      -0.34979169
C       -3.12259499       2.53833163       1.66977394
C        1.05189366       2.54097518      -3.05127185
C        0.10728109      -0.90478748       2.51908150
C       -0.40392000      -2.30200396      -2.26467136
C       -3.67925050       0.87240507       0.16207003
C       -2.10659210       3.33048445       1.03105385
C       -0.44838250       1.81632283       1.95401307
C        0.89650804       1.36457074       2.04521216
C       -1.64049012      -2.97042967       1.45231036
C       -2.59424172      -0.90202818      -1.49724387
C        3.06136109       0.28559077       1.18657663
C        1.94208734      -3.04139912       1.53733171
C        1.13234684      -2.90708324      -0.73013949
C        1.19075088      -0.65203241      -2.34831128
C        1.53420258       3.32720684       0.54584549
C        2.98173869      -1.76335078       0.31420057
C        1.84447674       2.28597520       1.49778827
C       -0.68752246       1.29077095      -3.70038384
C        2.95367049       1.85384104      -0.46437324
C        0.62080984      -3.27269847       1.93775287
C        1.66454610       1.33048920      -3.49936218
C       -2.13542626       2.73534819      -1.47812646
C       -1.21024819      -2.86070437      -1.23991201
C        0.00897980      -2.29570382       2.75158451
C        2.05869938       0.46517395      -2.34660850
C        0.17649132       3.53542706       0.22149145
C       -3.01380153       0.42857027      -1.00728315
C        0.06965722       3.54759923      -1.22632128
60
Properties=species:S:1:pos:R:3 trajectory=trial0001_proposal001_step004_proposal_relax trajectory_step=11 pbc="F F F"
C       -2.50029562      -2.10361424       0.72624481
C        2.26624539      -3.00864857       0.11067388
C        1.20899505      -0.02058770       2.37056927
C       -0.99071335       3.30119404      -2.13515995
C       -2.75462626       3.17867018      -0.25790560
C        2.70346587      -1.84081983       1.74224685
C       -3.08955450      -1.17429377       1.69383083
C       -1.43385412      -2.56475929       2.78503222
C        2.21955375       3.01465617      -0.72865168
C       -0.36480513       2.59641561      -3.26413228
C       -0.74652524       3.00918490       1.19142111
C        2.98128002       1.65214498       0.96419922
C       -2.33427791      -2.07398590      -0.71371578
C        1.28642388       3.11292960      -1.79325797
C        2.72399075       0.62913935      -1.09309247
C       -1.16394024      -0.36371615       2.77594696
C        2.94906469      -0.37954582      -0.04729081
C       -1.64879937       0.69017901      -2.87642199
C       -2.33906471       1.38599240      -1.83016825
C       -0.42842034      -3.53658400       0.98270533
C        0.52555598       0.60445140      -4.14658237
C       -0.76670786      -1.46874242      -3.33426363
C       -3.72748845       2.31404174       0.38498969
C       -3.51445169       0.19656614       1.44228127
C       -2.83403700       1.24212031       2.17733704
C       -1.48513520       0.98527297       2.48050911
C        0.44415521      -0.66974112      -3.55093370
C       -2.16928358      -1.34407041       2.82394299
C       -1.81156976      -0.68930702      -2.72493928
C        2.54410171      -0.51078258       2.26871375
C        0.82298767      -1.83547000      -1.63773944
C       -0.18701981      -3.36454853      -0.34848006
C       -3.12406993       2.53719871       1.66928162
C        1.05226447       2.54246079      -3.05338939
C        0.10782236      -0.90449538       2.51514255
C       -0.40576908      -2.30364270      -2.26490918
C       -3.67711996       0.87026814       0.16372341
C       -2.10836774       3.33229626       1.03336392
C       -0.44895313       1.81699158       1.95028671
C        0.89579342       1.36591073       2.04109689
C       -1.64161480      -2.97452339       1.45328896
C       -2.59109746      -0.90307977      -1.49630005
C        3.06296604       0.28737452       1.18672762
C        1.94139657      -3.04037927       1.53756246
C        1.12970230      -2.90595113      -0.72913282
C        1.18814112      -0.65125573      -2.34639617
C        1.53470228       3.32635443       0.54392368
C        2.97922591      -1.76229252       0.31350125
C        1.84579628       2.28721308       1.49727091
C       -0.68686935       1.29054075      -3.69958921
C        2.95635475       1.85639427      -0.46381156
C        0.62127469      -3.27488124       1.93936380
C        1.66490709       1.33065744      -3.50041696
C       -2.13390453       2.73492073      -1.47624853
C       -1.21215398      -2.86365738      -1.24015104
C        0.00937686      -2.29585060       2.75055869
C        2.05701620       0.46679692      -2.34462807
C        0.17675996       3.53449772       0.22081352
C       -3.00863361       0.42699064      -1.00374529
C        0.07037306       3.54968454      -1.22689077
60
Properties=species:S:1:pos:R:3 trajectory=trial0001_proposal001_step004_proposal_relax trajectory_step=12 pbc="F F F"
C       -2.50211775      -2.10827000       0.72718872
C        2.26489870      -3.00749026       0.11013656
C        1.20933689      -0.01772146       2.36676849
C       -0.99060028       3.30237886      -2.13542113
C       -2.75412097       3.17771210      -0.25583991
C        2.70032202      -1.83747502       1.74115055
C       -3.08886542      -1.17636653       1.69532056
C       -1.43252384      -2.56500776       2.78445121
C        2.22095321       3.01749230      -0.73003223
C       -0.36495034       2.59628854      -3.26395465
C       -0.74712979       3.01137371       1.19132371
C        2.98638374       1.65601467       0.96480862
C       -2.33611247      -2.07870837      -0.71357835
C        1.28816807       3.11690182      -1.79642807
C        2.72073320       0.63273383      -1.09199060
C       -1.16275374      -0.36391645       2.77293672
C        2.94350124      -0.37550346      -0.04661306
C       -1.64609015       0.68884199      -2.87454926
C       -2.33433904       1.38424376      -1.82667250
C       -0.42921588      -3.54278649       0.98452885
C        0.52553190       0.60335108      -4.14674459
C       -0.76637684      -1.47170941      -3.33706072
C       -3.72653827       2.31121985       0.38520508
C       -3.51521098       0.19438807       1.44470652
C       -2.83550506       1.24134584       2.17997285
C       -1.48554865       0.98501749       2.47874419
C        0.44506873      -0.67147014      -3.55154655
C       -2.16787246      -1.34476917       2.82454544
C       -1.80888225      -0.69098309      -2.72427748
C        2.54490942      -0.50747864       2.27021744
C        0.81860167      -1.83505595      -1.63659072
C       -0.18876362      -3.36729714      -0.34708045
C       -3.12555607       2.53596504       1.67010482
C        1.05230368       2.54452998      -3.05477497
C        0.10854736      -0.90374064       2.50950720
C       -0.40791884      -2.30582495      -2.26542783
C       -3.67503628       0.86715031       0.16538152
C       -2.10994212       3.33386437       1.03620515
C       -0.44956828       1.81732813       1.94647432
C        0.89587067       1.36797937       2.03631417
C       -1.64270503      -2.97924671       1.45463302
C       -2.58721517      -0.90535738      -1.49457410
C        3.06510215       0.29083289       1.18749950
C        1.94065003      -3.03867836       1.53724845
C        1.12586722      -2.90414507      -0.72698914
C        1.18499332      -0.64986370      -2.34442628
C        1.53536145       3.32757160       0.54168176
C        2.97387244      -1.75875946       0.31295959
C        1.84778117       2.28983259       1.49575274
C       -0.68575539       1.28982970      -3.69862482
C        2.95915597       1.85934564      -0.46429238
C        0.62168162      -3.27740050       1.94074280
C        1.66395437       1.33127797      -3.50130304
C       -2.13171506       2.73412957      -1.47366498
C       -1.21437357      -2.86906172      -1.24074053
C        0.01016614      -2.29517410       2.74771775
C        2.05374507       0.46930133      -2.34355974
C        0.17678291       3.53472378       0.21904883
C       -3.00205605       0.42444307      -0.99968291
C        0.07168496       3.55213618      -1.22863019
60
Properties=species:S:1:pos:R:3 trajectory=trial0001_proposal001_step004_proposal_relax trajectory_step=13 pbc="F F F"
C       -2.50349711      -2.11338725       0.72854966
C        2.26145586      -3.00512619       0.10925756
C        1.20848081      -0.01538234       2.36190406
C       -0.99035015       3.30314631      -2.13543506
C       -2.75375378       3.17698423      -0.25419069
C        2.69689389      -1.83310847       1.74021676
C       -3.08889922      -1.17949254       1.69708015
C       -1.43031968      -2.56548845       2.78475012
C        2.22228702       3.02044834      -0.73307655
C       -0.36499639       2.59654881      -3.26371024
C       -0.74735382       3.01314072       1.19061247
C        2.99062001       1.66261472       0.96535387
C       -2.33757861      -2.08463557      -0.71272020
C        1.29063725       3.12182163      -1.79610814
C        2.71572308       0.63647037      -1.09104547
C       -1.16264601      -0.36348735       2.76995529
C        2.93849125      -0.37040417      -0.04536043
C       -1.64218935       0.68653903      -2.87176908
C       -2.32832450       1.38219018      -1.82214513
C       -0.43017901      -3.55017105       0.98513178
C        0.52561130       0.60298842      -4.14747563
C       -0.76603047      -1.47499282      -3.33930642
C       -3.72451516       2.30801871       0.38645681
C       -3.51648093       0.19118706       1.44746434
C       -2.83684458       1.23990234       2.18209667
C       -1.48391688       0.98538449       2.47624922
C        0.44527438      -0.67377337      -3.55245084
C       -2.16605244      -1.34587550       2.82477786
C       -1.80622835      -0.69340761      -2.72242074
C        2.54610281      -0.50349149       2.27066110
C        0.81328467      -1.83349701      -1.63431995
C       -0.19131975      -3.37106171      -0.34492337
C       -3.12606300       2.53446358       1.67146975
C        1.05182199       2.54478555      -3.05891442
C        0.11047163      -0.90279869       2.50214675
C       -0.41000812      -2.30909140      -2.26572906
C       -3.67193811       0.86384669       0.16741245
C       -2.11116950       3.33511792       1.03849973
C       -0.45085777       1.81725956       1.94299946
C        0.89759371       1.36988763       2.03107230
C       -1.64391619      -2.98370798       1.45627541
C       -2.58300140      -0.90827935      -1.49222369
C        3.06617118       0.29445450       1.18870978
C        1.93981362      -3.03733162       1.53758413
C        1.12229998      -2.90279040      -0.72434956
C        1.18178015      -0.64950206      -2.34321426
C        1.53531992       3.32957922       0.53947389
C        2.96733329      -1.75191269       0.31255509
C        1.85010154       2.29322459       1.49458258
C       -0.68520332       1.28815818      -3.69741145
C        2.96074528       1.86433606      -0.46482968
C        0.62228697      -3.28030525       1.94081840
C        1.66304296       1.33228246      -3.50136571
C       -2.12858700       2.73291069      -1.47101476
C       -1.21656173      -2.87512543      -1.24157799
C        0.01170890      -2.29330704       2.74339661
C        2.04949979       0.47122108      -2.34247254
C        0.17743855       3.53618635       0.21714729
C       -2.99559279       0.42087178      -0.99578885
C        0.07265314       3.55524742      -1.23110543
60
Properties=species:S:1:pos:R:3 trajectory=trial0001_proposal001_step004_proposal_relax trajectory_step=14 pbc="F F F"
C       -2.50517221      -2.11697134       0.72976957
C        2.26013906      -3.00197654       0.10957866
C        1.20844955      -0.01345336       2.35775083
C       -0.98973917       3.30358397      -2.13614558
C       -2.75400869       3.17719398      -0.25347353
C        2.69470028      -1.83070188       1.73961092
C       -3.08856137      -1.18128809       1.69864113
C       -1.42818315      -2.56547657       2.78452217
C        2.22281917       3.02237797      -0.73301561
C       -0.36502144       2.59597436      -3.26372549
C       -0.74740628       3.01424116       1.18983446
C        2.99439881       1.66553798       0.96565334
C       -2.33829916      -2.08883963      -0.71205942
C        1.29178104       3.12418805      -1.80004589
C        2.71193775       0.63983679      -1.09007431
C       -1.16135417      -0.36435958       2.76734632
C        2.93524117      -0.36573354      -0.04492142
C       -1.63940492       0.68460043      -2.86956879
C       -2.32361602       1.38024262      -1.81876191
C       -0.43183545      -3.55543910       0.98795407
C        0.52541430       0.60195645      -4.14756109
C       -0.76607976      -1.47717092      -3.34061673
C       -3.72210734       2.30552890       0.38740153
C       -3.51734586       0.18921821       1.44918482
C       -2.83719145       1.23861777       2.18366544
C       -1.48429690       0.98432215       2.47460525
C        0.44592434      -0.67494734      -3.55331951
C       -2.16484758      -1.34667505       2.82557684
C       -1.80413971      -0.69501710      -2.72117063
C        2.54559190      -0.50136640       2.27150928
C        0.80962251      -1.83317471      -1.63234716
C       -0.19246257      -3.37399385      -0.34510915
C       -3.12628053       2.53357574       1.67321468
C        1.05167846       2.54701036      -3.05806205
C        0.11052368      -0.90193356       2.49716722
C       -0.41116489      -2.31100514      -2.26605885
C       -3.67023812       0.86127092       0.16854694
C       -2.11146158       3.33550540       1.03998076
C       -0.45032703       1.81744846       1.94075145
C        0.89815299       1.37141685       2.02801912
C       -1.64401201      -2.98686011       1.45746952
C       -2.58034431      -0.91089612      -1.49023050
C        3.06729715       0.29931156       1.18928948
C        1.93983584      -3.03598176       1.53695247
C        1.11879612      -2.90142687      -0.72262900
C        1.17966871      -0.64871642      -2.34272702
C        1.53577157       3.33223528       0.53805316
C        2.96134538      -1.74774850       0.31250148
C        1.85121719       2.29637739       1.49317816
C       -0.68437541       1.28730735      -3.69669959
C        2.96178979       1.86630176      -0.46622103
C        0.62214264      -3.28190763       1.94081262
C        1.66157520       1.33234715      -3.50151747
C       -2.12666558       2.73179399      -1.46893199
C       -1.21792428      -2.88017629      -1.24192370
C        0.01285329      -2.29221798       2.73952644
C        2.04602570       0.47282373      -2.34245534
C        0.17710046       3.53787168       0.21553921
C       -2.99120230       0.41853413      -0.99325775
C        0.07384503       3.55718676      -1.23277085
60
Properties=species:S:1:pos:R:3 trajectory=trial0001_proposal001_step004_proposal_relax trajectory_step=15 pbc="F F F"
C       -2.50537914      -2.11785372       0.73050331
C        2.25915609      -2.99944890       0.10989276
C        1.20805944      -0.01309163       2.35577815
C       -0.98950689       3.30327403      -2.13653812
C       -2.75420542       3.17776084      -0.25388032
C        2.69435980      -1.82974077       1.73963620
C       -3.08887331      -1.18216105       1.69937893
C       -1.42695370      -2.56532075       2.78472758
C        2.22230313       3.02313177      -0.73278585
C       -0.36502541       2.59552801      -3.26381273
C       -0.74693334       3.01388328       1.18890020
C        2.99452593       1.66716727       0.96555339
C       -2.33802053      -2.09028784      -0.71143395
C        1.29187402       3.12447381      -1.80086161
C        2.70988803       0.64104889      -1.08984460
C       -1.16104369      -0.36490429       2.76658974
C        2.93497262      -0.36366622      -0.04467689
C       -1.63806312       0.68336961      -2.86817500
C       -2.32177431       1.37918537      -1.81719525
C       -0.43261129      -3.55705920       0.98869983
C        0.52517894       0.60152284      -4.14775907
C       -0.76622205      -1.47792959      -3.34019564
C       -3.72032730       2.30482398       0.38817908
C       -3.51765536       0.18846217       1.44956113
C       -2.83662464       1.23771815       2.18359472
C       -1.48381196       0.98355017       2.47391942
C        0.44585322      -0.67542392      -3.55383807
C       -2.16442016      -1.34712958       2.82612765
C       -1.80356890      -0.69589618      -2.72014907
C        2.54506783      -0.50059608       2.27132485
C        0.80843874      -1.83284992      -1.63121184
C       -0.19276617      -3.37579814      -0.34554656
C       -3.12519803       2.53319445       1.67418407
C        1.05142441       2.54718250      -3.05755475
C        0.11045627      -0.90145480       2.49493809
C       -0.41117789      -2.31172220      -2.26591288
C       -3.66965509       0.86064087       0.16885575
C       -2.11070205       3.33492857       1.03973136
C       -0.44971764       1.81753385       1.94058058
C        0.89875227       1.37200017       2.02770144
C       -1.64354623      -2.98727604       1.45803765
C       -2.58004562      -0.91225991      -1.48928595
C        3.06716917       0.30143729       1.18955599
C        1.94026783      -3.03587083       1.53671557
C        1.11772338      -2.90113402      -0.72215849
C        1.17949503      -0.64903741      -2.34334391
C        1.53579127       3.33424720       0.53799084
C        2.95877452      -1.74513219       0.31265842
C        1.85129521       2.29808194       1.49296343
C       -0.68434997       1.28665821      -3.69649236
C        2.96071352       1.86712215      -0.46699522
C        0.62216466      -3.28207903       1.93976087
C        1.66080787       1.33211865      -3.50120701
C       -2.12592904       2.73113224      -1.46847319
C       -1.21815963      -2.88201589      -1.24198372
C        0.01358243      -2.29157954       2.73729000
C        2.04458425       0.47269635      -2.34270784
C        0.17697278       3.53948501       0.21511471
C       -2.99079792       0.41765114      -0.99290529
C        0.07398303       3.55799290      -1.23331460
