60
Properties=species:S:1:pos:R:3 trajectory=trial0001_proposal001_step003_proposal_relax trajectory_step=0 pbc="F F F"
C       -2.46043678      -2.03365618       0.64679925
C        2.29008971      -2.93557055       0.02735651
C        1.25822603       0.10426808       2.69643830
C       -0.96397793       3.23603214      -2.00260560
C       -2.78531724       3.14007320      -0.28283518
C        2.74603322      -1.83018512       1.76206719
C       -2.95830192      -1.07099699       1.60044353
C       -1.41341676      -2.45387008       2.72908493
C        2.17056430       2.97022526      -0.58645788
C       -0.35946898       2.51207076      -3.10155943
C       -0.77007185       3.05351609       1.29891860
C        2.83729911       1.56141669       0.92523504
C       -2.29370827      -2.02281641      -0.80665260
C        1.30453806       3.11132354      -1.65256026
C        2.63252895       0.43532955      -1.13484372
C       -1.16255515      -0.25287027       3.02257054
C        3.03060271      -0.47224692      -0.05637493
C       -1.89985390       0.72061037      -3.08467732
C       -2.52654270       1.39489325      -1.98625770
C       -0.40179394      -3.34473359       0.93495639
C        0.43704740       0.59930358      -4.05055640
C       -0.77817049      -1.46651076      -3.44618690
C       -3.77768063       2.31917748       0.36834351
C       -3.31346866       0.27242141       1.33208733
C       -2.79151276       1.26103750       2.17100913
C       -1.47875018       1.11267634       2.71600681
C        0.46685915      -0.79153288      -3.82529160
C       -2.14912035      -1.25235960       2.78381485
C       -1.86276994      -0.67595300      -2.88582414
C        2.49942944      -0.49052392       2.29340903
C        1.01449422      -2.31276782      -2.13870025
C       -0.11787083      -3.24203372      -0.40400593
C       -3.17122301       2.54820582       1.66941289
C        1.05239868       2.39538449      -2.83946756
C        0.14190212      -0.75735850       2.86200870
C       -0.38534872      -2.43677270      -2.46445716
C       -3.69356364       0.90438611       0.10773673
C       -2.14813314       3.27262628       0.99610053
C       -0.43979435       1.99196170       2.26615220
C        0.93912883       1.57118682       2.43845270
C       -1.64739877      -2.91501313       1.42874306
C       -2.62940768      -0.88694675      -1.61709758
C        2.99180589       0.21779563       1.14457283
C        1.91309352      -2.92686325       1.45032716
C        1.24704775      -3.03904902      -0.92322676
C        1.35582611      -1.02055895      -2.70292966
C        1.59336339       3.45603657       0.72549085
C        3.12253379      -1.78494207       0.32293391
C        1.84550302       2.31120146       1.63786664
C       -0.78039080       1.30924614      -3.71324319
C        2.78081890       1.72492076      -0.49088807
C        0.60515237      -3.02799684       1.85317759
C        1.55285754       1.16796000      -3.34011240
C       -2.17720649       2.68918120      -1.51726827
C       -1.12652392      -2.78601092      -1.32587837
C        0.02188567      -2.18872656       2.84119013
C        2.08748923       0.15052351      -2.41616488
C        0.22138796       3.57956962       0.36897732
C       -3.14147818       0.43061407      -1.12782739
C        0.08591962       3.53397423      -1.08952702
60
Properties=species:S:1:pos:R:3 trajectory=trial0001_proposal001_step003_proposal_relax trajectory_step=1 pbc="F F F"
C       -2.46491609      -2.04068521       0.64532188
C        2.29459725      -2.93898005       0.03748713
C        1.25267701       0.10651718       2.69471064
C       -0.96899582       3.22883414      -2.00981370
C       -2.78520027       3.13582750      -0.29195083
C        2.74835024      -1.82950864       1.77080874
C       -2.95612788      -1.07055203       1.59660855
C       -1.41552006      -2.45248308       2.73914445
C        2.18514614       2.97450941      -0.59292281
C       -0.35052372       2.51896180      -3.10212167
C       -0.76646633       3.05094515       1.29218815
C        2.82783560       1.55898430       0.93165157
C       -2.28927826      -2.02286766      -0.80647425
C        1.29585663       3.11280340      -1.66079211
C        2.64627004       0.44369476      -1.12629592
C       -1.16705772      -0.24780879       3.01286177
C        3.02668526      -0.45937882      -0.06813550
C       -1.87873664       0.71620517      -3.08815652
C       -2.52739628       1.39623672      -1.98013717
C       -0.40181569      -3.34252525       0.92924476
C        0.43525972       0.58892005      -4.06051859
C       -0.78159454      -1.47082242      -3.43357280
C       -3.78327241       2.32025591       0.36593171
C       -3.32600615       0.27043065       1.33111785
C       -2.78948498       1.28010093       2.17377019
C       -1.48553564       1.10119678       2.71253485
C        0.45356362      -0.78408352      -3.80196960
C       -2.14132199      -1.25109687       2.79228760
C       -1.87044421      -0.67826765      -2.87914984
C        2.51474149      -0.49402161       2.27128463
C        1.01072915      -2.29159365      -2.12973394
C       -0.11923781      -3.24730170      -0.41345647
C       -3.17244838       2.54102211       1.67354913
C        1.04946614       2.40330689      -2.84657773
C        0.14312895      -0.76766959       2.86383257
C       -0.38820816      -2.43657671      -2.48199384
C       -3.69038971       0.89537792       0.10516879
C       -2.13190183       3.27645607       1.00330478
C       -0.43829915       1.99406794       2.25799679
C        0.93793935       1.55507769       2.42370800
C       -1.64428834      -2.91537513       1.41612217
C       -2.62840535      -0.89155224      -1.61839014
C        2.99394236       0.23230028       1.16736896
C        1.91920887      -2.92787104       1.44648579
C        1.23591133      -3.04290200      -0.91339937
C        1.35878409      -1.02978142      -2.69899637
C        1.59294844       3.43073235       0.71886298
C        3.11735850      -1.81149759       0.32067750
C        1.86281882       2.31987326       1.62436079
C       -0.77592921       1.31517860      -3.71060036
C        2.78391634       1.72854379      -0.48177625
C        0.60437075      -3.03031291       1.86737373
C        1.56156035       1.18051618      -3.33540441
C       -2.18513736       2.69685210      -1.50558319
C       -1.13229458      -2.78727036      -1.31372568
C        0.01661883      -2.19207689       2.83595631
C        2.07885355       0.16673816      -2.41369691
C        0.20358268       3.57966358       0.36705418
C       -3.13758579       0.43158772      -1.13064201
C        0.08226755       3.54342747      -1.08458295
60
Properties=species:S:1:pos:R:3 trajectory=trial0001_proposal001_step003_proposal_relax trajectory_step=2 pbc="F F F"
C       -2.47177689      -2.04826900       0.64417954
C        2.29079176      -2.95320045       0.04377956
C        1.25258098       0.10317719       2.68810454
C       -0.97389813       3.22429391      -2.01281189
C       -2.78580729       3.13390905      -0.28619446
C        2.75465929      -1.83283938       1.77584820
C       -2.95210190      -1.07047484       1.59545258
C       -1.42001277      -2.45799552       2.74317710
C        2.19735697       2.98255786      -0.60915923
C       -0.34535275       2.52630713      -3.10616850
C       -0.76174374       3.04473248       1.28707609
C        2.82113071       1.56224085       0.93724745
C       -2.28434319      -2.02387298      -0.80502203
C        1.29099842       3.11799668      -1.66181752
C        2.66135540       0.45776091      -1.12261897
C       -1.16628164      -0.24966261       3.00091119
C        3.02491087      -0.46033216      -0.06291813
C       -1.85802481       0.71401661      -3.08070157
C       -2.52358719       1.39659220      -1.97767737
C       -0.39788446      -3.33959761       0.92522492
C        0.43847978       0.58673717      -4.06955386
C       -0.79142545      -1.47094018      -3.42112040
C       -3.78710552       2.31964520       0.36429028
C       -3.33969972       0.27023368       1.33538224
C       -2.79365562       1.28882277       2.17498595
C       -1.48834814       1.09884163       2.70351466
C        0.43615461      -0.77726006      -3.76816263
C       -2.13819037      -1.24843504       2.79749214
C       -1.87779776      -0.68266419      -2.87260984
C        2.52218251      -0.49559086       2.25887306
C        1.00264568      -2.27107045      -2.10895130
C       -0.12208334      -3.25590529      -0.41884500
C       -3.16886721       2.54496283       1.66905003
C        1.04861195       2.41720713      -2.85607166
C        0.14380008      -0.77561499       2.86572235
C       -0.39398941      -2.44609595      -2.48767975
C       -3.68767722       0.88836740       0.10205547
C       -2.12813305       3.27803039       1.00685090
C       -0.43482615       1.98852449       2.24838506
C        0.93781925       1.53883766       2.39789981
C       -1.64064596      -2.91225113       1.40968420
C       -2.62827994      -0.89556807      -1.62023323
C        3.00366028       0.23717232       1.17379356
C        1.92021242      -2.92991806       1.45327902
C        1.22576289      -3.04388065      -0.90534106
C        1.36560026      -1.02509071      -2.69133584
C        1.58352551       3.40252923       0.70190755
C        3.11593930      -1.81739318       0.31450104
C        1.87419938       2.32466747       1.61819724
C       -0.76373361       1.32029352      -3.71087861
C        2.79179049       1.73361246      -0.47030714
C        0.60688293      -3.03886224       1.87483117
C        1.56746594       1.19130776      -3.33583173
C       -2.19191180       2.70113015      -1.50091614
C       -1.13570718      -2.78711368      -1.31265099
C        0.00938429      -2.19432855       2.83405798
C        2.06922756       0.18702422      -2.40483260
C        0.19498520       3.57925803       0.36272401
C       -3.13174546       0.42996829      -1.13399295
C        0.07309167       3.55375235      -1.08586851
60
Properties=species:S:1:pos:R:3 trajectory=trial0001_proposal001_step003_proposal_relax trajectory_step=3 pbc="F F F"
C       -2.48774909      -2.06184727       0.64509299
C        2.28325666      -2.98473698       0.06645901
C        1.26204842       0.08229560       2.65767662
C       -0.98763503       3.22299689      -2.01518515
C       -2.78845745       3.13347393      -0.27398608
C        2.77389690      -1.84835960       1.77466595
C       -2.94822254      -1.06720572       1.59881803
C       -1.43653803      -2.47185721       2.74690299
C        2.22390204       2.99896854      -0.64410835
C       -0.34246854       2.54895020      -3.12228479
C       -0.76043514       3.02833903       1.27514439
C        2.83658849       1.55703903       0.94101367
C       -2.27757432      -2.02620149      -0.80498993
C        1.27474493       3.13678059      -1.67886375
C        2.70044876       0.49186886      -1.10753190
C       -1.15795323      -0.25012345       2.96931155
C        3.02496370      -0.45174381      -0.05984988
C       -1.80578458       0.71305348      -3.04741621
C       -2.50315979       1.39570318      -1.97417587
C       -0.39142476      -3.33309851       0.92255717
C        0.45870155       0.59018939      -4.08274806
C       -0.81745235      -1.47597124      -3.38737424
C       -3.79653028       2.31237210       0.36144602
C       -3.37198665       0.26642049       1.34888398
C       -2.81069370       1.29946218       2.17657924
C       -1.48810751       1.09317643       2.67416940
C        0.40111282      -0.74557355      -3.67611796
C       -2.14008913      -1.25479500       2.79631919
C       -1.89173463      -0.68538344      -2.86081710
C        2.52889306      -0.50286785       2.25433316
C        0.97749498      -2.22065485      -2.04572403
C       -0.13795134      -3.28212789      -0.42223613
C       -3.16651564       2.55273362       1.65986567
C        1.05753506       2.46362978      -2.87733689
C        0.14709432      -0.79074812       2.86450463
C       -0.40330645      -2.47064855      -2.48741143
C       -3.68410124       0.88028278       0.09707097
C       -2.11429925       3.28491510       1.01328090
C       -0.42397818       1.96264454       2.21213577
C        0.93583282       1.49726407       2.32569226
C       -1.62871179      -2.90381735       1.40226157
C       -2.63288114      -0.90583223      -1.61933165
C        3.03522733       0.24760340       1.17472675
C        1.92970036      -2.93738299       1.47449656
C        1.20816362      -3.04368578      -0.88607267
C        1.36259541      -0.99072783      -2.64601362
C        1.55326176       3.34542289       0.64275086
C        3.10440951      -1.84160537       0.30518934
C        1.87229300       2.32705348       1.61335528
C       -0.73822992       1.32365505      -3.71307979
C        2.82160270       1.75472893      -0.45794510
C        0.60481403      -3.06239898       1.89199639
C        1.57635574       1.22284994      -3.34756833
C       -2.20479545       2.70646996      -1.49731722
C       -1.14686560      -2.79755626      -1.31471182
C       -0.00393780      -2.21165177       2.83373042
C        2.05395858       0.24736869      -2.37063659
C        0.18570952       3.57184081       0.34551318
C       -3.11740933       0.42177566      -1.13540440
C        0.05294254       3.57755773      -1.10149897
60
Properties=species:S:1:pos:R:3 trajectory=trial0001_proposal001_step003_proposal_relax trajectory_step=4 pbc="F F F"
C       -2.50169057      -2.07177794       0.64597023
C        2.26566719      -3.02877543       0.08720787
C        1.26994066       0.04097457       2.60541247
C       -1.00592539       3.23217372      -2.02824174
C       -2.79475058       3.13456309      -0.26350162
C        2.79755311      -1.85628833       1.77399040
C       -2.95778063      -1.07187383       1.60107450
C       -1.45154464      -2.49389801       2.75014726
C        2.23320050       3.01853522      -0.70041448
C       -0.34462053       2.58099093      -3.15114563
C       -0.75007258       3.00911658       1.25463494
C        2.86830443       1.59733604       0.95119543
C       -2.27923902      -2.03449552      -0.80277389
C        1.27684394       3.17280763      -1.69795847
C        2.74667756       0.54243013      -1.10036867
C       -1.15149276      -0.26869946       2.92630328
C        3.03358133      -0.46477158      -0.05295120
C       -1.74022550       0.71022860      -2.99724685
C       -2.47077310       1.38783074      -1.95679541
C       -0.38976467      -3.33001304       0.92769069
C        0.48424359       0.60415938      -4.08817059
C       -0.83295911      -1.47849781      -3.34853308
C       -3.80112419       2.30998597       0.35900967
C       -3.41212809       0.26358843       1.36334262
C       -2.82860749       1.30213447       2.18235554
C       -1.48870735       1.08268451       2.62565263
C        0.36899449      -0.69695535      -3.54885071
C       -2.13848984      -1.25233246       2.79036465
C       -1.90536999      -0.68799282      -2.84212125
C        2.55956109      -0.51898332       2.23869274
C        0.94744932      -2.15194723      -1.95149785
C       -0.15624342      -3.32059187      -0.42050732
C       -3.16744897       2.56022952       1.64961948
C        1.05687179       2.52413684      -2.92992323
C        0.15006534      -0.81887944       2.85079645
C       -0.41045245      -2.49434047      -2.47313268
C       -3.68399616       0.87064580       0.09589655
C       -2.11716588       3.29103697       1.01592420
C       -0.42125876       1.91693791       2.14776327
C        0.92577881       1.43527712       2.22977398
C       -1.62747499      -2.89010294       1.39610029
C       -2.64463751      -0.91310486      -1.61577328
C        3.08018158       0.21768556       1.18915414
C        1.92596316      -2.96531080       1.51373253
C        1.18895314      -3.04712242      -0.84903189
C        1.32160261      -0.90912063      -2.53472454
C        1.52485391       3.27506532       0.58162486
C        3.09152557      -1.84269663       0.29349371
C        1.87238776       2.30236190       1.56047478
C       -0.70532281       1.33477614      -3.71123950
C        2.88231219       1.78760655      -0.45463615
C        0.61515553      -3.09420979       1.90821742
C        1.60037801       1.27786749      -3.35662484
C       -2.21594085       2.71198772      -1.49379212
C       -1.16974914      -2.82965955      -1.31399977
C       -0.02071875      -2.23311787       2.84781030
C        2.04007717       0.33356606      -2.32067663
C        0.16602143       3.55568025       0.30652070
C       -3.09961762       0.41499485      -1.12849620
C        0.03171689       3.60644681      -1.12861190
60
Properties=species:S:1:pos:R:3 trajectory=trial0001_proposal001_step003_proposal_relax trajectory_step=5 pbc="F F F"
C       -2.51066118      -2.07229275       0.64560364
C        2.25404546      -3.05954093       0.11187498
C        1.27633984      -0.00377207       2.54836510
C       -1.01869935       3.25064895      -2.04708460
C       -2.80127611       3.13872239      -0.25858068
C        2.81186897      -1.87686491       1.76562908
C       -2.97851743      -1.07783964       1.60390937
C       -1.46480283      -2.50946278       2.75269378
C        2.23643984       3.02642960      -0.74190889
C       -0.35355653       2.61337219      -3.18193671
C       -0.74993360       2.99537132       1.22948776
C        2.93666646       1.59688173       0.95219605
C       -2.29000205      -2.04553632      -0.80003891
C        1.27750880       3.21074053      -1.73808829
C        2.78913770       0.58585162      -1.09004249
C       -1.14450664      -0.28672724       2.88755201
C        3.04675282      -0.47147475      -0.05000638
C       -1.68957610       0.70929575      -2.94803352
C       -2.43544597       1.37940280      -1.93225672
C       -0.39361957      -3.33257609       0.93845199
C        0.51108997       0.62043316      -4.07904685
C       -0.83296144      -1.47632089      -3.31720281
C       -3.80152945       2.30830882       0.35757761
C       -3.44381480       0.25919020       1.37527394
C       -2.84489368       1.29618212       2.18578070
C       -1.48809705       1.06475890       2.57773299
C        0.35211885      -0.64335955      -3.43739879
C       -2.13998736      -1.25655276       2.77829445
C       -1.90896485      -0.68986935      -2.82538808
C        2.58435174      -0.54040889       2.24217762
C        0.92062155      -2.09286848      -1.85374600
C       -0.17440736      -3.35896767      -0.40895939
C       -3.17083796       2.56295940       1.64508577
C        1.05564885       2.58863257      -2.97737769
C        0.15233078      -0.84809440       2.82800690
C       -0.41170532      -2.50647568      -2.44593835
C       -3.68855545       0.86785739       0.09958485
C       -2.12610256       3.29427194       1.01498459
C       -0.42326715       1.86910955       2.07792477
C        0.91740331       1.37283751       2.14000941
C       -1.62837978      -2.88029006       1.39718913
C       -2.65775204      -0.91840445      -1.60825958
C        3.12550123       0.22440197       1.18022229
C        1.93510429      -2.99137776       1.54616506
C        1.17249154      -3.04960724      -0.81499687
C        1.25646923      -0.80518048      -2.39361997
C        1.49757762       3.22834372       0.52488335
C        3.07405008      -1.84500364       0.28597683
C        1.84421301       2.26132379       1.49947597
C       -0.68278834       1.34365576      -3.70525614
C        2.95274018       1.82600193      -0.46327987
C        0.61191805      -3.12101455       1.92532313
C        1.62545735       1.32974403      -3.36577558
C       -2.21899414       2.71363285      -1.49459856
C       -1.19286297      -2.87004936      -1.31503721
C       -0.02962369      -2.26008437       2.86596956
C        2.03155528       0.41745668      -2.27244293
C        0.15447013       3.53503623       0.26712300
C       -3.08632267       0.41074118      -1.11401235
C        0.01914127       3.62870411      -1.16200540
60
Properties=species:S:1:pos:R:3 trajectory=trial0001_proposal001_step003_proposal_relax trajectory_step=6 pbc="F F F"
C       -2.50697107      -2.06157052       0.64765372
C        2.25502360      -3.05421663       0.13050127
C        1.28016411      -0.05170976       2.48928560
C       -1.02498080       3.28007874      -2.07455107
C       -2.80169430       3.14468088      -0.27161860
C        2.80748831      -1.89915151       1.75026640
C       -3.01160788      -1.08481731       1.60987075
C       -1.47539867      -2.50728231       2.75571295
C        2.22662769       3.01112906      -0.74420859
C       -0.37029784       2.64151240      -3.21419768
C       -0.77974524       2.99124355       1.19984652
C        3.00112246       1.63107417       0.94540000
C       -2.31116821      -2.06131806      -0.79815971
C        1.27977515       3.25576629      -1.79213220
C        2.82592349       0.60168699      -1.08331320
C       -1.13792871      -0.29892222       2.86644489
C        3.06808068      -0.43309216      -0.05741376
C       -1.68718090       0.71448205      -2.91703543
C       -2.40399564       1.37797284      -1.89768483
C       -0.40548469      -3.35482812       0.96063132
C        0.53521070       0.63593195      -4.03184664
C       -0.80129060      -1.46150812      -3.29192922
C       -3.79594698       2.29978877       0.35747000
C       -3.45657807       0.25054817       1.38174023
C       -2.85537179       1.27834397       2.17925946
C       -1.48812691       1.03687918       2.53939743
C        0.36014138      -0.59987953      -3.39842514
C       -2.15610019      -1.27960673       2.76035671
C       -1.88909071      -0.68572874      -2.80994332
C        2.59687298      -0.54089072       2.24378841
C        0.89236281      -2.04928897      -1.76914666
C       -0.19050214      -3.39552425      -0.38729657
C       -3.17824258       2.55176466       1.65340933
C        1.06131689       2.63558956      -3.01394037
C        0.14825481      -0.86874378       2.79661097
C       -0.39861928      -2.47182527      -2.39733330
C       -3.70092562       0.87858622       0.11081687
C       -2.12922674       3.29402567       1.00844193
C       -0.43494763       1.83282884       2.01281871
C        0.91247773       1.32666356       2.06226553
C       -1.63128532      -2.88577337       1.41101919
C       -2.66099314      -0.92538287      -1.59280755
C        3.15938592       0.20311246       1.17155507
C        1.94171262      -3.02064707       1.56221843
C        1.16161545      -3.04268417      -0.78741158
C        1.17296580      -0.69671739      -2.24780181
C        1.48508501       3.21133186       0.48260457
C        3.05244040      -1.85507291       0.29207362
C        1.83261685       2.16594874       1.42599839
C       -0.68713200       1.34431550      -3.68655768
C        3.03326839       1.85968363      -0.48015306
C        0.60168340      -3.13839548       1.93894383
C        1.63070628       1.36155314      -3.36945389
C       -2.19951584       2.71300219      -1.50302143
C       -1.20950747      -2.91094209      -1.31379226
C       -0.02588967      -2.28986199       2.88252716
C        2.02868821       0.47640869      -2.23410621
C        0.15364957       3.51582387       0.23312158
C       -3.08560081       0.40853265      -1.08724470
C        0.02725569       3.63537536      -1.20131833
60
Properties=species:S:1:pos:R:3 trajectory=trial0001_proposal001_step003_proposal_relax trajectory_step=7 pbc="F F F"
C       -2.49205841      -2.05541958       0.65104185
C        2.25585107      -3.02521397       0.11451130
C        1.26550131      -0.03866152       2.49459024
C       -1.01173700       3.28825411      -2.08393183
C       -2.79867537       3.14248618      -0.28285690
C        2.79003169      -1.88716605       1.75036598
C       -3.01903031      -1.09398041       1.60669801
C       -1.46108299      -2.50305428       2.75476776
C        2.20484133       2.99533542      -0.73018318
C       -0.37184994       2.63020046      -3.21210365
C       -0.77530402       2.99719421       1.19986264
C        3.02729036       1.59324949       0.93935825
C       -2.31714302      -2.06704458      -0.79538036
C        1.30191521       3.25149283      -1.78112801
C        2.81685365       0.58862326      -1.08844693
C       -1.15386019      -0.30672643       2.88724151
C        3.07252283      -0.44053383      -0.06399151
C       -1.72928234       0.71621238      -2.94184704
C       -2.41840387       1.37689361      -1.89100725
C       -0.41173388      -3.37573549       0.96703400
C        0.51076719       0.64468184      -4.01322177
C       -0.77963911      -1.44696163      -3.30968048
C       -3.78284761       2.30739304       0.35902646
C       -3.43965566       0.24997270       1.37211389
C       -2.84099791       1.26607051       2.17693832
C       -1.48870039       1.03654723       2.55217049
C        0.39915551      -0.62824300      -3.45443791
C       -2.15850759      -1.27049200       2.76584712
C       -1.87406415      -0.68001262      -2.80754351
C        2.58515791      -0.54870590       2.24626250
C        0.89860749      -2.05808668      -1.80062467
C       -0.18220946      -3.38840345      -0.38139724
C       -3.17967081       2.54506348       1.65653312
C        1.05515376       2.60838070      -3.00936994
C        0.14622904      -0.86545344       2.79016399
C       -0.38712434      -2.43262390      -2.37551190
C       -3.70683710       0.87930701       0.11624910
C       -2.15036607       3.28881350       0.99981609
C       -0.44483917       1.84803949       2.02336256
C        0.90896504       1.33761900       2.09480726
C       -1.64430534      -2.89663745       1.41813407
C       -2.65093016      -0.91792695      -1.58958595
C        3.14509707       0.24514596       1.16392737
C        1.93463490      -3.02113922       1.54693861
C        1.16888204      -3.03731469      -0.78976836
C        1.16081557      -0.71096609      -2.27242625
C        1.50863315       3.23172409       0.52737984
C        3.05890812      -1.83144243       0.29969185
C        1.82268759       2.17197601       1.41913320
C       -0.70902202       1.34364854      -3.67832526
C        3.02836295       1.85548118      -0.49455311
C        0.60164741      -3.13116547       1.93123660
C        1.62277692       1.34242093      -3.35219546
C       -2.18497052       2.71308952      -1.50305010
C       -1.20308032      -2.90814200      -1.30738012
C       -0.02030933      -2.27757423       2.88362192
C        2.03339263       0.43614935      -2.25020012
C        0.15376841       3.51843599       0.23829599
C       -3.09409924       0.41370859      -1.08128707
C        0.04445646       3.62150014      -1.19747993
60
Properties=species:S:1:pos:R:3 trajectory=trial0001_proposal001_step003_proposal_relax trajectory_step=8 pbc="F F F"
C       -2.49132234      -2.05846714       0.65151250
C        2.25751798      -3.01810236       0.11449763
C        1.26067505      -0.03317833       2.49709498
C       -1.00711734       3.28730948      -2.08587581
C       -2.79737505       3.14177250      -0.28558939
C        2.78395368      -1.88398446       1.75169504
C       -3.01685263      -1.09537276       1.60601557
C       -1.46161522      -2.49963227       2.75801868
C        2.21386294       2.99010137      -0.72567572
C       -0.36781211       2.62979659      -3.20886790
C       -0.77742878       2.99746380       1.19723808
C        3.02053098       1.60083510       0.93521502
C       -2.31497597      -2.06778891      -0.79374235
C        1.29926697       3.24368072      -1.78427237
C        2.81853395       0.58827218      -1.09179565
C       -1.15522720      -0.30242105       2.89105900
C        3.07277096      -0.43903116      -0.06197470
C       -1.73546372       0.71596775      -2.94935934
C       -2.42449422       1.37968657      -1.89218520
C       -0.41416284      -3.38312822       0.96599406
C        0.50098982       0.64483285      -4.01647938
C       -0.78180025      -1.44645466      -3.31234628
C       -3.78315618       2.30678303       0.35762990
C       -3.43933610       0.24727778       1.37054060
C       -2.83928144       1.26975139       2.17509644
C       -1.48859635       1.03534910       2.55717901
C        0.40373879      -0.63594760      -3.46421809
C       -2.15941042      -1.27454346       2.77229462
C       -1.87202851      -0.68007682      -2.80536348
C        2.58112850      -0.54348267       2.23975589
C        0.90154859      -2.05336375      -1.80352982
C       -0.17984342      -3.38781490      -0.38157849
C       -3.17859072       2.54189208       1.65827788
C        1.05684271       2.60577621      -3.00106253
C        0.14089365      -0.86578929       2.79088332
C       -0.39211039      -2.42364700      -2.37413002
C       -3.70762443       0.87704111       0.11557042
C       -2.14631412       3.28908182       1.00034646
C       -0.44406048       1.85166315       2.02935389
C        0.90687730       1.34280253       2.09693837
C       -1.64231010      -2.90286654       1.41754285
C       -2.64509710      -0.91809867      -1.58771734
C        3.14366786       0.23868531       1.16733614
C        1.93764626      -3.01606435       1.53916244
C        1.16520780      -3.03270014      -0.79243594
C        1.17124871      -0.72183625      -2.28653499
C        1.50431043       3.23325382       0.53212890
C        3.05962108      -1.82698181       0.29899952
C        1.83190580       2.17293970       1.42501885
C       -0.71506414       1.34463340      -3.67826614
C        3.02487417       1.84904253      -0.49644274
C        0.59884291      -3.13183458       1.93406961
C        1.62017599       1.33818358      -3.34731195
C       -2.18324119       2.71405490      -1.50106140
C       -1.19923243      -2.90232850      -1.30339431
C       -0.01852966      -2.27578043       2.87764166
C        2.03262570       0.42720122      -2.25095383
C        0.15658221       3.52044754       0.24294793
C       -3.09396876       0.41417115      -1.08270277
C        0.04817179       3.62125123      -1.19398125
60
Properties=species:S:1:pos:R:3 trajectory=trial0001_proposal001_step003_proposal_relax trajectory_step=9 pbc="F F F"
C       -2.49102066      -2.06437370       0.65370405
C        2.25648471      -3.01202957       0.11529210
C        1.25371295      -0.03501047       2.48820038
C       -1.00437713       3.29062933      -2.09060681
C       -2.79674802       3.14179704      -0.28730948
C        2.77870977      -1.88052832       1.75210433
C       -3.01743785      -1.09992512       1.60676058
C       -1.46316074      -2.50164199       2.76132656
C        2.21989524       2.98772295      -0.73109923
C       -0.36486445       2.63515758      -3.21172580
C       -0.77975349       2.99351989       1.18952070
C        3.02714764       1.60510485       0.93170730
C       -2.31389286      -2.07147383      -0.79025252
C        1.30204210       3.24186190      -1.78595392
C        2.83099117       0.59193731      -1.09362710
C       -1.15808274      -0.30411748       2.89008752
C        3.07660414      -0.43346344      -0.06202693
C       -1.73769912       0.71661728      -2.94921931
C       -2.42571723       1.38182335      -1.89013913
C       -0.41660693      -3.39730841       0.96898078
C        0.49488216       0.64633704      -4.01567553
C       -0.78278789      -1.44497975      -3.30943756
C       -3.78292800       2.30507210       0.35605303
C       -3.44472179       0.24276713       1.37115641
C       -2.83929733       1.27012884       2.17321231
C       -1.48909674       1.03211910       2.55401781
C        0.40553194      -0.63442103      -3.46080493
C       -2.16293209      -1.27795952       2.77922321
C       -1.86921865      -0.67887379      -2.79866670
C        2.57773721      -0.53987521       2.23100137
C        0.89738846      -2.03427990      -1.78662326
C       -0.18071058      -3.39534529      -0.38030132
C       -3.17733306       2.53973239       1.65737801
C        1.05895075       2.60971661      -3.00444419
C        0.13582452      -0.86960141       2.78600154
C       -0.39706961      -2.41015582      -2.36488781
C       -3.70999303       0.87340493       0.11509822
C       -2.14465054       3.28963217       0.99991789
C       -0.44478591       1.84864505       2.02280626
C        0.90352809       1.33622301       2.08111164
C       -1.64297453      -2.90924660       1.41939803
C       -2.63820811      -0.91916894      -1.58223029
C        3.15074447       0.23879036       1.17043735
C        1.93651487      -3.01570751       1.53719261
C        1.15937843      -3.02508305      -0.78672755
C        1.17350890      -0.71647882      -2.27858147
C        1.50079890       3.22201673       0.52706418
C        3.05698996      -1.82399401       0.29687192
C        1.83695590       2.16626455       1.41850307
C       -0.71915791       1.34933367      -3.67657338
C        3.03652913       1.84886528      -0.50020191
C        0.59920774      -3.14059994       1.93813730
C        1.61814208       1.34216907      -3.34243013
C       -2.17923797       2.71609617      -1.49996473
C       -1.19927361      -2.90151358      -1.29650083
C       -0.02006590      -2.27777383       2.87342031
C        2.03026218       0.43308102      -2.24284017
C        0.15539206       3.51980575       0.23957471
C       -3.09141319       0.41358482      -1.08095995
C        0.05193115       3.62525649      -1.19724344
60
Properties=species:S:1:pos:R:3 trajectory=trial0001_proposal001_step003_proposal_relax trajectory_step=10 pbc="F F F"
C       -2.48984988      -2.07954883       0.66289935
C        2.25166831      -2.99590090       0.11268434
C        1.23751435      -0.03624300       2.46732505
C       -0.99608226       3.29950985      -2.09584550
C       -2.79525469       3.14192349      -0.28979700
C        2.76484949      -1.87069566       1.74918864
C       -3.01805844      -1.11116405       1.61131203
C       -1.46586244      -2.50864933       2.76657642
C        2.23152812       2.97967112      -0.73531605
C       -0.36084638       2.64477589      -3.21734316
C       -0.78126671       2.98423950       1.17520920
C        3.04167173       1.61263667       0.92808208
C       -2.31090561      -2.07871722      -0.77822508
C        1.30926583       3.23563592      -1.78898030
C        2.85572959       0.59103044      -1.10048019
C       -1.16773142      -0.30939827       2.89281075
C        3.08886900      -0.42330458      -0.06372873
C       -1.74765744       0.72313418      -2.95008491
C       -2.43023075       1.38707204      -1.88968701
C       -0.42154953      -3.43631674       0.97684841
C        0.48479916       0.64771396      -4.00944429
C       -0.78159221      -1.43863581      -3.30688674
C       -3.78089322       2.30009533       0.35253985
C       -3.45283253       0.23203340       1.37285584
C       -2.83877605       1.26544058       2.16820626
C       -1.49164327       1.02724781       2.54925467
C        0.40787341      -0.63232410      -3.46310037
C       -2.17284410      -1.28633973       2.79447596
C       -1.86307950      -0.67335511      -2.78538724
C        2.56162415      -0.52921415       2.21567440
C        0.88162636      -1.99835405      -1.74930983
C       -0.18202641      -3.41120318      -0.37430633
C       -3.17443184       2.53561891       1.65163486
C        1.06384645       2.61461514      -3.00842647
C        0.12490759      -0.87479199       2.77319962
C       -0.40197104      -2.37886647      -2.33671872
C       -3.71489206       0.86572965       0.11417977
C       -2.14476472       3.29036291       0.99685214
C       -0.44840150       1.84451114       2.00854896
C        0.89800575       1.32458835       2.05166033
C       -1.64516797      -2.92808250       1.42748125
C       -2.62111029      -0.91798195      -1.56655122
C        3.16486825       0.24562329       1.17228119
C        1.93141457      -3.01023763       1.53333564
C        1.14956477      -3.00184438      -0.77516424
C        1.18329953      -0.70449720      -2.27537770
C        1.50202414       3.20033617       0.51348059
C        3.05340363      -1.81276167       0.29406950
C        1.84589105       2.15368452       1.40431083
C       -0.72924996       1.36003267      -3.67478514
C        3.06167966       1.85437850      -0.50734795
C        0.59854152      -3.16248986       1.94370495
C        1.60803095       1.34160738      -3.33266505
C       -2.16960989       2.71967772      -1.50001558
C       -1.19902229      -2.89631006      -1.28126059
C       -0.02404880      -2.28157523       2.86214561
C        2.02778408       0.44410556      -2.23138158
C        0.15580390       3.51672298       0.23233598
C       -3.08613267       0.41229803      -1.07597000
C        0.06226957       3.63303402      -1.20337140
60
Properties=species:S:1:pos:R:3 trajectory=trial0001_proposal001_step003_proposal_relax trajectory_step=11 pbc="F F F"
C       -2.49008835      -2.08977361       0.67306196
C        2.25027530      -2.98754314       0.11434093
C        1.22882934      -0.03766387       2.45166417
C       -0.99418502       3.30415521      -2.09543854
C       -2.79491300       3.14131690      -0.29182685
C        2.75685394      -1.86204735       1.74435178
C       -3.02017241      -1.11852790       1.61728851
C       -1.46825133      -2.51471704       2.76873966
C        2.23275582       2.97854245      -0.74446010
C       -0.36111841       2.65178459      -3.22003634
C       -0.78232277       2.98118880       1.16763925
C        3.05610808       1.61645662       0.92554524
C       -2.31033308      -2.07861054      -0.76760062
C        1.31683002       3.23555010      -1.78750486
C        2.86989252       0.59924376      -1.10027842
C       -1.17144568      -0.31262193       2.89544462
C        3.10005537      -0.41936090      -0.06480952
C       -1.74956294       0.72757654      -2.95003174
C       -2.43224496       1.39191582      -1.88966126
C       -0.42528274      -3.46222593       0.98255676
C        0.48078889       0.65376800      -4.00617189
C       -0.78062628      -1.43688874      -3.30022586
C       -3.77966765       2.29545093       0.34918062
C       -3.45493847       0.22536862       1.37456874
C       -2.84238818       1.26141505       2.16343764
C       -1.49311138       1.02436334       2.54606034
C        0.40934892      -0.63139701      -3.45931592
C       -2.17857808      -1.29477542       2.80006952
C       -1.85984765      -0.66742981      -2.78083894
C        2.55390772      -0.52372004       2.20859737
C        0.86943710      -1.96949760      -1.73016982
C       -0.18346990      -3.41999376      -0.36995798
C       -3.17351902       2.52999940       1.64778968
C        1.06469364       2.61399900      -3.01415208
C        0.11694574      -0.87820824       2.76339705
C       -0.40376352      -2.36124894      -2.32032326
C       -3.71614531       0.86221103       0.11530739
C       -2.14258444       3.29089177       0.99416963
C       -0.44943656       1.83723231       1.99773222
C        0.89415914       1.32233271       2.03484273
C       -1.64749759      -2.94367719       1.43381014
C       -2.61227201      -0.91458833      -1.55488618
C        3.17178308       0.24972252       1.17079581
C        1.92505065      -3.00608151       1.53189466
C        1.14143893      -2.99001428      -0.76303097
C        1.18391078      -0.70131406      -2.27647720
C        1.50096080       3.19227821       0.50374725
C        3.05248699      -1.80609219       0.29371034
C        1.84123843       2.14648724       1.39766021
C       -0.72984376       1.36379206      -3.67710813
C        3.08207041       1.85095435      -0.50943910
C        0.59788785      -3.17586602       1.94673656
C        1.60298102       1.34388485      -3.33161394
C       -2.16650942       2.72251556      -1.50092949
C       -1.19920001      -2.89644773      -1.27179429
C       -0.02683893      -2.28531026       2.85499837
C        2.02956996       0.45042704      -2.23078191
C        0.16458792       3.51108276       0.22672789
C       -3.08219957       0.41311660      -1.07198337
C        0.06807914       3.63690261      -1.20681234
60
Properties=species:S:1:pos:R:3 trajectory=trial0001_proposal001_step003_proposal_relax trajectory_step=12 pbc="F F F"
C       -2.49096605      -2.09748861       0.68045053
C        2.24726486      -2.98379433       0.11428466
C        1.22287895      -0.03868137       2.44060759
C       -0.99202557       3.30732972      -2.09343010
C       -2.79528187       3.14102802      -0.29086675
C        2.75133149      -1.85683863       1.74061300
C       -3.02130017      -1.12457098       1.62247102
C       -1.46892515      -2.52182618       2.76936578
C        2.23851799       2.97449376      -0.74746505
C       -0.36185648       2.65521078      -3.22201472
C       -0.77897990       2.97839294       1.16357798
C        3.06338524       1.61767805       0.92762176
C       -2.30887496      -2.07791712      -0.75897031
C        1.31970956       3.23485903      -1.79142581
C        2.87642183       0.59938320      -1.10413095
C       -1.17614308      -0.31670172       2.89749501
C        3.10870895      -0.41766048      -0.06600334
C       -1.74952988       0.73185047      -2.94922704
C       -2.43295505       1.39435915      -1.89168829
C       -0.42743477      -3.48100955       0.98692336
C        0.48046026       0.65370417      -4.00412008
C       -0.78159708      -1.43405852      -3.29695992
C       -3.77843473       2.29268860       0.34737679
C       -3.45615409       0.22047448       1.37576094
C       -2.84322789       1.25607421       2.16192148
C       -1.49478560       1.02319024       2.54366251
C        0.40781550      -0.62779026      -3.45937568
C       -2.18156563      -1.29824796       2.80407991
C       -1.85891762      -0.66396742      -2.77730903
C        2.54740416      -0.51928146       2.20554345
C        0.85969568      -1.95705970      -1.71224537
C       -0.18493906      -3.42547436      -0.36583204
C       -3.17227902       2.52905772       1.64201928
C        1.06486644       2.61650606      -3.01482690
C        0.11380315      -0.87960297       2.75556935
C       -0.40512015      -2.35275072      -2.30648439
C       -3.71623518       0.85912879       0.11533657
C       -2.14420254       3.29018722       0.99168979
C       -0.45250500       1.83319455       1.98955237
C        0.89123847       1.31866021       2.02547340
C       -1.65058742      -2.95531659       1.43918566
C       -2.60617198      -0.91054484      -1.54710572
C        3.17655662       0.25500312       1.16870158
C        1.92033096      -3.00154758       1.53288434
C        1.13713392      -2.97820012      -0.75679713
C        1.18897380      -0.69355642      -2.27958310
C        1.50608560       3.18478497       0.49727547
C        3.05321002      -1.80066565       0.29320361
C        1.84144811       2.14583192       1.39006067
C       -0.73077968       1.36786039      -3.67901051
C        3.09236512       1.85816672      -0.51023070
C        0.59728500      -3.18590291       1.94751455
C        1.60019979       1.34409753      -3.33280997
C       -2.16583200       2.72450120      -1.50220692
C       -1.20017069      -2.89554260      -1.26628212
C       -0.03008377      -2.28749265       2.85041865
C        2.03314710       0.45459889      -2.23041621
C        0.16558769       3.50777545       0.22279626
C       -3.07901315       0.41438902      -1.06933851
C        0.07161808       3.63931439      -1.20907457
60
Properties=species:S:1:pos:R:3 trajectory=trial0001_proposal001_step003_proposal_relax trajectory_step=13 pbc="F F F"
C       -2.49243388      -2.10132340       0.68520288
C        2.24597847      -2.98369631       0.11479579
C        1.22114971      -0.03824526       2.43569484
C       -0.99225732       3.30729900      -2.09030788
C       -2.79613712       3.14066434      -0.29037888
C        2.74878246      -1.85401585       1.73803987
C       -3.02261879      -1.12822978       1.62680779
C       -1.46908993      -2.52622837       2.76959087
C        2.24015495       2.97420093      -0.74893186
C       -0.36374541       2.65523114      -3.22149706
C       -0.77664495       2.97853833       1.16396841
C        3.06399496       1.61796757       0.93057636
C       -2.30751610      -2.07428896      -0.75320960
C        1.32167447       3.23612357      -1.79268132
C        2.87593408       0.59915366      -1.10502232
C       -1.17771227      -0.31862142       2.89911332
C        3.11414154      -0.41694572      -0.06828640
C       -1.74755203       0.73441836      -2.94903291
C       -2.43259424       1.39586593      -1.89435383
C       -0.42886823      -3.49002756       0.98881488
C        0.48293589       0.65400795      -4.00514200
C       -0.78202342      -1.43264153      -3.29419063
C       -3.77829763       2.29103352       0.34651628
C       -3.45445238       0.21781340       1.37613922
C       -2.84359537       1.25306265       2.16175363
C       -1.49647373       1.02217655       2.54372427
C        0.40571330      -0.62674033      -3.46086488
C       -2.18077780      -1.30096810       2.80448600
C       -1.86014996      -0.66189661      -2.77669336
C        2.54595020      -0.51720094       2.20657375
C        0.85529083      -1.95376406      -1.70722924
C       -0.18622087      -3.42552641      -0.36252779
C       -3.17155847       2.52750821       1.63898256
C        1.06292123       2.61572277      -3.01509019
C        0.11312376      -0.88008062       2.75068468
C       -0.40550673      -2.35179912      -2.30092754
C       -3.71441192       0.85808539       0.11560187
C       -2.14413932       3.28883932       0.99004705
C       -0.45505500       1.83144391       1.98584360
C        0.89065940       1.31976040       2.02545879
C       -1.65416467      -2.96433913       1.44242941
C       -2.60426701      -0.90630075      -1.54331172
C        3.17623008       0.25838370       1.16667453
C        1.91728541      -2.99739270       1.53402637
C        1.13577313      -2.97238271      -0.75279348
C        1.19181389      -0.69257296      -2.28464105
C        1.51104612       3.18624214       0.49357452
C        3.05544719      -1.79961863       0.29362866
C        1.84138771       2.14741610       1.38935820
C       -0.72974111       1.36918279      -3.68150770
C        3.09444571       1.86181120      -0.50980078
C        0.59567606      -3.18909753       1.94731313
C        1.60135585       1.34443295      -3.33756997
C       -2.16827192       2.72613960      -1.50354715
C       -1.20278542      -2.89567874      -1.26346661
C       -0.03165182      -2.28857299       2.84818047
C        2.03874810       0.45465938      -2.23624250
C        0.16778198       3.50582525       0.22134903
C       -3.07691748       0.41696135      -1.06870494
C        0.07280502       3.63850838      -1.20879140
60
Properties=species:S:1:pos:R:3 trajectory=trial0001_proposal001_step003_proposal_relax trajectory_step=14 pbc="F F F"
C       -2.49441930      -2.10482492       0.68932980
C        2.24605511      -2.98441117       0.11684326
C        1.22045240      -0.03850812       2.43127168
C       -0.99306074       3.30676963      -2.08863232
C       -2.79757592       3.14051118      -0.29072070
C        2.74712943      -1.85127392       1.73645816
C       -3.02483489      -1.13225315       1.63085439
C       -1.46920676      -2.53071737       2.77063420
C        2.24212367       2.97613444      -0.75123591
C       -0.36550219       2.65510267      -3.22059119
C       -0.77520114       2.97910595       1.16395628
C        3.06446758       1.61895770       0.93110242
C       -2.30656843      -2.06959136      -0.74789771
C        1.32233243       3.23848023      -1.79680046
C        2.87544959       0.60130554      -1.10571781
C       -1.17753406      -0.32093743       2.89907173
C        3.11829513      -0.41662257      -0.06985820
C       -1.74460158       0.73558652      -2.94869154
C       -2.43135613       1.39807545      -1.89566368
C       -0.43184778      -3.49723244       0.99173161
C        0.48541047       0.65452695      -4.00825049
C       -0.78310300      -1.43121728      -3.29017257
C       -3.77875614       2.28972405       0.34636790
C       -3.45301004       0.21498058       1.37649412
C       -2.84434488       1.25064862       2.16195551
C       -1.49727091       1.02035184       2.54335165
C        0.40520101      -0.62488528      -3.46037303
C       -2.17903797      -1.30405917       2.80464198
C       -1.86118236      -0.66025871      -2.77564357
C        2.54768305      -0.51585301       2.20702858
C        0.85294646      -1.95098114      -1.70353988
C       -0.18827153      -3.42432576      -0.35960556
C       -3.17040241       2.52502942       1.63755428
C        1.06114184       2.61629126      -3.01560645
C        0.11292295      -0.88147732       2.74512622
C       -0.40695516      -2.35174401      -2.29697985
C       -3.71170930       0.85717691       0.11593468
C       -2.14392572       3.28685985       0.98859449
C       -0.45707825       1.82898095       1.98243602
C        0.88974659       1.32070261       2.02517052
C       -1.65934791      -2.97423064       1.44541987
C       -2.60310150      -0.90240997      -1.53990113
C        3.17576431       0.25979802       1.16564871
C        1.91417171      -2.99451940       1.53533644
C        1.13304169      -2.96808632      -0.74802786
C        1.19241995      -0.69041713      -2.28621691
C        1.51487497       3.18858146       0.49258621
C        3.05813441      -1.79965941       0.29360198
C        1.84056503       2.15062169       1.38876685
C       -0.72831941       1.36934541      -3.68387814
C        3.09528758       1.86370205      -0.50949312
C        0.59396238      -3.19105338       1.94772990
C        1.60572513       1.34674754      -3.34407943
C       -2.17147581       2.72838011      -1.50512716
C       -1.20632955      -2.89677531      -1.26018498
C       -0.03300897      -2.28998322       2.84669687
C        2.04517057       0.45447819      -2.24338567
C        0.16984551       3.50460360       0.22020058
C       -3.07443997       0.42033951      -1.06850297
C        0.07302798       3.63669210      -1.20891250
60
Properties=species:S:1:pos:R:3 trajectory=trial0001_proposal001_step003_proposal_relax trajectory_step=15 pbc="F F F"
C       -2.49842455      -2.11031532       0.69438332
C        2.24579556      -2.98428720       0.11911447
C        1.22141451      -0.03743549       2.42783009
C       -0.99414533       3.30568171      -2.08839410
C       -2.80080260       3.14100698      -0.29134835
C        2.74472093      -1.85058185       1.73564829
C       -3.02703284      -1.13827968       1.63584735
C       -1.47047233      -2.53631046       2.77376026
C        2.24551859       2.98182053      -0.75432864
C       -0.36546938       2.65135740      -3.21971096
C       -0.77525662       2.97919471       1.16288419
C        3.05957084       1.62026980       0.93002262
C       -2.30535023      -2.06369570      -0.74046310
C        1.32414420       3.24147543      -1.79574508
C        2.87490285       0.60147548      -1.11013568
C       -1.17620688      -0.32323116       2.89688028
C        3.12054563      -0.41506099      -0.07128565
C       -1.74405451       0.73698965      -2.94932564
C       -2.43021745       1.40107525      -1.89799405
C       -0.43739753      -3.50676198       0.99389298
C        0.48802470       0.65568062      -4.01568404
C       -0.78321474      -1.42873153      -3.28560131
C       -3.77971807       2.28838349       0.34773970
C       -3.45156041       0.21009741       1.37626890
C       -2.84312935       1.24654928       2.16367310
C       -1.49719933       1.01643291       2.54390979
C        0.40544784      -0.62475962      -3.46252504
C       -2.17658506      -1.30960423       2.80665341
C       -1.86156857      -0.65877848      -2.77218247
C        2.54879311      -0.51202996       2.20775691
C        0.85238680      -1.94997001      -1.70242113
C       -0.19306279      -3.42044339      -0.35193195
C       -3.16838051       2.52118757       1.63746988
C        1.06026423       2.61320473      -3.01967287
C        0.11375625      -0.88398880       2.73709933
C       -0.41123464      -2.35031964      -2.29260985
C       -3.70717115       0.85603148       0.11658455
C       -2.14320616       3.28291748       0.98646894
C       -0.45837890       1.82776535       1.98151612
C        0.88969401       1.32377141       2.02528178
C       -1.66876271      -2.98940045       1.45148053
C       -2.60055758      -0.89694188      -1.53558369
C        3.17560995       0.26226311       1.16307934
C        1.91302029      -2.98895184       1.53529518
C        1.12964946      -2.96196110      -0.74159403
C        1.19550988      -0.68871397      -2.28900429
C        1.51629573       3.19833809       0.49179092
C        3.06267630      -1.80023093       0.29361131
C        1.84424744       2.15396503       1.39351775
C       -0.72713025       1.36877759      -3.68626786
C        3.08989739       1.86510569      -0.51178899
C        0.58952001      -3.19295716       1.94910790
C        1.61241819       1.34995180      -3.35511651
C       -2.17534077       2.73317985      -1.50774664
C       -1.20957789      -2.89430917      -1.25620606
C       -0.03382959      -2.29164267       2.84408046
C        2.05590107       0.45259008      -2.25357583
C        0.17267318       3.50551064       0.22086214
C       -3.07090972       0.42527142      -1.06853320
C        0.07351870       3.63265556      -1.20852872
60
Properties=species:S:1:pos:R:3 trajectory=trial0001_proposal001_step003_proposal_relax trajectory_step=16 pbc="F F F"
C       -2.49955236      -2.11185939       0.69559740
C        2.24600440      -2.98373503       0.11940900
C        1.22157099      -0.03756924       2.42704979
C       -0.99345965       3.30589171      -2.08988162
C       -2.80164085       3.14157057      -0.29210402
C        2.74552783      -1.84883354       1.73650708
C       -3.02774039      -1.13944665       1.63651032
C       -1.47080642      -2.53748493       2.77516782
C        2.24552284       2.98447437      -0.75367146
C       -0.36492335       2.65096156      -3.21981201
C       -0.77591824       2.97829781       1.16219228
C        3.05918455       1.62143623       0.92730193
C       -2.30573182      -2.06311149      -0.73960979
C        1.32325657       3.24099376      -1.79943945
C        2.87688760       0.60266960      -1.11022660
C       -1.17497234      -0.32509714       2.89511320
C        3.11993014      -0.41481710      -0.07196432
C       -1.74405778       0.73672859      -2.94954159
C       -2.43000123       1.40236087      -1.89738977
C       -0.43974970      -3.50808176       0.99709485
C        0.48852391       0.65525768      -4.01725575
C       -0.78302360      -1.42813006      -3.28455566
C       -3.78002477       2.28794549       0.34849702
C       -3.45162767       0.20897286       1.37683839
C       -2.84336955       1.24584310       2.16366135
C       -1.49631762       1.01551012       2.54318308
C        0.40671258      -0.62346715      -3.46175475
C       -2.17658413      -1.31035972       2.80714978
C       -1.86087087      -0.65813819      -2.77105017
C        2.55050081      -0.51233726       2.20637784
C        0.85256787      -1.94862041      -1.70219806
C       -0.19373857      -3.41881180      -0.35250365
C       -3.16786204       2.51942464       1.63891765
C        1.06153746       2.61513338      -3.01885897
C        0.11393158      -0.88466134       2.73524502
C       -0.41078518      -2.34885624      -2.29201735
C       -3.70643986       0.85608344       0.11705931
C       -2.14314707       3.28200475       0.98607696
C       -0.45789695       1.82766932       1.98109140
C        0.89008430       1.32335060       2.02420750
C       -1.67107263      -2.99239950       1.45277973
C       -2.60006451      -0.89664209      -1.53408730
C        3.17602643       0.26123464       1.16354776
C        1.91075750      -2.99000726       1.53597766
C        1.12789759      -2.96162101      -0.73949356
C        1.19437784      -0.68786028      -2.28721355
C        1.51794105       3.19909358       0.49376749
C        3.06312279      -1.80045736       0.29365022
C        1.84334978       2.15635972       1.39261651
C       -0.72717963       1.36756306      -3.68634691
C        3.08866016       1.86421332      -0.51291276
C        0.59018789      -3.19387523       1.94890735
C        1.61449803       1.34999305      -3.35772615
C       -2.17615494       2.73395441      -1.50833190
C       -1.21066851      -2.89360728      -1.25407426
C       -0.03425832      -2.29243033       2.84372146
C        2.05683239       0.45327470      -2.25621100
C        0.17162531       3.50641596       0.22043673
C       -3.07010830       0.42597186      -1.06811174
C        0.07329792       3.63194688      -1.20910367
60
Properties=species:S:1:pos:R:3 trajectory=trial0001_proposal001_step003_proposal_relax trajectory_step=17 pbc="F F F"
C       -2.50042107      -2.11281757       0.69587561
C        2.24592670      -2.98301774       0.11978589
C        1.22205760      -0.03757977       2.42725149
C       -0.99304011       3.30606027      -2.09149482
C       -2.80217098       3.14208359      -0.29235141
C        2.74623998      -1.84911995       1.73728865
C       -3.02775869      -1.13971924       1.63630915
C       -1.47122382      -2.53769198       2.77637618
C        2.24539987       2.98610582      -0.75335376
C       -0.36368596       2.65048269      -3.22020538
C       -0.77655151       2.97731108       1.16125314
C        3.05850684       1.62157081       0.92501870
C       -2.30642101      -2.06380433      -0.73955494
C        1.32275063       3.24026600      -1.79980273
C        2.87838827       0.60299623      -1.11146994
C       -1.17422085      -0.32585524       2.89326812
C        3.11855863      -0.41491014      -0.07193425
C       -1.74478357       0.73633966      -2.94970742
C       -2.43031773       1.40283668      -1.89675583
C       -0.44075693      -3.50811025       0.99769869
C        0.48824763       0.65476019      -4.01816866
C       -0.78269934      -1.42769851      -3.28467015
C       -3.78002475       2.28797822       0.34939435
C       -3.45214747       0.20854835       1.37725981
C       -2.84297860       1.24534097       2.16389371
C       -1.49524872       1.01487950       2.54253026
C        0.40761374      -0.62306231      -3.46113196
C       -2.17693088      -1.31046842       2.80776135
C       -1.85995821      -0.65808031      -2.77008904
C        2.55118029      -0.51233344       2.20525941
C        0.85329009      -1.94821701      -1.70216926
C       -0.19440441      -3.41777261      -0.35190183
C       -3.16759959       2.51882295       1.64006767
C        1.06305311       2.61548800      -3.01937762
C        0.11430121      -0.88531151       2.73469857
C       -0.41049605      -2.34768081      -2.29205236
C       -3.70640615       0.85605556       0.11746438
C       -2.14359326       3.28137259       0.98616964
C       -0.45687795       1.82788453       1.98168020
C        0.89054591       1.32306085       2.02316423
C       -1.67209450      -2.99288200       1.45376181
C       -2.59964826      -0.89703917      -1.53344889
C        3.17658269       0.26092819       1.16355426
C        1.91086687      -2.99064818       1.53575551
C        1.12681332      -2.96158344      -0.73923294
C        1.19404626      -0.68696873      -2.28574673
C        1.51716896       3.20025774       0.49525660
C        3.06272182      -1.80053076       0.29372318
C        1.84327278       2.15744713       1.39216555
C       -0.72707158       1.36677770      -3.68599448
C        3.08704303       1.86375863      -0.51386136
C        0.59011821      -3.19450113       1.94921985
C        1.61524898       1.34999930      -3.35852723
C       -2.17594944       2.73446036      -1.50864927
C       -1.21023211      -2.89206621      -1.25332485
C       -0.03428396      -2.29287597       2.84355992
C        2.05649531       0.45368374      -2.25639321
C        0.17093335       3.50739658       0.22043429
C       -3.06987155       0.42587595      -1.06759782
C        0.07306617       3.63179974      -1.20972592
60
Properties=species:S:1:pos:R:3 trajectory=trial0001_proposal001_step003_proposal_relax trajectory_step=18 pbc="F F F"
C       -2.50273678      -2.11532556       0.69747718
C        2.24456691      -2.98207281       0.12020415
C        1.22323032      -0.03759047       2.42676732
C       -0.99266910       3.30604369      -2.09352706
C       -2.80320450       3.14279492      -0.29255712
C        2.74741930      -1.84966720       1.73813803
C       -3.02811905      -1.14072568       1.63690513
C       -1.47210119      -2.53876518       2.77867470
C        2.24501335       2.98863301      -0.75302509
C       -0.36169481       2.64923715      -3.22105970
C       -0.77692759       2.97573475       1.15971734
C        3.05654015       1.62180275       0.92213001
C       -2.30770540      -2.06457968      -0.73829568
C        1.32228074       3.23918320      -1.79965732
C        2.88015799       0.60340306      -1.11427782
C       -1.17314633      -0.32730491       2.88997781
C        3.11731697      -0.41522654      -0.07271052
C       -1.74517147       0.73650844      -2.94973694
C       -2.43097278       1.40350907      -1.89648799
C       -0.44266764      -3.50921480       0.99926145
C        0.48870361       0.65404133      -4.01991983
C       -0.78189871      -1.42689898      -3.28446333
C       -3.77987842       2.28776363       0.35079896
C       -3.45259639       0.20754083       1.37820144
C       -2.84183769       1.24396151       2.16456353
C       -1.49366277       1.01345543       2.54112808
C        0.40819896      -0.62265826      -3.46017263
C       -2.17704593      -1.31095924       2.80857073
C       -1.85885888      -0.65770154      -2.76834239
C        2.55204879      -0.51201406       2.20408611
C        0.85391840      -1.94685119      -1.70156424
C       -0.19575828      -3.41524806      -0.35055462
C       -3.16725420       2.51747224       1.64166077
C        1.06514456       2.61526073      -3.02077439
C        0.11520646      -0.88664705       2.73298476
C       -0.40991249      -2.34598149      -2.29144913
C       -3.70618498       0.85575654       0.11862487
C       -2.14408443       3.27988616       0.98632861
C       -0.45545558       1.82790756       1.98203948
C        0.89158615       1.32337187       2.02202811
C       -1.67405453      -2.99504452       1.45608565
C       -2.59875574      -0.89674160      -1.53169108
C        3.17690347       0.26126714       1.16209198
C        1.91057632      -2.99096854       1.53601099
C        1.12554729      -2.96059779      -0.73788647
C        1.19415674      -0.68543578      -2.28476572
C        1.51639443       3.20421001       0.49652516
C        3.06219446      -1.80034307       0.29393669
C        1.84327835       2.15925327       1.39145699
C       -0.72610796       1.36583077      -3.68583056
C        3.08415399       1.86420081      -0.51541635
C        0.58971024      -3.19632200       1.94969189
C        1.61676228       1.34967574      -3.36085321
C       -2.17634779       2.73564135      -1.50936058
C       -1.20954410      -2.88885680      -1.25176597
C       -0.03457175      -2.29391900       2.84306863
C        2.05697029       0.45433520      -2.25785185
C        0.16988229       3.50865125       0.22013496
C       -3.06914402       0.42616238      -1.06626659
C        0.07277766       3.63144890      -1.21080125
60
Properties=species:S:1:pos:R:3 trajectory=trial0001_proposal001_step003_proposal_relax trajectory_step=19 pbc="F F F"
C       -2.50452982      -2.11722594       0.69865398
C        2.24399091      -2.98124643       0.12158667
C        1.22390880      -0.03778219       2.42614015
C       -0.99262021       3.30566919      -2.09443656
C       -2.80344089       3.14291086      -0.29197969
C        2.74811603      -1.85021548       1.73828749
C       -3.02876406      -1.14145544       1.63787749
C       -1.47242597      -2.53951968       2.77994259
C        2.24392323       2.98994965      -0.75315727
C       -0.36089648       2.64894224      -3.22150892
C       -0.77703514       2.97474635       1.15917432
C        3.05528124       1.62156234       0.92059391
C       -2.30882549      -2.06495553      -0.73723206
C        1.32202676       3.23832283      -1.79974444
C        2.88062894       0.60392583      -1.11552357
C       -1.17207425      -0.32832741       2.88801281
C        3.11726688      -0.41478611      -0.07443743
C       -1.74476185       0.73658595      -2.94923704
C       -2.43144305       1.40397799      -1.89646901
C       -0.44285680      -3.50997735       0.99856294
C        0.48946029       0.65312415      -4.02049267
C       -0.78198914      -1.42668602      -3.28414114
C       -3.77961858       2.28738968       0.35162469
C       -3.45254283       0.20695215       1.37930329
C       -2.84122532       1.24305936       2.16494497
C       -1.49243381       1.01273053       2.53974320
C        0.40825949      -0.62203303      -3.46028549
C       -2.17680921      -1.31117743       2.80858879
C       -1.85824301      -0.65722146      -2.76751130
C        2.55294265      -0.51182445       2.20343605
C        0.85429662      -1.94584005      -1.70063622
C       -0.19630988      -3.41353494      -0.34833231
C       -3.16686058       2.51704058       1.64235584
C        1.06624056       2.61471634      -3.02127778
C        0.11602152      -0.88730699       2.73168456
C       -0.40909846      -2.34512988      -2.29080363
C       -3.70631076       0.85557974       0.11953328
C       -2.14441945       3.27879721       0.98649191
C       -0.45468968       1.82777661       1.98154760
C        0.89243968       1.32373804       2.02208180
C       -1.67525670      -2.99587504       1.45792726
C       -2.59828049      -0.89649007      -1.53025388
C        3.17604790       0.26167400       1.16053761
C        1.91063650      -2.99109582       1.53622974
C        1.12436695      -2.95913349      -0.73805279
C        1.19440766      -0.68475700      -2.28485828
C        1.51664135       3.20696673       0.49715498
C        3.06116229      -1.80093323       0.29392839
C        1.84244060       2.16096178       1.39071822
C       -0.72524515       1.36532367      -3.68590447
C        3.08298371       1.86460260      -0.51626079
C        0.58915519      -3.19761071       1.95070995
C        1.61756749       1.34924655      -3.36216336
C       -2.17685249       2.73590803      -1.51002052
C       -1.20926137      -2.88660797      -1.25086734
C       -0.03459327      -2.29474638       2.84319994
C        2.05730010       0.45463076      -2.25912943
C        0.16923346       3.50941970       0.21922033
C       -3.06874171       0.42634510      -1.06518402
C        0.07227831       3.63120195      -1.21168726
60
Properties=species:S:1:pos:R:3 trajectory=trial0001_proposal001_step003_proposal_relax trajectory_step=20 pbc="F F F"
C       -2.50602408      -2.11870084       0.69985665
C        2.24260469      -2.98088490       0.12164296
C        1.22458537      -0.03785773       2.42544210
C       -0.99272025       3.30545619      -2.09503176
C       -2.80362636       3.14287384      -0.29187327
C        2.74861048      -1.85043759       1.73833248
C       -3.02927230      -1.14213280       1.63868462
C       -1.47267315      -2.54013536       2.78094716
C        2.24367337       2.99048122      -0.75316064
C       -0.36018160       2.64845131      -3.22208861
C       -0.77682216       2.97417106       1.15842114
C        3.05410415       1.62171412       0.91966235
C       -2.30956848      -2.06529889      -0.73626661
C        1.32179491       3.23780220      -1.79953887
C        2.88085467       0.60421691      -1.11711617
C       -1.17156740      -0.32889518       2.88648725
C        3.11730677      -0.41519471      -0.07525670
C       -1.74442057       0.73696455      -2.94888998
C       -2.43186487       1.40407855      -1.89654388
C       -0.44362218      -3.51064279       0.99993552
C        0.48991237       0.65304713      -4.02108506
C       -0.78165678      -1.42635030      -3.28397584
C       -3.77940923       2.28713101       0.35225207
C       -3.45262129       0.20647143       1.38000759
C       -2.84048927       1.24235652       2.16531234
C       -1.49170258       1.01197147       2.53870516
C        0.40810147      -0.62232542      -3.46006754
C       -2.17655658      -1.31140364       2.80877602
C       -1.85791670      -0.65696893      -2.76659767
C        2.55325413      -0.51163343       2.20297933
C        0.85426279      -1.94459921      -1.69997018
C       -0.19667884      -3.41193290      -0.34813663
C       -3.16674457       2.51648410       1.64289703
C        1.06687063       2.61414364      -3.02196566
C        0.11664131      -0.88802993       2.73059300
C       -0.40877594      -2.34436098      -2.29001913
C       -3.70637425       0.85527374       0.12031918
C       -2.14446508       3.27805290       0.98666623
C       -0.45413043       1.82753253       1.98111688
C        0.89295206       1.32418554       2.02192651
C       -1.67571109      -2.99707327       1.45896403
C       -2.59785631      -0.89600620      -1.52912663
C        3.17555097       0.26201325       1.15901900
C        1.91029615      -2.99112079       1.53689853
C        1.12427983      -2.95818518      -0.73707199
C        1.19478062      -0.68405242      -2.28525381
C        1.51631206       3.20940954       0.49704129
C        3.06080972      -1.80035041       0.29381092
C        1.84235682       2.16172195       1.39024829
C       -0.72455501       1.36509127      -3.68594377
C        3.08202538       1.86556506      -0.51688760
C        0.58900531      -3.19894925       1.95106442
C        1.61809277       1.34887845      -3.36315257
C       -2.17722030       2.73638113      -1.51030512
C       -1.20887718      -2.88497387      -1.24994071
C       -0.03467968      -2.29535231       2.84321776
C        2.05776167       0.45483570      -2.25992314
C        0.16888487       3.50981880       0.21881276
C       -3.06840303       0.42651531      -1.06429412
C        0.07207144       3.63104175      -1.21235083
