60
Properties=species:S:1:pos:R:3 trajectory=trial0001_proposal001_step006_proposal_relax trajectory_step=0 pbc="F F F"
C       -2.48624071      -2.16389223       0.77092638
C        2.24589317      -2.97985288       0.10170273
C        1.17951845       0.00991776       2.27936086
C       -0.98551755       3.27401252      -2.16611055
C       -2.66765693       3.18668477      -0.20022713
C        2.64693095      -1.81479451       1.77085970
C       -3.09666495      -1.23314063       1.76645367
C       -1.32572130      -2.57575293       2.76317419
C        2.23923877       3.11521429      -0.77946406
C       -0.35408333       2.52652812      -3.29026619
C       -0.69325036       3.07688919       1.23203369
C        3.01147466       1.63225703       0.87502215
C       -2.33393428      -2.12018898      -0.66397560
C        1.24710568       3.07636365      -1.79817355
C        2.50305449       0.73700850      -0.99918899
C       -1.12573340      -0.36645974       2.57308773
C        2.62553543      -0.33053949       0.04715308
C       -1.48229617       0.62276892      -2.75390264
C       -2.18697257       1.33918644      -1.73120738
C       -0.38913717      -3.66491695       0.95686967
C        0.59342936       0.46700608      -4.24014196
C       -0.69172356      -1.49844689      -3.37940837
C       -3.63716953       2.30402791       0.41677191
C       -3.57160261       0.16146970       1.54189915
C       -2.81919075       1.25374152       2.20272584
C       -1.46951326       0.99246453       2.37341508
C        0.56735015      -0.66643695      -3.35730218
C       -2.08653543      -1.36012459       2.80508742
C       -1.73424129      -0.73987127      -2.63655906
C        2.49157742      -0.51025876       2.38925578
C        0.73217967      -1.69543267      -1.43185281
C       -0.18584613      -3.36673960      -0.36641326
C       -3.06642777       2.56216743       1.69291857
C        1.03175159       2.46760854      -3.06303482
C        0.11485515      -0.88240896       2.11969870
C       -0.40345574      -2.28702141      -2.25231748
C       -3.58317994       0.83042455       0.22992964
C       -2.05060467       3.40795639       1.10228952
C       -0.47590340       1.85267447       1.94058604
C        0.82942988       1.36364332       1.98041200
C       -1.57827342      -3.01992010       1.44980807
C       -2.54078840      -0.93615909      -1.42101579
C        2.88156476       0.22526867       1.24676879
C        2.02042566      -3.10632593       1.54557562
C        1.09740055      -2.83998340      -0.71359372
C        0.94405381      -0.29920606      -2.06899609
C        1.51587206       3.41882420       0.46849010
C        2.77387416      -1.65325440       0.35120495
C        1.60759507       2.05183373       1.07498000
C       -0.63075493       1.18770955      -3.69425098
C        2.79889454       1.89939444      -0.49658565
C        0.68843182      -3.36499431       1.90590290
C        1.70461457       1.33361815      -3.60983174
C       -2.06155615       2.69877852      -1.41701216
C       -1.20457750      -2.87294838      -1.25641634
C        0.08862781      -2.24420616       2.48267107
C        2.05045799       0.62773018      -2.29534207
C        0.15233348       3.62915397       0.18160843
C       -2.87673506       0.38689792      -0.91041463
C        0.05238752       3.51433475      -1.23743208
60
Properties=species:S:1:pos:R:3 trajectory=trial0001_proposal001_step006_proposal_relax trajectory_step=1 pbc="F F F"
C       -2.48292001      -2.16395453       0.76771514
C        2.25320499      -2.97770680       0.10770747
C        1.16756778       0.00304110       2.28538094
C       -0.98929875       3.27093097      -2.16567253
C       -2.66628198       3.18363999      -0.20536052
C        2.64596314      -1.82549914       1.77355609
C       -3.09671008      -1.23319328       1.76563652
C       -1.32508213      -2.57359462       2.76010294
C        2.23176590       3.13355367      -0.79947581
C       -0.35904392       2.51919866      -3.29112321
C       -0.70255349       3.08962053       1.23475742
C        2.98147489       1.63005123       0.92330661
C       -2.32838211      -2.12006917      -0.66735769
C        1.24958880       3.07499539      -1.80781194
C        2.51211246       0.68673173      -1.02423677
C       -1.12794693      -0.36286157       2.57702131
C        2.62689312      -0.30960295       0.00909696
C       -1.49588475       0.62503086      -2.75730970
C       -2.19151760       1.33631103      -1.73239319
C       -0.39154810      -3.66808150       0.95483481
C        0.60236670       0.48163643      -4.22410626
C       -0.68690138      -1.50021324      -3.35695154
C       -3.63347546       2.29855724       0.41542238
C       -3.56767476       0.16222464       1.53704985
C       -2.82826343       1.25412590       2.20405038
C       -1.48247222       0.98375895       2.38614514
C        0.53664108      -0.65929625      -3.39470290
C       -2.08657409      -1.36195601       2.80756446
C       -1.72844311      -0.74079969      -2.64193374
C        2.49420036      -0.52305276       2.39373978
C        0.71637136      -1.64503577      -1.45144496
C       -0.18496834      -3.37669789      -0.36320652
C       -3.06932808       2.56216221       1.69351221
C        1.02873393       2.47009185      -3.06265199
C        0.10777485      -0.89070385       2.12776841
C       -0.39655502      -2.27340473      -2.24698909
C       -3.58317870       0.83357635       0.23242508
C       -2.05213154       3.40882629       1.10190084
C       -0.47224497       1.86410821       1.93861265
C        0.83975330       1.35462224       1.95753754
C       -1.57853725      -3.02579410       1.45126238
C       -2.53550545      -0.93749983      -1.42271559
C        2.89331865       0.28775664       1.24213742
C        2.02004689      -3.10731743       1.54223428
C        1.09959871      -2.84277600      -0.69886554
C        0.95712387      -0.33380032      -2.06409137
C        1.51853333       3.38815156       0.47609543
C        2.77667414      -1.68695970       0.35570714
C        1.65977440       2.09149782       1.11161924
C       -0.62279622       1.18656272      -3.70094667
C        2.83945709       1.91523380      -0.47933732
C        0.68881982      -3.36344918       1.90261772
C        1.71405331       1.33010295      -3.60313699
C       -2.06123541       2.70103937      -1.41764787
C       -1.21576272      -2.87981585      -1.24419564
C        0.08431557      -2.24507819       2.48536222
C        2.01930609       0.61166833      -2.32475681
C        0.14838422       3.62806379       0.18990221
C       -2.87988310       0.38736701      -0.90744507
C        0.04985261       3.51425743      -1.24770961
60
Properties=species:S:1:pos:R:3 trajectory=trial0001_proposal001_step006_proposal_relax trajectory_step=2 pbc="F F F"
C       -2.47828327      -2.16383166       0.76612755
C        2.25386459      -2.98843889       0.10737200
C        1.16393966      -0.00675724       2.28689057
C       -0.99326316       3.26645986      -2.16852238
C       -2.66580112       3.17998425      -0.20899548
C        2.64640591      -1.82890974       1.77457958
C       -3.09559564      -1.23398288       1.76347704
C       -1.32581532      -2.57302062       2.75622639
C        2.23929080       3.13539421      -0.80589960
C       -0.36317316       2.51248520      -3.29163451
C       -0.70763355       3.10365506       1.24170935
C        2.95683536       1.65856181       0.95544315
C       -2.32222816      -2.11990939      -0.66874818
C        1.24586930       3.07537170      -1.82123966
C        2.53581173       0.68579177      -1.04604955
C       -1.13405270      -0.36462710       2.58448911
C        2.63841309      -0.31556352       0.00225461
C       -1.50842570       0.62691535      -2.76946907
C       -2.19905303       1.33507991      -1.73380245
C       -0.39354133      -3.67417014       0.95818766
C        0.60965308       0.50311854      -4.21199678
C       -0.68841161      -1.49611460      -3.34251497
C       -3.62775029       2.29438281       0.41353827
C       -3.56394576       0.16200091       1.53148103
C       -2.83967996       1.25284771       2.20818396
C       -1.48822281       0.98794784       2.39961783
C        0.50334655      -0.65273493      -3.42573388
C       -2.08893172      -1.36414892       2.81033230
C       -1.72566563      -0.73965565      -2.64521711
C        2.49809493      -0.52579951       2.38202785
C        0.70065900      -1.61160383      -1.44996774
C       -0.18131181      -3.38505449      -0.36375053
C       -3.07382956       2.56337853       1.69318949
C        1.02606474       2.47248666      -3.06650761
C        0.09653852      -0.89788021       2.13947284
C       -0.39005839      -2.26410083      -2.22202360
C       -3.58304127       0.83542843       0.23383523
C       -2.06187508       3.41136797       1.09993975
C       -0.46945714       1.86645970       1.93861534
C        0.84188670       1.35118970       1.92638336
C       -1.58116962      -3.03254846       1.45188110
C       -2.52813220      -0.93721359      -1.42563463
C        2.90010473       0.30429473       1.23707837
C        2.01687440      -3.11440090       1.54516469
C        1.09250832      -2.82710798      -0.69632633
C        0.96682505      -0.36933230      -2.08494080
C        1.51189542       3.35859833       0.47293098
C        2.78683590      -1.68218822       0.35887659
C        1.70861498       2.13983413       1.17793222
C       -0.61970729       1.18235296      -3.70508507
C        2.88209938       1.90220457      -0.48126727
C        0.68732105      -3.36173970       1.89851168
C        1.72435662       1.32711866      -3.59501518
C       -2.06292863       2.70015568      -1.41899427
C       -1.21739293      -2.88724984      -1.23679034
C        0.08017685      -2.25130485       2.48898584
C        1.98858263       0.58921397      -2.34590796
C        0.15122499       3.62403756       0.19536708
C       -2.88270730       0.38582838      -0.90594440
C        0.04756114       3.51572561      -1.25391726
60
Properties=species:S:1:pos:R:3 trajectory=trial0001_proposal001_step006_proposal_relax trajectory_step=3 pbc="F F F"
C       -2.47089708      -2.16305402       0.76377035
C        2.25602991      -2.99250145       0.10466947
C        1.16142093      -0.01197716       2.27585242
C       -0.99879008       3.26008555      -2.17488363
C       -2.66749318       3.17519949      -0.21441687
C        2.64780126      -1.83500524       1.76910347
C       -3.09283887      -1.23610690       1.75787563
C       -1.33159572      -2.57758586       2.75167499
C        2.25550689       3.10542584      -0.80766147
C       -0.36843280       2.50426902      -3.29369944
C       -0.71483288       3.12389185       1.25849197
C        2.97520930       1.67312067       0.96425537
C       -2.31347608      -2.11968645      -0.66715777
C        1.25090453       3.07899620      -1.82670482
C        2.57540780       0.68465193      -1.07762521
C       -1.14751828      -0.36287459       2.60102548
C        2.66665852      -0.30679772      -0.00650735
C       -1.53051659       0.62909411      -2.79132907
C       -2.21217479       1.33349513      -1.74115369
C       -0.39477589      -3.68664163       0.95887005
C        0.61161803       0.53309941      -4.20888435
C       -0.70186733      -1.49934492      -3.32497454
C       -3.62071876       2.28951281       0.41007696
C       -3.55944569       0.15955780       1.52442653
C       -2.85036703       1.25271897       2.21909716
C       -1.49500322       0.99688023       2.42323124
C        0.46294949      -0.64705042      -3.45938019
C       -2.09898766      -1.37037430       2.81477984
C       -1.72848207      -0.73508533      -2.64680408
C        2.49820141      -0.52135650       2.36248017
C        0.67402539      -1.58907884      -1.41525593
C       -0.17752988      -3.39670453      -0.36014558
C       -3.08554469       2.56303397       1.69436779
C        1.02429117       2.47584947      -3.07926148
C        0.08544572      -0.90491725       2.16040574
C       -0.38758408      -2.24369939      -2.18777755
C       -3.58210526       0.83425497       0.23255526
C       -2.07362310       3.41796918       1.09808500
C       -0.46900578       1.86613906       1.93223938
C        0.83877778       1.34139186       1.89120687
C       -1.58749091      -3.04321100       1.45151076
C       -2.51657073      -0.93706290      -1.42747349
C        2.90918686       0.31805196       1.22977701
C        2.01633638      -3.12298265       1.54655067
C        1.08404335      -2.79341126      -0.68807443
C        0.97996719      -0.40176186      -2.14943999
C        1.50214400       3.32900057       0.44957976
C        2.80091453      -1.69300501       0.36155986
C        1.73145865       2.22447031       1.30616331
C       -0.62223028       1.18157874      -3.70960708
C        2.94319603       1.91001043      -0.48779268
C        0.68009748      -3.36190347       1.89447188
C        1.73271375       1.32678588      -3.58647626
C       -2.06781523       2.69442974      -1.42273718
C       -1.21319534      -2.89974100      -1.22835627
C        0.07231784      -2.26285480       2.49806954
C        1.96601359       0.56060972      -2.34154599
C        0.15843402       3.61044371       0.19665402
C       -2.88477292       0.38213678      -0.90871017
C        0.04518068       3.51990353      -1.26083526
60
Properties=species:S:1:pos:R:3 trajectory=trial0001_proposal001_step006_proposal_relax trajectory_step=4 pbc="F F F"
C       -2.46661990      -2.16215214       0.76171422
C        2.25277823      -2.99106417       0.09687415
C        1.15519169      -0.01327166       2.25254988
C       -0.99840931       3.25819799      -2.17833997
C       -2.67011214       3.17447020      -0.21651639
C        2.64890703      -1.83109637       1.76166089
C       -3.09202909      -1.23827210       1.75106995
C       -1.34367393      -2.58667396       2.75175506
C        2.24726559       3.07418609      -0.80413592
C       -0.36836483       2.50787135      -3.29388891
C       -0.71603892       3.13272178       1.27047638
C        2.97735915       1.69739301       0.95489892
C       -2.30791087      -2.12165001      -0.66393922
C        1.26183479       3.07565768      -1.83466316
C        2.61436128       0.70045851      -1.06227855
C       -1.15249158      -0.36548856       2.62003331
C        2.69877767      -0.31037245      -0.00900897
C       -1.54945810       0.63103027      -2.80580388
C       -2.22290510       1.33105791      -1.75505853
C       -0.39804203      -3.69717550       0.95985830
C        0.59912001       0.53534996      -4.22579083
C       -0.72140104      -1.51069327      -3.32345037
C       -3.62163346       2.28479631       0.40894932
C       -3.55601539       0.15731521       1.52346022
C       -2.85389352       1.25555379       2.22892377
C       -1.49646833       1.00360457       2.43961327
C        0.46108929      -0.64577334      -3.46767241
C       -2.10993646      -1.37645824       2.81748266
C       -1.74178245      -0.73548729      -2.64533325
C        2.49487172      -0.51463826       2.34847606
C        0.66093510      -1.56336070      -1.38547863
C       -0.17211316      -3.40082747      -0.35706692
C       -3.09396395       2.56310483       1.69580441
C        1.02987409       2.48549680      -3.07985293
C        0.08038051      -0.90348035       2.17973292
C       -0.40163509      -2.23171676      -2.16941692
C       -3.57960037       0.82912463       0.22778013
C       -2.07920828       3.42275186       1.10081576
C       -0.48313618       1.85645973       1.92295450
C        0.82437714       1.34037302       1.89858112
C       -1.59241054      -3.05188850       1.44844481
C       -2.51233915      -0.93732937      -1.42191426
C        2.91937064       0.31427250       1.21477956
C        2.01207990      -3.12801386       1.54425479
C        1.08106974      -2.77836706      -0.66419599
C        0.97911485      -0.42443571      -2.18476129
C        1.51220278       3.32101028       0.44674285
C        2.81593560      -1.68425563       0.35514949
C        1.78797288       2.25563078       1.34731662
C       -0.63572219       1.19050538      -3.71455078
C        2.97390871       1.89863454      -0.49229680
C        0.67923085      -3.36684888       1.89259818
C        1.72781811       1.32999342      -3.58426364
C       -2.07149789       2.68947357      -1.42867651
C       -1.21115008      -2.90666850      -1.22608174
C        0.06561434      -2.26544138       2.50836771
C        1.98240720       0.56825421      -2.33002900
C        0.15232565       3.59756053       0.18323609
C       -2.88466251       0.37860109      -0.91548479
C        0.04902165       3.52227213      -1.26619871
60
Properties=species:S:1:pos:R:3 trajectory=trial0001_proposal001_step006_proposal_relax trajectory_step=5 pbc="F F F"
C       -2.46615086      -2.16282782       0.76163416
C        2.25539672      -2.98853521       0.09870604
C        1.15446292      -0.01097414       2.24457129
C       -0.99625776       3.25921892      -2.17792419
C       -2.67086779       3.17396891      -0.21545177
C        2.64782260      -1.82929830       1.75755556
C       -3.09217488      -1.23834815       1.74985771
C       -1.34654166      -2.58969206       2.75244733
C        2.24386355       3.06408539      -0.80226338
C       -0.36626317       2.51224437      -3.29368635
C       -0.71563984       3.13117009       1.26809787
C        2.98958321       1.68755102       0.94733542
C       -2.30845215      -2.12242060      -0.66268252
C        1.26187113       3.07570191      -1.83327066
C        2.61799841       0.70127844      -1.06224704
C       -1.15380473      -0.36659288       2.62743777
C        2.71087394      -0.31500574      -0.00566541
C       -1.55217062       0.62948487      -2.81006252
C       -2.22673665       1.33203524      -1.75914546
C       -0.39915287      -3.69921552       0.96156140
C        0.59486063       0.53162876      -4.23078365
C       -0.72327188      -1.51133609      -3.32779925
C       -3.62293516       2.28392414       0.40897266
C       -3.55477325       0.15764580       1.52365550
C       -2.85443451       1.25589436       2.23060011
C       -1.49837197       1.00112851       2.44259616
C        0.46322929      -0.65180190      -3.46470972
C       -2.11184690      -1.37797508       2.81740574
C       -1.74675031      -0.73756679      -2.64661748
C        2.49277115      -0.51029666       2.34293271
C        0.65860804      -1.56292973      -1.37825743
C       -0.17189090      -3.39953064      -0.35631206
C       -3.09407158       2.56338100       1.69544292
C        1.03122931       2.48505489      -3.08376650
C        0.07760286      -0.90440247       2.18428349
C       -0.40672520      -2.23022633      -2.16719064
C       -3.57832349       0.82779008       0.22766210
C       -2.08064328       3.42303948       1.10232779
C       -0.48417786       1.85341467       1.91984784
C        0.83512126       1.35169212       1.90398342
C       -1.59331398      -3.05306185       1.44812579
C       -2.51409528      -0.93770970      -1.41908508
C        2.92287827       0.31499825       1.21497931
C        2.01257092      -3.12471853       1.54141410
C        1.07527834      -2.77260506      -0.66297435
C        0.98964652      -0.41141350      -2.17685825
C        1.51284708       3.32765550       0.44902612
C        2.82050171      -1.68012650       0.35104468
C        1.77624345       2.24644660       1.34306699
C       -0.64142713       1.19392629      -3.71648101
C        2.97299026       1.90261809      -0.49155116
C        0.67675867      -3.36666774       1.89576955
C        1.72180134       1.33180789      -3.58552775
C       -2.07193549       2.68980872      -1.43061160
C       -1.21128995      -2.90769350      -1.22557718
C        0.06410870      -2.26822801       2.50978155
C        1.99015062       0.57219976      -2.32479917
C        0.15769758       3.59162832       0.18294937
C       -2.88526861       0.37779314      -0.91687127
C        0.05156161       3.52126740      -1.26869358
60
Properties=species:S:1:pos:R:3 trajectory=trial0001_proposal001_step006_proposal_relax trajectory_step=6 pbc="F F F"
C       -2.46511631      -2.16416575       0.76167128
C        2.25754922      -2.98258838       0.09819225
C        1.15249471      -0.00783219       2.23215568
C       -0.99382406       3.26027251      -2.17781591
C       -2.67189370       3.17196352      -0.21515983
C        2.64631053      -1.82599157       1.75100096
C       -3.09171379      -1.23855265       1.74795248
C       -1.35152729      -2.59446757       2.75333558
C        2.23756140       3.05174703      -0.79937476
C       -0.36544361       2.51617018      -3.29557245
C       -0.71653371       3.12764845       1.26440560
C        3.00067426       1.68154003       0.94367477
C       -2.30911966      -2.12380103      -0.66032944
C        1.26334722       3.07393992      -1.83410131
C        2.63087622       0.69986066      -1.06271743
C       -1.15768369      -0.36875935       2.64226245
C        2.73401273      -0.31334541      -0.00813213
C       -1.56028908       0.62771270      -2.81796102
C       -2.23458051       1.33301317      -1.76704911
C       -0.40053107      -3.70361585       0.96332293
C        0.58796367       0.52754216      -4.23401382
C       -0.72443898      -1.51346043      -3.32867030
C       -3.62393412       2.28185524       0.40849328
C       -3.55227165       0.15792181       1.52283254
C       -2.85703419       1.25634482       2.23398214
C       -1.49984493       0.99885626       2.44876569
C        0.46603397      -0.65563752      -3.45978264
C       -2.11594930      -1.38203140       2.81810730
C       -1.75385952      -0.74015748      -2.65038358
C        2.48848102      -0.50445799       2.33261447
C        0.65260494      -1.55399422      -1.36793660
C       -0.17345225      -3.39936296      -0.35267781
C       -3.09543571       2.56265979       1.69544235
C        1.03188614       2.48628116      -3.08986647
C        0.07364582      -0.90481994       2.19368722
C       -0.41229733      -2.22210437      -2.16351362
C       -3.57619179       0.82630707       0.22807606
C       -2.08236338       3.42425894       1.10389885
C       -0.48366699       1.84986348       1.91562071
C        0.84374625       1.36223039       1.91075481
C       -1.59577962      -3.05626467       1.44811654
C       -2.51625306      -0.93875535      -1.41613812
C        2.93207827       0.31511280       1.21430499
C        2.01073010      -3.11868146       1.53854118
C        1.07000052      -2.76048548      -0.65758222
C        0.99957847      -0.40032789      -2.16770206
C        1.51636633       3.33045012       0.45318479
C        2.82988907      -1.68225920       0.34593361
C        1.77374118       2.23937120       1.33703870
C       -0.64830946       1.19907655      -3.72102231
C        2.97852479       1.90369945      -0.49171753
C        0.67501491      -3.36717934       1.89917542
C        1.71381658       1.33201763      -3.58779742
C       -2.07314652       2.69073648      -1.43353968
C       -1.21383475      -2.91072825      -1.22286283
C        0.05945645      -2.27203239       2.51387803
C        1.99918967       0.57736769      -2.32167206
C        0.16284907       3.58318604       0.18232191
C       -2.88716605       0.37712029      -0.91890270
C        0.05563296       3.52001503      -1.27054337
60
Properties=species:S:1:pos:R:3 trajectory=trial0001_proposal001_step006_proposal_relax trajectory_step=7 pbc="F F F"
C       -2.46446131      -2.16654891       0.76311264
C        2.25652459      -2.97455261       0.09377028
C        1.14647157      -0.00518983       2.21605058
C       -0.99095915       3.26083988      -2.17757289
C       -2.67290228       3.16766412      -0.21590892
C        2.64399039      -1.82048901       1.74164366
C       -3.08996005      -1.23914999       1.74506588
C       -1.35970000      -2.60220648       2.75449253
C        2.23184400       3.03587933      -0.79674421
C       -0.36777587       2.52029428      -3.30061918
C       -0.71847799       3.11881651       1.25677412
C        3.01594911       1.67739973       0.94314410
C       -2.31088566      -2.12552733      -0.65708413
C        1.26604745       3.06915974      -1.83745446
C        2.65950723       0.69546943      -1.07096783
C       -1.16353271      -0.37126271       2.66885487
C        2.77659962      -0.31467733      -0.01597423
C       -1.57630972       0.62726406      -2.83333723
C       -2.24959951       1.33441490      -1.78064436
C       -0.40269968      -3.71154139       0.96859719
C        0.57778733       0.52321992      -4.23129263
C       -0.72212900      -1.51297835      -3.32646495
C       -3.62379989       2.27817461       0.40778914
C       -3.54759294       0.15740028       1.52096277
C       -2.85958668       1.25607311       2.24041500
C       -1.50164290       0.99764930       2.45969718
C        0.46904333      -0.65493684      -3.44939261
C       -2.12418836      -1.38969972       2.82133360
C       -1.76464544      -0.74359671      -2.65796874
C        2.48083877      -0.49864137       2.31414753
C        0.64068099      -1.53353761      -1.35040897
C       -0.17506825      -3.39706509      -0.34891108
C       -3.09801497       2.56111627       1.69535209
C        1.03102883       2.48953957      -3.10004109
C        0.06662231      -0.90477871       2.21250533
C       -0.41903643      -2.20898419      -2.14892697
C       -3.57282858       0.82493201       0.22856678
C       -2.08531320       3.42539253       1.10454593
C       -0.48343680       1.84607347       1.91258425
C        0.85022655       1.36807820       1.91658904
C       -1.60030916      -3.06411634       1.44945457
C       -2.51970855      -0.94014222      -1.41479057
C        2.95334077       0.31756470       1.21029634
C        2.00462432      -3.10710335       1.53536974
C        1.06070997      -2.73888103      -0.64672463
C        1.00604653      -0.38667743      -2.15563339
C        1.52200823       3.32771776       0.45643677
C        2.85130459      -1.68222487       0.33706266
C        1.77817461       2.23356652       1.33017882
C       -0.65860955       1.20306419      -3.72900618
C        2.99368389       1.90632414      -0.49133193
C        0.67270357      -3.36799398       1.90341667
C        1.70380186       1.32965933      -3.59230202
C       -2.07575466       2.69188894      -1.43909433
C       -1.21708240      -2.91393611      -1.21977652
C        0.05079794      -2.27614881       2.52194685
C        2.00979251       0.58246348      -2.32201569
C        0.16709642       3.57197701       0.18276211
C       -2.89145439       0.37647966      -0.92289646
C        0.06078933       3.51731380      -1.27142689
60
Properties=species:S:1:pos:R:3 trajectory=trial0001_proposal001_step006_proposal_relax trajectory_step=8 pbc="F F F"
C       -2.46488553      -2.17476208       0.76578306
C        2.25410402      -2.94820597       0.08813001
C        1.13355589      -0.01034541       2.19208893
C       -0.98717906       3.25778095      -2.17627692
C       -2.67375757       3.15695558      -0.22102939
C        2.64135597      -1.80994349       1.71855650
C       -3.08369078      -1.24104177       1.74034044
C       -1.37839230      -2.61725860       2.75918020
C        2.22825059       3.01114288      -0.79934491
C       -0.37684393       2.52565411      -3.31432842
C       -0.72595200       3.09166761       1.23678798
C        3.04796112       1.68082355       0.93859834
C       -2.31856833      -2.12628396      -0.65156658
C        1.27002488       3.05556273      -1.84452394
C        2.74416607       0.69339668      -1.09314256
C       -1.17887227      -0.37481534       2.73272730
C        2.88564121      -0.31064653      -0.04144114
C       -1.62064102       0.62535074      -2.86915609
C       -2.28640601       1.33866536      -1.81432781
C       -0.40561856      -3.72787695       0.97024128
C        0.55748037       0.51715698      -4.21534626
C       -0.70811927      -1.51048069      -3.30384969
C       -3.62082425       2.26896009       0.40650565
C       -3.53392828       0.15544393       1.51801706
C       -2.86353183       1.25576276       2.25230507
C       -1.50396452       0.99555100       2.48822786
C        0.47095788      -0.64827193      -3.41607614
C       -2.14119570      -1.40340428       2.83452772
C       -1.78649397      -0.74580409      -2.67891295
C        2.46118135      -0.48588027       2.26664388
C        0.61127669      -1.48129072      -1.30491839
C       -0.18134240      -3.39028051      -0.33042667
C       -3.10109209       2.55578112       1.69711603
C        1.02650121       2.49374225      -3.12330477
C        0.04622296      -0.90553758       2.26535785
C       -0.42787320      -2.16857431      -2.12296662
C       -3.56578070       0.82133506       0.22797800
C       -2.08988475       3.42237512       1.10131061
C       -0.48483512       1.83754141       1.91598101
C        0.86012910       1.37455389       1.91288861
C       -1.61289081      -3.08611260       1.45454868
C       -2.53002794      -0.94303008      -1.41737326
C        3.01292754       0.31211420       1.19623196
C        1.98679727      -3.07425919       1.52056130
C        1.03710288      -2.68609084      -0.61931521
C        1.00408584      -0.34747831      -2.11782884
C        1.52811570       3.31439422       0.45499695
C        2.90858439      -1.69693525       0.31509811
C        1.78673422       2.20423718       1.31594753
C       -0.68183032       1.21135071      -3.74703297
C        3.03281548       1.89971519      -0.49753133
C        0.66323523      -3.36361000       1.91726699
C        1.68465140       1.32645997      -3.60323713
C       -2.08513399       2.69249232      -1.45367601
C       -1.22793488      -2.91750954      -1.20784549
C        0.03092053      -2.28523817       2.54280497
C        2.03280258       0.59159126      -2.32709729
C        0.17489098       3.55097924       0.18207064
C       -2.90397062       0.37551409      -0.93692562
C        0.06955903       3.50719852      -1.27181248
60
Properties=species:S:1:pos:R:3 trajectory=trial0001_proposal001_step006_proposal_relax trajectory_step=9 pbc="F F F"
C       -2.46781062      -2.18463361       0.77090385
C        2.24154150      -2.92255962       0.07568484
C        1.11643676      -0.01731223       2.17763500
C       -0.98565327       3.24916965      -2.17570012
C       -2.67563261       3.14419798      -0.22887221
C        2.64413129      -1.79983983       1.69670730
C       -3.07378761      -1.24255835       1.73820680
C       -1.39743881      -2.63017272       2.76289504
C        2.23605330       2.98741056      -0.80599331
C       -0.38745755       2.52882064      -3.32681898
C       -0.73399353       3.06085297       1.21675468
C        3.07756525       1.67550631       0.93447004
C       -2.32675886      -2.12539571      -0.64761880
C        1.27242130       3.03997742      -1.85568556
C        2.83856406       0.68527041      -1.13135471
C       -1.19554690      -0.37645915       2.79866830
C        3.00397443      -0.32039600      -0.06787036
C       -1.66663439       0.62985143      -2.90959088
C       -2.32708943       1.34082768      -1.84895116
C       -0.41169085      -3.74303875       0.98713972
C        0.53729117       0.51234386      -4.19223395
C       -0.69600352      -1.49633121      -3.28272177
C       -3.61519462       2.25891225       0.40552080
C       -3.51695071       0.15298253       1.51347627
C       -2.86450095       1.25410946       2.26335224
C       -1.50709034       0.99592750       2.52128025
C        0.47187064      -0.63080675      -3.37483415
C       -2.15921095      -1.41543355       2.85094319
C       -1.80962019      -0.74893732      -2.69877551
C        2.44475413      -0.47955606       2.20941755
C        0.58074771      -1.42515032      -1.25452854
C       -0.18720924      -3.37435790      -0.32402240
C       -3.10324331       2.54994000       1.69794425
C        1.01963645       2.49901631      -3.14150962
C        0.02850870      -0.90612729       2.32829573
C       -0.43392496      -2.13922569      -2.07467975
C       -3.55914590       0.81647572       0.22540374
C       -2.09349705       3.41368783       1.09374354
C       -0.48510156       1.83136296       1.92503469
C        0.85659300       1.35731415       1.90369983
C       -1.62795468      -3.11103034       1.45993909
C       -2.54195011      -0.94278548      -1.42667295
C        3.08119659       0.31472947       1.17736077
C        1.95933926      -3.04009463       1.50932282
C        1.01407766      -2.63150225      -0.58861310
C        0.99169335      -0.29845846      -2.07295346
C        1.53655976       3.28565496       0.45068994
C        2.97928427      -1.70161802       0.29069555
C        1.80139889       2.18021411       1.28569592
C       -0.70681135       1.21699701      -3.76372726
C        3.07325662       1.91050076      -0.50690410
C        0.65677386      -3.35808288       1.92526580
C        1.67035891       1.32218549      -3.61186614
C       -2.09792841       2.69187059      -1.47066483
C       -1.23255098      -2.91253991      -1.19931544
C        0.00678536      -2.29190279       2.56973585
C        2.05720297       0.60021798      -2.32801169
C        0.17571774       3.53161025       0.17991726
C       -2.92005369       0.37450812      -0.95437453
C        0.07427237       3.49414252      -1.27272985
60
Properties=species:S:1:pos:R:3 trajectory=trial0001_proposal001_step006_proposal_relax trajectory_step=10 pbc="F F F"
C       -2.47572960      -2.19770699       0.77565210
C        2.22352732      -2.88677591       0.06266912
C        1.09877855      -0.03456048       2.18116435
C       -0.98963497       3.22913389      -2.17574497
C       -2.67954236       3.12678944      -0.24310225
C        2.65879073      -1.79574137       1.67204554
C       -3.05705228      -1.24210151       1.73896619
C       -1.42049351      -2.63726315       2.76588401
C        2.24899515       2.97774167      -0.82678942
C       -0.40030048       2.52810454      -3.33598668
C       -0.74177713       3.02578384       1.19604180
C        3.10311263       1.67133386       0.91733140
C       -2.33667162      -2.11851127      -0.64567194
C        1.27635459       3.02612304      -1.86544138
C        2.95978806       0.68015798      -1.17858702
C       -1.21192669      -0.37391986       2.86836730
C        3.14115764      -0.33773556      -0.10321929
C       -1.72057945       0.63915422      -2.95400780
C       -2.37492141       1.34228816      -1.88619216
C       -0.41867937      -3.75226881       0.99929294
C        0.51824301       0.51393592      -4.15684691
C       -0.68392932      -1.47543316      -3.23874325
C       -3.60683121       2.24446398       0.40353755
C       -3.49115545       0.14959184       1.50488577
C       -2.86143759       1.25098608       2.27279702
C       -1.51113706       1.00090231       2.56345783
C        0.46629984      -0.59567823      -3.31585723
C       -2.17841415      -1.42366561       2.87276276
C       -1.83224754      -0.74540801      -2.72101359
C        2.43377140      -0.47754000       2.13130167
C        0.54927317      -1.35968698      -1.19741087
C       -0.19378936      -3.35525864      -0.30800993
C       -3.10433877       2.54180837       1.69787021
C        1.01206233       2.50163814      -3.15470384
C        0.01337925      -0.90787857       2.41551808
C       -0.43245849      -2.10459474      -2.02459803
C       -3.55363345       0.80889450       0.21848901
C       -2.09662587       3.39357232       1.07790021
C       -0.48760438       1.82599394       1.94593196
C        0.84555566       1.32410800       1.87429954
C       -1.64870156      -3.14039164       1.46972437
C       -2.55703235      -0.94186642      -1.44446834
C        3.16117524       0.31081838       1.15165372
C        1.92636123      -2.99899553       1.49247937
C        0.98745497      -2.57087386      -0.55318042
C        0.96086856      -0.23372232      -2.01229142
C        1.53774254       3.24031853       0.42811601
C        3.06494627      -1.71255073       0.26452232
C        1.81110059       2.13408810       1.24715091
C       -0.73291937       1.22303289      -3.77978687
C        3.12868448       1.91575546      -0.52760674
C        0.64341145      -3.34362120       1.93299210
C        1.66250976       1.31843647      -3.61192947
C       -2.11931689       2.68696101      -1.49383298
C       -1.23609509      -2.89709941      -1.18677991
C       -0.02102559      -2.29859515       2.60927663
C        2.08044186       0.60790927      -2.32468884
C        0.17264525       3.51066817       0.17574724
C       -2.94365182       0.37337349      -0.97942196
C        0.07379289       3.47585901      -1.27371013
60
Properties=species:S:1:pos:R:3 trajectory=trial0001_proposal001_step006_proposal_relax trajectory_step=11 pbc="F F F"
C       -2.49051944      -2.21689805       0.78167720
C        2.20106095      -2.83005467       0.04693069
C        1.08492704      -0.06283108       2.19553440
C       -0.99642078       3.19469237      -2.17387701
C       -2.68753886       3.09847969      -0.26672582
C        2.68946559      -1.79546932       1.63753258
C       -3.03013815      -1.23838975       1.73749010
C       -1.45440120      -2.64185609       2.76951626
C        2.27603140       2.96476502      -0.85839161
C       -0.41439236       2.52498773      -3.34396007
C       -0.75370522       2.97874490       1.16977844
C        3.13423385       1.66131211       0.88305954
C       -2.34788861      -2.10539046      -0.64400176
C        1.27879055       3.01562077      -1.88212326
C        3.13099172       0.67333860      -1.24584239
C       -1.23373232      -0.36761218       2.96264858
C        3.33310594      -0.36233323      -0.15372475
C       -1.79613474       0.65389918      -3.01387568
C       -2.44306804       1.34320665      -1.93724447
C       -0.43111925      -3.75833490       1.01800603
C        0.49318996       0.52204821      -4.10364225
C       -0.67044342      -1.43835968      -3.17034308
C       -3.59676377       2.22059980       0.39848829
C       -3.44792822       0.14572797       1.48942717
C       -2.85789663       1.24701112       2.28406366
C       -1.51386357       1.00937287       2.62436408
C        0.45024266      -0.54055212      -3.22396547
C       -2.20295397      -1.42794551       2.90280926
C       -1.86372295      -0.73512877      -2.75120159
C        2.42079926      -0.47582787       2.01676573
C        0.50897125      -1.27465382      -1.12075582
C       -0.20308889      -3.32754955      -0.28738210
C       -3.10674399       2.52742382       1.69720534
C        1.00552936       2.50587328      -3.16621141
C       -0.00193023      -0.91119299       2.55207247
C       -0.42486365      -2.05817390      -1.95550607
C       -3.54809572       0.79585813       0.20553337
C       -2.10103687       3.35852114       1.05054434
C       -0.49073955       1.82119824       1.97847409
C        0.82313133       1.27275028       1.82871031
C       -1.68187708      -3.18133037       1.48334001
C       -2.57862089      -0.93890896      -1.47226737
C        3.27063420       0.29894703       1.10935839
C        1.88160751      -2.94336110       1.46613378
C        0.94901525      -2.48627092      -0.50556024
C        0.91512815      -0.13746999      -1.92230597
C        1.53447554       3.16750869       0.39022152
C        3.18115100      -1.73766556       0.22758796
C        1.82071320       2.05868441       1.17810005
C       -0.76878994       1.23622457      -3.80009945
C        3.20879831       1.92507829      -0.56592202
C        0.62207164      -3.31579287       1.94334290
C        1.65315429       1.31436315      -3.60056333
C       -2.15489798       2.67700391      -1.52908001
C       -1.23821011      -2.87209940      -1.16443435
C       -0.05976265      -2.30989049       2.67368859
C        2.11165412       0.61842509      -2.30851706
C        0.16578463       3.47916320       0.16707771
C       -2.98075018       0.37030155      -1.01804920
C        0.06795064       3.45049317      -1.27570400
60
Properties=species:S:1:pos:R:3 trajectory=trial0001_proposal001_step006_proposal_relax trajectory_step=12 pbc="F F F"
C       -2.50618916      -2.23629615       0.78750411
C        2.17872437      -2.77201307       0.03138817
C        1.07248668      -0.09164667       2.21190858
C       -1.00360093       3.15879218      -2.17171837
C       -2.69618938       3.06930235      -0.29106823
C        2.72218754      -1.79627130       1.60291972
C       -3.00232197      -1.23395812       1.73563652
C       -1.48876019      -2.64527389       2.77295672
C        2.30366063       2.95255542      -0.89099083
C       -0.42764571       2.52175077      -3.35071224
C       -0.76564931       2.93208309       1.14386667
C        3.16489936       1.64957449       0.84609793
C       -2.35860714      -2.09152629      -0.64252253
C        1.28130799       3.00712052      -1.89865521
C        3.30228634       0.66662965      -1.31321427
C       -1.25505235      -0.36067539       3.05614282
C        3.52492338      -0.38788928      -0.20425156
C       -1.87147186       0.66925255      -3.07336832
C       -2.51151858       1.34387275      -1.98797842
C       -0.44404630      -3.76279384       1.03681681
C        0.46821406       0.53104480      -4.04961947
C       -0.65801309      -1.39989376      -3.10044419
C       -3.58710030       2.19600883       0.39301994
C       -3.40315570       0.14209176       1.47308263
C       -2.85410234       1.24292938       2.29508098
C       -1.51632266       1.01822767       2.68548819
C        0.43305563      -0.48370467      -3.13002783
C       -2.22716166      -1.43090850       2.93254718
C       -1.89514788      -0.72397298      -2.78117586
C        2.40901982      -0.47464137       1.90074918
C        0.46964588      -1.19108379      -1.04502361
C       -0.21231376      -3.29986476      -0.26656145
C       -3.10936403       2.51254877       1.69624678
C        0.99982615       2.51023285      -3.17642989
C       -0.01548802      -0.91458876       2.69161101
C       -0.41646152      -2.01238803      -1.88689195
C       -3.54298082       0.78226222       0.19184230
C       -2.10563478       3.32187626       1.02213852
C       -0.49380528       1.81691481       2.01165037
C        0.79985474       1.22055186       1.78240728
C       -1.71590480      -3.22212965       1.49718387
C       -2.60034713      -0.93573037      -1.50064626
C        3.37948164       0.28607891       1.06618872
C        1.83725463      -2.88805250       1.43944465
C        0.91054894      -2.40205266      -0.45825207
C        0.86904011      -0.03981532      -1.83083863
C        1.53031304       3.09318526       0.35058438
C        3.29667044      -1.76378702       0.19072869
C        1.82847194       1.98008926       1.10564309
C       -0.80462168       1.25033866      -3.81990566
C        3.28955498       1.93459081      -0.60588249
C        0.60013050      -3.28638687       1.95343827
C        1.64405379       1.31047330      -3.58664975
C       -2.19156984       2.66644238      -1.56501413
C       -1.23973999      -2.84610387      -1.14146870
C       -0.09854756      -2.32144704       2.74007392
C        2.14275554       0.62909951      -2.28970000
C        0.15851258       3.44705997       0.15797527
C       -3.01875048       0.36700224      -1.05734384
C        0.06127553       3.42519358      -1.27780247
60
Properties=species:S:1:pos:R:3 trajectory=trial0001_proposal001_step006_proposal_relax trajectory_step=13 pbc="F F F"
C       -2.52264704      -2.25593260       0.79336454
C        2.15593551      -2.71312103       0.01580330
C        1.06079737      -0.12124625       2.23083347
C       -1.01125289       3.12166441      -2.16938669
C       -2.70515717       3.03959313      -0.31604179
C        2.75649023      -1.79787130       1.56846799
C       -2.97377339      -1.22908838       1.73396033
C       -1.52315496      -2.64761975       2.77627429
C        2.33244349       2.94209355      -0.92469955
C       -0.44067286       2.51808522      -3.35672029
C       -0.77754836       2.88516459       1.11800053
C        3.19439155       1.63690085       0.80774169
C       -2.36927564      -2.07699578      -0.64137729
C        1.28355560       2.99953265      -1.91525267
C        3.47399882       0.65976624      -1.38135922
C       -1.27597388      -0.35319313       3.14876335
C        3.71652766      -0.41448322      -0.25505082
C       -1.94652367       0.68524483      -3.13244534
C       -2.58007215       1.34433446      -2.03828293
C       -0.45727001      -3.76596035       1.05598906
C        0.44364026       0.54065177      -3.99427254
C       -0.64577200      -1.35992814      -3.02915466
C       -3.57743282       2.17103074       0.38737354
C       -3.35737716       0.13853533       1.45623378
C       -2.84983610       1.23868344       2.30558680
C       -1.51854258       1.02745053       2.74671698
C        0.41527203      -0.42499243      -3.03401091
C       -2.25098488      -1.43283922       2.96240750
C       -1.92618213      -0.71213671      -2.81102186
C        2.39814361      -0.47431161       1.78364175
C        0.43114347      -1.10824402      -0.97015824
C       -0.22158461      -3.27161619      -0.24593610
C       -3.11180734       2.49734496       1.69511151
C        0.99433906       2.51445570      -3.18536322
C       -0.02787203      -0.91799377       2.83307948
C       -0.40698278      -1.96750215      -1.81820117
C       -3.53818914       0.76837831       0.17764431
C       -2.11002865       3.28377679       0.99273732
C       -0.49674131       1.81319038       2.04598535
C        0.77510736       1.16623529       1.73487203
C       -1.75044884      -3.26289295       1.51131144
C       -2.62237598      -0.93226981      -1.52996944
C        3.48839884       0.27262772       1.02233797
C        1.79262459      -2.83266451       1.41260235
C        0.87222140      -2.31844753      -0.41121550
C        0.82124801       0.05936679      -1.73736582
C        1.52545507       3.01712280       0.30953770
C        3.41229397      -1.79042653       0.15396501
C        1.83522676       1.89883464       1.02950905
C       -0.84013988       1.26456801      -3.83922298
C        3.37029270       1.94454042      -0.64706258
C        0.57789617      -3.25583317       1.96316375
C        1.63571298       1.30659699      -3.57123413
C       -2.22906878       2.65546688      -1.60138156
C       -1.24074924      -2.81877189      -1.11826583
C       -0.13737939      -2.33283683       2.80771915
C        2.17353900       0.63979933      -2.26974358
C        0.15046201       3.41518582       0.14865394
C       -3.05748988       0.36367137      -1.09718946
C        0.05371992       3.39960591      -1.27979812
60
Properties=species:S:1:pos:R:3 trajectory=trial0001_proposal001_step006_proposal_relax trajectory_step=14 pbc="F F F"
C       -2.54306812      -2.27657998       0.79946828
C        2.12964138      -2.65134675      -0.00023579
C        1.05264305      -0.15647269       2.26544222
C       -1.02246692       3.07700469      -2.16681822
C       -2.71539241       3.00755164      -0.34510614
C        2.79909689      -1.80466645       1.53434331
C       -2.94097432      -1.22267170       1.73463794
C       -1.55669122      -2.64417583       2.77949988
C        2.37035260       2.94285932      -0.96557042
C       -0.45396748       2.51057119      -3.35899183
C       -0.78889252       2.83656367       1.09415185
C        3.21661437       1.62193302       0.76212469
C       -2.38048667      -2.05837717      -0.64262688
C        1.28322320       2.99566434      -1.93230502
C        3.65245625       0.65315471      -1.45474678
C       -1.29550091      -0.34279202       3.23585708
C        3.90677155      -0.44576592      -0.30823591
C       -2.02017911       0.70423096      -3.18977597
C       -2.64956580       1.34393829      -2.08595573
C       -0.47162065      -3.76209443       1.07603316
C        0.42256157       0.55583282      -3.93052627
C       -0.63486784      -1.31140274      -2.94807515
C       -3.56683135       2.14464502       0.38105515
C       -3.30638232       0.13495017       1.43722673
C       -2.84281289       1.23326592       2.31249661
C       -1.52007898       1.03954601       2.80988646
C        0.39224165      -0.35443107      -2.92743622
C       -2.27278423      -1.42902582       2.99419969
C       -1.95305689      -0.69628092      -2.83990685
C        2.39240168      -0.47957727       1.66266176
C        0.39506124      -1.02694677      -0.89709206
C       -0.23103892      -3.23943147      -0.22507630
C       -3.11307204       2.48089298       1.69339473
C        0.98874555       2.51649742      -3.18735815
C       -0.03602753      -0.92221891       2.98342946
C       -0.39025284      -1.92602975      -1.74797497
C       -3.53461864       0.75278855       0.16045017
C       -2.11261983       3.23710252       0.95731263
C       -0.49929775       1.81231632       2.08703563
C        0.73999503       1.09553439       1.67690522
C       -1.78727593      -3.30340972       1.52731798
C       -2.64599674      -0.92692482      -1.56553505
C        3.60039288       0.25633846       0.97286503
C        1.74520426      -2.77692521       1.38517856
C        0.83481106      -2.23754115      -0.36507424
C        0.75959190       0.16557634      -1.63480138
C        1.51525859       2.92932216       0.25705338
C        3.53121276      -1.81941881       0.11784890
C        1.83833728       1.80693481       0.94148014
C       -0.87281733       1.27721952      -3.85540140
C        3.45296083       1.95662760      -0.69533481
C        0.55322729      -3.21889169       1.97092026
C        1.63424631       1.30331554      -3.54812267
C       -2.27092412       2.64176755      -1.64004430
C       -1.23886001      -2.78313131      -1.09326091
C       -0.17654991      -2.34348754       2.88098229
C        2.20044332       0.64927713      -2.24763877
C        0.13825302       3.38508881       0.13786051
C       -3.10045908       0.36025128      -1.14018996
C        0.04025559       3.37173498      -1.28169659
60
Properties=species:S:1:pos:R:3 trajectory=trial0001_proposal001_step006_proposal_relax trajectory_step=15 pbc="F F F"
C       -2.55345514      -2.26983649       0.79973012
C        2.12438116      -2.66629557       0.00569914
C        1.08378475      -0.16575833       2.30798165
C       -1.03497060       3.05902051      -2.16731365
C       -2.72031629       3.00895976      -0.35295388
C        2.82812157      -1.83345386       1.54685579
C       -2.93764610      -1.21999510       1.74489607
C       -1.54681912      -2.62470209       2.78247935
C        2.39317240       2.98074023      -0.98212942
C       -0.44865335       2.49437237      -3.34109914
C       -0.77502308       2.84819072       1.11981316
C        3.18038160       1.61350911       0.73030028
C       -2.38142969      -2.04511344      -0.65093091
C        1.26746486       3.01105156      -1.93046314
C        3.64567241       0.65481751      -1.44615802
C       -1.28253554      -0.33567862       3.19729958
C        3.86025261      -0.45341718      -0.31073938
C       -1.99298668       0.70538495      -3.16608274
C       -2.63796597       1.34111212      -2.07125431
C       -0.47589381      -3.73284444       1.07329940
C        0.44761048       0.57368861      -3.92679336
C       -0.64593954      -1.28726412      -2.93463297
C       -3.56942661       2.14388355       0.37802421
C       -3.30124674       0.13364318       1.43519310
C       -2.83461018       1.23155875       2.29107127
C       -1.51658295       1.04916321       2.81048545
C        0.37190287      -0.32415341      -2.90334717
C       -2.25837384      -1.40709608       2.99462874
C       -1.93489019      -0.67961433      -2.82171052
C        2.40918448      -0.49663752       1.68265979
C        0.41203364      -1.04617303      -0.90432992
C       -0.23137459      -3.22563409      -0.22427854
C       -3.10608067       2.47998318       1.68659595
C        0.98810717       2.49991669      -3.15659587
C       -0.02930349      -0.92933371       2.99081542
C       -0.35939558      -1.94252726      -1.76574273
C       -3.53981533       0.74673041       0.15432108
C       -2.09894840       3.21497249       0.94245651
C       -0.49832365       1.81103916       2.09711457
C        0.71339992       1.04173504       1.65455825
C       -1.78588660      -3.28320192       1.52916743
C       -2.65112461      -0.92193320      -1.57649152
C        3.58100912       0.24667146       0.95159372
C        1.74760780      -2.78584225       1.38845237
C        0.84278432      -2.25950200      -0.38213986
C        0.71145562       0.18334841      -1.61442140
C        1.49643802       2.90826706       0.22200803
C        3.53457506      -1.82137060       0.12006365
C        1.81562813       1.78218164       0.91242828
C       -0.85428571       1.26912932      -3.84040537
C        3.43774335       1.96340243      -0.72087727
C        0.54521476      -3.20599853       1.96791293
C        1.66689003       1.30939521      -3.52374550
C       -2.28348577       2.63321722      -1.64047864
C       -1.23255531      -2.75734659      -1.08560223
C       -0.16565379      -2.33747510       2.88557942
C        2.18457844       0.65030596      -2.25115519
C        0.13007461       3.38594079       0.12851313
C       -3.10971075       0.35804106      -1.14536605
C        0.01581029       3.36510592      -1.28655380
60
Properties=species:S:1:pos:R:3 trajectory=trial0001_proposal001_step006_proposal_relax trajectory_step=16 pbc="F F F"
C       -2.57086930      -2.26330912       0.80575206
C        2.11854421      -2.66785547       0.00408779
C        1.09231984      -0.19035368       2.31898440
C       -1.05694580       3.02555648      -2.16426689
C       -2.73174566       2.98950671      -0.36360668
C        2.85119856      -1.84490335       1.52515411
C       -2.92669536      -1.21426265       1.73750117
C       -1.56380466      -2.62284511       2.79991251
C        2.38676035       3.00429491      -1.01734193
C       -0.45161592       2.48015555      -3.33397386
C       -0.76932092       2.83438191       1.12500835
C        3.18533336       1.59338301       0.66400762
C       -2.39009267      -2.02513264      -0.65373336
C        1.27351239       3.03970202      -1.91656647
C        3.75851969       0.66380088      -1.48357615
C       -1.28227850      -0.32658821       3.24203940
C        3.94865952      -0.46419062      -0.34212067
C       -2.01723486       0.71572891      -3.19257848
C       -2.68260522       1.33229883      -2.10613075
C       -0.49460978      -3.70679362       1.08207806
C        0.45823079       0.57348041      -3.87961784
C       -0.63798769      -1.24318858      -2.90145037
C       -3.58185739       2.12946111       0.36506482
C       -3.26554720       0.13453950       1.41665265
C       -2.81613377       1.22342806       2.29019293
C       -1.52782986       1.06198456       2.84640595
C        0.33078347      -0.23434368      -2.84283254
C       -2.26421677      -1.39883936       3.00395551
C       -1.94407690      -0.67270137      -2.82098435
C        2.43713492      -0.53328573       1.68238762
C        0.38550651      -0.98218937      -0.85261184
C       -0.24542659      -3.20607439      -0.19635191
C       -3.10826016       2.47374855       1.67186634
C        0.98077633       2.49242033      -3.16112805
C       -0.01957619      -0.92438989       3.07572482
C       -0.34157013      -1.92359637      -1.73524274
C       -3.53531734       0.73161337       0.14349055
C       -2.09241875       3.16996896       0.91584082
C       -0.48187971       1.78442052       2.09701771
C        0.67746476       0.96273781       1.62272929
C       -1.80364401      -3.27531746       1.54592502
C       -2.67020161      -0.92364246      -1.58793141
C        3.63325319       0.23712068       0.89030778
C        1.74300863      -2.76785282       1.38672478
C        0.84001991      -2.22052362      -0.36703067
C        0.62942969       0.24242191      -1.53065077
C        1.48679820       2.84328224       0.15477757
C        3.61101921      -1.83450920       0.09321048
C        1.79622407       1.72249659       0.86214363
C       -0.86073831       1.26725760      -3.84702282
C        3.48755382       1.95540702      -0.75552860
C        0.53140123      -3.17294235       1.97951778
C        1.68183805       1.31631849      -3.49433492
C       -2.30558744       2.62571263      -1.66836213
C       -1.23890300      -2.71699502      -1.06439347
C       -0.18562134      -2.34917713       2.92432918
C        2.20782191       0.66424077      -2.25145896
C        0.12530814       3.34618535       0.11891643
C       -3.14768511       0.35507164      -1.16646250
C       -0.00555314       3.35395724      -1.28621028
60
Properties=species:S:1:pos:R:3 trajectory=trial0001_proposal001_step006_proposal_relax trajectory_step=17 pbc="F F F"
C       -2.57612955      -2.24730973       0.80591184
C        2.12899638      -2.70016929       0.00805653
C        1.10079143      -0.20887638       2.31453082
C       -1.05676343       3.02185553      -2.16412656
C       -2.73448109       2.98320300      -0.36747059
C        2.85392607      -1.85336671       1.51955124
C       -2.93150226      -1.20678146       1.73164314
C       -1.56656299      -2.61996488       2.81664612
C        2.37130310       3.01577153      -1.01878264
C       -0.44776977       2.47368110      -3.32596023
C       -0.75446402       2.84106807       1.13587565
C        3.16923188       1.57291410       0.62744779
C       -2.39558185      -2.01666847      -0.64816009
C        1.26223805       3.06841646      -1.93389576
C        3.76708589       0.67625406      -1.48517147
C       -1.27385634      -0.32431259       3.24066763
C        3.93239497      -0.45945500      -0.34418421
C       -2.00605068       0.70737447      -3.18665340
C       -2.69028869       1.33100837      -2.11251249
C       -0.50274007      -3.68142855       1.09006452
C        0.48008193       0.58368413      -3.89406403
C       -0.63341674      -1.23403391      -2.90612158
C       -3.60620933       2.12745738       0.35643448
C       -3.25519836       0.13969666       1.40813887
C       -2.81271760       1.22557683       2.27905841
C       -1.52130045       1.06249379       2.84277326
C        0.29716332      -0.20868536      -2.80880831
C       -2.25559876      -1.39174343       2.99108748
C       -1.93934692      -0.67516862      -2.80914219
C        2.47707532      -0.54866787       1.74566258
C        0.37705911      -0.98331132      -0.84095231
C       -0.25431328      -3.19660367      -0.19031806
C       -3.11133031       2.46777776       1.66238926
C        0.98564705       2.50676332      -3.14029356
C       -0.00060164      -0.92303734       3.07415964
C       -0.33484323      -1.92305785      -1.75194160
C       -3.53599897       0.73167848       0.14248701
C       -2.08559107       3.15256986       0.91317634
C       -0.47554064       1.75768605       2.07431820
C        0.67637201       0.94950279       1.61827010
C       -1.80498364      -3.24462056       1.55195872
C       -2.67658515      -0.92489503      -1.57850172
C        3.61530617       0.23153521       0.87097278
C        1.76605761      -2.78982447       1.40293059
C        0.85172417      -2.22697130      -0.38345502
C        0.58786181       0.25335671      -1.50538626
C        1.47942057       2.82409489       0.13688670
C        3.61310307      -1.83538305       0.09107747
C        1.78642512       1.70586364       0.84769823
C       -0.84900098       1.26100167      -3.84932987
C        3.48114655       1.94796431      -0.76508070
C        0.53396435      -3.16147525       1.98325077
C        1.69096393       1.32005649      -3.47675215
C       -2.31493625       2.61935757      -1.66827578
C       -1.23910757      -2.70288804      -1.05630830
C       -0.17928539      -2.34428587       2.92893747
C        2.22781657       0.67572865      -2.25893564
C        0.12708305       3.32166154       0.11679056
C       -3.15958146       0.35154125      -1.16750311
C       -0.01799133       3.36467234      -1.28256037
60
Properties=species:S:1:pos:R:3 trajectory=trial0001_proposal001_step006_proposal_relax trajectory_step=18 pbc="F F F"
C       -2.59822121      -2.22555813       0.80803468
C        2.13289464      -2.72856722       0.00161548
C        1.11081510      -0.26834605       2.31078846
C       -1.06259562       2.99344492      -2.15707773
C       -2.74743613       2.93902573      -0.38839576
C        2.88430259      -1.87352796       1.47806838
C       -2.91604474      -1.17784872       1.72186494
C       -1.59006028      -2.60987884       2.85969423
C        2.36167310       3.01166020      -1.03668906
C       -0.44534089       2.46451885      -3.31330953
C       -0.74062932       2.80623902       1.13502184
C        3.14554111       1.50246811       0.53607527
C       -2.41300497      -1.99427611      -0.62697880
C        1.23706468       3.15540820      -1.97362231
C        3.88823110       0.69476869      -1.54540950
C       -1.26694912      -0.32079032       3.29765780
C        4.01842718      -0.47133021      -0.38124138
C       -2.03832993       0.68971420      -3.21479972
C       -2.75655561       1.32942469      -2.15864990
C       -0.52369577      -3.61791092       1.12734158
C        0.50122262       0.58844974      -3.86488746
C       -0.62628950      -1.20443834      -2.87452715
C       -3.66111625       2.11858531       0.33531876
C       -3.19943846       0.15697810       1.37765319
C       -2.80778439       1.22787489       2.26077585
C       -1.49401926       1.05701218       2.85853645
C        0.22050726      -0.08803472      -2.69219084
C       -2.24758505      -1.36580894       2.97737016
C       -1.95237237      -0.67922114      -2.80794719
C        2.56821493      -0.55521636       1.81659151
C        0.32623916      -0.95003183      -0.77012619
C       -0.27085003      -3.15196625      -0.16696660
C       -3.12383514       2.44056731       1.63817636
C        0.99490215       2.54128023      -3.12396847
C        0.02429431      -0.93227889       3.15134254
C       -0.32241616      -1.90041366      -1.73360729
C       -3.53969976       0.72613170       0.12372200
C       -2.07898919       3.08784574       0.89017803
C       -0.47340281       1.69989350       2.03583277
C        0.69238013       0.89932296       1.58082821
C       -1.83160739      -3.20366482       1.57501103
C       -2.70081336      -0.91996975      -1.57830935
C        3.64390862       0.20298118       0.82875396
C        1.79402556      -2.82060297       1.41941676
C        0.85286454      -2.20370207      -0.39386663
C        0.46431932       0.34551273      -1.37793226
C        1.45668157       2.73355956       0.08734813
C        3.67474747      -1.85864926       0.07034181
C        1.78021102       1.60745141       0.76681603
C       -0.84375014       1.26461154      -3.86895447
C        3.50164376       1.95856987      -0.81500698
C        0.52512332      -3.11589399       2.00110620
C        1.69705304       1.34070506      -3.41976491
C       -2.35278767       2.59550339      -1.69352209
C       -1.24023976      -2.66010278      -1.02930756
C       -0.18422958      -2.33226592       2.98738093
C        2.31537144       0.71472806      -2.26824113
C        0.13250127       3.24485047       0.10378969
C       -3.20898014       0.34348753      -1.19859678
C       -0.04552140       3.38800488      -1.28034884
60
Properties=species:S:1:pos:R:3 trajectory=trial0001_proposal001_step006_proposal_relax trajectory_step=19 pbc="F F F"
C       -2.60941820      -2.18167993       0.81537077
C        2.14964335      -2.79846759       0.01366779
C        1.14845384      -0.30071597       2.29149536
C       -1.07562780       2.99222683      -2.15072880
C       -2.75693027       2.90411882      -0.38173171
C        2.90228919      -1.87918076       1.46692563
C       -2.91111763      -1.13465982       1.71399143
C       -1.58501855      -2.58074992       2.90431296
C        2.31167918       2.98630599      -1.02524950
C       -0.42918101       2.46624704      -3.29452727
C       -0.73184998       2.78318591       1.13699519
C        3.08807165       1.40898745       0.46688112
C       -2.41783692      -1.98097551      -0.60628252
C        1.22600671       3.30521537      -1.97805324
C        3.86301477       0.72479635      -1.57386261
C       -1.23454670      -0.32053093       3.27779977
C        3.95045624      -0.47731633      -0.37136608
C       -2.02008722       0.66636429      -3.20484119
C       -2.77699683       1.31419233      -2.18110874
C       -0.53100004      -3.52003424       1.15221872
C        0.53684626       0.57770819      -3.85890429
C       -0.61866184      -1.18635060      -2.89830849
C       -3.74429047       2.13265876       0.31308234
C       -3.17768365       0.19147743       1.34753226
C       -2.79409551       1.22703130       2.24141714
C       -1.45930552       1.02825255       2.80013684
C        0.13362314      -0.01430542      -2.63513814
C       -2.20710479      -1.31868771       2.94156796
C       -1.95267642      -0.70260590      -2.78145088
C        2.69728394      -0.57114318       1.96853732
C        0.30318705      -0.96560737      -0.76643389
C       -0.27220246      -3.12759885      -0.14819535
C       -3.13867722       2.42814615       1.60378665
C        1.00287300       2.58257217      -3.12042068
C        0.06250626      -0.93664950       3.11613810
C       -0.31679256      -1.92279886      -1.75814246
C       -3.56548734       0.73768630       0.10343397
C       -2.07785623       3.04395535       0.88313328
C       -0.46091117       1.62668357       1.95350059
C        0.76984833       0.89162837       1.58488180
C       -1.82772875      -3.12247071       1.59555558
C       -2.70407041      -0.92058715      -1.55231463
C        3.57100789       0.16890826       0.84435525
C        1.87293369      -2.91899032       1.44628640
C        0.88439157      -2.27223305      -0.45846892
C        0.31300864       0.35028208      -1.27719833
C        1.44409191       2.69197807       0.07707750
C        3.62630273      -1.87358553       0.08431673
C        1.76420624       1.55357131       0.74333626
C       -0.81665690       1.25901709      -3.86904326
C        3.43533555       1.96853133      -0.84701260
C        0.54039999      -3.08784749       2.02251965
C        1.71249096       1.37700141      -3.35381353
C       -2.35278318       2.57330285      -1.69447530
C       -1.25150249      -2.64538489      -1.02123991
C       -0.15379600      -2.31734093       3.00786837
C        2.46212356       0.76902123      -2.30668832
C        0.14053004       3.18075258       0.09028168
C       -3.23584459       0.34514461      -1.20501609
C       -0.06429749       3.46183382      -1.28017909
60
Properties=species:S:1:pos:R:3 trajectory=trial0001_proposal001_step006_proposal_relax trajectory_step=20 pbc="F F F"
C       -2.62586787      -2.16689755       0.82858505
C        2.15083747      -2.80013262       0.01017372
C        1.17723384      -0.32532320       2.29414970
C       -1.07769709       2.97273982      -2.14514552
C       -2.76946997       2.86379412      -0.40037551
C        2.93206128      -1.88720148       1.44511756
C       -2.88211795      -1.09972583       1.70453400
C       -1.59681124      -2.55900692       2.93032482
C        2.29061161       2.96553051      -1.03710768
C       -0.43026831       2.47184633      -3.28590767
C       -0.73704039       2.72629500       1.10815953
C        3.07762632       1.34118123       0.40286068
C       -2.42439247      -1.96390636      -0.59754210
C        1.22675609       3.39405170      -2.00628109
C        3.92520151       0.73400707      -1.63889543
C       -1.21919608      -0.31185038       3.31040472
C        4.01422654      -0.50830441      -0.38488525
C       -2.05614798       0.66376603      -3.24000623
C       -2.82764920       1.30777486      -2.22370925
C       -0.53743774      -3.45145132       1.17929819
C        0.53769254       0.58872146      -3.80805179
C       -0.61113305      -1.15113004      -2.86518454
C       -3.79320470       2.12615146       0.29580264
C       -3.13857170       0.21291785       1.31403320
C       -2.78184424       1.22545218       2.23271716
C       -1.44053093       1.01294460       2.78582272
C        0.07234148       0.05449094      -2.52761862
C       -2.19508043      -1.28714476       2.94062662
C       -1.96729283      -0.71179301      -2.78934427
C        2.76336879      -0.59246551       1.98327682
C        0.27007410      -0.93840327      -0.72883938
C       -0.28129363      -3.10453429      -0.12471449
C       -3.15376166       2.41188899       1.58954004
C        1.00780385       2.63441418      -3.10211716
C        0.08355477      -0.93378270       3.17299370
C       -0.30693353      -1.90792270      -1.74281581
C       -3.58540096       0.73779340       0.08301230
C       -2.08680899       2.99350092       0.85641562
C       -0.44080610       1.58370975       1.91666168
C        0.79741510       0.84508357       1.57713682
C       -1.84206347      -3.09872087       1.62293946
C       -2.71751518      -0.91821118      -1.55442424
C        3.60846266       0.13844748       0.83028600
C        1.89699276      -2.93902524       1.44941853
C        0.87341694      -2.26803974      -0.47911089
C        0.16285037       0.39359891      -1.15239390
C        1.43165213       2.62393053       0.04133133
C        3.64361688      -1.89778092       0.07302880
C        1.75131466       1.47409335       0.68618593
C       -0.82448806       1.26073591      -3.86993259
C        3.44003169       1.97697819      -0.88233284
C        0.54315200      -3.05418828       2.04024655
C        1.71659474       1.38968848      -3.28975488
C       -2.37302176       2.54792020      -1.71207619
C       -1.25864717      -2.63103664      -0.99777433
C       -0.15796264      -2.32316420       3.06191319
C        2.60808439       0.82334704      -2.33516908
C        0.13288151       3.12955541       0.07575041
C       -3.27523436       0.34301808      -1.23383332
C       -0.07959494       3.50206242      -1.27919381
60
Properties=species:S:1:pos:R:3 trajectory=trial0001_proposal001_step006_proposal_relax trajectory_step=21 pbc="F F F"
C       -2.62389018      -2.14981376       0.83802042
C        2.17103277      -2.79581631       0.01546296
C        1.23005349      -0.33542531       2.31644860
C       -1.06607763       2.99083169      -2.13285613
C       -2.78699843       2.84021286      -0.41036762
C        2.95165249      -1.91794551       1.46124565
C       -2.85444260      -1.06530913       1.69305186
C       -1.58657770      -2.52813419       2.94188881
C        2.25092625       2.95097457      -1.03474610
C       -0.42519058       2.49154150      -3.27630301
C       -0.74744752       2.67368328       1.05277610
C        3.05499710       1.29053957       0.38204681
C       -2.41801761      -1.96084763      -0.58356927
C        1.23614814       3.48604891      -2.00253088
C        3.84655217       0.73869054      -1.67918583
C       -1.17959593      -0.29526933       3.27698773
C        3.97683352      -0.55610202      -0.35745361
C       -2.06342593       0.64666124      -3.24767858
C       -2.83027454       1.30585184      -2.23334469
C       -0.52117508      -3.38722257       1.20258137
C        0.52719937       0.58723694      -3.72363165
C       -0.62706493      -1.15562986      -2.85925944
C       -3.83487578       2.13763326       0.28910631
C       -3.13692226       0.23193718       1.28565293
C       -2.78177189       1.23758792       2.21011633
C       -1.40767456       0.99688551       2.71990717
C        0.04124524       0.08691253      -2.48334545
C       -2.16937562      -1.25800536       2.93580842
C       -1.97299756      -0.71435570      -2.79915711
C        2.80252806      -0.60291402       1.99231096
C        0.26935082      -0.98952414      -0.73863084
C       -0.28965542      -3.10949655      -0.12889377
C       -3.17627414       2.40619505       1.58717650
C        1.02389206       2.67291315      -3.07977174
C        0.12587635      -0.92824955       3.15523686
C       -0.30891750      -1.94010158      -1.75987136
C       -3.62490531       0.74457444       0.06840095
C       -2.10369822       2.97530782       0.84041285
C       -0.41600506       1.54640754       1.88292149
C        0.83632965       0.85769159       1.60462220
C       -1.83372697      -3.06739798       1.64254832
C       -2.71208626      -0.91220197      -1.54809284
C        3.60152674       0.11420123       0.85344776
C        1.93479783      -2.95710237       1.45267857
C        0.87115863      -2.30179253      -0.53377749
C        0.02110980       0.36178943      -1.09646029
C        1.39833986       2.60817862       0.03487771
C        3.54864942      -1.92882297       0.08550614
C        1.74874577       1.44288609       0.67061557
C       -0.81370400       1.27352716      -3.83965179
C        3.39903255       1.95971378      -0.88822593
C        0.57054050      -3.05004515       2.04694822
C        1.71845482       1.40430912      -3.21472290
C       -2.36052220       2.52379770      -1.70984561
C       -1.24977997      -2.64353105      -1.00135828
C       -0.13478607      -2.31377290       3.09098905
C        2.78587884       0.89761212      -2.38877719
C        0.12464851       3.12619956       0.04852109
C       -3.28762337       0.33615911      -1.24679184
C       -0.08145068       3.56042738      -1.27180371
60
Properties=species:S:1:pos:R:3 trajectory=trial0001_proposal001_step006_proposal_relax trajectory_step=22 pbc="F F F"
C       -2.60510564      -2.17014543       0.84485247
C        2.17919934      -2.68152611       0.00099657
C        1.29250656      -0.29635188       2.34533454
C       -1.04659712       3.01462833      -2.11906538
C       -2.81818358       2.82494131      -0.43208395
C        2.98231252      -1.95263893       1.49176763
C       -2.79795466      -1.05312554       1.68079071
C       -1.57621855      -2.50708801       2.92625580
C        2.24868246       2.90074886      -1.03211583
C       -0.42084841       2.54774148      -3.27025001
C       -0.79879078       2.59069117       0.95152444
C        3.12061929       1.27258238       0.39998859
C       -2.39225921      -1.97102196      -0.58820342
C        1.27118546       3.51581264      -1.96974766
C        3.89041989       0.70550286      -1.67343678
C       -1.15250739      -0.27614018       3.27626036
C        4.05099013      -0.65076607      -0.32336719
C       -2.12183608       0.65669092      -3.30235301
C       -2.84018480       1.30572521      -2.25435199
C       -0.49020959      -3.38068103       1.19755864
C        0.46240408       0.61997418      -3.57736063
C       -0.66346586      -1.15512502      -2.81540985
C       -3.82674158       2.13237768       0.29514072
C       -3.14266335       0.23610324       1.26338647
C       -2.78927978       1.23988550       2.20814347
C       -1.40095875       0.99243747       2.68664170
C        0.03651276       0.02497084      -2.42591465
C       -2.17039264      -1.23844784       2.96431030
C       -2.00305791      -0.70698651      -2.84768894
C        2.72607952      -0.59397514       1.80771487
C        0.25939884      -1.01076456      -0.73450619
C       -0.27896258      -3.15525025      -0.11476722
C       -3.20852093       2.42571725       1.60374256
C        1.04248395       2.67999022      -3.08368247
C        0.13950594      -0.92958815       3.21160010
C       -0.32181453      -1.94386276      -1.75338428
C       -3.66764633       0.73523744       0.04744861
C       -2.14451550       2.97952003       0.81189025
C       -0.39206378       1.57087193       1.88626686
C        0.87364114       0.88983769       1.65413011
C       -1.82608671      -3.11252416       1.65407862
C       -2.69855091      -0.91062473      -1.56322079
C        3.68949981       0.10236203       0.87044324
C        1.89947972      -2.88473056       1.41195336
C        0.83183438      -2.27725220      -0.53456455
C       -0.04203822       0.30577868      -1.07731773
C        1.37254134       2.60656935       0.02392454
C        3.45621493      -1.98686321       0.07672118
C        1.73430257       1.44397495       0.69280955
C       -0.84972982       1.30953678      -3.79590637
C        3.41701287       1.94480169      -0.88058086
C        0.58442806      -3.05203988       2.06258239
C        1.69396465       1.40665333      -3.14576657
C       -2.33501424       2.50825148      -1.71772251
C       -1.26562995      -2.69578541      -1.00244927
C       -0.12874499      -2.32841394       3.13653945
C        2.84563120       0.98986417      -2.50449467
C        0.11167412       3.15404983       0.02228863
C       -3.29610860       0.33196079      -1.27004211
C       -0.05927379       3.59621958      -1.28912078
60
Properties=species:S:1:pos:R:3 trajectory=trial0001_proposal001_step006_proposal_relax trajectory_step=23 pbc="F F F"
C       -2.58072730      -2.17133319       0.84087889
C        2.14210539      -2.64761776      -0.01478076
C        1.33452815      -0.24115371       2.36020683
C       -1.05328147       3.03699965      -2.11809861
C       -2.83255722       2.84881095      -0.43382652
C        2.98715577      -1.96462213       1.54399633
C       -2.79223624      -1.05997154       1.67070890
C       -1.53676987      -2.49478209       2.91380943
C        2.24929784       2.91121850      -1.01810983
C       -0.39541882       2.56598217      -3.25682829
C       -0.81715624       2.61046579       0.92819125
C        3.09215891       1.30671446       0.43239573
C       -2.36711458      -1.97828587      -0.60774402
C        1.30481564       3.50278154      -1.96699271
C        3.78694764       0.70347628      -1.64345311
C       -1.12319474      -0.27431946       3.20696354
C        3.95124176      -0.69882062      -0.27372772
C       -2.08403965       0.69362599      -3.28162038
C       -2.78848758       1.29310762      -2.21835943
C       -0.48674852      -3.39972331       1.19715887
C        0.45134497       0.64279181      -3.53110747
C       -0.70829833      -1.17562486      -2.85465950
C       -3.82566087       2.12641001       0.29050238
C       -3.16555080       0.23047922       1.26989056
C       -2.78370063       1.23197370       2.19642031
C       -1.41844838       1.00144499       2.64839770
C        0.04386987      -0.03768367      -2.47566776
C       -2.14825386      -1.21777017       2.94389067
C       -2.00898242      -0.71514450      -2.83833475
C        2.68513629      -0.61749428       1.79314359
C        0.28590354      -1.06139830      -0.80220155
C       -0.25909967      -3.19921539      -0.15475973
C       -3.21535030       2.45313749       1.60925074
C        1.05225563       2.70125432      -3.04884131
C        0.18006489      -0.91773180       3.18024668
C       -0.34997631      -2.03605762      -1.78683314
C       -3.68640590       0.73158402       0.04766630
C       -2.15652161       2.99042443       0.80625362
C       -0.39392286       1.62872196       1.87495955
C        0.88368156       0.92832734       1.71271575
C       -1.79342108      -3.11099487       1.64471749
C       -2.67839768      -0.91654788      -1.56271518
C        3.64355488       0.08786017       0.88180423
C        1.88053790      -2.88356652       1.42131572
C        0.87534627      -2.34918983      -0.54509372
C        0.00754973       0.22320276      -1.09797326
C        1.39202980       2.61680124       0.04790226
C        3.37551678      -1.98235673       0.08962141
C        1.75170454       1.51014024       0.71157448
C       -0.84411278       1.32779096      -3.75707309
C        3.39615780       1.92536532      -0.85048183
C        0.59703493      -3.04894791       2.05311244
C        1.67428140       1.42088275      -3.13892503
C       -2.30509115       2.51839974      -1.69806513
C       -1.25971201      -2.74016026      -1.02223064
C       -0.10351221      -2.33632743       3.11416169
C        2.82292646       0.98902894      -2.51252182
C        0.08186239       3.18604125       0.04037500
C       -3.27979881       0.33963088      -1.25299528
C       -0.04649181       3.63225739      -1.29999950
60
Properties=species:S:1:pos:R:3 trajectory=trial0001_proposal001_step006_proposal_relax trajectory_step=24 pbc="F F F"
C       -2.56734681      -2.17296857       0.82819782
C        2.10965617      -2.64944304      -0.01079532
C        1.34266131      -0.22317591       2.37711538
C       -1.05610964       3.04536164      -2.11915738
C       -2.84205748       2.86192914      -0.43362453
C        2.98411397      -1.98072762       1.56625335
C       -2.79380704      -1.06571808       1.66325578
C       -1.52176896      -2.48665114       2.90967635
C        2.26361607       2.92998709      -1.01445937
C       -0.38540011       2.57240513      -3.24339662
C       -0.82592026       2.63603934       0.93564820
C        3.08615065       1.31533344       0.44329213
C       -2.35664267      -1.98124624      -0.61565724
C        1.32060126       3.50788115      -1.94471155
C        3.74961224       0.70999235      -1.63046418
C       -1.10609931      -0.27106042       3.17289900
C        3.90067549      -0.71703117      -0.26186618
C       -2.06085321       0.71141512      -3.26103285
C       -2.76168503       1.29335523      -2.19294988
C       -0.48464649      -3.41591999       1.17990194
C        0.45726700       0.67131815      -3.52718164
C       -0.72312176      -1.19928470      -2.86509764
C       -3.82452234       2.12243105       0.28580369
C       -3.16903475       0.22320889       1.27159749
C       -2.78102731       1.23126108       2.18510772
C       -1.42482203       1.01782398       2.63848994
C        0.03780127      -0.07038374      -2.48153387
C       -2.12787105      -1.21611451       2.92356998
C       -2.02008182      -0.70855588      -2.83368744
C        2.67533232      -0.63049144       1.81168809
C        0.30692214      -1.11075204      -0.84464692
C       -0.24666305      -3.23015239      -0.15942290
C       -3.21651724       2.45572021       1.60552354
C        1.05323604       2.69742581      -3.04990775
C        0.20676110      -0.91121850       3.17819815
C       -0.36044922      -2.07315171      -1.82771520
C       -3.68721908       0.72500606       0.05127760
C       -2.16561569       2.98845461       0.79768604
C       -0.40370126       1.65809520       1.88481172
C        0.88096216       0.96035322       1.71654906
C       -1.78287236      -3.10276122       1.64150605
C       -2.67584979      -0.91844761      -1.56241455
C        3.60012193       0.08481431       0.87181114
C        1.87226187      -2.88371084       1.42809511
C        0.88415460      -2.38139243      -0.55512876
C        0.04894137       0.19700161      -1.10092833
C        1.37881098       2.64166550       0.03804530
C        3.37295188      -1.96668869       0.09767248
C        1.75517433       1.51153652       0.73509106
C       -0.83006245       1.34132580      -3.74281764
C        3.39849112       1.92017707      -0.83970161
C        0.58876632      -3.03693826       2.04282222
C        1.66309720       1.43393519      -3.14212206
C       -2.30116092       2.52456147      -1.69250900
C       -1.26380834      -2.76247508      -1.02865498
C       -0.08626316      -2.32904763       3.10550143
C        2.77699631       0.96683423      -2.49339767
C        0.09390850       3.19578684       0.03648447
C       -3.27166738       0.33805941      -1.24528463
C       -0.04380861       3.64530516      -1.29509327
60
Properties=species:S:1:pos:R:3 trajectory=trial0001_proposal001_step006_proposal_relax trajectory_step=25 pbc="F F F"
C       -2.53808754      -2.17283427       0.80652918
C        2.09502271      -2.65113437       0.01773365
C        1.35061659      -0.18861929       2.39208050
C       -1.04258423       3.08105947      -2.11037858
C       -2.86657882       2.87450869      -0.44125347
C        2.96908004      -2.00826395       1.59880781
C       -2.78627850      -1.07006010       1.63980016
C       -1.49465052      -2.47574468       2.90619230
C        2.27668801       2.93702182      -0.98835184
C       -0.37265100       2.60597033      -3.22141883
C       -0.84341376       2.66493794       0.92355662
C        3.09602851       1.31402827       0.46704336
C       -2.33602192      -1.99464277      -0.62056781
C        1.34578433       3.54239365      -1.92469074
C        3.69707932       0.72374475      -1.62065952
C       -1.06814637      -0.26063619       3.12751215
C        3.83996964      -0.74788510      -0.24333171
C       -2.04023761       0.72846542      -3.23794220
C       -2.72699381       1.30076614      -2.15947558
C       -0.47283845      -3.44025709       1.16192583
C        0.44143464       0.70551455      -3.48435208
C       -0.75464116      -1.24885485      -2.88995593
C       -3.83832397       2.11752438       0.27768342
C       -3.17207303       0.21688270       1.26383729
C       -2.78379074       1.23607343       2.16491353
C       -1.42287329       1.03693066       2.61159927
C        0.03167904      -0.12534929      -2.48439430
C       -2.08473317      -1.21233695       2.88099424
C       -2.04637003      -0.70317849      -2.84511920
C        2.66323602      -0.64088635       1.84867885
C        0.33012103      -1.20927709      -0.92644262
C       -0.23500432      -3.29582234      -0.17432624
C       -3.23403195       2.45067190       1.59692441
C        1.06334131       2.73013878      -3.05015902
C        0.25631319      -0.89073333       3.17592616
C       -0.39818390      -2.13358905      -1.90066450
C       -3.69293049       0.71584326       0.05451704
C       -2.19297706       2.98879210       0.78301698
C       -0.41324068       1.70517006       1.88704892
C        0.89800685       1.03494418       1.74843637
C       -1.76262783      -3.08843635       1.63848489
C       -2.67450393      -0.92203957      -1.55423480
C        3.53339092       0.06866706       0.86692702
C        1.86660141      -2.88176207       1.43339429
C        0.86844474      -2.43568830      -0.58509035
C        0.10398445       0.12347352      -1.09212293
C        1.37341282       2.66305621       0.03830535
C        3.33527289      -1.96781323       0.11709534
C        1.75818652       1.54093831       0.77096406
C       -0.81018220       1.37239453      -3.71974588
C        3.40426631       1.91391467      -0.80908191
C        0.57613497      -3.01693945       2.02899008
C        1.63018384       1.45551947      -3.13555347
C       -2.29074481       2.53526745      -1.68187147
C       -1.26978053      -2.82497833      -1.04313406
C       -0.05156202      -2.31020774       3.09813572
C        2.72984580       0.94490776      -2.48087789
C        0.11093153       3.20807596       0.02543063
C       -3.25818551       0.33142550      -1.23295457
C       -0.02924522       3.68924016      -1.28612257
60
Properties=species:S:1:pos:R:3 trajectory=trial0001_proposal001_step006_proposal_relax trajectory_step=26 pbc="F F F"
C       -2.49834543      -2.17275769       0.77802873
C        2.04139910      -2.67137041       0.06153380
C        1.36078408      -0.14951461       2.42691655
C       -1.02650919       3.13826303      -2.07979260
C       -2.91918433       2.87723163      -0.46631411
C        2.96042985      -2.04225456       1.64399990
C       -2.75542649      -1.06900084       1.59823448
C       -1.45541585      -2.45978848       2.90612631
C        2.30779691       2.95531058      -0.96898140
C       -0.35971565       2.67215976      -3.18997576
C       -0.85841187       2.70693182       0.89938069
C        3.10371820       1.30185492       0.48047073
C       -2.30390488      -2.01862542      -0.63164328
C        1.38139793       3.62641658      -1.90162136
C        3.68145490       0.75396547      -1.63816763
C       -1.01515132      -0.23027191       3.08672088
C        3.81329139      -0.77881687      -0.24397887
C       -2.03005602       0.74760712      -3.21481954
C       -2.70243401       1.31110245      -2.12940991
C       -0.46739744      -3.46537885       1.16012849
C        0.40091353       0.75289641      -3.39114230
C       -0.81561763      -1.27752942      -2.93004644
C       -3.87962260       2.09875057       0.25614280
C       -3.15250578       0.20935950       1.23882897
C       -2.78393339       1.23603019       2.13293538
C       -1.41133287       1.06674453       2.59243932
C        0.00524614      -0.18271964      -2.43399770
C       -2.00600009      -1.19190439       2.81234488
C       -2.08446040      -0.69352027      -2.87471402
C        2.66130610      -0.65409265       1.90829758
C        0.34217996      -1.35365739      -1.05486783
C       -0.23986400      -3.39627428      -0.20702529
C       -3.27199407       2.42871752       1.56976093
C        1.08313526       2.81064116      -3.04650200
C        0.32418088      -0.84707994       3.21993625
C       -0.46647156      -2.23404025      -1.98982184
C       -3.69830025       0.69828629       0.04766497
C       -2.23236207       2.97485573       0.74788669
C       -0.41539617       1.77316969       1.89584906
C        0.90398328       1.12174175       1.79730556
C       -1.73514839      -3.07208061       1.63291504
C       -2.68280862      -0.93288871      -1.55316576
C        3.46260337       0.01561968       0.84254356
C        1.83855911      -2.87834096       1.44679288
C        0.86678860      -2.53939025      -0.60620331
C        0.15518475       0.01432577      -1.04050277
C        1.37223750       2.65202877       0.02015320
C        3.33356216      -1.99824903       0.14366741
C        1.77442854       1.56381785       0.79299954
C       -0.79582644       1.42717957      -3.68842412
C        3.44507149       1.91809809      -0.77318672
C        0.55244069      -2.97152947       2.00789139
C        1.59478666       1.48763915      -3.09617638
C       -2.28634578       2.56042841      -1.67797159
C       -1.28449121      -2.91776621      -1.07074742
C       -0.00609125      -2.27477204       3.10929004
C        2.65419578       0.91650416      -2.46086101
C        0.11957543       3.21267440       0.00537356
C       -3.25367765       0.32194436      -1.22313986
C       -0.00587997       3.76161156      -1.27114706
60
Properties=species:S:1:pos:R:3 trajectory=trial0001_proposal001_step006_proposal_relax trajectory_step=27 pbc="F F F"
C       -2.46255169      -2.18189261       0.76201713
C        2.05341050      -2.69938808       0.10328199
C        1.36793950      -0.10261317       2.45076177
C       -1.01510097       3.19910045      -2.06181635
C       -2.94916693       2.89124479      -0.46619579
C        2.94790874      -2.03979825       1.68878373
C       -2.72677518      -1.07082832       1.58051033
C       -1.41840955      -2.44725735       2.89251765
C        2.33121146       2.97439452      -0.95543023
C       -0.35221164       2.73234694      -3.18032182
C       -0.86897633       2.75462601       0.90290422
C        3.10799568       1.30231547       0.51859370
C       -2.28625662      -2.05005142      -0.65612543
C        1.40339926       3.65497053      -1.90227062
C        3.62236710       0.78351273      -1.64256424
C       -0.99333468      -0.20707826       3.05599852
C        3.76888567      -0.79064989      -0.24362298
C       -2.01408457       0.76743181      -3.18554888
C       -2.66802927       1.31738306      -2.10123778
C       -0.46566294      -3.49524059       1.13468110
C        0.37105246       0.76060286      -3.34473244
C       -0.85251733      -1.30672028      -2.96071160
C       -3.90892380       2.08704098       0.23881469
C       -3.15483631       0.20346034       1.23171449
C       -2.78152925       1.22846432       2.12122510
C       -1.41027970       1.09035888       2.58279719
C        0.01493983      -0.23824743      -2.44556840
C       -1.94935713      -1.17782469       2.76422889
C       -2.10765323      -0.68847665      -2.88672638
C        2.64686744      -0.64767381       1.93604548
C        0.36352367      -1.50093159      -1.18848952
C       -0.24642702      -3.48124037      -0.22891412
C       -3.28712989       2.42058978       1.54714233
C        1.10134948       2.86621204      -3.03115437
C        0.33114831      -0.81208541       3.21652972
C       -0.52232704      -2.27991842      -2.08320531
C       -3.70129938       0.69405339       0.04805865
C       -2.24973846       2.99568164       0.74047965
C       -0.41468470       1.84136498       1.90879184
C        0.92442338       1.18667305       1.83308601
C       -1.71099847      -3.07518059       1.61876848
C       -2.67750243      -0.95159032      -1.55831722
C        3.39624345       0.00334018       0.85812326
C        1.82109198      -2.87847314       1.46871669
C        0.86629447      -2.65282539      -0.61621406
C        0.23762624      -0.12147039      -1.06150887
C        1.38735333       2.67465700       0.02292837
C        3.30447443      -2.04540110       0.18213153
C        1.77728839       1.60991610       0.84713419
C       -0.80689170       1.46084780      -3.65985328
C        3.46437294       1.93644285      -0.74420139
C        0.54456903      -2.96040939       2.00255271
C        1.55915204       1.51666632      -3.08044304
C       -2.28190373       2.59339739      -1.66692871
C       -1.31274214      -2.99611983      -1.11175078
C        0.02100856      -2.25329121       3.08860724
C        2.57969498       0.87702325      -2.41115578
C        0.12709527       3.23920613       0.00837970
C       -3.22596725       0.32204436      -1.21535269
C        0.02115071       3.80760145      -1.25773261
60
Properties=species:S:1:pos:R:3 trajectory=trial0001_proposal001_step006_proposal_relax trajectory_step=28 pbc="F F F"
C       -2.44230245      -2.18900332       0.75357218
C        2.06618119      -2.74732068       0.12852423
C        1.37265792      -0.07241648       2.47890123
C       -1.00980981       3.25050515      -2.04877107
C       -2.97068691       2.89205428      -0.46653820
C        2.94133517      -2.03002723       1.71870072
C       -2.68405211      -1.06605105       1.56121709
C       -1.39930816      -2.43679791       2.87668655
C        2.34400579       2.99318107      -0.95389123
C       -0.35935120       2.78754259      -3.18109524
C       -0.86717793       2.78825619       0.91059846
C        3.10754008       1.30076114       0.52754740
C       -2.28537594      -2.08180661      -0.67723475
C        1.41653721       3.69301902      -1.90323176
C        3.61921958       0.81666758      -1.65001042
C       -0.98968227      -0.17475885       3.06565049
C        3.76579727      -0.81312639      -0.24098794
C       -2.02311011       0.77402205      -3.17726163
C       -2.66191393       1.33287997      -2.09097772
C       -0.46708238      -3.50655958       1.13358243
C        0.34073494       0.76377274      -3.29901382
C       -0.88540769      -1.28215048      -2.98601393
C       -3.94397518       2.08057012       0.22345475
C       -3.14362130       0.20013465       1.22360685
C       -2.77851553       1.22807929       2.11372070
C       -1.40106401       1.11686066       2.58890001
C        0.02161306      -0.24411296      -2.44685991
C       -1.91273190      -1.16417404       2.73429861
C       -2.12271855      -0.68336258      -2.90325541
C        2.64226799      -0.63391124       1.94604303
C        0.38382451      -1.65484048      -1.29529024
C       -0.27230273      -3.53943090      -0.25386233
C       -3.29418029       2.40343964       1.52123006
C        1.10741481       2.90170246      -3.02607612
C        0.31537229      -0.78150786       3.22906966
C       -0.56818171      -2.31530261      -2.12931879
C       -3.70277845       0.68643976       0.03325719
C       -2.25969769       3.01369653       0.73820985
C       -0.40570524       1.87923005       1.92973726
C        0.92785419       1.20409680       1.86473098
C       -1.70355179      -3.08487568       1.61341744
C       -2.68095836      -0.96404996      -1.57279863
C        3.38426243      -0.00845518       0.85436817
C        1.82461655      -2.86841867       1.50350121
C        0.87622939      -2.75048966      -0.61269926
C        0.28014255      -0.24998058      -1.06788304
C        1.40386167       2.66739245       0.02358678
C        3.32050044      -2.08412646       0.21277629
C        1.78688889       1.64692050       0.84768644
C       -0.82295307       1.49068319      -3.63243667
C        3.48995510       1.95987753      -0.73423070
C        0.53485094      -2.96253493       2.00292640
C        1.53006782       1.53248302      -3.04161065
C       -2.29163099       2.62259046      -1.66638022
C       -1.33061687      -3.04537504      -1.16043097
C        0.02313652      -2.23293640       3.08480854
C        2.52301027       0.86424392      -2.36944791
C        0.13868868       3.25660813       0.01563093
C       -3.20753862       0.31863298      -1.21647447
C        0.03998483       3.84185356      -1.24764714
60
Properties=species:S:1:pos:R:3 trajectory=trial0001_proposal001_step006_proposal_relax trajectory_step=29 pbc="F F F"
C       -2.43299402      -2.19796923       0.74302907
C        2.09356389      -2.81577795       0.14998079
C        1.37104540      -0.04722738       2.50513624
C       -1.01487784       3.30229399      -2.04217803
C       -2.97602273       2.89209033      -0.45966874
C        2.94273828      -1.99504687       1.74682619
C       -2.63355292      -1.05522849       1.53704802
C       -1.39859695      -2.42800026       2.85460921
C        2.34481206       3.00856695      -0.95660204
C       -0.37929521       2.83363173      -3.19539550
C       -0.84834073       2.81581881       0.92171994
C        3.10700025       1.31551266       0.51428569
C       -2.30147494      -2.11743730      -0.69906058
C        1.41916979       3.71776205      -1.91133166
C        3.62049293       0.85419251      -1.65709337
C       -1.01222349      -0.14007817       3.10214722
C        3.78059463      -0.84550863      -0.21696919
C       -2.05254364       0.78324115      -3.18383244
C       -2.66990658       1.34667585      -2.09521885
C       -0.47036076      -3.51374300       1.13794662
C        0.31095326       0.79526516      -3.27696772
C       -0.89172531      -1.23777173      -2.99395774
C       -3.97193874       2.07861153       0.21486444
C       -3.13525838       0.20367800       1.21345251
C       -2.77522208       1.23426208       2.11172536
C       -1.39819999       1.14039745       2.60808244
C        0.02903052      -0.25470597      -2.44844203
C       -1.90265719      -1.14588617       2.73088530
C       -2.13890346      -0.67128171      -2.92341760
C        2.63357065      -0.60772446       1.93074522
C        0.42672224      -1.79744914      -1.38677459
C       -0.30711118      -3.57662181      -0.27553528
C       -3.29209056       2.39123345       1.49735623
C        1.09537273       2.92025553      -3.01914034
C        0.28607866      -0.75812694       3.22779742
C       -0.60924962      -2.32950756      -2.17086990
C       -3.70407948       0.68125787       0.02108602
C       -2.25604758       3.04352830       0.74970419
C       -0.38489916       1.89545559       1.95459261
C        0.94048961       1.20246168       1.87832197
C       -1.70800844      -3.10395103       1.61143173
C       -2.68650147      -0.97397741      -1.59029372
C        3.41267563      -0.01302596       0.85159086
C        1.83581084      -2.86187321       1.53534337
C        0.90879104      -2.86274843      -0.59872898
C        0.31364440      -0.42437707      -1.10565135
C        1.42120278       2.67067323       0.02551854
C        3.33735968      -2.12362016       0.24477798
C        1.79153547       1.66292563       0.84879624
C       -0.83928995       1.50770735      -3.60180267
C        3.49978041       1.98786016      -0.73406831
C        0.54607595      -2.98317809       2.01497850
C        1.49780019       1.52955473      -2.98693435
C       -2.30033027       2.65590693      -1.66578341
C       -1.34866355      -3.07496881      -1.21018297
C        0.00390437      -2.21898277       3.07882786
C        2.50110236       0.88238416      -2.32309084
C        0.14185005       3.28232946       0.03496462
C       -3.18832723       0.31950199      -1.21945563
C        0.05609435       3.86105312      -1.24091287
60
Properties=species:S:1:pos:R:3 trajectory=trial0001_proposal001_step006_proposal_relax trajectory_step=30 pbc="F F F"
C       -2.43856420      -2.20135512       0.73269531
C        2.11396223      -2.90059045       0.17729034
C        1.36247154      -0.04111129       2.51178521
C       -1.03305441       3.33465397      -2.04712595
C       -2.96220600       2.89521287      -0.44135424
C        2.93837547      -1.96012674       1.76010101
C       -2.59959725      -1.03541786       1.50787581
C       -1.41840953      -2.41566084       2.84488647
C        2.33536248       3.02751078      -0.96739186
C       -0.40514918       2.85595389      -3.20672993
C       -0.83015589       2.83148314       0.95733023
C        3.11132953       1.30988764       0.48583096
C       -2.32675677      -2.13664634      -0.72480906
C        1.41104357       3.73101461      -1.91847154
C        3.64695932       0.89929979      -1.66463865
C       -1.04108843      -0.12281017       3.15451049
C        3.81183849      -0.88770049      -0.18269918
C       -2.07814935       0.80041465      -3.20754834
C       -2.69356444       1.36375085      -2.10293954
C       -0.47744672      -3.51993027       1.13831307
C        0.29318580       0.80000296      -3.24010507
C       -0.89126591      -1.19839111      -2.99409146
C       -3.98088620       2.08099548       0.20917297
C       -3.11742811       0.21005285       1.20651008
C       -2.77067677       1.24009785       2.10882819
C       -1.40445294       1.16379400       2.63412741
C        0.03178099      -0.23986008      -2.47278988
C       -1.92797785      -1.13122866       2.73850616
C       -2.14958001      -0.66063242      -2.94132496
C        2.63642354      -0.58676191       1.93313275
C        0.50016275      -1.93185553      -1.43319014
C       -0.32251707      -3.58331078      -0.27280651
C       -3.28015911       2.39642083       1.48196223
C        1.06947839       2.91923474      -3.01061033
C        0.26797849      -0.74722726       3.22053097
C       -0.62338402      -2.35291300      -2.20267226
C       -3.70295543       0.68487792       0.01562170
C       -2.23965856       3.06133845       0.76291023
C       -0.36523251       1.89054322       1.96460029
C        0.94086131       1.18664974       1.87740416
C       -1.72334222      -3.11074537       1.61084984
C       -2.69803066      -0.97579817      -1.60367507
C        3.44572753       0.01517312       0.84277799
C        1.86547122      -2.86950383       1.55961285
C        0.93791269      -2.96538231      -0.62163365
C        0.34683015      -0.56388587      -1.13374426
C        1.41940456       2.68445312       0.03253329
C        3.36315224      -2.14444154       0.27662870
C        1.80344966       1.64746207       0.82311792
C       -0.86435348       1.52751910      -3.58817008
C        3.49010922       2.02030987      -0.74681731
C        0.55388200      -2.99992679       2.03884133
C        1.47494417       1.54258279      -2.93562081
C       -2.30876622       2.67561994      -1.66744471
C       -1.36627566      -3.07133581      -1.23578768
C       -0.01600452      -2.21586869       3.06549761
C        2.50051961       0.92189463      -2.29180226
C        0.15493426       3.30260596       0.04595241
C       -3.18270678       0.32451515      -1.21834278
C        0.05281402       3.86538645      -1.23718879
60
Properties=species:S:1:pos:R:3 trajectory=trial0001_proposal001_step006_proposal_relax trajectory_step=31 pbc="F F F"
C       -2.44109116      -2.19999494       0.71505190
C        2.12597814      -2.96872611       0.20018894
C        1.36096292      -0.03067601       2.51333849
C       -1.05134186       3.36532198      -2.05516431
C       -2.94501012       2.90850739      -0.42942796
C        2.92652253      -1.94445497       1.77924945
C       -2.57427920      -1.02688485       1.47811407
C       -1.43436549      -2.40153919       2.83548467
C        2.32261607       3.04872600      -0.96375414
C       -0.42708865       2.87588770      -3.20760553
C       -0.81708555       2.85292829       0.98119279
C        3.11764715       1.32080298       0.46207429
C       -2.34569977      -2.14534723      -0.74970214
C        1.40492152       3.73718310      -1.91190476
C        3.65262453       0.95250739      -1.67581086
C       -1.05741489      -0.11063330       3.18345551
C        3.82733958      -0.94625337      -0.12653475
C       -2.10100407       0.82953085      -3.22302315
C       -2.70293597       1.38076770      -2.10415604
C       -0.47570804      -3.53458773       1.13944026
C        0.27432991       0.85102184      -3.20416411
C       -0.90800868      -1.20239860      -2.99151426
C       -3.96919966       2.09104591       0.20984989
C       -3.10756740       0.22308175       1.19699810
C       -2.76804105       1.25421415       2.09844124
C       -1.41061769       1.18366111       2.65335258
C        0.03719614      -0.29463950      -2.46375709
C       -1.95599900      -1.11974109       2.74431611
C       -2.16348021      -0.64508843      -2.96027659
C        2.62993430      -0.56533624       1.93139567
C        0.57828034      -2.06241698      -1.50680456
C       -0.32573910      -3.59794963      -0.27327405
C       -3.27180279       2.41107845       1.48129676
C        1.04000403       2.91537104      -3.00107563
C        0.26418965      -0.74548978       3.20812355
C       -0.61933926      -2.39750468      -2.24780240
C       -3.70439367       0.69001543       0.01940538
C       -2.22261658       3.07664506       0.77656773
C       -0.36080126       1.89227919       1.97513094
C        0.94574861       1.19705772       1.87474816
C       -1.73207693      -3.10867299       1.60629459
C       -2.70860285      -0.96779062      -1.61694293
C        3.46326890       0.02108082       0.84243349
C        1.87476220      -2.88034099       1.58532982
C        0.97694937      -3.09139547      -0.64669420
C        0.41035889      -0.69948033      -1.18318929
C        1.42285327       2.70828868       0.04536985
C        3.36035992      -2.15773699       0.31322287
C        1.80491129       1.64488804       0.80338276
C       -0.87410414       1.54949984      -3.57454853
C        3.47291034       2.04823537      -0.75385328
C        0.56111742      -3.01665164       2.04704262
C        1.44251324       1.56403312      -2.89374126
C       -2.31184201       2.68826754      -1.65901835
C       -1.37317859      -3.07501573      -1.24636282
C       -0.02592844      -2.20598991       3.04795811
C        2.50307540       0.96788710      -2.27307735
C        0.15968237       3.32903939       0.05715685
C       -3.17787850       0.32967134      -1.21664953
C        0.04375364       3.87450489      -1.23736582
60
Properties=species:S:1:pos:R:3 trajectory=trial0001_proposal001_step006_proposal_relax trajectory_step=32 pbc="F F F"
C       -2.45960914      -2.18994848       0.69767819
C        2.13361950      -3.02372973       0.20841967
C        1.34750162      -0.04538584       2.49047341
C       -1.07762159       3.36135764      -2.06725460
C       -2.90851839       2.92214619      -0.41522449
C        2.90378410      -1.93703776       1.77683282
C       -2.58286827      -1.01676251       1.46758498
C       -1.46337980      -2.39839345       2.83592816
C        2.30287637       3.07264605      -0.95783062
C       -0.44962891       2.86623506      -3.21105316
C       -0.79762781       2.86515667       1.00825243
C        3.12456481       1.32383996       0.42731161
C       -2.36617761      -2.12773368      -0.76233316
C        1.37497240       3.72318549      -1.90348983
C        3.68459168       1.01071544      -1.70332284
C       -1.08157410      -0.11830178       3.21006252
C        3.86481345      -0.98014144      -0.07192144
C       -2.12007298       0.84597667      -3.23940403
C       -2.72311599       1.39308919      -2.11368977
C       -0.47823532      -3.53817693       1.14387197
C        0.25908937       0.85185098      -3.17381345
C       -0.90553065      -1.23969677      -2.96494799
C       -3.92764453       2.11536559       0.22327142
C       -3.09466580       0.23907814       1.19297335
C       -2.76174162       1.27221302       2.09675642
C       -1.41697180       1.18196290       2.68109385
C        0.04947574      -0.30808977      -2.46177774
C       -2.00420234      -1.11991596       2.76601648
C       -2.16685132      -0.62614262      -2.96808901
C        2.63821304      -0.55243456       1.94009093
C        0.63910688      -2.12017652      -1.54338432
C       -0.31903271      -3.57838179      -0.25141508
C       -3.25661503       2.43611932       1.49947304
C        1.00426564       2.90441219      -2.99666193
C        0.25337302      -0.76455259       3.19295095
C       -0.57225346      -2.42598022      -2.26150574
C       -3.69740550       0.70547768       0.02613748
C       -2.19341967       3.08108544       0.79682347
C       -0.37043669       1.86667641       1.97889617
C        0.94187554       1.19231865       1.83440905
C       -1.74518140      -3.09470446       1.60094797
C       -2.72311477      -0.94682489      -1.62890340
C        3.48518946       0.02582664       0.84024262
C        1.87370213      -2.90594836       1.59787237
C        1.02035653      -3.17310523      -0.66799188
C        0.48023845      -0.75967373      -1.23352657
C        1.41625096       2.74114231       0.04997110
C        3.36317790      -2.16191208       0.33970594
C        1.78852190       1.61265059       0.77815112
C       -0.87323743       1.55046079      -3.58430572
C        3.44869393       2.07583195      -0.77483991
C        0.55898953      -3.03289525       2.04960178
C        1.43084260       1.57666925      -2.87641322
C       -2.31645671       2.68431274      -1.65301836
C       -1.35609464      -3.03434511      -1.22307080
C       -0.04616412      -2.19922057       3.03087001
C        2.52395939       1.02432237      -2.27673901
C        0.15853749       3.33866322       0.06780020
C       -3.19079135       0.34149967      -1.21929151
C        0.01622717       3.85761762      -1.23704015
60
Properties=species:S:1:pos:R:3 trajectory=trial0001_proposal001_step006_proposal_relax trajectory_step=33 pbc="F F F"
C       -2.46632890      -2.17338261       0.67988053
C        2.13685137      -3.07431995       0.22876444
C        1.33934320      -0.04241604       2.46881747
C       -1.09982169       3.36615620      -2.06732715
C       -2.87847702       2.94405011      -0.39844053
C        2.86174456      -1.94908864       1.79713999
C       -2.59761195      -1.00814560       1.46529488
C       -1.47798886      -2.39142264       2.83183755
C        2.29689343       3.11422394      -0.94556595
C       -0.46649478       2.87648478      -3.21161699
C       -0.79173086       2.88395009       1.03443798
C        3.12029416       1.31240426       0.41008560
C       -2.36452324      -2.10782739      -0.78178069
C        1.33835484       3.72728650      -1.88603897
C        3.70587124       1.09523049      -1.75599119
C       -1.09086566      -0.12857001       3.20799112
C        3.89562209      -1.01954415      -0.01297458
C       -2.12056032       0.86207116      -3.24345049
C       -2.73108371       1.40750435      -2.11080988
C       -0.48483252      -3.54244942       1.14178861
C        0.23929522       0.86240870      -3.12334560
C       -0.92146399      -1.27948656      -2.94116656
C       -3.88490632       2.14104415       0.23670635
C       -3.08156822       0.25945877       1.18815626
C       -2.75044974       1.28577730       2.09666758
C       -1.42139821       1.18145135       2.69663603
C        0.04608667      -0.35976391      -2.45486253
C       -2.02933808      -1.11991844       2.76931301
C       -2.16430880      -0.61839872      -2.97347596
C        2.63557156      -0.55524280       1.95964476
C        0.72541454      -2.23915236      -1.62089528
C       -0.30070507      -3.58937408      -0.23897528
C       -3.24419615       2.46775808       1.52457883
C        0.97885054       2.92360219      -2.99091198
C        0.24964176      -0.77014221       3.17609501
C       -0.55227056      -2.49527159      -2.30534164
C       -3.69077092       0.73247772       0.02906812
C       -2.17272574       3.09393119       0.81141003
C       -0.37957433       1.86889262       1.98128787
C        0.92949114       1.19774610       1.80917556
C       -1.74697564      -3.07418156       1.58606869
C       -2.73628802      -0.92600490      -1.64603358
C        3.47681017       0.02538328       0.83905119
C        1.85513790      -2.93146437       1.60652738
C        1.05660627      -3.27192925      -0.69578970
C        0.61267701      -0.85252633      -1.27822590
C        1.40752175       2.76879743       0.06273729
C        3.34750981      -2.19510060       0.38037090
C        1.77572237       1.60692983       0.75007888
C       -0.87456832       1.54801830      -3.58086997
C        3.43119391       2.11126557      -0.78341020
C        0.53626828      -3.03695684       2.05054958
C        1.40099917       1.58605001      -2.86057548
C       -2.31513788       2.68586737      -1.64751184
C       -1.32239633      -3.01150114      -1.19906983
C       -0.05781051      -2.19009912       3.00715183
C        2.52428146       1.08157705      -2.28592968
C        0.15373578       3.35744890       0.07208143
C       -3.20785098       0.36239204      -1.22457921
C       -0.01219773       3.85633519      -1.22621634
60
Properties=species:S:1:pos:R:3 trajectory=trial0001_proposal001_step006_proposal_relax trajectory_step=34 pbc="F F F"
C       -2.48853673      -2.13822283       0.68125130
C        2.14901041      -3.11393275       0.22557645
C        1.31622999      -0.06468112       2.42245951
C       -1.11697772       3.33222071      -2.07143694
C       -2.82618576       2.96700355      -0.38799403
C        2.80104830      -1.97468041       1.80456085
C       -2.65287572      -0.99588092       1.48963957
C       -1.51372509      -2.39902752       2.82833928
C        2.27530490       3.16762077      -0.92966399
C       -0.49461113       2.86246269      -3.22539529
C       -0.78717490       2.87914201       1.06125189
C        3.09643517       1.28619269       0.36481898
C       -2.33767648      -2.05695089      -0.78496081
C        1.27028190       3.72835852      -1.86945914
C        3.77122169       1.22347003      -1.86027764
C       -1.10457173      -0.15750836       3.20546417
C        3.97065767      -1.06585085       0.04610993
C       -2.12274042       0.84720216      -3.24993547
C       -2.75676862       1.42031631      -2.13663881
C       -0.49957032      -3.52293249       1.14473154
C        0.21772311       0.81451857      -3.07327832
C       -0.89767156      -1.31395839      -2.87972600
C       -3.82219192       2.18405597       0.27072137
C       -3.06694425       0.29507261       1.18865630
C       -2.73881543       1.30394310       2.11511779
C       -1.41715719       1.16351042       2.71093425
C        0.05497978      -0.40277022      -2.39647852
C       -2.07711217      -1.13368941       2.78951829
C       -2.14341815      -0.62426149      -2.96114100
C        2.62658532      -0.57315215       1.96421338
C        0.80811842      -2.30126240      -1.65990176
C       -0.26009522      -3.56330500      -0.21958665
C       -3.21604987       2.51017293       1.58125639
C        0.95587521       2.92560535      -2.99681111
C        0.22703411      -0.78225321       3.15537684
C       -0.49601573      -2.55342994      -2.30809447
C       -3.67265174       0.78713949       0.03799713
C       -2.14254421       3.11500215       0.84237622
C       -0.38424441       1.84506175       1.97506722
C        0.89470166       1.15339192       1.75675822
C       -1.76971935      -3.04097655       1.56375734
C       -2.75834785      -0.89366868      -1.66267528
C        3.48579107       0.00475106       0.84827063
C        1.80421972      -2.96393763       1.60573140
C        1.07107316      -3.31469720      -0.71330002
C        0.78710193      -0.90426021      -1.36128946
C        1.40236308       2.78379296       0.06465293
C        3.35156255      -2.22218863       0.41395444
C        1.74476266       1.58335490       0.69075308
C       -0.88316655       1.52695305      -3.58377489
C        3.41303004       2.14407135      -0.80561756
C        0.50105160      -3.04447811       2.04709857
C        1.37824382       1.60891138      -2.86124502
C       -2.32125082       2.67453671      -1.64028677
C       -1.25573637      -2.93892647      -1.14438470
C       -0.08880440      -2.19179649       2.99691845
C        2.57523981       1.16923524      -2.32772728
C        0.12906277       3.35603927       0.09336006
C       -3.25342352       0.39441074      -1.25101808
C       -0.07136534       3.83545363      -1.21638284
60
Properties=species:S:1:pos:R:3 trajectory=trial0001_proposal001_step006_proposal_relax trajectory_step=35 pbc="F F F"
C       -2.48941294      -2.11482928       0.67628030
C        2.15434458      -3.14256700       0.23772361
C        1.29991122      -0.06767540       2.40901032
C       -1.12359363       3.32905482      -2.06687809
C       -2.81581379       2.98558377      -0.37047932
C        2.76031119      -1.99311512       1.82521087
C       -2.68398674      -0.98079243       1.50406099
C       -1.52349490      -2.40327229       2.81905610
C        2.26960460       3.20824982      -0.92385327
C       -0.50318573       2.87022313      -3.23925530
C       -0.78468301       2.88429641       1.07466445
C        3.07257868       1.25521561       0.34124565
C       -2.29845627      -2.02844297      -0.77474349
C        1.24466792       3.74703433      -1.86496389
C        3.81583868       1.34083570      -1.93371030
C       -1.10708188      -0.15655499       3.18622736
C        4.00384717      -1.11407173       0.08668188
C       -2.12012922       0.83381089      -3.24241720
C       -2.76854550       1.42693339      -2.14920496
C       -0.51699151      -3.51629439       1.13740736
C        0.20031558       0.80754563      -3.01912908
C       -0.89488783      -1.33571822      -2.85385670
C       -3.80320210       2.21778761       0.29275899
C       -3.06458277       0.31184074       1.19176729
C       -2.72906488       1.31419390       2.13197369
C       -1.40734384       1.15951831       2.70839953
C        0.07512537      -0.41510394      -2.36564969
C       -2.08189355      -1.13162433       2.78782560
C       -2.13357517      -0.63630535      -2.95065450
C        2.59899643      -0.59061779       1.95996035
C        0.86043407      -2.38177764      -1.74010433
C       -0.25694641      -3.57122479      -0.22444071
C       -3.20361386       2.53310331       1.60304353
C        0.93819411       2.95580556      -2.99639141
C        0.21085368      -0.77852969       3.14035371
C       -0.49040673      -2.59506616      -2.32940586
C       -3.65711105       0.81799553       0.03081188
C       -2.14675408       3.14551588       0.86116633
C       -0.38293591       1.84572314       1.98023476
C        0.88504787       1.14079990       1.72889369
C       -1.77530737      -3.02788848       1.54616533
C       -2.76827311      -0.88934530      -1.66829710
C        3.46907881      -0.02380635       0.85383247
C        1.77891988      -2.97232998       1.60082286
C        1.09830659      -3.36473748      -0.70195862
C        0.95226008      -1.00546587      -1.41109105
C        1.38906613       2.79524776       0.06472168
C        3.35032684      -2.25381719       0.44780731
C        1.72801577       1.57561305       0.67593467
C       -0.88460112       1.50647382      -3.55619618
C        3.40896481       2.15967163      -0.81304108
C        0.46544569      -3.04644119       2.04710685
C        1.35922979       1.60501839      -2.84642276
C       -2.31920201       2.68021283      -1.64210486
C       -1.22058383      -2.92354303      -1.14032291
C       -0.10524599      -2.19114042       2.99782912
C        2.56585016       1.22582002      -2.36302918
C        0.11942023       3.35832521       0.10512227
C       -3.27978910       0.41503598      -1.26070591
C       -0.09369090       3.83990639      -1.19758106
60
Properties=species:S:1:pos:R:3 trajectory=trial0001_proposal001_step006_proposal_relax trajectory_step=36 pbc="F F F"
C       -2.49199618      -2.10126640       0.69142178
C        2.15486696      -3.10506609       0.23023970
C        1.28839471      -0.08656603       2.40262235
C       -1.11346428       3.30333554      -2.06499292
C       -2.82487948       2.98675897      -0.37431976
C        2.76158165      -2.00369224       1.81656926
C       -2.71556224      -0.98071832       1.53156079
C       -1.52990094      -2.41201111       2.82178064
C        2.26737456       3.19941783      -0.93041273
C       -0.49566881       2.84831644      -3.24842531
C       -0.79355892       2.86068693       1.06554599
C        3.05291112       1.22172348       0.33280585
C       -2.26370989      -2.00102871      -0.73781342
C        1.24320212       3.74913789      -1.87714882
C        3.82432829       1.37754164      -1.96844606
C       -1.10596551      -0.16099635       3.16464290
C        4.01409816      -1.10680137       0.07665874
C       -2.11161744       0.79997472      -3.23596585
C       -2.78150516       1.41787358      -2.16017016
C       -0.53286720      -3.50106920       1.13417009
C        0.22103247       0.80110401      -3.01965368
C       -0.86668718      -1.31174219      -2.84176442
C       -3.81207910       2.22644779       0.30637334
C       -3.08219760       0.31791492       1.20304116
C       -2.73205531       1.31497378       2.15048957
C       -1.39859602       1.14544077       2.69257165
C        0.10796508      -0.39161274      -2.34250442
C       -2.07788595      -1.13336697       2.79487454
C       -2.11151514      -0.66071876      -2.92576031
C        2.57309663      -0.61340292       1.93289496
C        0.83640069      -2.32350135      -1.70316824
C       -0.26446133      -3.54561446      -0.23272434
C       -3.20319425       2.53145679       1.61622264
C        0.94029819       2.95623725      -3.00038077
C        0.19892548      -0.78576634       3.13696362
C       -0.48741821      -2.56154163      -2.28783200
C       -3.64703638       0.83067136       0.02862714
C       -2.15473766       3.16073092       0.86914533
C       -0.37560632       1.83192715       1.97098883
C        0.87649633       1.11120953       1.72035091
C       -1.78210922      -3.03074400       1.54530625
C       -2.76260601      -0.89792704      -1.64991254
C        3.46336385      -0.04384308       0.85131662
C        1.76790562      -2.96254293       1.57623264
C        1.08822406      -3.27989374      -0.68068735
C        0.97479496      -0.95813071      -1.42952200
C        1.38342652       2.76731800       0.06441979
C        3.35266845      -2.26098405       0.43739243
C        1.72332871       1.57334351       0.66164201
C       -0.87570871       1.46897670      -3.54017495
C        3.40609403       2.13822197      -0.82336995
C        0.45683764      -3.04462867       2.04467078
C        1.37295917       1.58314154      -2.86244610
C       -2.31865817       2.67153092      -1.64735077
C       -1.20327965      -2.91077399      -1.14238735
C       -0.11611706      -2.20981683       3.02125320
C        2.60571047       1.24307846      -2.39928234
C        0.10672482       3.34197048       0.10106862
C       -3.29641895       0.41527956      -1.26434027
C       -0.09337730       3.83031946      -1.19469521
60
Properties=species:S:1:pos:R:3 trajectory=trial0001_proposal001_step006_proposal_relax trajectory_step=37 pbc="F F F"
C       -2.48042426      -2.09173604       0.70026483
C        2.15908137      -3.11828352       0.23954109
C        1.27367534      -0.08761185       2.40643585
C       -1.10601068       3.31708060      -2.06190344
C       -2.83936356       2.99939995      -0.37937593
C        2.76035917      -2.00228992       1.83625767
C       -2.71935923      -0.97654387       1.53494508
C       -1.53576407      -2.40747283       2.81680144
C        2.26213807       3.19767064      -0.92505603
C       -0.50666098       2.85888708      -3.24849351
C       -0.80126394       2.87172478       1.06603825
C        3.03667290       1.19765524       0.31080875
C       -2.23499940      -1.99156136      -0.72751055
C        1.25027108       3.77227710      -1.88055561
C        3.83196809       1.45898486      -2.01439305
C       -1.10565041      -0.15250247       3.15505154
C        4.01465880      -1.13923776       0.09253141
C       -2.11140889       0.77952490      -3.22224135
C       -2.79079243       1.41919398      -2.16228144
C       -0.54306923      -3.50263298       1.12275612
C        0.22232372       0.80463686      -2.97655248
C       -0.84913364      -1.27464564      -2.83852409
C       -3.83642388       2.22920216       0.30699929
C       -3.09595711       0.32678673       1.21027843
C       -2.73746427       1.32185102       2.15579957
C       -1.39433832       1.15804164       2.68523287
C        0.14647296      -0.39957434      -2.33420841
C       -2.06836873      -1.12534612       2.78452294
C       -2.10822869      -0.66928171      -2.91082697
C        2.54238840      -0.62256526       1.91692538
C        0.86857332      -2.39932296      -1.74936409
C       -0.27460975      -3.56081100      -0.24402789
C       -3.20617493       2.52851861       1.61637960
C        0.94337169       2.95567263      -3.00144806
C        0.18391085      -0.78191001       3.13331816
C       -0.50149585      -2.55553131      -2.31044504
C       -3.64128626       0.84281378       0.03529222
C       -2.15810329       3.18890160       0.88025914
C       -0.36386813       1.84166312       1.96988340
C        0.87394740       1.10734588       1.72591815
C       -1.79768183      -3.03022545       1.54563483
C       -2.75616653      -0.90989685      -1.63260031
C        3.44287157      -0.07157168       0.84155605
C        1.74364408      -2.95819587       1.59789637
C        1.09028124      -3.29542481      -0.67815543
C        1.05847475      -1.02709924      -1.47517858
C        1.39224967       2.76333268       0.05373294
C        3.37070730      -2.28656821       0.45678988
C        1.72418350       1.56765661       0.65600159
C       -0.87717362       1.46784254      -3.50603958
C        3.40062233       2.13943726      -0.82475788
C        0.45635929      -3.04896304       2.03780735
C        1.36985793       1.61151450      -2.84773188
C       -2.32893027       2.68196488      -1.63802776
C       -1.22269425      -2.92564198      -1.15814322
C       -0.12498487      -2.21645971       3.03238760
C        2.61451885       1.26673398      -2.41164650
C        0.10373597       3.34020355       0.10897754
C       -3.29512531       0.40964693      -1.26571404
C       -0.08377396       3.84303539      -1.19961005
60
Properties=species:S:1:pos:R:3 trajectory=trial0001_proposal001_step006_proposal_relax trajectory_step=38 pbc="F F F"
C       -2.47943468      -2.08530199       0.70771489
C        2.15474648      -3.11321339       0.24657467
C        1.26255851      -0.09842557       2.40031519
C       -1.11089465       3.31392897      -2.06151030
C       -2.84817862       3.00722044      -0.36947396
C        2.76137515      -2.01362423       1.83904735
C       -2.72901774      -0.97098891       1.53781574
C       -1.54386652      -2.40713241       2.82206901
C        2.25791923       3.18665966      -0.92654332
C       -0.50903186       2.84675385      -3.24285360
C       -0.80275252       2.87359130       1.06456271
C        3.03026426       1.18571022       0.28904038
C       -2.22915931      -1.98045767      -0.71747078
C        1.25764315       3.77275693      -1.88429163
C        3.84792076       1.49905122      -2.03314928
C       -1.10827951      -0.15395055       3.15085453
C        4.01201997      -1.15197416       0.09802745
C       -2.10871540       0.77433975      -3.21243986
C       -2.79762477       1.41202565      -2.16195937
C       -0.54744366      -3.50111543       1.12276347
C        0.24068265       0.81583576      -2.96069807
C       -0.82745530      -1.26040005      -2.83101340
C       -3.84041096       2.23520323       0.30662786
C       -3.10700514       0.32655843       1.22202085
C       -2.74214375       1.32524205       2.15898994
C       -1.39812279       1.16173807       2.68159482
C        0.17881380      -0.40704167      -2.33588851
C       -2.07831444      -1.12191672       2.78575699
C       -2.09979882      -0.66941591      -2.89547609
C        2.53038255      -0.62730107       1.90611052
C        0.87648060      -2.39567038      -1.75495358
C       -0.27424245      -3.55304266      -0.24682255
C       -3.20843536       2.53674608       1.61154063
C        0.94202165       2.95067232      -3.00059356
C        0.18181918      -0.79347854       3.13141291
C       -0.49013530      -2.54080160      -2.30482411
C       -3.64279285       0.84363695       0.03909187
C       -2.16757883       3.19377797       0.88036999
C       -0.36609685       1.83944138       1.96240819
C        0.87263748       1.10488332       1.72250199
C       -1.80548538      -3.03043686       1.55205935
C       -2.74565259      -0.91063159      -1.61488677
C        3.42912535      -0.08305622       0.82915461
C        1.75458543      -2.95477840       1.59859124
C        1.08218518      -3.28978243      -0.67943943
C        1.08588293      -1.03196087      -1.50817841
C        1.38819926       2.75638554       0.05452244
C        3.37801925      -2.29654360       0.46502540
C        1.72157529       1.55019904       0.64727792
C       -0.87529932       1.46284298      -3.49137907
C        3.38703811       2.13545922      -0.83050613
C        0.44074734      -3.05031824       2.03983944
C        1.38415135       1.62719431      -2.84715472
C       -2.33139446       2.68000054      -1.63664548
C       -1.23239845      -2.92076595      -1.15887685
C       -0.12901272      -2.22915452       3.03476957
C        2.62601070       1.28360833      -2.43409833
C        0.10640266       3.33673669       0.10183816
C       -3.29523606       0.40382958      -1.25376330
C       -0.07922817       3.84094543      -1.20718740
60
Properties=species:S:1:pos:R:3 trajectory=trial0001_proposal001_step006_proposal_relax trajectory_step=39 pbc="F F F"
C       -2.48273186      -2.07119606       0.71402529
C        2.14592773      -3.11870089       0.25779293
C        1.24298995      -0.11881660       2.38173516
C       -1.12557791       3.30851749      -2.06144659
C       -2.85256188       3.02346163      -0.36102620
C        2.76011409      -2.02687013       1.85031240
C       -2.74715090      -0.96288546       1.54367009
C       -1.56568918      -2.40548736       2.83232897
C        2.24816001       3.17880791      -0.92772017
C       -0.51511056       2.82875735      -3.23236270
C       -0.80355287       2.88189921       1.06515843
C        3.01972931       1.15991782       0.24585051
C       -2.22486983      -1.96029627      -0.70233633
C        1.26012894       3.77115097      -1.88764873
C        3.87825926       1.58465817      -2.07785578
C       -1.11776658      -0.15829705       3.14792517
C        4.01920256      -1.18212981       0.11816942
C       -2.10538116       0.77126623      -3.19815316
C       -2.81295987       1.40754407      -2.15551262
C       -0.55928390      -3.49829312       1.12200591
C        0.26709872       0.83747276      -2.92645568
C       -0.79878401      -1.25476267      -2.81000687
C       -3.83851117       2.24786416       0.31026790
C       -3.12517835       0.33625933       1.23706137
C       -2.74955654       1.33939241       2.16344838
C       -1.40486983       1.16481818       2.68240576
C        0.23136487      -0.41193810      -2.34377257
C       -2.10232890      -1.11851715       2.79466105
C       -2.07789450      -0.66555094      -2.86990126
C        2.51367076      -0.63867398       1.89093197
C        0.90621449      -2.41324146      -1.77681548
C       -0.27598797      -3.53779840      -0.24455180
C       -3.21156985       2.55315581       1.61306377
C        0.92890559       2.95760360      -2.99868904
C        0.17427033      -0.81516595       3.12593693
C       -0.46659239      -2.52999574      -2.29744503
C       -3.64635140       0.85026248       0.04974468
C       -2.17023045       3.20415721       0.88507141
C       -0.37562221       1.83420195       1.95078918
C        0.86716454       1.09772464       1.70634133
C       -1.81849580      -3.02747034       1.55942648
C       -2.73033956      -0.90196753      -1.59123760
C        3.40707209      -0.10023317       0.80465124
C        1.75005412      -2.96424639       1.60512266
C        1.08102070      -3.30099828      -0.68409702
C        1.16742279      -1.06066183      -1.57136141
C        1.37577176       2.74685639       0.05783701
C        3.38910414      -2.32269469       0.48709222
C        1.70802317       1.51857496       0.62365878
C       -0.86643803       1.44909076      -3.46468670
C        3.36227890       2.13554106      -0.85154688
C        0.42679895      -3.05519744       2.04010264
C        1.39533292       1.64555388      -2.84552519
C       -2.34002311       2.67555560      -1.62947575
C       -1.22879235      -2.90283237      -1.15863299
C       -0.14479289      -2.24379731       3.03641974
C        2.66931809       1.32973236      -2.46823455
C        0.10881739       3.33482873       0.08951654
C       -3.29907363       0.39999057      -1.23358982
C       -0.07957776       3.83439226      -1.21422513
60
Properties=species:S:1:pos:R:3 trajectory=trial0001_proposal001_step006_proposal_relax trajectory_step=40 pbc="F F F"
C       -2.48694905      -2.06329742       0.72446540
C        2.12622575      -3.11468516       0.26542543
C        1.22728613      -0.14393473       2.35637084
C       -1.13747845       3.30403809      -2.05849109
C       -2.86582780       3.03530602      -0.36630395
C        2.77127973      -2.04870945       1.86615075
C       -2.76538596      -0.95535323       1.55532745
C       -1.58954207      -2.40917783       2.84954480
C        2.23413928       3.15916924      -0.92581826
C       -0.52009133       2.81511405      -3.20927616
C       -0.80832854       2.89191271       1.05019588
C        3.00119243       1.12921698       0.19638642
C       -2.22599293      -1.95389911      -0.68585872
C        1.26614370       3.77106583      -1.88479519
C        3.93682462       1.67287416      -2.11325682
C       -1.12673085      -0.16421807       3.14675478
C        4.01824399      -1.20921696       0.12533217
C       -2.09225885       0.77158322      -3.17232350
C       -2.82449365       1.40465722      -2.12992475
C       -0.57276870      -3.49402689       1.12338745
C        0.30356470       0.85785484      -2.90093733
C       -0.76613481      -1.24536980      -2.78901091
C       -3.84678733       2.25088654       0.30982590
C       -3.15292207       0.34425631       1.25676919
C       -2.76423898       1.35642287       2.16709627
C       -1.41476444       1.16548633       2.67997593
C        0.29727939      -0.41297611      -2.36203191
C       -2.12301977      -1.11594729       2.81008428
C       -2.04224496      -0.65348560      -2.83067566
C        2.50030318      -0.65572045       1.86838638
C        0.92664457      -2.42010820      -1.78313866
C       -0.28633882      -3.51888952      -0.24234496
C       -3.22452454       2.56535828       1.61241727
C        0.92480076       2.97164877      -3.00407628
C        0.16209344      -0.83510556       3.12566258
C       -0.44855676      -2.50822600      -2.27876207
C       -3.66514287       0.85285089       0.06929932
C       -2.17225561       3.20888532       0.87893566
C       -0.39170199       1.83321248       1.93401515
C        0.85410060       1.08456562       1.69184135
C       -1.83273067      -3.02435560       1.57194077
C       -2.70318982      -0.88423303      -1.56166753
C        3.37983250      -0.12691095       0.76441121
C        1.73942942      -2.97644088       1.61388381
C        1.07614893      -3.29408735      -0.68059219
C        1.24374170      -1.06186148      -1.64064421
C        1.36485519       2.72327111       0.04572450
C        3.39886529      -2.35593469       0.50848947
C        1.68752447       1.48507707       0.59605193
C       -0.84656638       1.43753809      -3.43073299
C        3.33945956       2.12475967      -0.89209987
C        0.41719122      -3.06056495       2.04204415
C        1.44177786       1.66675925      -2.85074595
C       -2.35668640       2.66826046      -1.61880386
C       -1.21599483      -2.88505780      -1.15661217
C       -0.16529129      -2.25510358       3.04416457
C        2.70339422       1.38313099      -2.51919507
C        0.10453447       3.32787924       0.07681046
C       -3.29499296       0.39507702      -1.20574104
C       -0.07637475       3.82907235      -1.22509810
60
Properties=species:S:1:pos:R:3 trajectory=trial0001_proposal001_step006_proposal_relax trajectory_step=41 pbc="F F F"
C       -2.49191540      -2.05984145       0.73077957
C        2.11569778      -3.12338293       0.27823183
C        1.21813490      -0.15748123       2.33799623
C       -1.14807893       3.31081769      -2.05060022
C       -2.87832111       3.04092487      -0.36487736
C        2.77515630      -2.06936542       1.88585837
C       -2.77359654      -0.94898485       1.56297988
C       -1.60636456      -2.41222847       2.86012188
C        2.22534573       3.15468473      -0.92758600
C       -0.52099071       2.81802115      -3.19356761
C       -0.81373636       2.89862589       1.04196129
C        2.98084411       1.10605829       0.15712316
C       -2.22759541      -1.96075937      -0.68257489
C        1.26277610       3.77717212      -1.88033421
C        3.97381226       1.74119204      -2.14913346
C       -1.13519023      -0.16272289       3.15068013
C        4.01840092      -1.24324545       0.13178663
C       -2.08029948       0.77919295      -3.14736419
C       -2.82614040       1.40613968      -2.10891261
C       -0.58393596      -3.49150396       1.12743501
C        0.32910875       0.86720305      -2.87713429
C       -0.74753556      -1.23732303      -2.77552591
C       -3.85416688       2.25615383       0.31045133
C       -3.17090952       0.34972129       1.27185768
C       -2.77388050       1.36706643       2.17148343
C       -1.42264198       1.16861854       2.67755353
C        0.33936855      -0.41337049      -2.38403704
C       -2.13630022      -1.11409215       2.82189897
C       -2.01564850      -0.63573744      -2.80265343
C        2.49135050      -0.66948011       1.85053100
C        0.95496207      -2.44881593      -1.80476453
C       -0.29267426      -3.51505382      -0.23941307
C       -3.23223875       2.57833086       1.60852336
C        0.92666244       2.99184620      -3.00704306
C        0.15033969      -0.83891065       3.12370401
C       -0.43868208      -2.50936480      -2.27365126
C       -3.68640208       0.85426307       0.08056659
C       -2.17996792       3.21352004       0.86929717
C       -0.40193498       1.83548548       1.92574859
C        0.83897773       1.07301160       1.67916380
C       -1.84205373      -3.02107010       1.57762791
C       -2.68293021      -0.87030115      -1.54422590
C        3.36187636      -0.15093227       0.73338108
C        1.73257514      -2.98557476       1.62438022
C        1.07746627      -3.31025820      -0.67711339
C        1.32186257      -1.09811125      -1.69318094
C        1.35081355       2.70557342       0.03340808
C        3.40074596      -2.38660560       0.53116506
C        1.67074095       1.46475477       0.57201452
C       -0.83292501       1.44052127      -3.40045329
C        3.32474508       2.11684993      -0.92800573
C        0.40374890      -3.06604919       2.05032403
C        1.45176605       1.69070436      -2.85977271
C       -2.36711650       2.67084864      -1.61343703
C       -1.20640643      -2.87329007      -1.15190628
C       -0.18166252      -2.25748167       3.04776428
C        2.76414799       1.43554792      -2.54008937
C        0.10174503       3.32723157       0.06936662
C       -3.29122342       0.39958866      -1.18403343
C       -0.07913670       3.83196164      -1.22556158
60
Properties=species:S:1:pos:R:3 trajectory=trial0001_proposal001_step006_proposal_relax trajectory_step=42 pbc="F F F"
C       -2.49704579      -2.06661088       0.73698082
C        2.10882186      -3.12084878       0.28511484
C        1.21848021      -0.16195249       2.33014968
C       -1.14927941       3.32257386      -2.04005992
C       -2.89776545       3.03333870      -0.37223426
C        2.78877577      -2.08170075       1.90073632
C       -2.76975045      -0.95250816       1.57034908
C       -1.61075679      -2.41493446       2.86970362
C        2.22467507       3.14788877      -0.93551339
C       -0.50919433       2.83075325      -3.18081018
C       -0.82554533       2.89556994       1.02907423
C        2.96583618       1.09076719       0.13837787
C       -2.23719631      -1.98123697      -0.68343402
C        1.26231874       3.78480952      -1.87702418
C        4.00767122       1.75264334      -2.15805343
C       -1.13862531      -0.15592043       3.15639887
C        4.00530717      -1.25936117       0.11248690
C       -2.06234439       0.79242098      -3.12221743
C       -2.81268203       1.40835579      -2.08844958
C       -0.58865640      -3.49006541       1.13357099
C        0.35536018       0.87211396      -2.88454740
C       -0.73610489      -1.22923011      -2.77566671
C       -3.87392737       2.24956242       0.30751432
C       -3.18636639       0.34772374       1.28139305
C       -2.78374012       1.36875171       2.17311101
C       -1.42938820       1.17079757       2.67128300
C        0.36426715      -0.41343406      -2.40915805
C       -2.13394833      -1.11636313       2.82903879
C       -1.99640712      -0.61564046      -2.78232023
C        2.49354531      -0.68325483       1.83722567
C        0.95417288      -2.44637833      -1.80113489
C       -0.29599259      -3.51991921      -0.23239181
C       -3.24154709       2.57726122       1.59953113
C        0.94077064       3.01227948      -3.01096512
C        0.14529526      -0.83051967       3.12645668
C       -0.43875252      -2.50239365      -2.26703387
C       -3.71304131       0.84530340       0.08928377
C       -2.19131223       3.20809999       0.85180336
C       -0.40918283       1.83882970       1.92169879
C        0.82765498       1.06533124       1.67230689
C       -1.84408217      -3.02257669       1.58362175
C       -2.66453726      -0.86515331      -1.53126537
C        3.35084200      -0.16701139       0.70962925
C        1.72210998      -2.99017535       1.63566444
C        1.07025216      -3.30342414      -0.66904880
C        1.33341062      -1.10370760      -1.71122069
C        1.33757795       2.68677897       0.01593351
C        3.39726050      -2.40285384       0.53610760
C        1.65885390       1.45684663       0.56252440
C       -0.82021589       1.45456194      -3.38161813
C        3.31701894       2.10037014      -0.95242900
C        0.40404580      -3.06673337       2.05976826
C        1.47133675       1.70363396      -2.87957344
C       -2.37264958       2.68016304      -1.61183490
C       -1.20579962      -2.87464877      -1.14642236
C       -0.18781797      -2.25210166       3.05437280
C        2.79881297       1.46363549      -2.54488766
C        0.10034582       3.32393323       0.06319919
C       -3.28129080       0.40385741      -1.16687435
C       -0.07930498       3.84199573      -1.22000907
60
Properties=species:S:1:pos:R:3 trajectory=trial0001_proposal001_step006_proposal_relax trajectory_step=43 pbc="F F F"
C       -2.51616919      -2.07512396       0.74862172
C        2.09293022      -3.13249972       0.31560647
C        1.20989148      -0.17657088       2.30381790
C       -1.14877750       3.35440063      -2.02178309
C       -2.94225325       3.02447010      -0.38517448
C        2.79714568      -2.12248933       1.93815583
C       -2.77727708      -0.95445588       1.58944049
C       -1.62390866      -2.42047533       2.88999688
C        2.21000773       3.14684401      -0.94823667
C       -0.48474708       2.86700622      -3.15226167
C       -0.85345141       2.88453482       1.00594216
C        2.91902085       1.03619061       0.08018727
C       -2.25211183      -2.00704862      -0.67572430
C        1.25070165       3.81464679      -1.86573574
C        4.12672481       1.81867741      -2.21806328
C       -1.15220097      -0.14048059       3.16615682
C        3.98538101      -1.32093862       0.07471559
C       -2.01018477       0.82279853      -3.06139779
C       -2.78378923       1.42492921      -2.04463743
C       -0.60120336      -3.48666177       1.15407659
C        0.41627206       0.88976930      -2.89876981
C       -0.70336832      -1.21501806      -2.76675664
C       -3.92098334       2.24442924       0.31251049
C       -3.22361715       0.34367974       1.30699827
C       -2.80688532       1.37747735       2.17882607
C       -1.44567367       1.17515933       2.66114727
C        0.43673392      -0.42709365      -2.45900891
C       -2.13707465      -1.11742763       2.84674532
C       -1.94070360      -0.57825192      -2.72811992
C        2.48341704      -0.71738951       1.80928868
C        0.97124316      -2.47948532      -1.80772486
C       -0.29763440      -3.53001889      -0.21254179
C       -3.25821501       2.57729377       1.59247169
C        0.96357051       3.05792586      -3.02109181
C        0.13157481      -0.81270821       3.12321300
C       -0.43153667      -2.50181234      -2.25360583
C       -3.76998540       0.83689776       0.11251245
C       -2.21359837       3.20378990       0.82581733
C       -0.42663314       1.83749571       1.90970980
C        0.79732973       1.03875170       1.63840046
C       -1.85463524      -3.02097624       1.59529793
C       -2.63223368      -0.85131655      -1.49775997
C        3.31920474      -0.21773576       0.65419330
C        1.70564273      -3.00167326       1.66092866
C        1.06628159      -3.30136089      -0.65219217
C        1.41725416      -1.14817839      -1.77983853
C        1.31376818       2.65181640      -0.03189686
C        3.38707377      -2.45094737       0.55820607
C        1.62651267       1.42811358       0.52115216
C       -0.77752328       1.48612017      -3.33030054
C        3.27758938       2.06327467      -1.00808082
C        0.38241687      -3.06744204       2.08694314
C        1.52140993       1.74834313      -2.93054861
C       -2.38534454       2.70913978      -1.60895932
C       -1.19159443      -2.87417709      -1.13094688
C       -0.20520273      -2.23700266       3.07063563
C        2.87803443       1.55803267      -2.56031190
C        0.08199550       3.31374680       0.06351170
C       -3.26696675       0.41644333      -1.13381285
C       -0.09307591       3.87485517      -1.20173173
60
Properties=species:S:1:pos:R:3 trajectory=trial0001_proposal001_step006_proposal_relax trajectory_step=44 pbc="F F F"
C       -2.53689614      -2.09314902       0.76347734
C        2.08048087      -3.14203983       0.33071078
C        1.20685159      -0.18307242       2.28753903
C       -1.14214882       3.39569805      -2.01555150
C       -2.98765253       3.01690851      -0.37758704
C        2.80908758      -2.13637274       1.95296713
C       -2.78477083      -0.96051285       1.59784190
C       -1.62203556      -2.41540822       2.90567486
C        2.19575157       3.13694088      -0.96312046
C       -0.45597826       2.89637892      -3.13251341
C       -0.87475525       2.85680487       0.98958618
C        2.88361144       0.99798097       0.04101224
C       -2.26862466      -2.02322084      -0.66672506
C        1.24923796       3.84199661      -1.86105528
C        4.20848382       1.81474122      -2.22233756
C       -1.15835667      -0.13110957       3.17561488
C        3.94603198      -1.35499795       0.01895209
C       -1.95027560       0.84974758      -3.01265022
C       -2.74669797       1.43709642      -2.01549520
C       -0.59923287      -3.49021594       1.17877292
C        0.48656515       0.88311018      -2.94751888
C       -0.67287592      -1.21367840      -2.77024370
C       -3.96788230       2.23530711       0.31734069
C       -3.25368752       0.32556984       1.32404011
C       -2.82427286       1.36558419       2.17983150
C       -1.46362933       1.17877057       2.65796785
C        0.49095358      -0.41040975      -2.52576340
C       -2.13733207      -1.11365598       2.85436632
C       -1.90201560      -0.55149060      -2.68860031
C        2.47947061      -0.73666195       1.79579516
C        0.95818269      -2.46565383      -1.78395383
C       -0.29628125      -3.53452353      -0.19322457
C       -3.27597224       2.56701539       1.57745866
C        0.98631850       3.09110021      -3.01907352
C        0.12852505      -0.79734003       3.12204710
C       -0.42811315      -2.48809630      -2.23221246
C       -3.81044155       0.81476382       0.12007303
C       -2.24842493       3.18179053       0.80884684
C       -0.44124886       1.82055236       1.89450311
C        0.78211314       1.02252856       1.60721293
C       -1.86143299      -3.02551638       1.61509225
C       -2.61740986      -0.84551257      -1.47386166
C        3.29873785      -0.26417873       0.61972772
C        1.69299300      -3.01143144       1.69301517
C        1.06558928      -3.28537438      -0.62053219
C        1.41007483      -1.15327441      -1.80498955
C        1.28440419       2.63434469      -0.06005793
C        3.37361607      -2.46940046       0.55589468
C        1.60279926       1.40007783       0.48907031
C       -0.73349094       1.52852874      -3.30943248
C        3.25660374       2.01091565      -1.09108842
C        0.38678462      -3.06015671       2.11112680
C        1.58624921       1.78979643      -2.98781360
C       -2.38751896       2.74401567      -1.61558327
C       -1.20169217      -2.88669822      -1.11369444
C       -0.20374464      -2.21862015       3.08651328
C        2.92559481       1.62391835      -2.52968024
C        0.07235761       3.30059084       0.06143600
C       -3.25378024       0.42371442      -1.10757811
C       -0.09822889       3.91577692      -1.18335736
60
Properties=species:S:1:pos:R:3 trajectory=trial0001_proposal001_step006_proposal_relax trajectory_step=45 pbc="F F F"
C       -2.53778986      -2.09063235       0.76331283
C        2.09134977      -3.15291233       0.33858024
C        1.20356758      -0.17813464       2.28959817
C       -1.14452544       3.40355246      -2.02102073
C       -2.97867368       3.02521892      -0.37820825
C        2.79670566      -2.12433320       1.94231626
C       -2.79101713      -0.96507974       1.59538035
C       -1.61802731      -2.40538136       2.90028032
C        2.19393894       3.14373067      -0.96324048
C       -0.45611537       2.89504002      -3.14003187
C       -0.87438062       2.85204348       0.99748741
C        2.88913638       0.99327391       0.04182729
C       -2.26061635      -2.00938640      -0.66273167
C        1.24959217       3.84613292      -1.85948073
C        4.20446555       1.80645410      -2.21505797
C       -1.15741463      -0.13323201       3.17193438
C        3.94526803      -1.35340260       0.02214021
C       -1.94624603       0.84337899      -3.01794885
C       -2.74599966       1.44001153      -2.02686156
C       -0.59809219      -3.49246858       1.17747199
C        0.49008281       0.90296050      -2.96345403
C       -0.67789347      -1.21365431      -2.77154232
C       -3.96391200       2.23525605       0.32033284
C       -3.25053014       0.32851778       1.31431231
C       -2.82141669       1.36048854       2.17856615
C       -1.46079815       1.17624354       2.66503093
C        0.48449928      -0.42656518      -2.52058730
C       -2.13958294      -1.11134383       2.84748762
C       -1.90588836      -0.56219020      -2.69667233
C        2.47623955      -0.73116074       1.80390961
C        0.96377148      -2.47184831      -1.78595017
C       -0.29396013      -3.53359028      -0.18861039
C       -3.27655321       2.55884272       1.58802348
C        0.98092620       3.08635793      -3.01120578
C        0.13100040      -0.79850955       3.11917793
C       -0.42943287      -2.49382953      -2.23315161
C       -3.79423198       0.81995344       0.11418191
C       -2.24105450       3.18144308       0.82662722
C       -0.43898323       1.81035476       1.89187895
C        0.78646180       1.02300148       1.60473508
C       -1.85839332      -3.02697785       1.61623099
C       -2.62980173      -0.84928707      -1.48240740
C        3.29750506      -0.25626239       0.63008209
C        1.70278205      -3.01250400       1.69286478
C        1.06660336      -3.29643001      -0.62284613
C        1.40516459      -1.15889118      -1.79749569
C        1.28865094       2.64115956      -0.04705834
C        3.36955606      -2.46467994       0.55401761
C        1.60470226       1.40232928       0.48327871
C       -0.73007500       1.51893497      -3.32169592
C        3.25439054       2.01336187      -1.08868538
C        0.38747545      -3.05777210       2.11171030
C        1.57606776       1.78747264      -2.98477587
C       -2.38773586       2.75021926      -1.61065625
C       -1.20883475      -2.88800781      -1.11322550
C       -0.19826013      -2.21918693       3.08426880
C        2.90405583       1.61840082      -2.51575989
C        0.07017902       3.30531024       0.06165008
C       -3.25993340       0.42646478      -1.11923960
C       -0.09739974       3.92203736      -1.18088173
60
Properties=species:S:1:pos:R:3 trajectory=trial0001_proposal001_step006_proposal_relax trajectory_step=46 pbc="F F F"
C       -2.53926099      -2.08666829       0.76608317
C        2.09575511      -3.16531427       0.34510338
C        1.19541752      -0.18052110       2.28605098
C       -1.14766678       3.40955667      -2.02829502
C       -2.97322145       3.03766305      -0.36836165
C        2.78442462      -2.11733829       1.93238406
C       -2.80784468      -0.96426461       1.59638374
C       -1.61758781      -2.39804243       2.89746870
C        2.18794972       3.14581664      -0.96093737
C       -0.45961643       2.88868918      -3.14183913
C       -0.87299606       2.84600236       1.00110816
C        2.88715668       0.98041197       0.02948182
C       -2.25066871      -1.98816021      -0.64973369
C        1.25131736       3.85139498      -1.85768697
C        4.21067394       1.81639902      -2.22150802
C       -1.15902655      -0.13812040       3.16594972
C        3.94361608      -1.35613059       0.02695139
C       -1.93713807       0.83365846      -3.01752842
C       -2.74818208       1.44321378      -2.03571598
C       -0.59910324      -3.49190263       1.18074629
C        0.50190484       0.90423315      -2.97315279
C       -0.67103701      -1.21490883      -2.76572024
C       -3.95757708       2.24076309       0.32367465
C       -3.25118156       0.32817249       1.31015327
C       -2.82163085       1.35654597       2.18097454
C       -1.45936992       1.17204199       2.67035564
C        0.49711364      -0.42593732      -2.52285966
C       -2.14743380      -1.10669730       2.84438938
C       -1.90393363      -0.57178533      -2.69614666
C        2.46644079      -0.72684947       1.80532281
C        0.96936740      -2.47890289      -1.78260862
C       -0.29431626      -3.52521569      -0.18579547
C       -3.27896587       2.55438297       1.59907243
C        0.97355781       3.08499553      -3.00327110
C        0.13117454      -0.80479950       3.11579732
C       -0.42579714      -2.49233224      -2.22519723
C       -3.77906432       0.82952214       0.10974066
C       -2.24043974       3.18114917       0.84485379
C       -0.43991106       1.79570588       1.88385437
C        0.78725303       1.01795420       1.59608656
C       -1.86006976      -3.02701319       1.62061848
C       -2.63789211      -0.85002782      -1.48457219
C        3.29107866      -0.25544314       0.63210276
C        1.71116035      -3.01580848       1.69436414
C        1.06807976      -3.30011264      -0.62132814
C        1.41781774      -1.15965984      -1.80623085
C        1.29229715       2.64576587      -0.03910966
C        3.36861733      -2.46556993       0.55519730
C        1.60323403       1.39280741       0.46977580
C       -0.72231141       1.50838970      -3.32889952
C        3.24088454       2.01176163      -1.09102236
C        0.38483527      -3.05771700       2.11165203
C        1.58063973       1.79482920      -2.98356995
C       -2.38862947       2.75343280      -1.60848579
C       -1.20953063      -2.88390532      -1.11208352
C       -0.19752411      -2.22307281       3.08567643
C        2.89747198       1.62534769      -2.51065448
C        0.06482346       3.30634432       0.06285304
C       -3.26660219       0.42759100      -1.13083658
C       -0.09796363       3.92797236      -1.18286257
60
Properties=species:S:1:pos:R:3 trajectory=trial0001_proposal001_step006_proposal_relax trajectory_step=47 pbc="F F F"
C       -2.54170897      -2.08776105       0.77028086
C        2.09664470      -3.18484038       0.34900160
C        1.19092238      -0.18214158       2.28160661
C       -1.15094048       3.41968100      -2.03339590
C       -2.96890711       3.04600387      -0.36108425
C        2.77610134      -2.11158545       1.92533979
C       -2.82214836      -0.96782542       1.59899958
C       -1.61637136      -2.39311567       2.89654261
C        2.18533413       3.14648643      -0.95611922
C       -0.45989497       2.88788475      -3.13532235
C       -0.87633589       2.83737344       0.99914840
C        2.87602351       0.97234067       0.01229886
C       -2.24708769      -1.97851792      -0.64105707
C        1.25115674       3.86097024      -1.85061389
C        4.22028153       1.81588254      -2.22265980
C       -1.16077569      -0.14253072       3.16411252
C        3.93461794      -1.35749679       0.02464111
C       -1.92322423       0.83509212      -3.01064934
C       -2.74040975       1.44895376      -2.03990778
C       -0.59756287      -3.49013780       1.18761965
C        0.51916085       0.90154388      -2.99747462
C       -0.66340778      -1.21699802      -2.75969824
C       -3.95134664       2.24440200       0.32473755
C       -3.25123618       0.32655196       1.30429175
C       -2.82512366       1.34874021       2.18521631
C       -1.46059858       1.16767031       2.67097313
C        0.51150551      -0.42990552      -2.53475220
C       -2.15290579      -1.10503860       2.84441366
C       -1.89756058      -0.57340353      -2.69593506
C        2.46144652      -0.72085358       1.80302001
C        0.97170364      -2.47929775      -1.77472941
C       -0.29642407      -3.52100353      -0.17831461
C       -3.28495945       2.54832124       1.60949830
C        0.97255636       3.08943542      -2.99660357
C        0.13072056      -0.80510088       3.11641134
C       -0.42109199      -2.48995517      -2.21443644
C       -3.77090519       0.83729656       0.10265666
C       -2.24242234       3.17495948       0.85807868
C       -0.44483339       1.78269518       1.87345555
C        0.78237642       1.00983868       1.58356382
C       -1.86200899      -3.02538758       1.62636788
C       -2.64182334      -0.84663275      -1.48793732
C        3.28648838      -0.25721709       0.62661457
C        1.71353335      -3.02396036       1.70154952
C        1.06827815      -3.30579405      -0.61336649
C        1.42343539      -1.16314068      -1.81242223
C        1.29158609       2.64730912      -0.03969893
C        3.36486510      -2.46833848       0.55501322
C        1.59588723       1.38259518       0.45571501
C       -0.71104431       1.50805184      -3.33655746
C        3.22663262       2.00661798      -1.09424790
C        0.38641535      -3.05998958       2.11588800
C        1.58815592       1.80832328      -2.98859169
C       -2.38943736       2.76067993      -1.60512512
C       -1.20764932      -2.87799700      -1.10351575
C       -0.19648425      -2.22139237       3.08821491
C        2.90123913       1.63338159      -2.50030804
C        0.06139827       3.30752009       0.06336233
C       -3.26943118       0.43257660      -1.14365171
C       -0.10183669       3.93847295      -1.18224413
60
Properties=species:S:1:pos:R:3 trajectory=trial0001_proposal001_step006_proposal_relax trajectory_step=48 pbc="F F F"
C       -2.54428854      -2.08888748       0.77524616
C        2.10378388      -3.21690004       0.35980197
C        1.18521040      -0.17991930       2.27764019
C       -1.15806637       3.43224398      -2.03254385
C       -2.95796641       3.05744355      -0.34851613
C        2.76300909      -2.10120016       1.91287422
C       -2.83880891      -0.97169918       1.60229192
C       -1.61432920      -2.38853186       2.89754591
C        2.18773659       3.15310432      -0.94804011
C       -0.45488754       2.88454540      -3.12524469
C       -0.87765965       2.82582413       0.99393308
C        2.85857500       0.96476196      -0.00680655
C       -2.24448939      -1.96700907      -0.63607392
C        1.25328032       3.87361783      -1.84274266
C        4.22085307       1.80917368      -2.21367485
C       -1.16391029      -0.14469429       3.16207041
C        3.92025854      -1.35734760       0.02194089
C       -1.90208554       0.83712128      -3.01018839
C       -2.72977988       1.46089271      -2.04436221
C       -0.60048863      -3.48652033       1.19789409
C        0.53957834       0.88549099      -3.03420185
C       -0.65637313      -1.21509563      -2.75323511
C       -3.93552360       2.25088802       0.32446100
C       -3.24653347       0.32288811       1.28924193
C       -2.83265167       1.33648165       2.19167895
C       -1.46256529       1.15788369       2.66656712
C        0.52822257      -0.42338258      -2.55983523
C       -2.15930482      -1.10680294       2.84563546
C       -1.89064037      -0.57054750      -2.70104957
C        2.45797395      -0.71451167       1.79563992
C        0.97672604      -2.49070954      -1.75727331
C       -0.29858588      -3.51968809      -0.16733998
C       -3.29141231       2.54151713       1.62393159
C        0.97140338       3.10325192      -2.97995312
C        0.13087520      -0.80480189       3.12179658
C       -0.41782651      -2.48552516      -2.19814082
C       -3.75309411       0.84709820       0.08642571
C       -2.24794711       3.16708729       0.87589535
C       -0.45268054       1.76783665       1.85703765
C        0.76957563       0.99657245       1.56667249
C       -1.85926873      -3.02580959       1.63171432
C       -2.64290966      -0.84507778      -1.49644067
C        3.27892173      -0.24694974       0.61464522
C        1.71993199      -3.03774014       1.70949636
C        1.06353627      -3.31697444      -0.60741995
C        1.43519495      -1.17083692      -1.81436957
C        1.28108721       2.64401535      -0.03600531
C        3.35764971      -2.47300221       0.55414374
C        1.57720342       1.37509162       0.43768486
C       -0.70290106       1.50965133      -3.34885385
C        3.21870757       2.00811025      -1.08213086
C        0.39009720      -3.06446368       2.12695576
C        1.59772341       1.81921670      -2.98783661
C       -2.38541988       2.77090058      -1.60370492
C       -1.20451749      -2.86534959      -1.08805535
C       -0.19452135      -2.22187209       3.09118741
C        2.89706717       1.63325131      -2.49982871
C        0.05716971       3.31168455       0.06116782
C       -3.27329595       0.44256521      -1.16378672
C       -0.10605048       3.95193154      -1.17734983
60
Properties=species:S:1:pos:R:3 trajectory=trial0001_proposal001_step006_proposal_relax trajectory_step=49 pbc="F F F"
C       -2.54757960      -2.09049126       0.77763890
C        2.10009562      -3.22602017       0.36251101
C        1.18323547      -0.18305787       2.27265431
C       -1.15651737       3.43740602      -2.02936495
C       -2.96210108       3.05875425      -0.35052509
C        2.76382331      -2.10559376       1.91557567
C       -2.84087399      -0.97307173       1.60517102
C       -1.61692946      -2.39143560       2.90235255
C        2.18397444       3.15222959      -0.94345392
C       -0.45111929       2.88958336      -3.11464448
C       -0.88322739       2.82402982       0.98793254
C        2.84580569       0.95977420      -0.01870723
C       -2.24799547      -1.96991278      -0.63419805
C        1.25378099       3.88098761      -1.83689979
C        4.22930356       1.81791043      -2.21614412
C       -1.16664425      -0.14504904       3.16406402
C        3.91295980      -1.36611821       0.01571534
C       -1.89510774       0.84394673      -3.00124687
C       -2.72329796       1.46402965      -2.03957001
C       -0.60013103      -3.48647012       1.20294249
C        0.55163464       0.89073468      -3.04477511
C       -0.64701894      -1.21115388      -2.75093963
C       -3.93839981       2.25006152       0.32437109
C       -3.25103845       0.32210290       1.28998536
C       -2.83899894       1.33600948       2.19237092
C       -1.46718554       1.15735687       2.66142857
C        0.54684184      -0.43065360      -2.57081297
C       -2.16168749      -1.10664227       2.85011573
C       -1.87974757      -0.56271019      -2.69335316
C        2.45481199      -0.71740053       1.78752977
C        0.97990808      -2.49341104      -1.75694467
C       -0.30147772      -3.52063682      -0.16246500
C       -3.29557090       2.54096569       1.62476323
C        0.97591773       3.10810608      -2.97868589
C        0.12831705      -0.80300742       3.12388115
C       -0.41556261      -2.48024235      -2.19110716
C       -3.75755397       0.84742206       0.08833125
C       -2.24967771       3.16607611       0.87418086
C       -0.45853628       1.76546408       1.85132190
C        0.75987632       0.98953098       1.55852042
C       -1.86313804      -3.02405415       1.63514982
C       -2.63630928      -0.83990494      -1.49367612
C        3.27231574      -0.25463993       0.60242005
C        1.71608396      -3.04326997       1.71716710
C        1.06472713      -3.32163323      -0.59766315
C        1.44854846      -1.17621563      -1.82823249
C        1.27596485       2.64013489      -0.04738628
C        3.35665302      -2.48025236       0.55664166
C        1.56568300       1.36645419       0.42837847
C       -0.69156271       1.51417767      -3.34337076
C        3.21657810       2.00480230      -1.09124424
C        0.38921704      -3.06754530       2.13201334
C        1.60394421       1.82675293      -2.99445503
C       -2.38689665       2.77638189      -1.60103140
C       -1.20102217      -2.86127871      -1.08268973
C       -0.19767289      -2.21958692       3.09626954
C        2.91544858       1.64600314      -2.50329462
C        0.05242632       3.31010221       0.06142872
C       -3.26914603       0.44514574      -1.16274186
C       -0.10758006       3.95931558      -1.17498947
60
Properties=species:S:1:pos:R:3 trajectory=trial0001_proposal001_step006_proposal_relax trajectory_step=50 pbc="F F F"
C       -2.54958037      -2.09116353       0.77867818
C        2.09908297      -3.23251624       0.36513837
C        1.18191173      -0.18499931       2.27031559
C       -1.15340213       3.43896189      -2.02517504
C       -2.96360497       3.05948854      -0.35263735
C        2.76461556      -2.10775952       1.91553078
C       -2.83912223      -0.97413940       1.60635557
C       -1.61968272      -2.39401675       2.90668909
C        2.18382299       3.15260312      -0.93972632
C       -0.44686799       2.89174190      -3.10623833
C       -0.88763185       2.82340681       0.98453193
C        2.83747777       0.96033660      -0.02329316
C       -2.25128628      -1.97260052      -0.63480829
C        1.25574986       3.88557407      -1.83236924
C        4.22793735       1.82096548      -2.21135153
C       -1.16840028      -0.14515492       3.16558817
C        3.90736440      -1.37003309       0.01058975
C       -1.89256538       0.84982148      -2.99906242
C       -2.71937437       1.46608282      -2.03780890
C       -0.60035094      -3.48717092       1.20598525
C        0.55741036       0.89245608      -3.05142099
C       -0.64061577      -1.20675083      -2.75057412
C       -3.93814568       2.24908773       0.32361432
C       -3.25229061       0.32145291       1.28952857
C       -2.84342217       1.33554730       2.19177085
C       -1.47141878       1.15627173       2.65571792
C        0.55736883      -0.43370259      -2.57975469
C       -2.16266259      -1.10831669       2.85360838
C       -1.87148028      -0.55649133      -2.69002393
C        2.45208622      -0.71938364       1.78041398
C        0.98204978      -2.49308476      -1.75572506
C       -0.30346082      -3.52250001      -0.15875224
C       -3.29723847       2.54182918       1.62365864
C        0.98069632       3.10914952      -2.97552363
C        0.12668649      -0.80218319       3.12680780
C       -0.41327685      -2.47363412      -2.18527777
C       -3.75784393       0.84674277       0.08765654
C       -2.25071973       3.16705856       0.87185001
C       -0.46388083       1.76463735       1.84751378
C        0.75114164       0.98466793       1.55342460
C       -1.86492496      -3.02328243       1.63686900
C       -2.63084577      -0.83593831      -1.49325456
C        3.26723896      -0.25845939       0.59424557
C        1.71406922      -3.04737309       1.72189678
C        1.06500711      -3.32547138      -0.59205919
C        1.45665579      -1.18095851      -1.83543491
C        1.26887532       2.63600213      -0.05423857
C        3.35597032      -2.48454122       0.55717170
C        1.55520860       1.36205858       0.42207972
C       -0.68624059       1.51733516      -3.34029145
C        3.22055186       2.00791572      -1.09007644
C        0.38923850      -3.07016851       2.13632237
C        1.60627544       1.82916084      -2.99611805
C       -2.38639484       2.77905401      -1.59932235
C       -1.19936676      -2.85713021      -1.07863887
C       -0.19940805      -2.21959583       3.10055589
C        2.92345039       1.64866163      -2.51249754
C        0.05011906       3.30989648       0.05979072
C       -3.26479692       0.44680551      -1.16204293
C       -0.10719051       3.96403924      -1.17218832
60
Properties=species:S:1:pos:R:3 trajectory=trial0001_proposal001_step006_proposal_relax trajectory_step=51 pbc="F F F"
C       -2.55578300      -2.09275339       0.78266436
C        2.09864761      -3.24800242       0.37669294
C        1.17474165      -0.18987731       2.26215545
C       -1.14864423       3.44758370      -2.01683229
C       -2.97057969       3.06312651      -0.35423716
C        2.76262340      -2.11281998       1.91511259
C       -2.83991484      -0.97563021       1.60993411
C       -1.62509214      -2.39624966       2.91569206
C        2.18162235       3.15387101      -0.93495821
C       -0.43386728       2.89589625      -3.09043884
C       -0.89712000       2.81893182       0.97817829
C        2.82037373       0.95203447      -0.03841834
C       -2.25624004      -1.97314277      -0.63269914
C        1.25992080       3.89756781      -1.82452557
C        4.23785288       1.83266228      -2.20514499
C       -1.17351687      -0.14429394       3.16755175
C        3.89375274      -1.38367273      -0.00419057
C       -1.87731168       0.86034940      -2.99188833
C       -2.71056430       1.47349967      -2.03320540
C       -0.60377706      -3.48868926       1.21556708
C        0.57747515       0.89593343      -3.06722906
C       -0.62420796      -1.19810235      -2.74846070
C       -3.94136008       2.24790672       0.32299722
C       -3.25846115       0.31873133       1.29025936
C       -2.85269096       1.33455439       2.19062706
C       -1.48120572       1.15226920       2.64816411
C        0.58511015      -0.43799904      -2.60323288
C       -2.16707422      -1.11007900       2.85981922
C       -1.85020976      -0.54310527      -2.67920246
C        2.44237164      -0.72660781       1.76607414
C        0.98925322      -2.49698151      -1.74943478
C       -0.30505712      -3.52462804      -0.14977376
C       -3.30187136       2.54215790       1.62204183
C        0.98930436       3.11711392      -2.96495316
C        0.12280098      -0.80131912       3.13043723
C       -0.40625304      -2.46087335      -2.17019807
C       -3.75890702       0.84553666       0.08675790
C       -2.25741807       3.16905048       0.86949486
C       -0.47657572       1.75768458       1.83723823
C        0.73325758       0.97209766       1.53741099
C       -1.86808397      -3.02312498       1.64296039
C       -2.62029013      -0.82873537      -1.48997791
C        3.25154675      -0.26977373       0.57583570
C        1.71292921      -3.05648186       1.73325396
C        1.06449805      -3.33153333      -0.58369721
C        1.48048350      -1.19403625      -1.85641411
C        1.25265845       2.62534822      -0.06769665
C        3.35217365      -2.49665798       0.55922791
C        1.53231156       1.34835907       0.40128357
C       -0.67272667       1.52526512      -3.33234851
C        3.21971049       2.00971104      -1.09659025
C        0.38606877      -3.07346525       2.14852420
C        1.61910951       1.83849775      -3.00465989
C       -2.38479908       2.78797798      -1.59714994
C       -1.19674493      -2.84950368      -1.06926382
C       -0.20347947      -2.22015733       3.11035817
C        2.94064579       1.66419000      -2.52472168
C        0.04235503       3.30872029       0.05797396
C       -3.25650829       0.45195871      -1.15971126
C       -0.10669480       3.98000239      -1.16481990
60
Properties=species:S:1:pos:R:3 trajectory=trial0001_proposal001_step006_proposal_relax trajectory_step=52 pbc="F F F"
C       -2.55753945      -2.09279031       0.78454886
C        2.09895921      -3.26081941       0.37987908
C        1.16583304      -0.19303122       2.25651625
C       -1.14243399       3.45045493      -2.01406846
C       -2.97138481       3.06747280      -0.35593713
C        2.75812743      -2.11094722       1.91055940
C       -2.84007166      -0.97609342       1.61063263
C       -1.62809118      -2.39725547       2.91963202
C        2.17963501       3.15564083      -0.92784811
C       -0.42648280       2.89668605      -3.07964321
C       -0.90339848       2.81767625       0.97754855
C        2.81353229       0.95078462      -0.04316832
C       -2.25651256      -1.96816782      -0.63165791
C        1.26531421       3.90495552      -1.81787751
C        4.23446315       1.83729666      -2.19266504
C       -1.17686670      -0.14739907       3.16821717
C        3.88421842      -1.38943118      -0.01233192
C       -1.87268011       0.86431548      -2.99339599
C       -2.70716485       1.47852220      -2.03813190
C       -0.60429775      -3.49067265       1.22020497
C        0.58339269       0.89443510      -3.07407113
C       -0.61345859      -1.19348731      -2.74654355
C       -3.93893062       2.24781309       0.32095357
C       -3.25894181       0.31776320       1.28817735
C       -2.85635678       1.33398526       2.18867498
C       -1.48625673       1.14908901       2.64577310
C        0.59815406      -0.43977325      -2.61400397
C       -2.17001198      -1.11103299       2.86188963
C       -1.83890480      -0.53673194      -2.67655317
C        2.43185609      -0.73052076       1.75798894
C        0.99606927      -2.49799610      -1.74424974
C       -0.30523033      -3.52474580      -0.14506917
C       -3.30314818       2.54214571       1.62119933
C        0.99481418       3.11597184      -2.95467374
C        0.11918993      -0.80291164       3.13188824
C       -0.39962229      -2.45084643      -2.15949241
C       -3.75182005       0.84682507       0.08388107
C       -2.26026622       3.17525583       0.87088874
C       -0.48523499       1.75026465       1.83033759
C        0.72109117       0.96350362       1.52580163
C       -1.87137038      -3.02276482       1.64620703
C       -2.61512399      -0.82487906      -1.49192449
C        3.24071488      -0.27521402       0.56887308
C        1.70856309      -3.06336058       1.74151147
C        1.06845210      -3.33670933      -0.57780870
C        1.49578155      -1.20170206      -1.86900063
C        1.24404374       2.62076805      -0.07610513
C        3.35139719      -2.49968948       0.55717546
C        1.51883966       1.33874460       0.38610156
C       -0.66433142       1.52694158      -3.33209312
C        3.22053067       2.01937445      -1.08406633
C        0.38698156      -3.07680948       2.15397121
C        1.62559883       1.84181085      -3.00547750
C       -2.38032015       2.79163742      -1.59637210
C       -1.19431061      -2.84349076      -1.06357631
C       -0.20647196      -2.22225376       3.11789311
C        2.93883076       1.66480283      -2.53661636
C        0.03825875       3.30928693       0.05875405
C       -3.25019390       0.45597944      -1.16366980
C       -0.10484448       3.99161626      -1.15937333
60
Properties=species:S:1:pos:R:3 trajectory=trial0001_proposal001_step006_proposal_relax trajectory_step=53 pbc="F F F"
C       -2.55940781      -2.09226575       0.78602847
C        2.10066431      -3.26876185       0.38762686
C        1.15724079      -0.19674085       2.25063164
C       -1.13830888       3.45503881      -2.01111007
C       -2.97376434       3.07117946      -0.35649450
C        2.75232251      -2.11330936       1.90708704
C       -2.84180946      -0.97579320       1.61140441
C       -1.63091960      -2.39684547       2.92248906
C        2.17863533       3.15678572      -0.92445976
C       -0.41884841       2.89621023      -3.07282874
C       -0.90793223       2.81598485       0.97734363
C        2.80836483       0.94644180      -0.04801566
C       -2.25547346      -1.96380086      -0.62889765
C        1.26929325       3.91116305      -1.81361124
C        4.23151162       1.84310337      -2.18520248
C       -1.18008454      -0.14836483       3.16855154
C        3.87657593      -1.39415726      -0.02057975
C       -1.86503954       0.86714263      -2.99411280
C       -2.70474151       1.48290714      -2.04086908
C       -0.60625788      -3.49189469       1.22435624
C        0.59192867       0.89470640      -3.07817074
C       -0.60509923      -1.19016468      -2.74438884
C       -3.93898451       2.24804983       0.31946219
C       -3.26062384       0.31653652       1.28831081
C       -2.85882487       1.33375901       2.18751891
C       -1.49009082       1.14651945       2.64609521
C        0.61043989      -0.44004750      -2.62265409
C       -2.17300179      -1.11161996       2.86297067
C       -1.82866355      -0.53284217      -2.67274161
C        2.42183152      -0.73393424       1.75180019
C        1.00194814      -2.49939377      -1.73985522
C       -0.30425442      -3.52398500      -0.14126629
C       -3.30489090       2.54225817       1.61925771
C        0.99866413       3.11772314      -2.94613171
C        0.11587122      -0.80469671       3.13171418
C       -0.39350475      -2.44412778      -2.15020912
C       -3.74751375       0.84750546       0.08125639
C       -2.26489892       3.18013299       0.87166770
C       -0.49224900       1.74383864       1.82422291
C        0.71220240       0.95653210       1.51488191
C       -1.87246016      -3.02393150       1.64928807
C       -2.61098283      -0.82146982      -1.49189793
C        3.23104681      -0.28103675       0.56279147
C        1.71165484      -3.06716968       1.74482816
C        1.06942626      -3.33862647      -0.57567575
C        1.50990817      -1.20742024      -1.88137346
C        1.23542598       2.61441530      -0.08045385
C        3.34789427      -2.50523347       0.55712908
C        1.50880230       1.33014070       0.37256351
C       -0.65844361       1.52847088      -3.33032363
C        3.21884680       2.02369230      -1.08110977
C        0.38244963      -3.07811319       2.16024134
C        1.63094944       1.84474400      -3.00873234
C       -2.37709011       2.79516113      -1.59660897
C       -1.19208158      -2.83962473      -1.05998601
C       -0.20848926      -2.22494830       3.12311821
C        2.94550530       1.66989587      -2.53799231
C        0.03480606       3.30967358       0.05921108
C       -3.24572056       0.45897689      -1.16494108
C       -0.10318599       4.00192343      -1.15494023
60
Properties=species:S:1:pos:R:3 trajectory=trial0001_proposal001_step006_proposal_relax trajectory_step=54 pbc="F F F"
C       -2.55959547      -2.09202400       0.78683048
C        2.10123713      -3.27179074       0.39150322
C        1.14979519      -0.20012053       2.24504620
C       -1.13555654       3.45893027      -2.00954186
C       -2.97620928       3.07312537      -0.35814456
C        2.74858052      -2.11495109       1.90550613
C       -2.84332218      -0.97563843       1.61169136
C       -1.63259049      -2.39664291       2.92334604
C        2.17727904       3.15625551      -0.92208004
C       -0.41343203       2.89571657      -3.06942034
C       -0.91073048       2.81586560       0.97727126
C        2.80685968       0.94272269      -0.04963740
C       -2.25314119      -1.96125446      -0.62676753
C        1.27227519       3.91462971      -1.81139750
C        4.23327303       1.84684542      -2.17922342
C       -1.18240237      -0.14862966       3.16937678
C        3.87023366      -1.39710403      -0.02682879
C       -1.85934418       0.86782455      -2.99497353
C       -2.70320825       1.48542016      -2.04300213
C       -0.60761428      -3.49237156       1.22647910
C        0.59815221       0.89557903      -3.07820728
C       -0.60033303      -1.18923141      -2.74234722
C       -3.94059365       2.24775681       0.31715176
C       -3.26221355       0.31637174       1.28883433
C       -2.85953532       1.33444308       2.18675663
C       -1.49162296       1.14598288       2.64895708
C        0.61715078      -0.43933750      -2.62606760
C       -2.17497545      -1.11159331       2.86254706
C       -1.82312721      -0.53113705      -2.67024522
C        2.41444093      -0.73738472       1.74860816
C        1.00603082      -2.49881404      -1.73666445
C       -0.30223817      -3.52273007      -0.13966151
C       -3.30664596       2.54170586       1.61644669
C        1.00151507       3.11940813      -2.94111926
C        0.11283033      -0.80629278       3.13018208
C       -0.38898265      -2.44091240      -2.14485542
C       -3.74573948       0.84739813       0.08012685
C       -2.26868285       3.18389622       0.87121006
C       -0.49625379       1.73997067       1.82001831
C        0.70700981       0.95213280       1.50706165
C       -1.87311678      -3.02542850       1.65085376
C       -2.60775007      -0.81958331      -1.49086982
C        3.22467362      -0.28535635       0.55981648
C        1.71088523      -3.06962584       1.74704788
C        1.07003881      -3.33707365      -0.57466483
C        1.51836424      -1.20865888      -1.88988485
C        1.23064082       2.60942948      -0.08311036
C        3.34527796      -2.50788987       0.55637865
C        1.50409778       1.32392664       0.36466159
C       -0.65490762       1.52961568      -3.32884626
C        3.21563948       2.02435447      -1.07961710
C        0.38079321      -3.07874569       2.16295013
C        1.63713125       1.84587371      -3.01092789
C       -2.37470572       2.79748338      -1.59763390
C       -1.19019453      -2.83851773      -1.05842455
C       -0.21026098      -2.22669476       3.12597368
C        2.94634448       1.67370203      -2.53345893
C        0.03284231       3.30972802       0.06066540
C       -3.24250666       0.46072276      -1.16532842
C       -0.10129117       4.00901074      -1.15213280
60
Properties=species:S:1:pos:R:3 trajectory=trial0001_proposal001_step006_proposal_relax trajectory_step=55 pbc="F F F"
C       -2.55792911      -2.09179661       0.78712495
C        2.10061925      -3.27444185       0.39370557
C        1.14079847      -0.20496794       2.23742369
C       -1.13264949       3.46252472      -2.00869207
C       -2.97768400       3.07506445      -0.36089332
C        2.74444215      -2.11691829       1.90433509
C       -2.84537034      -0.97524885       1.61152483
C       -1.63460625      -2.39723175       2.92324710
C        2.17550133       3.15478649      -0.91793512
C       -0.40881982       2.89593780      -3.06469309
C       -0.91404470       2.81740016       0.97689406
C        2.80519725       0.93990238      -0.04968800
C       -2.24898513      -1.95929395      -0.62526321
C        1.27609363       3.91704294      -1.80816586
C        4.23530012       1.85050346      -2.17086325
C       -1.18533821      -0.14909982       3.17110994
C        3.86192868      -1.39935818      -0.03246660
C       -1.85557033       0.86766556      -2.99618975
C       -2.70086351       1.48724577      -2.04595701
C       -0.60797071      -3.49242672       1.22690347
C        0.60330089       0.89658412      -3.07630566
C       -0.59632120      -1.18829364      -2.73921097
C       -3.94132677       2.24754760       0.31253520
C       -3.26271243       0.31684901       1.28866460
C       -2.86016272       1.33580264       2.18629909
C       -1.49224778       1.14746764       2.65222555
C        0.62156926      -0.43744316      -2.62745401
C       -2.17706619      -1.11195712       2.86178399
C       -1.81872653      -0.53034873      -2.66916654
C        2.40672878      -0.74136991       1.74491164
C        1.01153832      -2.49647543      -1.73421823
C       -0.30046260      -3.52101123      -0.13801776
C       -3.30897104       2.54124537       1.61252483
C        1.00559984       3.12034703      -2.93721478
C        0.10862265      -0.80849446       3.12786029
C       -0.38398572      -2.43858759      -2.14083552
C       -3.74397244       0.84766545       0.07803729
C       -2.27241506       3.18777472       0.86974781
C       -0.50022691       1.73726127       1.81524819
C        0.70016891       0.94703081       1.49920833
C       -1.87408888      -3.02682167       1.65125596
C       -2.60289555      -0.81782335      -1.48935875
C        3.21840602      -0.28831076       0.55720089
C        1.70988290      -3.07274279       1.74839131
C        1.07135166      -3.33377577      -0.57332045
C        1.52821579      -1.20861571      -1.89755840
C        1.22562145       2.60399351      -0.08544029
C        3.34228869      -2.50945906       0.55562061
C        1.49990949       1.31766044       0.35869189
C       -0.64971379       1.52989079      -3.32744812
C        3.21263944       2.02399688      -1.07469431
C        0.37800535      -3.08026638       2.16498053
C        1.64198671       1.84780737      -3.01081205
C       -2.37214651       2.79927209      -1.59935277
C       -1.18703702      -2.83753628      -1.05684290
C       -0.21270128      -2.22896956       3.12739151
C        2.94681254       1.67517532      -2.52402243
C        0.03247395       3.31056315       0.06124875
C       -3.23888292       0.46251408      -1.16656077
C       -0.09854036       4.01485634      -1.14924098
60
Properties=species:S:1:pos:R:3 trajectory=trial0001_proposal001_step006_proposal_relax trajectory_step=56 pbc="F F F"
C       -2.55409428      -2.08982893       0.78614926
C        2.10012457      -3.27953537       0.39627803
C        1.12503828      -0.21589713       2.22348811
C       -1.12817120       3.46826820      -2.00576529
C       -2.97794847       3.07875104      -0.36805047
C        2.73849338      -2.12009756       1.90298280
C       -2.84780141      -0.97572862       1.61058854
C       -1.63997983      -2.39976109       2.92215160
C        2.17346432       3.15149829      -0.90793959
C       -0.39945575       2.89428275      -3.05747807
C       -0.91731719       2.82230428       0.97352924
C        2.79863360       0.93799242      -0.04771188
C       -2.24067913      -1.95640424      -0.62308241
C        1.28331850       3.91915220      -1.80156226
C        4.23753879       1.85658846      -2.15332063
C       -1.19135346      -0.14826440       3.17360050
C        3.84605002      -1.40111932      -0.04045615
C       -1.84698099       0.86848232      -3.00104495
C       -2.69588951       1.48937899      -2.05001563
C       -0.60999657      -3.49228564       1.22826915
C        0.61058911       0.89960107      -3.07232418
C       -0.58799684      -1.18526119      -2.73348088
C       -3.94051388       2.24771011       0.30356822
C       -3.26202128       0.31942613       1.28613065
C       -2.86232045       1.33874047       2.18496612
C       -1.49512158       1.15022661       2.65590248
C        0.63011381      -0.43728576      -2.62511464
C       -2.18155935      -1.11280241       2.86111330
C       -1.81406264      -0.53027914      -2.66856331
C        2.39339493      -0.74662095       1.73712249
C        1.02157835      -2.49128677      -1.73272972
C       -0.29639380      -3.51779482      -0.13830694
C       -3.31350845       2.54176204       1.60484722
C        1.01165438       3.12479215      -2.93043617
C        0.10063743      -0.81302376       3.12313801
C       -0.37421762      -2.43477449      -2.13651297
C       -3.73998659       0.84876734       0.07300061
C       -2.27718924       3.19333645       0.86663426
C       -0.50802185       1.73545653       1.80698612
C        0.68603728       0.93726464       1.48620041
C       -1.87539545      -3.02861612       1.64951579
C       -2.59290567      -0.81433245      -1.48721027
C        3.20841160      -0.29350658       0.55381555
C        1.70424281      -3.08067705       1.75197113
C        1.07304306      -3.32822929      -0.57082402
C        1.54501447      -1.20622343      -1.90957749
C        1.21809072       2.59454329      -0.08861293
C        3.33647884      -2.51287495       0.55560760
C        1.48951875       1.30908463       0.35253885
C       -0.64497296       1.53152957      -3.32332192
C        3.21088286       2.02331826      -1.06046225
C        0.37758266      -3.08576890       2.16527180
C        1.65035466       1.84967593      -3.00395443
C       -2.36802603       2.80209760      -1.60292333
C       -1.17976342      -2.83508199      -1.05544236
C       -0.21896722      -2.23229140       3.12833508
C        2.94887633       1.67396932      -2.50592714
C        0.02910968       3.31141400       0.06415049
C       -3.23194184       0.46402117      -1.16972875
C       -0.09315104       4.02251021      -1.14775860
60
Properties=species:S:1:pos:R:3 trajectory=trial0001_proposal001_step006_proposal_relax trajectory_step=57 pbc="F F F"
C       -2.55240485      -2.08924276       0.78509741
C        2.09913876      -3.28125315       0.39630888
C        1.12018885      -0.21962643       2.21853178
C       -1.12596229       3.46881009      -2.00666071
C       -2.97777106       3.07954015      -0.37038090
C        2.73669001      -2.12214820       1.90373334
C       -2.84814077      -0.97459773       1.60996294
C       -1.64214800      -2.40120143       2.92155471
C        2.17333463       3.15006116      -0.90350041
C       -0.39847627       2.89624966      -3.05430375
C       -0.92030379       2.82336039       0.97370556
C        2.79527608       0.93737880      -0.04522442
C       -2.23751984      -1.95622316      -0.62365908
C        1.28501403       3.91943731      -1.79851946
C        4.23995094       1.85852900      -2.14652516
C       -1.19354568      -0.14823609       3.17424220
C        3.84078149      -1.40229333      -0.04213698
C       -1.84805630       0.86811408      -3.00056263
C       -2.69273710       1.48885200      -2.05149308
C       -0.60915785      -3.49300276       1.22568999
C        0.61274040       0.90045912      -3.06958855
C       -0.58624647      -1.18442762      -2.73149969
C       -3.93983272       2.24814253       0.29983433
C       -3.26130811       0.31987706       1.28475917
C       -2.86411294       1.34028615       2.18380044
C       -1.49686532       1.15235208       2.65518042
C        0.63212578      -0.43481785      -2.62382483
C       -2.18354832      -1.11303859       2.86123451
C       -1.81126259      -0.52999839      -2.67008004
C        2.38991766      -0.74940207       1.73471731
C        1.02510830      -2.48965542      -1.73339046
C       -0.29579794      -3.51706579      -0.13760932
C       -3.31457094       2.54255586       1.60233193
C        1.01529842       3.12479141      -2.92982482
C        0.09714353      -0.81439488       3.12108218
C       -0.37098924      -2.43384467      -2.13729421
C       -3.73929460       0.84910399       0.07167505
C       -2.27784284       3.19461747       0.86388177
C       -0.51041554       1.73590132       1.80528744
C        0.67973700       0.93403668       1.48357424
C       -1.87673876      -3.02806548       1.64806152
C       -2.58929140      -0.81350797      -1.48624922
C        3.20487568      -0.29376730       0.55293864
C        1.70431516      -3.08330939       1.75248986
C        1.07471058      -3.32571364      -0.57044161
C        1.55079785      -1.20581782      -1.91129109
C        1.21433967       2.59414886      -0.08916864
C        3.33500720      -2.51339546       0.55637949
C        1.48582864       1.30681170       0.35269343
C       -0.64048837       1.53245128      -3.32152237
C        3.21146945       2.02226712      -1.05528390
C        0.37474255      -3.08761726       2.16639489
C        1.65179952       1.85020353      -2.99918448
C       -2.36698804       2.80284976      -1.60443300
C       -1.17685437      -2.83386367      -1.05607186
C       -0.22110676      -2.23379956       3.12670057
C        2.95036011       1.67290299      -2.49865469
C        0.03064169       3.31235590       0.06186806
C       -3.22927853       0.46439977      -1.17076799
C       -0.09170814       4.02277334      -1.14635094
60
Properties=species:S:1:pos:R:3 trajectory=trial0001_proposal001_step006_proposal_relax trajectory_step=58 pbc="F F F"
C       -2.55166070      -2.08839424       0.78408261
C        2.09887172      -3.28298192       0.39592830
C        1.11840268      -0.22145420       2.21670689
C       -1.12546523       3.46864842      -2.00736670
C       -2.97670400       3.07996829      -0.37183921
C        2.73625903      -2.12298636       1.90469772
C       -2.84790227      -0.97401228       1.60914740
C       -1.64386987      -2.40183030       2.92089639
C        2.17398655       3.15005773      -0.90061133
C       -0.39793240       2.89778321      -3.05369788
C       -0.92091029       2.82377590       0.97297572
C        2.79177887       0.93773626      -0.04300393
C       -2.23585822      -1.95602180      -0.62502091
C        1.28554473       3.91900176      -1.79656261
C        4.24139904       1.85874781      -2.14234894
C       -1.19507773      -0.14810560       3.17366832
C        3.83837730      -1.40265528      -0.04168363
C       -1.84798310       0.86839256      -3.00054762
C       -2.69067089       1.48835454      -2.05131037
C       -0.60898056      -3.49360124       1.22413885
C        0.61340784       0.90120117      -3.06830453
C       -0.58456646      -1.18311970      -2.73120372
C       -3.93863684       2.24871198       0.29829776
C       -3.26057786       0.32038970       1.28301722
C       -2.86596086       1.34080569       2.18274214
C       -1.49893125       1.15312479       2.65303635
C        0.63306317      -0.43386561      -2.62227899
C       -2.18501260      -1.11326820       2.86173824
C       -1.81029503      -0.53012048      -2.67160004
C        2.38886522      -0.75062375       1.73383157
C        1.02688359      -2.48912187      -1.73476906
C       -0.29550497      -3.51674422      -0.13847166
C       -3.31491804       2.54381867       1.60149191
C        1.01742002       3.12460306      -2.92968985
C        0.09520336      -0.81498057       3.11970950
C       -0.36947230      -2.43380226      -2.13919773
C       -3.73856010       0.84968717       0.07018796
C       -2.27730327       3.19419294       0.86246779
C       -0.51207811       1.73661689       1.80548935
C        0.67584879       0.93250654       1.48352156
C       -1.87724558      -3.02719305       1.64615847
C       -2.58756071      -0.81346009      -1.48677018
C        3.20320626      -0.29355173       0.55324197
C        1.70413366      -3.08546518       1.75321567
C        1.07590651      -3.32515249      -0.57028516
C        1.55278340      -1.20575877      -1.90988208
C        1.21360507       2.59453227      -0.08816335
C        3.33471545      -2.51354368       0.55747333
C        1.48262128       1.30772767       0.35424774
C       -0.63857690       1.53279112      -3.32036181
C        3.21286070       2.02160514      -1.05108636
C        0.37380892      -3.08944116       2.16626671
C        1.65158971       1.85052700      -2.99411508
C       -2.36665760       2.80311543      -1.60548615
C       -1.17510623      -2.83274391      -1.05704315
C       -0.22273471      -2.23413557       3.12481807
C        2.95250018       1.67135887      -2.49514922
C        0.02991128       3.31281853       0.06092577
C       -3.22806058       0.46432688      -1.17147779
C       -0.09161080       4.02150023      -1.14657847
60
Properties=species:S:1:pos:R:3 trajectory=trial0001_proposal001_step006_proposal_relax trajectory_step=59 pbc="F F F"
C       -2.55044486      -2.08637860       0.78146055
C        2.09956456      -3.28642988       0.39681998
C        1.11389463      -0.22481490       2.21337072
C       -1.12432015       3.46949850      -2.00888533
C       -2.97524477       3.08101923      -0.37482437
C        2.73470907      -2.12522039       1.90644817
C       -2.84769528      -0.97300950       1.60718760
C       -1.64734448      -2.40272243       2.91904214
C        2.17501105       3.15091558      -0.89483587
C       -0.39496314       2.89964604      -3.05447841
C       -0.92257375       2.82371425       0.97209632
C        2.78543348       0.93745930      -0.03874504
C       -2.23256962      -1.95459961      -0.62742223
C        1.28694610       3.91850555      -1.79302226
C        4.24488124       1.85894395      -2.13321352
C       -1.19870222      -0.14799307       3.17186416
C        3.83373822      -1.40330401      -0.04157180
C       -1.84524389       0.86909674      -3.00080989
C       -2.68680928       1.48799384      -2.05126316
C       -0.60947687      -3.49495735       1.22148356
C        0.61583472       0.90303177      -3.06498600
C       -0.58003027      -1.18074405      -2.73127649
C       -3.93699259       2.24994408       0.29553466
C       -3.26030538       0.32149628       1.27956333
C       -2.86966344       1.34189934       2.18028453
C       -1.50384833       1.15318489       2.65008632
C        0.63631809      -0.43270857      -2.61913786
C       -2.18877416      -1.11332334       2.86197517
C       -1.80752121      -0.53005107      -2.67390129
C        2.38504248      -0.75319032       1.73295515
C        1.03072061      -2.48872179      -1.73670158
C       -0.29403756      -3.51574466      -0.14063751
C       -3.31590536       2.54605537       1.59963618
C        1.02138678       3.12498783      -2.92748379
C        0.09092878      -0.81628332       3.11623915
C       -0.36574413      -2.43314795      -2.14273898
C       -3.73687559       0.85099661       0.06750019
C       -2.27683108       3.19398257       0.85999363
C       -0.51585225       1.73688287       1.80569812
C        0.66864404       0.92978998       1.48264568
C       -1.87803538      -3.02574459       1.64268714
C       -2.58451912      -0.81325475      -1.48891746
C        3.19853985      -0.29481534       0.55446744
C        1.70340799      -3.08998379       1.75494852
C        1.07811873      -3.32439242      -0.57045366
C        1.55631319      -1.20536023      -1.90746051
C        1.21166632       2.59681547      -0.08585043
C        3.33374029      -2.51487955       0.55972914
C        1.47632420       1.30791755       0.35649475
C       -0.63482099       1.53415067      -3.31830636
C        3.21421480       2.02053803      -1.04303659
C        0.37236420      -3.09299139       2.16568718
C        1.65357794       1.85075919      -2.98468750
C       -2.36563237       2.80387745      -1.60774845
C       -1.17170243      -2.83061775      -1.05936030
C       -0.22644327      -2.23465706       3.12176902
C        2.95675145       1.66967698      -2.48781498
C        0.02836352       3.31289683       0.06018116
C       -3.22509127       0.46434966      -1.17321381
C       -0.09185353       4.02030798      -1.14685044
60
Properties=species:S:1:pos:R:3 trajectory=trial0001_proposal001_step006_proposal_relax trajectory_step=60 pbc="F F F"
C       -2.54787008      -2.08226105       0.77567212
C        2.10080540      -3.29362425       0.39900919
C        1.10313750      -0.23061931       2.20796074
C       -1.12079179       3.47187468      -2.01406400
C       -2.97382035       3.08330431      -0.38039046
C        2.73041494      -2.13025754       1.91023519
C       -2.84897168      -0.97052761       1.60163688
C       -1.65461254      -2.40322078       2.91462936
C        2.17722611       3.15416317      -0.88350675
C       -0.38776366       2.90478318      -3.05610947
C       -0.92555474       2.82243622       0.97064112
C        2.77454888       0.93543958      -0.03060858
C       -2.22598014      -1.95124147      -0.63286045
C        1.28963041       3.91962294      -1.78582287
C        4.25214161       1.85864615      -2.11312482
C       -1.20696801      -0.14915395       3.16833396
C        3.82424338      -1.40553645      -0.04157158
C       -1.83689404       0.87124590      -3.00119684
C       -2.67901717       1.48811580      -2.05301557
C       -0.61103553      -3.49730153       1.21663609
C        0.62373102       0.90562944      -3.05569233
C       -0.57116588      -1.17709072      -2.73275000
C       -3.93530703       2.25253870       0.28965733
C       -3.26167027       0.32294470       1.27413048
C       -2.87700254       1.34358866       2.17571297
C       -1.51336665       1.15256585       2.64656758
C        0.64425941      -0.42878341      -2.61407680
C       -2.19722483      -1.11446952       2.86050239
C       -1.79886845      -0.52861858      -2.67821685
C        2.37504090      -0.75968867       1.73250188
C        1.03882184      -2.48897414      -1.73879737
C       -0.29063778      -3.51336810      -0.14502316
C       -3.31873020       2.55007228       1.59513783
C        1.03015691       3.12534584      -2.92114979
C        0.08108152      -0.81893403       3.10900813
C       -0.35750527      -2.43208924      -2.14805651
C       -3.73372917       0.85336612       0.06067929
C       -2.27853307       3.19490271       0.85542615
C       -0.52479940       1.73542041       1.80582323
C        0.65602390       0.92519127       1.48035560
C       -1.87968443      -3.02379135       1.63542145
C       -2.57901664      -0.81226275      -1.49444951
C        3.18724427      -0.29971879       0.55723729
C        1.70119219      -3.09899763       1.75887231
C        1.08320783      -3.32380876      -0.57021626
C        1.56367507      -1.20455826      -1.90250981
C        1.21060903       2.59574130      -0.07843870
C        3.33261911      -2.51751787       0.56392206
C        1.46477212       1.31038377       0.35714783
C       -0.62615887       1.53623727      -3.31557867
C        3.21431940       2.01944501      -1.02799744
C        0.36839832      -3.09884746       2.16505433
C        1.66066974       1.85128102      -2.96879209
C       -2.36245471       2.80594828      -1.61250906
C       -1.16483923      -2.82621484      -1.06492939
C       -0.23340689      -2.23683604       3.11629631
C        2.96543080       1.66880317      -2.47243065
C        0.02165973       3.31413595       0.06100167
C       -3.21890047       0.46530679      -1.17649790
C       -0.09221122       4.02012633      -1.14661336
60
Properties=species:S:1:pos:R:3 trajectory=trial0001_proposal001_step006_proposal_relax trajectory_step=61 pbc="F F F"
C       -2.54576152      -2.07867992       0.76975701
C        2.10277443      -3.29967503       0.40263670
C        1.09351547      -0.23450644       2.20417797
C       -1.11824465       3.47505799      -2.01755461
C       -2.97281604       3.08557442      -0.38565856
C        2.72582693      -2.13505718       1.91330398
C       -2.85064829      -0.96932973       1.59639190
C       -1.66050417      -2.40424118       2.90995070
C        2.17820208       3.15729815      -0.87293533
C       -0.37966366       2.90708459      -3.05947540
C       -0.93003284       2.82106276       0.96996086
C        2.76668394       0.93299990      -0.02445585
C       -2.22074891      -1.94770044      -0.63807514
C        1.29234353       3.92100596      -1.77923346
C        4.25829568       1.85789096      -2.09495691
C       -1.21491661      -0.15069024       3.16514110
C        3.81668947      -1.40738023      -0.04154562
C       -1.82730758       0.87331117      -3.00234428
C       -2.67285746       1.48958209      -2.05475095
C       -0.61299838      -3.49897036       1.21281891
C        0.63108164       0.90900570      -3.04733997
C       -0.56173897      -1.17448483      -2.73496065
C       -3.93470211       2.25433442       0.28441705
C       -3.26449559       0.32479522       1.26898409
C       -2.88334966       1.34491526       2.17199368
C       -1.52180645       1.15099632       2.64499611
C        0.65185919      -0.42752324      -2.60941948
C       -2.20515005      -1.11508004       2.85802236
C       -1.79151831      -0.52656134      -2.68116273
C        2.36527222      -0.76546859       1.73282419
C        1.04606122      -2.48962453      -1.73959191
C       -0.28757314      -3.51129277      -0.14883651
C       -3.32179128       2.55258836       1.59136839
C        1.03760779       3.12616306      -2.91427655
C        0.07231950      -0.82159455       3.10315910
C       -0.34993782      -2.43069204      -2.15234766
C       -3.73114216       0.85556519       0.05547827
C       -2.28045559       3.19628456       0.85249064
C       -0.53218562       1.73289008       1.80551082
C        0.64617723       0.92216091       1.47821135
C       -1.88117236      -3.02235883       1.62931499
C       -2.57438922      -0.81122848      -1.50027297
C        3.17635738      -0.30425916       0.55977951
C        1.69972305      -3.10654931       1.76176602
C        1.08687909      -3.32425782      -0.57064888
C        1.56944490      -1.20400199      -1.89811773
C        1.20722170       2.60109509      -0.07343816
C        3.33122978      -2.52094901       0.56799447
C        1.45640048       1.30793115       0.35876816
C       -0.61778032       1.53883731      -3.31388546
C        3.21380693       2.01940698      -1.01527011
C        0.36490625      -3.10362000       2.16410397
C        1.66817274       1.85196538      -2.95668254
C       -2.35916830       2.80772412      -1.61694371
C       -1.15919466      -2.82280843      -1.06937648
C       -0.23991244      -2.23845319       3.11269166
C        2.97271495       1.66908451      -2.45989481
C        0.01886918       3.31356620       0.06207162
C       -3.21318550       0.46637845      -1.18050482
C       -0.09271814       4.02077523      -1.14591470
60
Properties=species:S:1:pos:R:3 trajectory=trial0001_proposal001_step006_proposal_relax trajectory_step=62 pbc="F F F"
C       -2.54296525      -2.07442978       0.75987894
C        2.10530184      -3.30736856       0.40799443
C        1.08080322      -0.23835064       2.20188358
C       -1.11368487       3.47982706      -2.02280618
C       -2.97251123       3.08862321      -0.39218984
C        2.71881331      -2.14154820       1.91756466
C       -2.85504169      -0.96799428       1.58798116
C       -1.66828671      -2.40599994       2.90234655
C        2.17937017       3.16263803      -0.85919557
C       -0.36778260       2.90993451      -3.06393924
C       -0.93687746       2.81832363       0.96983247
C        2.75866772       0.92956548      -0.01763526
C       -2.21459083      -1.94320368      -0.64594342
C        1.29610320       3.92390981      -1.77053266
C        4.26620715       1.85582873      -2.06997012
C       -1.22655791      -0.15373784       3.16151801
C        3.80755910      -1.40993315      -0.04005148
C       -1.81322747       0.87689859      -3.00389530
C       -2.66443930       1.49240347      -2.05941030
C       -0.61580837      -3.50013544       1.20739645
C        0.64240518       0.91262306      -3.03500333
C       -0.54983255      -1.17257697      -2.73921506
C       -3.93506025       2.25665764       0.27644576
C       -3.27039011       0.32645796       1.26274408
C       -2.89185533       1.34617301       2.16807814
C       -1.53227071       1.14804322       2.64551953
C        0.66277980      -0.42604100      -2.60355303
C       -2.21628231      -1.11695038       2.85201474
C       -1.77967344      -0.52297412      -2.68508552
C        2.35088715      -0.77287836       1.73425305
C        1.05554349      -2.49145064      -1.73866113
C       -0.28402919      -3.50894478      -0.15298559
C       -3.32746528       2.55408684       1.58604381
C        1.04747543       3.12860358      -2.90373204
C        0.06014387      -0.82511229       3.09700083
C       -0.33951496      -2.42912485      -2.15725346
C       -3.72867411       0.85827189       0.04791735
C       -2.28519100       3.19882472       0.84941758
C       -0.54193039       1.72893727       1.80398847
C        0.63617215       0.91956458       1.47640532
C       -1.88366560      -3.02113779       1.62086692
C       -2.56839190      -0.80887493      -1.50937841
C        3.16178462      -0.31165593       0.56328008
C        1.69674581      -3.11603518       1.76513539
C        1.09107277      -3.32656714      -0.57123680
C        1.57660833      -1.20364158      -1.89104920
C        1.20408723       2.60531317      -0.06458747
C        3.32949307      -2.52625732       0.57399513
C        1.44802165       1.30623708       0.35965789
C       -0.60443301       1.54255167      -3.31321792
C        3.21178470       2.02077719      -0.99957502
C        0.36029667      -3.10855079       2.16248190
C        1.68078445       1.85373390      -2.94407079
C       -2.35421880       2.81067637      -1.62247538
C       -1.15220979      -2.81888601      -1.07536229
C       -0.24859518      -2.24119268       3.10917594
C        2.98195792       1.67152735      -2.44399736
C        0.01458723       3.31358034       0.06450110
C       -3.20601966       0.46876704      -1.18708845
C       -0.09341073       4.02248625      -1.14400813
60
Properties=species:S:1:pos:R:3 trajectory=trial0001_proposal001_step006_proposal_relax trajectory_step=63 pbc="F F F"
C       -2.54058543      -2.06949459       0.74590841
C        2.10643262      -3.31719586       0.41302379
C        1.06578217      -0.24168492       2.20259068
C       -1.10700281       3.48494434      -2.02938989
C       -2.97233773       3.09261113      -0.40041530
C        2.70885083      -2.14913364       1.92365282
C       -2.86301189      -0.96787321       1.57474421
C       -1.67920269      -2.40840346       2.89117491
C        2.18055270       3.16898482      -0.84094302
C       -0.35238267       2.91561359      -3.06734350
C       -0.94543433       2.81575841       0.96855140
C        2.75093596       0.92586475      -0.00967987
C       -2.20736811      -1.93848675      -0.65838939
C        1.30061500       3.92855171      -1.75785137
C        4.27557347       1.85213681      -2.03791983
C       -1.24226778      -0.15905084       3.15805930
C        3.79732510      -1.41448475      -0.03441134
C       -1.79353102       0.88214755      -3.00765102
C       -2.65352136       1.49727767      -2.06695473
C       -0.61933350      -3.49995655       1.20116185
C        0.65950895       0.91682345      -3.01914908
C       -0.53474339      -1.17157551      -2.74561045
C       -3.93640215       2.25888592       0.26494586
C       -3.27935724       0.32821374       1.25504999
C       -2.90337806       1.34576709       2.16413686
C       -1.54460987       1.14571492       2.64646246
C        0.67643962      -0.42390683      -2.59555847
C       -2.23033465      -1.12144531       2.84154218
C       -1.76398273      -0.51732083      -2.69124854
C        2.33337982      -0.78203737       1.73646934
C        1.06653533      -2.49430650      -1.73618297
C       -0.28075600      -3.50697691      -0.15906421
C       -3.33666847       2.55457170       1.57843777
C        1.06088482       3.13207498      -2.89170731
C        0.04408796      -0.82943063       3.09292889
C       -0.32695215      -2.42920867      -2.16264665
C       -3.72683315       0.86120125       0.03564335
C       -2.29346490       3.20141834       0.84673043
C       -0.55418101       1.72343755       1.80264034
C        0.62658002       0.91829082       1.47676495
C       -1.88728070      -3.02054712       1.60731498
C       -2.56021091      -0.80479529      -1.52186160
C        3.14467852      -0.31942939       0.56776227
C        1.69271255      -3.12664096       1.76860366
C        1.09612083      -3.33189166      -0.57075735
C        1.58528219      -1.20384117      -1.87910389
C        1.20179717       2.61132760      -0.05301095
C        3.32772268      -2.53232245       0.58290183
C        1.44100150       1.30474810       0.36383191
C       -0.58692102       1.54600577      -3.31310792
C        3.20995238       2.02386395      -0.98076493
C        0.35243655      -3.11289431       2.16042824
C        1.69661122       1.85774962      -2.93091798
C       -2.34727967       2.81526536      -1.62949590
C       -1.14357799      -2.81485125      -1.08407141
C       -0.25938669      -2.24619058       3.10466725
C        2.99432242       1.67614592      -2.42422949
C        0.00817670       3.31348762       0.06986545
C       -3.19833175       0.47261122      -1.19703875
C       -0.09309744       4.02417390      -1.14130497
60
Properties=species:S:1:pos:R:3 trajectory=trial0001_proposal001_step006_proposal_relax trajectory_step=64 pbc="F F F"
C       -2.53848291      -2.06486271       0.72206615
C        2.10765104      -3.33101504       0.42059936
C        1.04577725      -0.24636998       2.20648074
C       -1.09598543       3.49239662      -2.03543810
C       -2.97206329       3.09839946      -0.41267071
C        2.69436960      -2.15797669       1.93278581
C       -2.87599234      -0.96793808       1.55521317
C       -1.69529718      -2.41561415       2.87278041
C        2.18350177       3.17800792      -0.81573034
C       -0.33023503       2.92118380      -3.07072402
C       -0.96032072       2.81130535       0.96891394
C        2.74062002       0.92264955       0.00250217
C       -2.19771487      -1.93257655      -0.67800847
C        1.30802827       3.93426211      -1.73924470
C        4.29062308       1.84703882      -1.99242723
C       -1.26619406      -0.16597143       3.15343981
C        3.78395269      -1.42071892      -0.02280874
C       -1.76839871       0.88993113      -3.01317939
C       -2.63656197       1.50456822      -2.07989677
C       -0.62395920      -3.49903959       1.18849424
C        0.68306306       0.92309824      -2.99877195
C       -0.51292562      -1.17021260      -2.75400788
C       -3.93843650       2.26118910       0.24581011
C       -3.29307905       0.32927125       1.24088178
C       -2.92154030       1.34520831       2.15777940
C       -1.56309813       1.14141913       2.64749810
C        0.69689516      -0.42205123      -2.58211706
C       -2.25059541      -1.12762408       2.82425044
C       -1.74075473      -0.51012980      -2.70172350
C        2.30941400      -0.79336001       1.73949961
C        1.08183342      -2.49822548      -1.73174824
C       -0.27754834      -3.50635916      -0.16580867
C       -3.35182395       2.55245777       1.56737137
C        1.08097973       3.14023816      -2.87564148
C        0.02175603      -0.83596064       3.09098852
C       -0.30854056      -2.42931537      -2.17257509
C       -3.72555868       0.86492676       0.01827585
C       -2.30505615       3.20406681       0.84265388
C       -0.57078377       1.71855633       1.79983675
C        0.61371070       0.91641037       1.48186160
C       -1.89469852      -3.01894750       1.58684270
C       -2.54656486      -0.79785101      -1.54040036
C        3.12377841      -0.32958439       0.57469673
C        1.68276978      -3.14136961       1.77338631
C        1.10136750      -3.34068724      -0.57122716
C        1.59729524      -1.20484214      -1.85955897
C        1.19818264       2.61481945      -0.03299082
C        3.32366427      -2.54195994       0.59726910
C        1.43317987       1.30836733       0.37248781
C       -0.55708346       1.55375195      -3.31228811
C        3.20877977       2.02876415      -0.95210936
C        0.34349557      -3.11877131       2.15573856
C        1.72059571       1.86543434      -2.91223067
C       -2.33737057       2.82208042      -1.63955331
C       -1.13268898      -2.81074791      -1.09614801
C       -0.27782746      -2.25227168       3.09959194
C        3.01061550       1.68346400      -2.39727985
C        0.00093177       3.31567269       0.07486359
C       -3.18735090       0.47863015      -1.21508693
C       -0.09172958       4.02507663      -1.13525106
60
Properties=species:S:1:pos:R:3 trajectory=trial0001_proposal001_step006_proposal_relax trajectory_step=65 pbc="F F F"
C       -2.54005867      -2.06293005       0.70437243
C        2.10591156      -3.34067501       0.42504816
C        1.03314385      -0.25001780       2.21153980
C       -1.08616564       3.49624203      -2.03779923
C       -2.97218514       3.10207741      -0.42116677
C        2.68265429      -2.16353690       1.93900112
C       -2.88630532      -0.96958650       1.53989518
C       -1.70860069      -2.42033755       2.85911808
C        2.18444429       3.18159120      -0.79709490
C       -0.31451073       2.92776584      -3.06751081
C       -0.96919503       2.81016622       0.96790719
C        2.73506532       0.92257741       0.01190363
C       -2.19142474      -1.92978962      -0.69270585
C        1.31417915       3.93752923      -1.72572740
C        4.29896819       1.84448139      -1.96247571
C       -1.28300576      -0.17083595       3.15102362
C        3.77589766      -1.42567889      -0.01208672
C       -1.75084166       0.89621252      -3.01913116
C       -2.62408096       1.50956774      -2.09094931
C       -0.62761131      -3.49736818       1.18029082
C        0.70105225       0.92637194      -2.98710324
C       -0.49763625      -1.16861837      -2.75831021
C       -3.93982842       2.26216297       0.23070799
C       -3.30225933       0.32856536       1.22977552
C       -2.93524737       1.34274042       2.15235944
C       -1.57656895       1.13938019       2.64650615
C        0.71137263      -0.41891216      -2.57240800
C       -2.26370595      -1.13384310       2.81037467
C       -1.72390868      -0.50540942      -2.71062092
C        2.29432009      -0.79902814       1.74119590
C        1.09134063      -2.50039707      -1.72788025
C       -0.27692550      -3.50768214      -0.17198809
C       -3.36405789       2.54999145       1.55752910
C        1.09557274       3.14800336      -2.86650140
C        0.00620738      -0.84022914       3.09410656
C       -0.29647276      -2.43065340      -2.17883075
C       -3.72540878       0.86618954       0.00211907
C       -2.31500939       3.20441962       0.83961092
C       -0.58239036       1.71607406       1.79920339
C        0.60576209       0.91592184       1.48788117
C       -1.90008410      -3.01926814       1.56991574
C       -2.53504501      -0.79189598      -1.55339115
C        3.11298848      -0.33443517       0.58007166
C        1.67635738      -3.14888358       1.77581812
C        1.10459881      -3.34777952      -0.57050447
C        1.60667796      -1.20621246      -1.84456588
C        1.19634555       2.61812121      -0.02077802
C        3.31919317      -2.54828219       0.60854427
C        1.42954669       1.31072147       0.38428287
C       -0.53700143       1.55722814      -3.31037697
C        3.21059357       2.03220648      -0.93280652
C        0.33354175      -3.12133022       2.15294223
C        1.73613854       1.87269750      -2.90099305
C       -2.33031894       2.82784928      -1.64577051
C       -1.12558808      -2.80968456      -1.10571137
C       -0.29144323      -2.25813653       3.09574618
C        3.02492056       1.68971494      -2.37741087
C       -0.00411457       3.31610307       0.08129792
C       -3.18074358       0.48335355      -1.22875463
C       -0.08847911       4.02570244      -1.13052187
60
Properties=species:S:1:pos:R:3 trajectory=trial0001_proposal001_step006_proposal_relax trajectory_step=66 pbc="F F F"
C       -2.54812629      -2.06141252       0.66403799
C        2.09875798      -3.36359042       0.43381039
C        1.00451694      -0.25866549       2.22464330
C       -1.06257559       3.50422928      -2.03813756
C       -2.97228026       3.11001660      -0.44222486
C        2.65493149      -2.17207654       1.95321581
C       -2.90932751      -0.97587975       1.50334615
C       -1.74085218      -2.43197670       2.82678313
C        2.18775598       3.18688814      -0.75597742
C       -0.27835004       2.94184143      -3.05528011
C       -0.98991737       2.80847030       0.96705277
C        2.72374520       0.92354512       0.03868328
C       -2.17737888      -1.92413764      -0.72777176
C        1.33001725       3.94503632      -1.69197093
C        4.32373997       1.84234155      -1.89597528
C       -1.32158730      -0.18269331       3.14471882
C        3.75862609      -1.43897185       0.01442101
C       -1.71056543       0.90877118      -3.03531925
C       -2.59599048       1.52263201      -2.11589371
C       -0.63682868      -3.49448761       1.16010636
C        0.74486116       0.93661969      -2.96493231
C       -0.45908747      -1.16288320      -2.76467307
C       -3.94387476       2.26174575       0.19388094
C       -3.32259546       0.32597454       1.19950477
C       -2.96891347       1.33450928       2.13468119
C       -1.61013873       1.13532454       2.63925382
C        0.74597165      -0.41168643      -2.54912152
C       -2.29337805      -1.14679638       2.77748961
C       -1.68604411      -0.49335419      -2.73265761
C        2.26316862      -0.81130774       1.74635345
C        1.11209469      -2.50407456      -1.71888254
C       -0.27647529      -3.51342246      -0.18805122
C       -3.39272439       2.54329802       1.53298271
C        1.13157748       3.16446728      -2.84907756
C       -0.02900648      -0.85013668       3.10473014
C       -0.26943434      -2.43290849      -2.19315008
C       -3.72543602       0.86809638      -0.03691877
C       -2.33612795       3.20335925       0.83142931
C       -0.60987566       1.71124681       1.80154608
C        0.58550104       0.91451841       1.50622641
C       -1.91526098      -3.02014300       1.52940200
C       -2.50645509      -0.77865958      -1.58280645
C        3.09218309      -0.34126099       0.59459250
C        1.65604399      -3.16397635       1.78351369
C        1.11168988      -3.36412875      -0.56789877
C        1.62911566      -1.20900557      -1.81008461
C        1.19101177       2.62310123       0.00833330
C        3.30791679      -2.56011817       0.63412343
C        1.42264181       1.31819038       0.41670509
C       -0.49142551       1.56713468      -3.30294246
C        3.21597605       2.03951527      -0.88449244
C        0.30923798      -3.12653904       2.14623296
C        1.77195717       1.89071184      -2.87484016
C       -2.31340210       2.84033277      -1.66064473
C       -1.11093852      -2.80920222      -1.13007067
C       -0.32558225      -2.27166503       3.08676465
C        3.05267990       1.70476743      -2.33605820
C       -0.01403197       3.31823866       0.09566362
C       -3.16373497       0.49299230      -1.26363022
C       -0.07742337       4.02753620      -1.11653190
60
Properties=species:S:1:pos:R:3 trajectory=trial0001_proposal001_step006_proposal_relax trajectory_step=67 pbc="F F F"
C       -2.55922127      -2.06343629       0.62102288
C        2.09203590      -3.38597078       0.44919210
C        0.97309306      -0.26859557       2.23731877
C       -1.03680467       3.51391630      -2.03286502
C       -2.97268056       3.11649731      -0.46494805
C        2.62370745      -2.18073199       1.96662565
C       -2.93183371      -0.98051180       1.46530653
C       -1.77538908      -2.44428033       2.79289865
C        2.19076929       3.18843683      -0.71326795
C       -0.23913060       2.95340386      -3.04001749
C       -1.01054736       2.80662477       0.96901296
C        2.71217507       0.92591652       0.07325597
C       -2.16324127      -1.91880689      -0.76298198
C        1.34932638       3.95106421      -1.65865150
C        4.34288880       1.84542121      -1.83019513
C       -1.36249183      -0.19267029       3.13474461
C        3.74090315      -1.44989031       0.03917058
C       -1.67060002       0.92300777      -3.05151458
C       -2.56633377       1.53418557      -2.14278207
C       -0.65001356      -3.49439928       1.13603713
C        0.78931530       0.94795509      -2.94562172
C       -0.41745376      -1.15168718      -2.76749011
C       -3.94856566       2.26056915       0.15386168
C       -3.34217444       0.31957721       1.16198756
C       -3.00481808       1.32556350       2.10875320
C       -1.65025340       1.12617411       2.62868703
C        0.78539522      -0.40131710      -2.52601663
C       -2.32498756      -1.15760355       2.74383211
C       -1.64362620      -0.48273783      -2.75532184
C        2.23175182      -0.82172322       1.75491026
C        1.13438840      -2.50608271      -1.70934657
C       -0.27635152      -3.52130693      -0.20536395
C       -3.42155563       2.53628732       1.50417781
C        1.16974708       3.18364604      -2.82798048
C       -0.06562273      -0.86190343       3.11404994
C       -0.23918297      -2.43097764      -2.20779715
C       -3.72420435       0.86819166      -0.08012506
C       -2.35554121       3.20105102       0.81957748
C       -0.63949579       1.70805457       1.80619324
C        0.56104769       0.91103652       1.52736559
C       -1.93302290      -3.02194732       1.48986557
C       -2.47562003      -0.76644843      -1.61357287
C        3.07310688      -0.34875299       0.61412236
C        1.63342192      -3.17717305       1.79192030
C        1.11693170      -3.37831498      -0.56809998
C        1.65451364      -1.21117653      -1.77707975
C        1.18539500       2.62596475       0.03904013
C        3.29172752      -2.57329641       0.66007651
C        1.41284444       1.32529302       0.45391210
C       -0.44232899       1.57963596      -3.29224336
C        3.22387811       2.04396451      -0.83655644
C        0.28148789      -3.13310392       2.13883210
C        1.80862204       1.90878825      -2.84816394
C       -2.29467581       2.85202481      -1.67626345
C       -1.09790686      -2.81002878      -1.15644856
C       -0.36513534      -2.28399150       3.07782818
C        3.09279304       1.72217189      -2.28725054
C       -0.02304251       3.32077280       0.11209870
C       -3.14307133       0.50195987      -1.30012071
C       -0.06376785       4.03200261      -1.09937869
60
Properties=species:S:1:pos:R:3 trajectory=trial0001_proposal001_step006_proposal_relax trajectory_step=68 pbc="F F F"
C       -2.57224373      -2.06520588       0.57332100
C        2.08359617      -3.41193658       0.46698196
C        0.93474320      -0.28171992       2.24963853
C       -1.00671149       3.52547723      -2.02722378
C       -2.97213864       3.12256876      -0.49239181
C        2.58739503      -2.19105742       1.98208034
C       -2.95499152      -0.98685480       1.42113877
C       -1.81659526      -2.45558899       2.75528287
C        2.19470571       3.18930476      -0.66410224
C       -0.19301698       2.96802199      -3.02215082
C       -1.03299476       2.80437255       0.97224997
C        2.69758846       0.92768634       0.11749580
C       -2.14668897      -1.91266423      -0.80222042
C        1.37287935       3.95781057      -1.61932025
C        4.37425609       1.85303996      -1.75199936
C       -1.40987739      -0.20477813       3.12051367
C        3.71820949      -1.46128346       0.06439789
C       -1.62214431       0.93921370      -3.06940957
C       -2.53185421       1.54622360      -2.17240239
C       -0.66708391      -3.49709337       1.10907527
C        0.84097562       0.96199538      -2.92303225
C       -0.36601063      -1.13599788      -2.76910216
C       -3.95371503       2.25931598       0.10765456
C       -3.36382496       0.31322736       1.11550048
C       -3.04643135       1.31520860       2.07390704
C       -1.69954627       1.11435893       2.61348445
C        0.83284905      -0.38862605      -2.50049553
C       -2.36302172      -1.16885265       2.70660855
C       -1.59463003      -0.46944185      -2.78000884
C        2.19482672      -0.83384317       1.76757303
C        1.16164693      -2.50670554      -1.69955094
C       -0.27597447      -3.52952569      -0.22775639
C       -3.45261021       2.52983472       1.46895936
C        1.21403472       3.20314098      -2.80078845
C       -0.10991581      -0.87543091       3.11949437
C       -0.20311895      -2.42480118      -2.22405612
C       -3.72120415       0.86825362      -0.13073986
C       -2.37602429       3.19812648       0.80347820
C       -0.67546131       1.70346193       1.81362438
C        0.52885523       0.90606190       1.55009744
C       -1.95417204      -3.02458535       1.44570507
C       -2.44058117      -0.75448343      -1.64963534
C        3.04935928      -0.35866001       0.63996556
C        1.60499365      -3.19324070       1.80401829
C        1.12480547      -3.39261158      -0.56688728
C        1.68551707      -1.21212356      -1.74192423
C        1.17724268       2.63064446       0.07516876
C        3.27273398      -2.58672776       0.68831197
C        1.39799330       1.33070991       0.49650682
C       -0.38793526       1.59385794      -3.27885112
C        3.23009613       2.04719095      -0.77584578
C        0.24811294      -3.14299679       2.12965956
C        1.85651983       1.92822248      -2.81314230
C       -2.27281893       2.86441538      -1.69395130
C       -1.08187161      -2.81012767      -1.18806738
C       -0.41166640      -2.29802573       3.06571419
C        3.13025129       1.74108287      -2.23628154
C       -0.03191284       3.32308428       0.13201241
C       -3.11652782       0.51060299      -1.34115848
C       -0.04829509       4.03876545      -1.07891308
60
Properties=species:S:1:pos:R:3 trajectory=trial0001_proposal001_step006_proposal_relax trajectory_step=69 pbc="F F F"
C       -2.59997561      -2.06961910       0.46332105
C        2.06103923      -3.46914600       0.50748640
C        0.84041325      -0.31094604       2.27913125
C       -0.93690082       3.55408681      -2.01354669
C       -2.96782146       3.13304862      -0.55891708
C        2.50047824      -2.21578449       2.01954042
C       -3.00821776      -1.00339679       1.31289636
C       -1.91373762      -2.48133876       2.66739340
C        2.20360223       3.19032146      -0.54858039
C       -0.08063888       2.99986392      -2.98268105
C       -1.08537736       2.79933355       0.98241635
C        2.66560952       0.92710493       0.22668784
C       -2.11017767      -1.90056197      -0.89458152
C        1.42850152       3.97565324      -1.52104046
C        4.44225160       1.87759585      -1.56552251
C       -1.52478020      -0.23765838       3.08232400
C        3.65937819      -1.48625551       0.12001898
C       -1.50009123       0.97311645      -3.10970406
C       -2.45111256       1.57720195      -2.23828819
C       -0.71063333      -3.50805215       1.04625171
C        0.96785174       1.00064854      -2.86681766
C       -0.24065787      -1.09722336      -2.77255927
C       -3.96712268       2.25495841      -0.00409026
C       -3.41524125       0.29908164       1.00198618
C       -3.14297751       1.28916294       1.98387937
C       -1.81650817       1.08631437       2.57484420
C        0.94796190      -0.36040992      -2.44372195
C       -2.45871675      -1.19320140       2.61655291
C       -1.47763296      -0.43221547      -2.83354986
C        2.10735411      -0.86540388       1.80647269
C        1.22810683      -2.50612400      -1.67324512
C       -0.27493606      -3.54703397      -0.28052750
C       -3.52298965       2.51369441       1.38119168
C        1.31807297       3.24246728      -2.72847093
C       -0.22020785      -0.90767653       3.12159663
C       -0.11531747      -2.40228619      -2.25587868
C       -3.71392733       0.86994669      -0.25016698
C       -2.42084646       3.19121706       0.76318048
C       -0.76220875       1.68931404       1.83276885
C        0.45246362       0.89548663       1.60220272
C       -2.00748185      -3.03247235       1.34579323
C       -2.36141124      -0.73104381      -1.73624774
C        2.98894378      -0.37982737       0.70840107
C        1.53138879      -3.23276544       1.83385568
C        1.14240653      -3.42260191      -0.56206759
C        1.76201634      -1.21089105      -1.66383049
C        1.15781585       2.63958862       0.16595352
C        3.22757079      -2.61290760       0.75194277
C        1.36280368       1.34078231       0.59248451
C       -0.25947516       1.63148852      -3.24891428
C        3.24077150       2.05080167      -0.63515114
C        0.16698435      -3.16849175       2.10599373
C        1.96817465       1.97204076      -2.73451625
C       -2.21843746       2.88939000      -1.73660497
C       -1.04130715      -2.80729674      -1.26450581
C       -0.52214586      -2.33222549       3.03331866
C        3.22879344       1.78618741      -2.11136901
C       -0.04930140       3.33119066       0.17981562
C       -3.04994948       0.52710588      -1.44004319
C       -0.01190978       4.05695417      -1.02635103
60
Properties=species:S:1:pos:R:3 trajectory=trial0001_proposal001_step006_proposal_relax trajectory_step=70 pbc="F F F"
C       -2.62552712      -2.07702182       0.35402713
C        2.03664954      -3.51874528       0.55164137
C        0.74628361      -0.33784800       2.30888126
C       -0.86571931       3.58136633      -1.99745570
C       -2.96093496       3.13904090      -0.62396754
C        2.41184824      -2.24383212       2.05592443
C       -3.06066025      -1.01692552       1.20331314
C       -2.01089456      -2.50629470       2.58074580
C        2.21063244       3.18589033      -0.43417319
C        0.02803704       3.03290424      -2.93973293
C       -1.13319671       2.79665308       0.99332595
C        2.63628116       0.92667318       0.33776737
C       -2.07642618      -1.89241701      -0.98563204
C        1.48324113       3.99152036      -1.42312650
C        4.51193744       1.90944709      -1.38078111
C       -1.64165521      -0.26834306       3.03903496
C        3.59703131      -1.50403632       0.17099946
C       -1.38011910       1.01167388      -3.14502117
C       -2.36791199       1.60245578      -2.30478062
C       -0.75813282      -3.52240815       0.98286935
C        1.09095839       1.03574947      -2.81245079
C       -0.11860758      -1.05462943      -2.77363719
C       -3.97935037       2.25120270      -0.11721527
C       -3.46371133       0.28175207       0.88470598
C       -3.23535856       1.26267635       1.88844241
C       -1.93346900       1.05495731       2.53389541
C        1.06404142      -0.32861953      -2.39175516
C       -2.55516341      -1.21835652       2.52645630
C       -1.35652864      -0.39906939      -2.88232918
C        2.02255495      -0.89403894       1.85172375
C        1.29335406      -2.50169592      -1.64411493
C       -0.27504751      -3.56365596      -0.33156492
C       -3.58967587       2.49697819       1.28815912
C        1.42052243       3.28133379      -2.64945809
C       -0.33275000      -0.94201146       3.11698479
C       -0.02520391      -2.37416943      -2.28047461
C       -3.70501571       0.86849060      -0.37320163
C       -2.46235822       3.18186440       0.71983756
C       -0.84661309       1.67720391       1.85099469
C        0.37822209       0.88491777       1.65426208
C       -2.06098270      -3.04355156       1.25043905
C       -2.28548588      -0.71109204      -1.82211082
C        2.93126425      -0.39903193       0.78335401
C        1.46004836      -3.26935925       1.85928361
C        1.15566934      -3.44653171      -0.55878184
C        1.84155301      -1.20978292      -1.59009848
C        1.14179732       2.64873718       0.25593979
C        3.17645957      -2.63787015       0.81458983
C        1.32731421       1.34679136       0.68946131
C       -0.13178396       1.66736712      -3.21962624
C        3.24820736       2.05121799      -0.49726929
C        0.08276193      -3.19526795       2.08084292
C        2.08702842       2.01531296      -2.65518614
C       -2.16161316       2.91241265      -1.77766177
C       -1.00122392      -2.80276950      -1.33818411
C       -0.63368989      -2.36524427       2.99822665
C        3.31947336       1.83064460      -1.99189406
C       -0.06640726       3.33935235       0.23192067
C       -2.98592206       0.54289509      -1.53503541
C        0.02455188       4.07542792      -0.97311983
60
Properties=species:S:1:pos:R:3 trajectory=trial0001_proposal001_step006_proposal_relax trajectory_step=71 pbc="F F F"
C       -2.65067329      -2.08719690       0.24374892
C        2.00429331      -3.56077277       0.59325881
C        0.64954098      -0.36532551       2.34114091
C       -0.79094762       3.60735517      -1.97489130
C       -2.94768506       3.13827596      -0.69179563
C        2.32012041      -2.27214437       2.09303442
C       -3.11030433      -1.03558732       1.08784109
C       -2.11237468      -2.53007692       2.49260548
C        2.21677551       3.17505052      -0.32050849
C        0.14080743       3.06664312      -2.88995907
C       -1.17812264       2.79611794       1.00784420
C        2.60945232       0.92587890       0.45699531
C       -2.04584541      -1.88906398      -1.07697938
C        1.53915038       4.00426912      -1.31992698
C        4.57592985       1.95368031      -1.19653021
C       -1.76388956      -0.30186455       2.98662724
C        3.52331795      -1.51404471       0.21572236
C       -1.25336672       1.04971581      -3.17611575
C       -2.28043964       1.62569624      -2.37024342
C       -0.81051080      -3.54273262       0.91968027
C        1.21745889       1.07352971      -2.76029519
C        0.01022788      -1.00884638      -2.76782797
C       -3.98959613       2.24548201      -0.23746182
C       -3.51015708       0.26487779       0.75539704
C       -3.32550377       1.23393222       1.77842418
C       -2.05305334       1.02219649       2.48368217
C        1.18595717      -0.29621256      -2.34302814
C       -2.65681456      -1.24370541       2.43114468
C       -1.23244293      -0.36257513      -2.92445509
C        1.93881023      -0.91901688       1.90846658
C        1.35754170      -2.49054023      -1.60964166
C       -0.27751558      -3.57850784      -0.38490292
C       -3.65160497       2.47761584       1.18345347
C        1.52234869       3.31943376      -2.55886142
C       -0.45404912      -0.97756540       3.10201315
C        0.06874165      -2.33454517      -2.29400424
C       -3.69489294       0.86459194      -0.50148167
C       -2.50033976       3.16821784       0.66998269
C       -0.93222990       1.66591956       1.87066569
C        0.30284135       0.87572547       1.70790051
C       -2.11824480      -3.05923746       1.15617369
C       -2.21040248      -0.69580783      -1.91035397
C        2.87591543      -0.41568609       0.87206026
C        1.37691114      -3.30461085       1.88373439
C        1.16657543      -3.46286286      -0.55134315
C        1.92954040      -1.20755382      -1.52076190
C        1.12312970       2.65539591       0.35184552
C        3.11791241      -2.65705697       0.87587117
C        1.29079358       1.34940395       0.79044509
C       -0.00400669       1.70443705      -3.18891349
C        3.25353334       2.04675546      -0.36089108
C       -0.00513355      -3.22571458       2.05051875
C        2.21144346       2.05826419      -2.57511026
C       -2.10017828       2.93201920      -1.81620608
C       -0.95745988      -2.79606520      -1.41153027
C       -0.75077110      -2.39919358       2.95647242
C        3.41448503       1.87586541      -1.86573594
C       -0.07749086       3.34891278       0.28818468
C       -2.91930710       0.55491193      -1.63302506
C        0.06238710       4.09423306      -0.91394515
60
Properties=species:S:1:pos:R:3 trajectory=trial0001_proposal001_step006_proposal_relax trajectory_step=72 pbc="F F F"
C       -2.67137594      -2.09773489       0.13443411
C        1.97051256      -3.59792729       0.63386446
C        0.55201235      -0.39115878       2.37297025
C       -0.71754210       3.63163880      -1.95183252
C       -2.93115169       3.13525686      -0.75968560
C        2.22820366      -2.30214008       2.13068918
C       -3.15995266      -1.05114545       0.97084401
C       -2.21295511      -2.55586643       2.40359469
C        2.22075965       3.16395035      -0.20678022
C        0.25261034       3.09880916      -2.84137125
C       -1.22259145       2.79665481       1.02150723
C        2.58219382       0.92252777       0.57481496
C       -2.01532630      -1.88615118      -1.16869335
C        1.59211145       4.01617723      -1.21328816
C        4.63834870       1.99958442      -1.01214827
C       -1.88675283      -0.33500333       2.93032986
C        3.43899408      -1.51905453       0.25267049
C       -1.12571816       1.08570004      -3.20260600
C       -2.19204927       1.64915277      -2.43164244
C       -0.86216052      -3.56503621       0.85569518
C        1.34474664       1.11160192      -2.70657708
C        0.13558325      -0.96254388      -2.76113503
C       -3.99719460       2.23998256      -0.35950736
C       -3.55322613       0.24544384       0.62857058
C       -3.41072922       1.20633077       1.66759443
C       -2.16898696       0.99074199       2.43078106
C        1.30865418      -0.26487867      -2.29545057
C       -2.76040572      -1.26961985       2.33387817
C       -1.10693124      -0.32706269      -2.96127625
C        1.85517801      -0.94538521       1.96844252
C        1.41980304      -2.47849786      -1.57236689
C       -0.27907027      -3.59023812      -0.43526655
C       -3.70980913       2.45816880       1.07707985
C        1.62343830       3.35355304      -2.46572519
C       -0.57732880      -1.01336856       3.08047602
C        0.16172649      -2.29453024      -2.30022409
C       -3.68400131       0.86160146      -0.63097237
C       -2.53402811       3.15359023       0.61987730
C       -1.01675131       1.65418839       1.88792897
C        0.22885824       0.86632922       1.76010257
C       -2.17496734      -3.07581061       1.06253544
C       -2.13730569      -0.68209445      -1.99784394
C        2.81910076      -0.42929800       0.96344567
C        1.29692678      -3.33956817       1.90427512
C        1.17464058      -3.47405931      -0.54453559
C        2.02324954      -1.20636154      -1.44959584
C        1.10713378       2.66127214       0.44783304
C        3.05654556      -2.67474568       0.93584385
C        1.25383516       1.35185392       0.88767757
C        0.12485128       1.74323674      -3.15907154
C        3.25613828       2.04283288      -0.22586547
C       -0.09481940      -3.25665760       2.01999832
C        2.33249258       2.10093157      -2.49441259
C       -2.03607598       2.94914680      -1.85422638
C       -0.91132623      -2.78534587      -1.48124652
C       -0.86674691      -2.43335400       2.91114617
C        3.50530003       1.91877463      -1.73791794
C       -0.09068158       3.35874237       0.34557038
C       -2.85410819       0.56590742      -1.73053181
C        0.09871340       4.11124591      -0.85446722
60
Properties=species:S:1:pos:R:3 trajectory=trial0001_proposal001_step006_proposal_relax trajectory_step=73 pbc="F F F"
C       -2.69135966      -2.11144603       0.02458043
C        1.93032831      -3.62752420       0.67352130
C        0.45211740      -0.41654520       2.40643718
C       -0.64079429       3.65381382      -1.92271697
C       -2.90908970       3.12629930      -0.82866972
C        2.13358612      -2.33206627       2.16860182
C       -3.20718063      -1.06966785       0.84901379
C       -2.31691193      -2.58147438       2.31237476
C        2.22350745       3.14685668      -0.09359290
C        0.36572056       3.13165676      -2.78587487
C       -1.26414808       2.79921448       1.03753324
C        2.55679828       0.91914381       0.69976187
C       -1.98688049      -1.88687437      -1.26081198
C        1.64505736       4.02492080      -1.10245690
C        4.69732107       2.05590542      -0.82952789
C       -2.01363859      -0.36906228       2.86485883
C        3.34001304      -1.51451429       0.27912887
C       -0.99411186       1.12257109      -3.22386048
C       -2.09940107       1.66955142      -2.49179128
C       -0.91813349      -3.59244424       0.79072217
C        1.47397126       1.14977916      -2.65525078
C        0.26468282      -0.91284414      -2.74725872
C       -4.00166373       2.23326190      -0.48756082
C       -3.59314074       0.22555407       0.49153506
C       -3.49226342       1.17677003       1.54447277
C       -2.28626726       0.95774239       2.36902960
C        1.43669540      -0.23204883      -2.25028525
C       -2.86763649      -1.29588647       2.23195206
C       -0.97792278      -0.29097699      -2.99141667
C        1.77328296      -0.96896404       2.03812623
C        1.47979547      -2.46095846      -1.53065480
C       -0.28175153      -3.60030911      -0.48635586
C       -3.76272312       2.43710566       0.96035195
C        1.72397261       3.38666404      -2.36365982
C       -0.70664223      -1.05053051       3.04968980
C        0.25699605      -2.24584240      -2.29585525
C       -3.67119063       0.85541438      -0.76549301
C       -2.56334113       3.13483617       0.56387208
C       -1.10176727       1.64347774       1.90589888
C        0.15399496       0.85743551       1.81394094
C       -2.23418020      -3.09633065       0.96950716
C       -2.06447867      -0.67219547      -2.08636563
C        2.76455584      -0.43913278       1.06628725
C        1.20926160      -3.37202731       1.92234565
C        1.17886189      -3.47755938      -0.53585151
C        2.12710100      -1.20666168      -1.37761147
C        1.08951431       2.66539275       0.54747446
C        2.98729027      -2.68766627       0.99363438
C        1.21568586       1.35102071       0.98889276
C        0.25396805       1.78224915      -3.12752029
C        3.25657131       2.03550494      -0.09156362
C       -0.18785677      -3.29024860       1.98566442
C        2.45854707       2.14387184      -2.41139603
C       -1.96719792       2.96289822      -1.89005720
C       -0.86291513      -2.77212172      -1.54911606
C       -0.98748959      -2.46772843       2.85989070
C        3.59493231       1.96168595      -1.60567291
C       -0.10038730       3.36917424       0.40718959
C       -2.78748731       0.57434174      -1.82976163
C        0.13641882       4.12782820      -0.79007332
60
Properties=species:S:1:pos:R:3 trajectory=trial0001_proposal001_step006_proposal_relax trajectory_step=74 pbc="F F F"
C       -2.70830387      -2.12754167      -0.08484044
C        1.88423831      -3.64936568       0.71147470
C        0.35032306      -0.44128864       2.44123119
C       -0.56337992       3.67376381      -1.88879611
C       -2.88082988       3.11167639      -0.89927848
C        2.03721158      -2.36239344       2.20697149
C       -3.25281131      -1.08812407       0.72300902
C       -2.42281679      -2.60753461       2.21921000
C        2.22417118       3.12584509       0.01917097
C        0.47991839       3.16269230      -2.72728037
C       -1.30417156       2.80315681       1.05466045
C        2.53233580       0.91507139       0.82911446
C       -1.95960047      -1.89031431      -1.35323263
C        1.69634024       4.03078633      -0.98732754
C        4.75398646       2.12024469      -0.64883618
C       -2.14280429      -0.40336028       2.79060009
C        3.22352470      -1.49631124       0.29361006
C       -0.85947722       1.15779747      -3.23877705
C       -2.00378392       1.68805246      -2.54823977
C       -0.97648941      -3.62440362       0.72533799
C        1.60552312       1.18870042      -2.60410989
C        0.39460520      -0.86081091      -2.72809872
C       -4.00233216       2.22574906      -0.62087845
C       -3.62879437       0.20274231       0.34973602
C       -3.56770245       1.14728853       1.41251397
C       -2.40166532       0.92437021       2.29976137
C        1.56938322      -0.19935399      -2.20665821
C       -2.97862593      -1.32300204       2.12480363
C       -0.84718145      -0.25444874      -3.01354891
C        1.69198791      -0.99063505       2.11687651
C        1.53672868      -2.43903843      -1.48541773
C       -0.28495675      -3.60691594      -0.53705330
C       -3.80905469       2.41466960       0.83644467
C        1.82264381       3.41680384      -2.25374948
C       -0.84037714      -1.08801963       3.00804044
C        0.35218544      -2.19167896      -2.27975351
C       -3.65631675       0.84815462      -0.90515595
C       -2.58623769       3.11268508       0.50451454
C       -1.18702921       1.63309169       1.92266584
C        0.07939856       0.84882628       1.86808415
C       -2.29472458      -3.12021555       0.87724061
C       -1.99275114      -0.66545958      -2.17550716
C        2.71188398      -0.44830142       1.17660386
C        1.11882582      -3.40205838       1.93631815
C        1.17909717      -3.47348333      -0.52576982
C        2.23964583      -1.21082621      -1.29827488
C        1.07241408       2.66756851       0.64992802
C        2.91120967      -2.69474899       1.04612086
C        1.17653253       1.34796356       1.09046276
C        0.38381517       1.82307257      -3.09535045
C        3.25310096       2.02631510       0.04168471
C       -0.28440890      -3.32580497       1.94834941
C        2.58597925       2.18634556      -2.32688133
C       -1.89380739       2.97278131      -1.92331601
C       -0.81130690      -2.75506378      -1.61321102
C       -1.11018980      -2.50220736       2.80266386
C        3.68058261       2.00362714      -1.47026591
C       -0.10893251       3.37970139       0.47269156
C       -2.72010905       0.58000784      -1.92957107
C        0.17398066       4.14344903      -0.72250963
60
Properties=species:S:1:pos:R:3 trajectory=trial0001_proposal001_step006_proposal_relax trajectory_step=75 pbc="F F F"
C       -2.69827951      -2.15891275      -0.11102402
C        1.82177263      -3.58759387       0.71576463
C        0.30365700      -0.44072327       2.45934817
C       -0.52470430       3.66205667      -1.83683050
C       -2.82753631       3.05589388      -0.92568614
C        1.98885029      -2.37126164       2.21772605
C       -3.24673041      -1.10521485       0.64971329
C       -2.47394429      -2.61484944       2.18046797
C        2.20791134       3.07436552       0.04800139
C        0.51699293       3.17189189      -2.66648004
C       -1.29020979       2.81957495       1.07426046
C        2.53938380       0.90454755       0.91825618
C       -1.96578886      -1.92008552      -1.37985985
C        1.70513535       4.01077159      -0.91785102
C        4.75375022       2.22422557      -0.61621691
C       -2.20463121      -0.41738453       2.69260820
C        3.09985021      -1.41158403       0.25095275
C       -0.79668359       1.16651402      -3.19480683
C       -1.94921627       1.66950638      -2.54228919
C       -1.02494784      -3.67870099       0.69747585
C        1.66003141       1.20370444      -2.60130909
C        0.44612840      -0.81434512      -2.67410207
C       -3.97529604       2.21610870      -0.70495923
C       -3.60714598       0.18189135       0.24364267
C       -3.54614163       1.12688387       1.28385120
C       -2.43596900       0.90377971       2.21201525
C        1.64809509      -0.17703805      -2.21627728
C       -3.04302944      -1.33082232       2.05892812
C       -0.78341502      -0.24417325      -2.95876265
C        1.68203944      -0.98383000       2.22590313
C        1.54063982      -2.39493775      -1.43382361
C       -0.29311171      -3.58942771      -0.54781898
C       -3.77001846       2.39885774       0.72674715
C        1.84278996       3.39742042      -2.15348550
C       -0.92051683      -1.10620921       2.90568782
C        0.39017559      -2.11050288      -2.18405674
C       -3.63696874       0.82625210      -0.98604611
C       -2.54617764       3.07584681       0.44633207
C       -1.21188614       1.63413834       1.92741641
C        0.05250712       0.84691984       1.89107054
C       -2.33191105      -3.15835198       0.86546909
C       -1.98375422      -0.69845367      -2.20546564
C        2.70922839      -0.42659211       1.27227964
C        1.05532011      -3.38800652       1.91359306
C        1.14289315      -3.40619057      -0.51493928
C        2.30797843      -1.21507280      -1.26537071
C        1.06814072       2.65318431       0.70293795
C        2.82888578      -2.63952176       1.01622477
C        1.15678381       1.31937194       1.13430799
C        0.42538067       1.83974796      -3.07776953
C        3.22233083       1.99457385       0.07172695
C       -0.34618034      -3.35520756       1.91368909
C        2.64585976       2.19791922      -2.29233057
C       -1.83296683       2.94118625      -1.91574663
C       -0.77983145      -2.72325287      -1.60884209
C       -1.17165851      -2.51140720       2.73695138
C        3.68774540       2.01171453      -1.40917099
C       -0.09228341       3.38593949       0.52862657
C       -2.68882747       0.55781919      -1.96509195
C        0.19010714       4.14733562      -0.66735749
60
Properties=species:S:1:pos:R:3 trajectory=trial0001_proposal001_step006_proposal_relax trajectory_step=76 pbc="F F F"
C       -2.71043191      -2.16503735      -0.22977356
C        1.78682780      -3.62120566       0.74167408
C        0.20908529      -0.46662668       2.49862186
C       -0.45173138       3.68119304      -1.81898166
C       -2.80366479       3.05757124      -0.99483541
C        1.90010758      -2.39621437       2.25879282
C       -3.30261251      -1.12914051       0.52656174
C       -2.58253327      -2.64769059       2.08016049
C        2.21242288       3.07280795       0.17163176
C        0.63152105       3.20208825      -2.62307929
C       -1.33976530       2.81466413       1.08275061
C        2.50729685       0.91110114       1.01871298
C       -1.93023902      -1.91442923      -1.47821651
C        1.74997446       4.02269611      -0.80861743
C        4.81162648       2.25740563      -0.42767136
C       -2.32707740      -0.44967589       2.63413735
C        2.99869708      -1.40506317       0.29607926
C       -0.66532410       1.20040752      -3.21555973
C       -1.85460764       1.69086562      -2.60426829
C       -1.07074572      -3.69440627       0.63501098
C        1.79096443       1.23161928      -2.53577904
C        0.56976769      -0.78546093      -2.66788092
C       -3.97489764       2.21074254      -0.83789823
C       -3.65260222       0.16808839       0.12360466
C       -3.61939050       1.10462146       1.19051307
C       -2.53395098       0.87950503       2.16468049
C        1.77285249      -0.14905536      -2.15532170
C       -3.15007196      -1.37035539       1.94568449
C       -0.66590045      -0.20722667      -2.99204948
C        1.59033689      -1.01129280       2.28398638
C        1.60091948      -2.38919917      -1.38981383
C       -0.29494351      -3.59443413      -0.59287698
C       -3.82785989       2.37356424       0.62651658
C        1.93742342       3.44085182      -2.06384737
C       -1.03963085      -1.13786704       2.88361692
C        0.47115812      -2.08091168      -2.18985409
C       -3.63016440       0.82350911      -1.11689789
C       -2.58146281       3.06447392       0.40693777
C       -1.29078751       1.62333795       1.92863250
C       -0.01019132       0.84243000       1.94220003
C       -2.38517637      -3.17799510       0.75316333
C       -1.90634835      -0.67634220      -2.29528672
C        2.64717119      -0.45073263       1.34621954
C        0.97748391      -3.42341884       1.92521162
C        1.14448757      -3.42558794      -0.50649611
C        2.39206297      -1.21614768      -1.15149496
C        1.04618243       2.65798997       0.80444777
C        2.76706300      -2.64835901       1.06742060
C        1.13035987       1.32642125       1.22734229
C        0.56317114       1.87385643      -3.05305879
C        3.22207140       2.00158051       0.20483075
C       -0.42365016      -3.38352434       1.88127318
C        2.76191995       2.24354956      -2.21116485
C       -1.76323380       2.95980499      -1.95132072
C       -0.73254999      -2.70711256      -1.66438088
C       -1.28298121      -2.54597937       2.69073704
C        3.77160041       2.05233388      -1.26563627
C       -0.10859041       3.39342690       0.58812532
C       -2.62994247       0.57352937      -2.06986090
C        0.21911075       4.15474443      -0.60915131
60
Properties=species:S:1:pos:R:3 trajectory=trial0001_proposal001_step006_proposal_relax trajectory_step=77 pbc="F F F"
C       -2.68369874      -2.13689631      -0.19991070
C        1.83268032      -3.62045535       0.69014976
C        0.27756942      -0.45112657       2.49216266
C       -0.50460088       3.66384275      -1.86435701
C       -2.81437432       3.09603349      -0.95614608
C        1.96925690      -2.37640219       2.23888928
C       -3.30521012      -1.11845046       0.58878887
C       -2.52329757      -2.66019334       2.10741823
C        2.21192524       3.13514982       0.13462255
C        0.57619532       3.16654881      -2.69587472
C       -1.33968140       2.79301500       1.05318662
C        2.50747881       0.92898093       0.88004955
C       -1.93042080      -1.89039960      -1.44124742
C        1.70048305       4.02711766      -0.87613731
C        4.77690073       2.15800975      -0.50057765
C       -2.24614178      -0.43767553       2.69272973
C        3.08636734      -1.43921427       0.35013467
C       -0.73340495       1.16689782      -3.21121628
C       -1.90608199       1.69342974      -2.57714118
C       -1.00820229      -3.64525783       0.68095631
C        1.71939682       1.19789580      -2.52969974
C        0.48883609      -0.85703329      -2.69964530
C       -3.96268553       2.21981074      -0.76134866
C       -3.64441585       0.18610308       0.25484259
C       -3.56461766       1.13738839       1.33509550
C       -2.42361868       0.91741274       2.24101099
C        1.67427575      -0.19238611      -2.13621833
C       -3.08311585      -1.37800585       1.98463853
C       -0.76223902      -0.22575323      -2.99311172
C        1.61235674      -1.00188752       2.19748011
C        1.55960066      -2.43271671      -1.41864182
C       -0.29781436      -3.58021982      -0.55172678
C       -3.81845067       2.37921361       0.73111404
C        1.87438419       3.45408296      -2.15624119
C       -0.94414356      -1.10580558       2.93476345
C        0.39656885      -2.16816374      -2.22344391
C       -3.65310282       0.84177140      -1.03207651
C       -2.59342459       3.09747928       0.47873757
C       -1.21997749       1.62568904       1.87959275
C        0.06460047       0.85478002       1.90362351
C       -2.33582430      -3.16019205       0.75595568
C       -1.93346636      -0.64718107      -2.24982921
C        2.64239904      -0.45987693       1.23113234
C        1.05974953      -3.41384487       1.90582003
C        1.14794233      -3.47296604      -0.51232672
C        2.26732814      -1.19469588      -1.13408063
C        1.04960602       2.66272023       0.75288194
C        2.82708973      -2.65646922       1.05980383
C        1.17263005       1.35236575       1.15250992
C        0.51329871       1.84643644      -3.08394537
C        3.22785261       2.04261985       0.12459663
C       -0.33772388      -3.34939866       1.90503776
C        2.67020040       2.22508799      -2.25125035
C       -1.80499443       2.96646782      -1.93413103
C       -0.76428426      -2.71033675      -1.60292446
C       -1.19997827      -2.52732056       2.73131297
C        3.70786619       2.02515476      -1.31400130
C       -0.12353718       3.38313450       0.53961525
C       -2.68793201       0.58549928      -2.03015495
C        0.17622658       4.12047533      -0.66304304
60
Properties=species:S:1:pos:R:3 trajectory=trial0001_proposal001_step006_proposal_relax trajectory_step=78 pbc="F F F"
C       -2.69920608      -2.14328769      -0.27695625
C        1.80540791      -3.63479304       0.70613907
C        0.22412438      -0.45727288       2.50785199
C       -0.44497916       3.65828673      -1.85237712
C       -2.79539612       3.09539323      -0.98282121
C        1.91384647      -2.38495419       2.26411675
C       -3.33672198      -1.13823373       0.50187773
C       -2.58107672      -2.68790446       2.03159618
C        2.20135193       3.14056982       0.21787977
C        0.63169507       3.20693322      -2.64648686
C       -1.35747006       2.79448815       1.05173021
C        2.48207083       0.91858501       0.94029222
C       -1.90617513      -1.87546119      -1.50072770
C        1.71170972       4.03209123      -0.80384407
C        4.78938929       2.17783432      -0.38713948
C       -2.31321328      -0.46964932       2.63383150
C        3.00928605      -1.43767974       0.34421617
C       -0.65863198       1.18887374      -3.20995971
C       -1.83996570       1.70681303      -2.61011850
C       -1.02879164      -3.65811841       0.63435110
C        1.80383257       1.22079179      -2.49257403
C        0.55687489      -0.83149907      -2.67815012
C       -3.94269645       2.21848194      -0.82840681
C       -3.65687195       0.18646217       0.17069474
C       -3.60028311       1.11198897       1.25975339
C       -2.47684993       0.89995822       2.19113416
C        1.73675781      -0.17863387      -2.08059021
C       -3.13585965      -1.39555069       1.91928609
C       -0.66280850      -0.21970200      -3.00782679
C        1.56772977      -1.01742107       2.22638046
C        1.58561582      -2.41674268      -1.38884216
C       -0.30454102      -3.58578512      -0.56660246
C       -3.83748458       2.37437488       0.64905265
C        1.94677038       3.46259388      -2.10833471
C       -1.03007850      -1.13284194       2.91451620
C        0.45659276      -2.14977983      -2.21697894
C       -3.64618697       0.83360226      -1.10890247
C       -2.61849372       3.09023323       0.43483428
C       -1.24833409       1.60847557       1.88214582
C        0.01911776       0.84305097       1.93603861
C       -2.36828696      -3.17260550       0.68135995
C       -1.88861171      -0.63607328      -2.29567349
C        2.58644188      -0.42127301       1.29370734
C        1.01950436      -3.42499617       1.90891169
C        1.15227132      -3.47881011      -0.51619250
C        2.30163662      -1.21647319      -1.03881921
C        1.04374865       2.67707260       0.80929139
C        2.78088490      -2.65612930       1.09009293
C        1.14561951       1.35784372       1.21548686
C        0.60597654       1.83975968      -3.06179561
C        3.23414543       2.04923193       0.20227867
C       -0.39980194      -3.35960875       1.88928921
C        2.71087439       2.26200172      -2.18193273
C       -1.75358898       2.96775625      -1.95433437
C       -0.74187711      -2.69617837      -1.62921377
C       -1.27643231      -2.54945184       2.68132288
C        3.77141385       2.04954838      -1.20420876
C       -0.14770568       3.38611051       0.57422855
C       -2.65060588       0.59439790      -2.10147805
C        0.19494321       4.11359465      -0.62419707
60
Properties=species:S:1:pos:R:3 trajectory=trial0001_proposal001_step006_proposal_relax trajectory_step=79 pbc="F F F"
C       -2.69627701      -2.15100767      -0.29840284
C        1.78233439      -3.61112328       0.70173350
C        0.20822399      -0.45847369       2.51539389
C       -0.42867393       3.64458320      -1.83131581
C       -2.76656683       3.08045773      -0.99647184
C        1.90048884      -2.38255448       2.26992383
C       -3.33896345      -1.14644449       0.46838892
C       -2.60041354      -2.69552815       2.00044176
C        2.19729031       3.13735391       0.23520371
C        0.65129658       3.20117144      -2.62997343
C       -1.35591113       2.79622390       1.05274147
C        2.47269786       0.92784873       0.95706581
C       -1.90510420      -1.87615937      -1.51268251
C        1.70464159       4.02383233      -0.77838789
C        4.78855553       2.20244967      -0.35211111
C       -2.33050299      -0.47708059       2.58665847
C        2.93730681      -1.39676760       0.31604373
C       -0.62368647       1.18483038      -3.18669410
C       -1.81471850       1.70196029      -2.60530589
C       -1.04310909      -3.67192440       0.62597067
C        1.82557324       1.21797268      -2.48061735
C        0.57981237      -0.82669573      -2.64701752
C       -3.92055609       2.21366345      -0.85818324
C       -3.64250526       0.18173917       0.13172107
C       -3.58367992       1.10946386       1.21328282
C       -2.47585348       0.88999257       2.15263027
C        1.75702280      -0.17466166      -2.06027311
C       -3.15465105      -1.40822682       1.88206850
C       -0.63894695      -0.21605944      -2.98562651
C        1.55990580      -1.00830672       2.25588195
C        1.57927752      -2.40422379      -1.36183193
C       -0.30327239      -3.57562124      -0.56912515
C       -3.82089665       2.36472358       0.61129663
C        1.95130620       3.46472450      -2.06916369
C       -1.06209826      -1.14221372       2.87671881
C        0.46676623      -2.12812736      -2.18157374
C       -3.63775182       0.82810386      -1.13838244
C       -2.60027845       3.08302500       0.41684845
C       -1.24933487       1.60523692       1.87435689
C        0.01515901       0.84281744       1.94164774
C       -2.37544234      -3.18791925       0.65954980
C       -1.87960270      -0.64189735      -2.30713244
C        2.57712864      -0.41335741       1.32627843
C        0.99280643      -3.41777878       1.89647359
C        1.13888167      -3.46074141      -0.51597941
C        2.31670348      -1.23415802      -0.99138983
C        1.03373584       2.67593614       0.83550455
C        2.74999034      -2.63310388       1.07860963
C        1.13788092       1.35686648       1.22946191
C        0.62484604       1.84602670      -3.05185168
C        3.22061086       2.04870302       0.21849290
C       -0.41392946      -3.36663083       1.87338944
C        2.72634690       2.26601033      -2.14579564
C       -1.72631189       2.95541140      -1.94748139
C       -0.72719309      -2.68087960      -1.61922604
C       -1.30139611      -2.55449978       2.64604419
C        3.75611807       2.05177804      -1.17941634
C       -0.14631835       3.38711921       0.58927645
C       -2.64317242       0.59000206      -2.12228936
C        0.19501840       4.10242773      -0.60719438
60
Properties=species:S:1:pos:R:3 trajectory=trial0001_proposal001_step006_proposal_relax trajectory_step=80 pbc="F F F"
C       -2.69523687      -2.14695478      -0.27561860
C        1.79285159      -3.59282472       0.69750190
C        0.23603899      -0.45397474       2.50146586
C       -0.44899714       3.62257740      -1.83163548
C       -2.76272425       3.08339153      -0.97737770
C        1.93354034      -2.36781881       2.25233452
C       -3.32177796      -1.14125855       0.49951598
C       -2.56427752      -2.68939774       2.00647985
C        2.19281322       3.15645712       0.20732977
C        0.62376970       3.17784920      -2.65018586
C       -1.33976266       2.79084005       1.04566690
C        2.46656583       0.94377782       0.91095909
C       -1.91169163      -1.86872650      -1.47979824
C        1.67774947       4.01870785      -0.81652344
C        4.74587257       2.17479729      -0.38805208
C       -2.28416932      -0.46824645       2.58140233
C        2.91771127      -1.38058545       0.30785803
C       -0.65131909       1.16837856      -3.16311714
C       -1.83546677       1.68815412      -2.58218503
C       -1.02451160      -3.66361128       0.64094283
C        1.78072839       1.19299517      -2.48013420
C        0.54624629      -0.84364105      -2.62513214
C       -3.90061783       2.21492540      -0.81668125
C       -3.61448458       0.18796502       0.16047759
C       -3.54063275       1.12066090       1.23393675
C       -2.42811693       0.88565798       2.14900276
C        1.70761151      -0.18611055      -2.04209251
C       -3.11539269      -1.40467849       1.89274495
C       -0.67372322      -0.23156389      -2.96251824
C        1.58473543      -0.98924745       2.23096599
C        1.55162513      -2.41997704      -1.35999958
C       -0.29552806      -3.56947811      -0.55462349
C       -3.79186992       2.37202690       0.64502520
C        1.90994377       3.46208649      -2.08367483
C       -1.02158056      -1.13835308       2.87435576
C        0.43520547      -2.14145276      -2.17297718
C       -3.62978416       0.83155675      -1.09925898
C       -2.57868250       3.09441454       0.42984728
C       -1.21816560       1.60658346       1.86120258
C        0.04225594       0.84504032       1.92055928
C       -2.35114993      -3.18350403       0.67369152
C       -1.89813790      -0.64208757      -2.28085119
C        2.59438676      -0.40198506       1.29472432
C        1.01637239      -3.39465002       1.88690021
C        1.13389324      -3.46278963      -0.52380126
C        2.27012959      -1.25405891      -1.01032480
C        1.03365752       2.69131605       0.81132265
C        2.76575490      -2.61940543       1.05250316
C        1.14402377       1.36561415       1.19479964
C        0.58516473       1.83409426      -3.05101935
C        3.21321879       2.06306968       0.18704662
C       -0.38205524      -3.35393943       1.87385725
C        2.67919751       2.24311466      -2.13863905
C       -1.73684932       2.94442620      -1.92977165
C       -0.74141259      -2.68007775      -1.59172998
C       -1.26917925      -2.54459827       2.64380802
C        3.71784595       2.03812141      -1.20761609
C       -0.14379611       3.38144188       0.56590011
C       -2.66377063       0.59037947      -2.09731761
C        0.17656140       4.08486527      -0.63326846
