60
Properties=species:S:1:pos:R:3 trajectory=trial0001_proposal001_step005_proposal_relax trajectory_step=0 pbc="F F F"
C       -2.45495901      -2.04879016       0.74972990
C        2.32375029      -3.11260898       0.13855609
C        1.19570923      -0.04986423       2.27839165
C       -1.00075556       3.39309533      -2.18729554
C       -2.73145449       3.28763365      -0.20602502
C        2.66885184      -1.79907446       1.72882744
C       -3.18562752      -1.25005184       1.80524093
C       -1.35220776      -2.63296246       2.83216512
C        2.20620017       3.00863699      -0.71138193
C       -0.43025830       2.55086730      -3.31138699
C       -0.66771762       3.04850471       1.29098749
C        2.88807545       1.74014546       1.04778467
C       -2.42716327      -2.12647747      -0.69564112
C        1.22673876       2.96845452      -1.81866750
C        2.48025460       0.65495279      -1.08633151
C       -1.16313333      -0.40509958       2.75977507
C        2.83421407      -0.31123665      -0.00020512
C       -1.54805410       0.60336364      -2.84109042
C       -2.27136270       1.40355060      -1.83036817
C       -0.41311597      -3.60322602       0.95058201
C        0.62254036       0.56178641      -4.29966262
C       -0.75618975      -1.54248254      -3.45074202
C       -3.72022078       2.38561824       0.42501911
C       -3.67883393       0.13899107       1.54656818
C       -2.82749205       1.23655983       2.10354046
C       -1.49699716       0.97204107       2.50478686
C        0.51981420      -0.73082222      -3.66400325
C       -2.15406311      -1.41634952       2.84878150
C       -1.77244339      -0.74949429      -2.65388832
C        2.54907671      -0.54074208       2.38698978
C        0.76243359      -1.68624752      -1.49434558
C       -0.21448372      -3.26579082      -0.30339978
C       -3.06725117       2.58411047       1.64489893
C        0.95113835       2.44117309      -3.05711212
C        0.07160726      -0.91198308       2.19838566
C       -0.40752417      -2.29182525      -2.29937693
C       -3.62159244       0.88692620       0.22859626
C       -2.01386161       3.42033805       1.10122150
C       -0.41863790       1.68419573       1.87414681
C        0.94125966       1.38237365       2.09308866
C       -1.53862180      -2.86874370       1.43840103
C       -2.62932416      -0.91276692      -1.43752646
C        2.80620566       0.34649926       1.23658953
C        1.94787415      -3.00844573       1.57621446
C        1.16130137      -2.93951830      -0.73681200
C        1.21633111      -0.65944485      -2.46636354
C        1.58213654       3.44931825       0.60991366
C        2.92718600      -1.71026831       0.33727770
C        1.92731968       2.51180375       1.75721291
C       -0.61727770       1.16792093      -3.70247345
C        2.76199048       1.84252124      -0.39684779
C        0.66096606      -3.37622383       1.96922292
C        1.74180144       1.35315022      -3.71259416
C       -2.06840231       2.76070754      -1.39970102
C       -1.24404028      -2.87365657      -1.27382773
C        0.06434210      -2.23467858       2.53798890
C        2.12516123       0.47909596      -2.53326717
C        0.23102703       3.52979918       0.20531128
C       -2.95309393       0.43005424      -0.95984833
C        0.09142349       3.47497062      -1.26780492
60
Properties=species:S:1:pos:R:3 trajectory=trial0001_proposal001_step005_proposal_relax trajectory_step=1 pbc="F F F"
C       -2.46294642      -2.05464352       0.76080020
C        2.31961554      -3.08571441       0.13578930
C        1.19922298      -0.03245323       2.28006490
C       -1.00928401       3.37380950      -2.18258637
C       -2.71808432       3.27870877      -0.20660767
C        2.66672774      -1.80656192       1.73198879
C       -3.17574842      -1.24724708       1.79493748
C       -1.36054733      -2.61833052       2.81975168
C        2.18425118       3.03699481      -0.72168587
C       -0.42206270       2.54458699      -3.31260747
C       -0.66846008       3.03935109       1.26654769
C        2.88298799       1.71734062       1.04396138
C       -2.41713276      -2.11848239      -0.70302411
C        1.24913302       2.97432222      -1.79834430
C        2.49944133       0.65405754      -1.08548342
C       -1.16819611      -0.40443060       2.74423007
C        2.81131098      -0.32367708      -0.00775367
C       -1.55247165       0.61323013      -2.82705177
C       -2.26891581       1.39219822      -1.80981579
C       -0.41876946      -3.59700622       0.98963569
C        0.60369081       0.55559043      -4.29537512
C       -0.74735778      -1.53873260      -3.43817164
C       -3.71660902       2.38192480       0.41071037
C       -3.65639145       0.15947279       1.53921802
C       -2.82779889       1.23291986       2.12300512
C       -1.49497011       0.95103473       2.48889591
C        0.50769099      -0.73537516      -3.66919397
C       -2.15021441      -1.40964049       2.85901367
C       -1.76869616      -0.75231573      -2.66584622
C        2.54453613      -0.52852574       2.38145792
C        0.77045595      -1.69481534      -1.53019100
C       -0.19561181      -3.27245567      -0.35213105
C       -3.05817967       2.57559547       1.66502304
C        0.97490859       2.43150770      -3.08586980
C        0.07419854      -0.89656853       2.20130272
C       -0.41247346      -2.28794759      -2.27831766
C       -3.62866955       0.88793999       0.22073496
C       -2.02683508       3.41218265       1.09877485
C       -0.41470378       1.72461580       1.88046425
C        0.92516264       1.38797156       2.09693359
C       -1.55020890      -2.88865202       1.44477364
C       -2.61783847      -0.91676120      -1.44950932
C        2.83485092       0.34557051       1.23924043
C        1.95776397      -3.02777925       1.55996488
C        1.14958123      -2.92043806      -0.72863158
C        1.22694811      -0.65393802      -2.44931022
C        1.58037140       3.45053686       0.60014344
C        2.92112208      -1.71730581       0.33473133
C        1.91216163       2.49811937       1.73139224
C       -0.61933673       1.17932982      -3.71276224
C        2.76692717       1.82753089      -0.38765367
C        0.66376923      -3.36704915       1.95531111
C        1.73238001       1.35744743      -3.69494697
C       -2.07022656       2.76120379      -1.41588427
C       -1.23871470      -2.86884295      -1.25810270
C        0.05810044      -2.26716941       2.55564681
C        2.11266815       0.47170880      -2.50164076
C        0.22562664       3.53059353       0.22376740
C       -2.95459450       0.44115363      -0.95244769
C        0.07701458       3.48459343      -1.24906057
60
Properties=species:S:1:pos:R:3 trajectory=trial0001_proposal001_step005_proposal_relax trajectory_step=2 pbc="F F F"
C       -2.47551485      -2.06531345       0.76778539
C        2.30860089      -3.04831318       0.12364926
C        1.19556385      -0.00897292       2.28424169
C       -1.00882291       3.34496790      -2.17842284
C       -2.69992329       3.26211406      -0.21042193
C        2.66391773      -1.81400914       1.73973630
C       -3.16075732      -1.23681775       1.78291257
C       -1.37257022      -2.59923725       2.80717022
C        2.18569762       3.04327736      -0.71423643
C       -0.40407445       2.53822759      -3.31267106
C       -0.67715822       3.02712006       1.23477414
C        2.87229107       1.69602870       1.03580303
C       -2.40126481      -2.10820244      -0.70310747
C        1.24747601       2.98397605      -1.79697619
C        2.52660454       0.64988204      -1.07891869
C       -1.16497727      -0.40810181       2.71693894
C        2.77852633      -0.34148954      -0.01275059
C       -1.55287140       0.62382534      -2.81246083
C       -2.26188008       1.37984139      -1.78084246
C       -0.41300911      -3.58438471       0.98151615
C        0.57874368       0.54798000      -4.28858928
C       -0.73740036      -1.53604632      -3.41684202
C       -3.70241985       2.37844359       0.40571547
C       -3.62169090       0.18332649       1.52652824
C       -2.82523232       1.22810740       2.15338843
C       -1.48849984       0.93733953       2.45929698
C        0.50022325      -0.73891306      -3.66714418
C       -2.15019541      -1.40007857       2.87277156
C       -1.76264600      -0.74914223      -2.68248491
C        2.54043455      -0.51525832       2.37049242
C        0.78372951      -1.71130918      -1.57892320
C       -0.18208747      -3.30260228      -0.35377936
C       -3.05463190       2.56200502       1.68121015
C        1.00511232       2.44005527      -3.09637987
C        0.07786085      -0.89828415       2.21058093
C       -0.41534290      -2.27447302      -2.25744299
C       -3.64096390       0.89413895       0.21134015
C       -2.03964152       3.39749102       1.09521165
C       -0.42058670       1.77240662       1.89651004
C        0.90972659       1.40420356       2.10120178
C       -1.57338478      -2.91498992       1.45394042
C       -2.60283671      -0.91815962      -1.46518340
C        2.87618097       0.32805542       1.23977379
C        1.97293758      -3.05550796       1.54119301
C        1.13982148      -2.88570665      -0.72263365
C        1.23158639      -0.64816316      -2.43782721
C        1.57503485       3.45423357       0.59036012
C        2.91107513      -1.72139141       0.33243634
C        1.89058212       2.47449120       1.69005853
C       -0.63305971       1.18984590      -3.72153956
C        2.76078311       1.84022270      -0.38456607
C        0.66925862      -3.35854894       1.93573212
C        1.72134288       1.34577033      -3.67360748
C       -2.07902530       2.75827470      -1.43338137
C       -1.23418089      -2.85923577      -1.24228581
C        0.05134653      -2.28149412       2.58313119
C        2.09403718       0.46636145      -2.45907429
C        0.21590316       3.53509196       0.24355143
C       -2.95428069       0.44650660      -0.94484930
C        0.06710216       3.49081913      -1.23340405
60
Properties=species:S:1:pos:R:3 trajectory=trial0001_proposal001_step005_proposal_relax trajectory_step=3 pbc="F F F"
C       -2.49299506      -2.08210069       0.76365031
C        2.28596991      -3.01005037       0.08804234
C        1.17641067       0.00646724       2.29344287
C       -0.98763196       3.30979375      -2.18010111
C       -2.68835887       3.23834188      -0.21985240
C        2.66358522      -1.82424268       1.75200854
C       -3.14276636      -1.20581226       1.77435902
C       -1.37562728      -2.59138305       2.79816315
C        2.17540374       3.05930632      -0.71840855
C       -0.37727706       2.53602589      -3.30898922
C       -0.70750651       3.01577770       1.21763571
C        2.85854002       1.67986171       1.01937600
C       -2.37714781      -2.09458460      -0.68983419
C        1.24368240       3.00445236      -1.78658105
C        2.55116988       0.65313005      -1.05317948
C       -1.15031381      -0.41068624       2.67412574
C        2.74792481      -0.34631512      -0.01183788
C       -1.54350832       0.62913933      -2.80507524
C       -2.24032900       1.37565899      -1.75730769
C       -0.41024003      -3.57155990       0.98140940
C        0.55755645       0.54304474      -4.27376880
C       -0.73597772      -1.52868778      -3.39799252
C       -3.67191445       2.37065074       0.42171743
C       -3.57855173       0.19016424       1.50809398
C       -2.82025830       1.23056078       2.18682878
C       -1.46908572       0.94915788       2.41856023
C        0.50497281      -0.73520098      -3.65535231
C       -2.16379779      -1.38127343       2.87981757
C       -1.75830902      -0.73240541      -2.69442131
C        2.53073297      -0.51431977       2.35954906
C        0.79892271      -1.75165788      -1.60882832
C       -0.17643388      -3.32492394      -0.36260008
C       -3.06206272       2.54807182       1.68830223
C        1.01942264       2.47052683      -3.08797695
C        0.09538456      -0.91296538       2.22377468
C       -0.40977594      -2.25661911      -2.23591789
C       -3.65702730       0.90829218       0.20833340
C       -2.04568989       3.37499287       1.08663633
C       -0.44213034       1.79748565       1.92875379
C        0.90524164       1.43708487       2.10125127
C       -1.59894668      -2.95330665       1.45049625
C       -2.59195680      -0.91296488      -1.47299550
C        2.91679392       0.30884508       1.22505606
C        1.99005784      -3.08183048       1.53604186
C        1.13330847      -2.84043686      -0.72467392
C        1.21801782      -0.64842887      -2.44419785
C        1.56829839       3.46124360       0.59776723
C        2.89458128      -1.71286638       0.33794300
C        1.85840196       2.43953829       1.64255984
C       -0.65794608       1.19818452      -3.71992281
C        2.76346214       1.82041277      -0.38405967
C        0.66134567      -3.34584637       1.91457809
C        1.71177967       1.30379227      -3.64780648
C       -2.09529550       2.74432449      -1.44030158
C       -1.21752054      -2.85076807      -1.22159866
C        0.06139592      -2.28432207       2.60863276
C        2.07043633       0.47446134      -2.42766946
C        0.20888353       3.55253597       0.22753638
C       -2.94956346       0.42887576      -0.94123986
C        0.06483235       3.48564125      -1.23374649
60
Properties=species:S:1:pos:R:3 trajectory=trial0001_proposal001_step005_proposal_relax trajectory_step=4 pbc="F F F"
C       -2.49427070      -2.08521575       0.76453256
C        2.28704095      -3.00854999       0.09256307
C        1.18434143       0.00644185       2.29472442
C       -0.99040199       3.30624308      -2.17837169
C       -2.69377952       3.23806864      -0.22009610
C        2.66402900      -1.82661521       1.75271463
C       -3.14003463      -1.20490013       1.77009108
C       -1.37748563      -2.58984448       2.79614356
C        2.19192078       3.04000142      -0.70706222
C       -0.37878204       2.53596463      -3.30749798
C       -0.70023024       3.01912666       1.21804530
C        2.86067861       1.67683666       1.01854150
C       -2.37271803      -2.09180107      -0.68833185
C        1.24476816       3.00787500      -1.79365877
C        2.53874237       0.64066853      -1.06692218
C       -1.15200126      -0.40648137       2.66625191
C        2.75259660      -0.34551257      -0.00780235
C       -1.54256622       0.63319518      -2.80301095
C       -2.23664797       1.36857560      -1.75876355
C       -0.41067732      -3.57342677       0.96490337
C        0.55954742       0.54500672      -4.26881334
C       -0.73718500      -1.52615061      -3.39710821
C       -3.67123552       2.36411978       0.42140749
C       -3.57582441       0.19061077       1.50840469
C       -2.81957040       1.23306132       2.18500883
C       -1.47216277       0.94268568       2.42143297
C        0.49985614      -0.73684604      -3.65605623
C       -2.15431893      -1.38064492       2.87257048
C       -1.75974363      -0.73469315      -2.68961881
C        2.52555436      -0.51514633       2.35656168
C        0.80080338      -1.74445878      -1.61140752
C       -0.17649048      -3.32413516      -0.34808450
C       -3.06109651       2.55208933       1.69609868
C        1.02572114       2.46367575      -3.08774699
C        0.09645462      -0.91486867       2.22429527
C       -0.41169173      -2.25763801      -2.24069530
C       -3.65265716       0.90171746       0.20790891
C       -2.05192709       3.37407968       1.08301735
C       -0.43588713       1.80191018       1.92671664
C        0.90060902       1.43076439       2.10268760
C       -1.60304480      -2.95182211       1.45442988
C       -2.59266057      -0.91448522      -1.46677976
C        2.91068666       0.31146123       1.23281087
C        1.98756324      -3.08242068       1.53220089
C        1.13025941      -2.84692698      -0.72361471
C        1.21908710      -0.65227198      -2.43690037
C        1.56228618       3.46472917       0.59514922
C        2.88780361      -1.71098800       0.33942989
C        1.85580771       2.43827468       1.63871011
C       -0.65028103       1.20202334      -3.72008801
C        2.75807020       1.85221622      -0.38867886
C        0.66528135      -3.34275367       1.91625934
C        1.70459002       1.31281711      -3.63937705
C       -2.08666315       2.74348058      -1.44153489
C       -1.21828972      -2.84671273      -1.22531670
C        0.06493044      -2.28210042       2.60805027
C        2.06554379       0.47311133      -2.42770242
C        0.19989692       3.55324201       0.22776690
C       -2.94825743       0.43039732      -0.94097388
C        0.06468216       3.48322346      -1.23920812
60
Properties=species:S:1:pos:R:3 trajectory=trial0001_proposal001_step005_proposal_relax trajectory_step=5 pbc="F F F"
C       -2.49385209      -2.08500439       0.76456551
C        2.28775924      -3.01118131       0.09534043
C        1.18481486       0.00415587       2.29517261
C       -0.99112176       3.30758687      -2.17912854
C       -2.69624689       3.23842310      -0.22084935
C        2.66407304      -1.82615485       1.75231470
C       -3.13991487      -1.20679306       1.76961568
C       -1.37580961      -2.59013710       2.79639349
C        2.18870252       3.04422669      -0.70762918
C       -0.37957356       2.53689470      -3.30746215
C       -0.69936962       3.02195878       1.21942203
C        2.86087025       1.68125971       1.01917075
C       -2.37264986      -2.09233619      -0.68764163
C        1.24727883       3.00728288      -1.79576676
C        2.53469055       0.64505611      -1.06570869
C       -1.15105859      -0.40751908       2.66588316
C        2.75554502      -0.34304735      -0.00777005
C       -1.54169868       0.63165539      -2.80384397
C       -2.23643213       1.36882557      -1.76002871
C       -0.41176593      -3.57450257       0.96542296
C        0.56180277       0.54628221      -4.26805080
C       -0.73883971      -1.52577133      -3.39829565
C       -3.67237960       2.36254435       0.42208670
C       -3.57778541       0.19004019       1.50941626
C       -2.81924037       1.23303495       2.18279870
C       -1.47312048       0.94478646       2.42346810
C        0.49943666      -0.73688397      -3.65544796
C       -2.15145940      -1.38115746       2.86851519
C       -1.76018656      -0.73471131      -2.68725013
C        2.52580104      -0.51658380       2.35753881
C        0.79935750      -1.74247204      -1.60749849
C       -0.17780642      -3.32055886      -0.34670467
C       -3.06219243       2.55408846       1.69648191
C        1.02437566       2.46315177      -3.08544917
C        0.09637593      -0.91429357       2.22342791
C       -0.41179666      -2.25907242      -2.24390778
C       -3.64964455       0.89894252       0.20862404
C       -2.05064914       3.37514170       1.08311920
C       -0.43540680       1.79951044       1.92500285
C        0.90193332       1.42739191       2.10279897
C       -1.60149876      -2.95013544       1.45437359
C       -2.59339034      -0.91432808      -1.46450911
C        2.90602097       0.31265329       1.23350521
C        1.98617221      -3.08061899       1.53218047
C        1.13094751      -2.85128356      -0.72404795
C        1.21892580      -0.65278789      -2.43781880
C        1.56140200       3.46447308       0.59445258
C        2.88658988      -1.71056583       0.34014113
C        1.85677360       2.43962526       1.64086480
C       -0.64810758       1.20128868      -3.71892321
C        2.76057255       1.84323331      -0.39094897
C        0.66541151      -3.34421459       1.91640536
C        1.70435747       1.31527380      -3.63855262
C       -2.08466469       2.74219131      -1.43981187
C       -1.21899629      -2.84643617      -1.22712740
C        0.06442945      -2.27948401       2.60586063
C        2.06468257       0.47138462      -2.43092021
C        0.19897815       3.55273109       0.22684347
C       -2.94773458       0.43073179      -0.94121064
C        0.06688228       3.48249232      -1.24069667
60
Properties=species:S:1:pos:R:3 trajectory=trial0001_proposal001_step005_proposal_relax trajectory_step=6 pbc="F F F"
C       -2.49508658      -2.08745924       0.76469866
C        2.28648000      -3.01092007       0.09659576
C        1.18498378       0.00221656       2.29729761
C       -0.99005950       3.30535622      -2.18008565
C       -2.69953466       3.23547328      -0.22253036
C        2.66382611      -1.82683405       1.75312569
C       -3.13703883      -1.20682675       1.76690229
C       -1.37300876      -2.58898882       2.79512753
C        2.18717524       3.04640071      -0.70690632
C       -0.37793642       2.53803298      -3.30696933
C       -0.70036329       3.02578326       1.21955780
C        2.86046992       1.68413285       1.01801957
C       -2.36915067      -2.09108323      -0.68522781
C        1.25202082       3.01004613      -1.79750714
C        2.52745854       0.64836429      -1.06429312
C       -1.14837998      -0.40713828       2.65838576
C        2.75680624      -0.34030555      -0.00678167
C       -1.53890753       0.63046986      -2.80317989
C       -2.23288903       1.36729999      -1.75898967
C       -0.41380271      -3.57511087       0.96686784
C        0.56317713       0.54805692      -4.26412794
C       -0.74180636      -1.52376047      -3.39815539
C       -3.67082206       2.35764466       0.42430249
C       -3.57533146       0.18994311       1.50916255
C       -2.81844655       1.23391210       2.18297276
C       -1.47226884       0.94728151       2.42266620
C        0.49774932      -0.73668302      -3.65382223
C       -2.14625022      -1.37988715       2.86035216
C       -1.76046119      -0.73377987      -2.68384404
C        2.52480425      -0.51870283       2.35823447
C        0.79835858      -1.74276882      -1.60511677
C       -0.17927949      -3.31590481      -0.34617324
C       -3.06445355       2.55650694       1.69954188
C        1.02508050       2.46434388      -3.08226235
C        0.09875280      -0.91412807       2.22239546
C       -0.41166968      -2.26026933      -2.24695232
C       -3.64496810       0.89481476       0.20982532
C       -2.05141957       3.37448039       1.08149102
C       -0.43540378       1.80035614       1.92485272
C        0.90211352       1.42440085       2.10309448
C       -1.60222732      -2.95216409       1.45470370
C       -2.59272070      -0.91364954      -1.46085068
C        2.90175397       0.31465704       1.23439315
C        1.98530190      -3.08117945       1.53112163
C        1.13078868      -2.85467568      -0.72490177
C        1.21728508      -0.65472413      -2.43850890
C        1.55744583       3.46472621       0.59281314
C        2.88127927      -1.70827053       0.34167702
C        1.85365701       2.43849763       1.63799644
C       -0.64574450       1.20149060      -3.71673989
C        2.76169766       1.83929207      -0.39497824
C        0.66452578      -3.34439180       1.91453741
C        1.70200872       1.31602558      -3.63221764
C       -2.08167712       2.73784040      -1.43788135
C       -1.21832518      -2.84438475      -1.22780884
C        0.06545285      -2.27763990       2.60419860
C        2.05997564       0.46948687      -2.43089418
C        0.19592003       3.55384690       0.22351419
C       -2.94565619       0.42977651      -0.94079623
C        0.06931046       3.48095787      -1.24371630
60
Properties=species:S:1:pos:R:3 trajectory=trial0001_proposal001_step005_proposal_relax trajectory_step=7 pbc="F F F"
C       -2.49687263      -2.09324428       0.76441814
C        2.28357737      -3.00891647       0.09642525
C        1.18624700       0.00093770       2.30108430
C       -0.98738309       3.30058972      -2.18057046
C       -2.70280547       3.22792041      -0.22403668
C        2.66234697      -1.82794759       1.75446691
C       -3.13190246      -1.20640623       1.76217995
C       -1.36861384      -2.58649480       2.79251638
C        2.18556992       3.05114350      -0.70729114
C       -0.37432503       2.53900128      -3.30656434
C       -0.70337208       3.03059236       1.21838090
C        2.85900177       1.68713048       1.01512096
C       -2.36355113      -2.08831744      -0.68182790
C        1.25880039       3.01722276      -1.79787884
C        2.51532192       0.64939357      -1.06244103
C       -1.14369846      -0.40434020       2.64349032
C        2.75407248      -0.33642823      -0.00491609
C       -1.53404772       0.62978894      -2.79941014
C       -2.22590379       1.36349287      -1.75517822
C       -0.41619350      -3.57580192       0.96652624
C        0.56381477       0.55000337      -4.25751618
C       -0.74611892      -1.52126877      -3.39696259
C       -3.66753307       2.34961321       0.42697078
C       -3.56892409       0.18920759       1.50830344
C       -2.81701156       1.23594040       2.18610362
C       -1.46995559       0.95054337       2.41879238
C        0.49405097      -0.73614277      -3.65247558
C       -2.13793377      -1.37660918       2.84682621
C       -1.76006091      -0.73285804      -2.67942524
C        2.52437789      -0.52010117       2.36039375
C        0.79678319      -1.74456445      -1.60506279
C       -0.18164731      -3.31072564      -0.34412448
C       -3.06787595       2.55904036       1.70487051
C        1.02846257       2.46752582      -3.07983114
C        0.10322351      -0.91417100       2.21850695
C       -0.41194949      -2.26229349      -2.25022541
C       -3.63704857       0.88965007       0.21267855
C       -2.05571738       3.37332489       1.07846703
C       -0.43495864       1.80500074       1.92482013
C        0.90007879       1.42293886       2.10283977
C       -1.60500769      -2.95805890       1.45643308
C       -2.58929321      -0.91276881      -1.45621103
C        2.89731906       0.31713035       1.23532316
C        1.98434605      -3.08424448       1.53018166
C        1.12961840      -2.85786386      -0.72661933
C        1.21387766      -0.65940584      -2.43815345
C        1.55130298       3.46354644       0.58979899
C        2.87191465      -1.70438015       0.34357091
C        1.84709806       2.43623257       1.63068397
C       -0.64286940       1.20220872      -3.71297155
C        2.76218483       1.83946109      -0.39732207
C        0.66290986      -3.34389324       1.91162282
C        1.69909464       1.31467026      -3.62075498
C       -2.07710188       2.73092511      -1.43535341
C       -1.21726892      -2.84067321      -1.22736809
C        0.06831306      -2.27765304       2.60146313
C        2.05196368       0.46785179      -2.42579843
C        0.19123878       3.55618463       0.21733019
C       -2.94101172       0.42744742      -0.93888106
C        0.07161589       3.48019644      -1.24721272
60
Properties=species:S:1:pos:R:3 trajectory=trial0001_proposal001_step005_proposal_relax trajectory_step=8 pbc="F F F"
C       -2.49752550      -2.10157591       0.76345473
C        2.28022025      -3.00886334       0.09665461
C        1.18954076       0.00355063       2.30415000
C       -0.98490551       3.29728777      -2.17955444
C       -2.70355228       3.21655032      -0.22499384
C        2.65753472      -1.82722697       1.75420018
C       -3.12754866      -1.20903523       1.75715861
C       -1.36337110      -2.58452969       2.79008135
C        2.19332742       3.05488251      -0.70505969
C       -0.36999472       2.54029429      -3.30585882
C       -0.70833989       3.03785403       1.21433832
C        2.85670215       1.68923675       1.01616725
C       -2.35987408      -2.08780518      -0.67979677
C        1.26014792       3.02824240      -1.80465156
C        2.49938979       0.65569771      -1.05165715
C       -1.13673043      -0.40047304       2.62410590
C        2.74197468      -0.33419962      -0.00179896
C       -1.52662479       0.62759408      -2.79187970
C       -2.21680440       1.35901133      -1.74828293
C       -0.41990401      -3.57954924       0.97263106
C        0.56519683       0.55101417      -4.25151575
C       -0.75119386      -1.52171513      -3.39784027
C       -3.66636581       2.34085094       0.42932265
C       -3.56191471       0.18635335       1.50998815
C       -2.81611206       1.23821494       2.19155262
C       -1.46652990       0.95679178       2.41226031
C        0.48987883      -0.73750011      -3.65154184
C       -2.12643201      -1.37161118       2.83015697
C       -1.75751360      -0.73254611      -2.67510097
C        2.52950050      -0.51861342       2.36633629
C        0.79205284      -1.75006120      -1.60541463
C       -0.18325881      -3.30364539      -0.34902956
C       -3.07349183       2.56028725       1.70961647
C        1.03483818       2.47370239      -3.07871981
C        0.10999454      -0.91527576       2.20557711
C       -0.41482145      -2.26790035      -2.25341471
C       -3.62421968       0.88331984       0.21786205
C       -2.06092068       3.37477514       1.07803757
C       -0.43715474       1.81209708       1.92110844
C        0.90004850       1.42424849       2.10079815
C       -1.60685710      -2.96784875       1.45762282
C       -2.58261331      -0.91254458      -1.45173309
C        2.89158983       0.32277272       1.23767987
C        1.98493241      -3.08713081       1.53035635
C        1.12614902      -2.86219948      -0.72891879
C        1.21057711      -0.66298833      -2.43878390
C        1.54296180       3.46168791       0.58440782
C        2.85957867      -1.70035606       0.34529912
C        1.84025117       2.43732456       1.62447397
C       -0.63974280       1.20211187      -3.70642468
C        2.75747002       1.84652943      -0.40405255
C        0.66233284      -3.34860320       1.90760297
C        1.69949804       1.31201155      -3.60881526
C       -2.07032059       2.72457169      -1.43145213
C       -1.21760520      -2.83870785      -1.22549488
C        0.07146306      -2.27491644       2.59514135
C        2.03972462       0.46319684      -2.41819729
C        0.18586858       3.55760293       0.21342018
C       -2.93219177       0.42380705      -0.93303432
C        0.07226008       3.48423232      -1.25033889
60
Properties=species:S:1:pos:R:3 trajectory=trial0001_proposal001_step005_proposal_relax trajectory_step=9 pbc="F F F"
C       -2.49768646      -2.10415840       0.76302344
C        2.27909388      -3.00861157       0.09582237
C        1.19102109       0.00487561       2.30420297
C       -0.98460687       3.29672324      -2.17944032
C       -2.70291410       3.21381458      -0.22384854
C        2.65609809      -1.82612162       1.75450439
C       -3.12649443      -1.20966420       1.75646996
C       -1.36250862      -2.58371942       2.78959470
C        2.19161258       3.05933307      -0.70839560
C       -0.36894369       2.54017267      -3.30571278
C       -0.70970586       3.03845382       1.21374527
C        2.85622845       1.69079224       1.01499617
C       -2.35953981      -2.08828064      -0.67953744
C        1.26282332       3.03212492      -1.80228527
C        2.49425955       0.65385348      -1.05186865
C       -1.13474578      -0.39842298       2.61858451
C        2.73675985      -0.33241538      -0.00007552
C       -1.52450689       0.62784549      -2.78924222
C       -2.21414160       1.35769561      -1.74585146
C       -0.41873151      -3.58089534       0.96778869
C        0.56508624       0.55069855      -4.25035374
C       -0.75178867      -1.52280254      -3.39786190
C       -3.66575610       2.33915898       0.42934568
C       -3.56000723       0.18554050       1.51047503
C       -2.81624994       1.23868114       2.19369580
C       -1.46564562       0.95698808       2.40999814
C        0.48908978      -0.73811056      -3.65207204
C       -2.12417973      -1.37072806       2.82695394
C       -1.75644036      -0.73325313      -2.67442468
C        2.53099221      -0.51745117       2.36817817
C        0.79129706      -1.75084240      -1.60799200
C       -0.18473410      -3.30542775      -0.34418438
C       -3.07441565       2.56029573       1.71045961
C        1.03620356       2.47469623      -3.08090709
C        0.11222238      -0.91434732       2.20074991
C       -0.41586690      -2.26891078      -2.25428323
C       -3.62151925       0.88219165       0.21969255
C       -2.06396940       3.37521755       1.07789129
C       -0.43636419       1.81478037       1.91977112
C        0.89803667       1.42649760       2.09995905
C       -1.60822686      -2.97028481       1.45872130
C       -2.58050270      -0.91293912      -1.45112062
C        2.89098134       0.32238908       1.23836820
C        1.98507866      -3.08880057       1.53038034
C        1.12579697      -2.86220383      -0.72918758
C        1.20844766      -0.66598689      -2.43768710
C        1.54240639       3.46087959       0.58365166
C        2.85607380      -1.69953683       0.34534037
C        1.83887883       2.43786864       1.62297589
C       -0.63870710       1.20239598      -3.70478088
C        2.75723174       1.84848539      -0.40037871
C        0.66228234      -3.34873583       1.90827659
C        1.69970225       1.31093199      -3.60650866
C       -2.06905304       2.72306617      -1.43077261
C       -1.21846249      -2.83864865      -1.22550784
C        0.07317662      -2.27643448       2.59276700
C        2.03793475       0.46423953      -2.41370674
C        0.18511469       3.55840280       0.21152914
C       -2.92906208       0.42272372      -0.93116549
C        0.07211615       3.48620390      -1.25055404
60
Properties=species:S:1:pos:R:3 trajectory=trial0001_proposal001_step005_proposal_relax trajectory_step=10 pbc="F F F"
C       -2.49735143      -2.10724847       0.76242478
C        2.27815549      -3.00977556       0.09526697
C        1.19345015       0.00807990       2.30277024
C       -0.98465863       3.29805420      -2.17921462
C       -2.70120764       3.21112195      -0.22182070
C        2.65345240      -1.82386895       1.75411208
C       -3.12636402      -1.21182804       1.75677687
C       -1.36113575      -2.58357766       2.78921258
C        2.19230470       3.06414517      -0.71146748
C       -0.36826422       2.54015908      -3.30534067
C       -0.71140564       3.03960502       1.21285686
C        2.85589021       1.69281632       1.01553481
C       -2.36109913      -2.09082398      -0.68027681
C        1.26339892       3.03697513      -1.80241955
C        2.48736221       0.65368270      -1.04932226
C       -1.13188518      -0.39647058       2.61236683
C        2.72728599      -0.33067409       0.00242500
C       -1.52135300       0.62733831      -2.78550184
C       -2.21092161       1.35651544      -1.74256328
C       -0.41765545      -3.58420151       0.96554089
C        0.56563167       0.54953411      -4.25019500
C       -0.75224313      -1.52573348      -3.39959040
C       -3.66630339       2.33797935       0.42889537
C       -3.55934568       0.18370517       1.51240848
C       -2.81678656       1.23888462       2.19627249
C       -1.46485303       0.95791114       2.40705360
C        0.48897207      -0.73976355      -3.65326987
C       -2.12137442      -1.36972705       2.82408121
C       -1.75433051      -0.73462513      -2.67388360
C        2.53459302      -0.51506977       2.37200161
C        0.78914078      -1.75315444      -1.61045426
C       -0.18596609      -3.30750248      -0.34184111
C       -3.07590774       2.55963397       1.71044354
C        1.03773441       2.47676638      -3.08338853
C        0.11508462      -0.91332800       2.19131081
C       -0.41802824      -2.27153661      -2.25510795
C       -3.61764579       0.88077975       0.22252294
C       -2.06703283       3.37710806       1.07935327
C       -0.43625858       1.81734529       1.91639134
C        0.89677498       1.43032795       2.09834191
C       -1.60835482      -2.97338278       1.45944071
C       -2.57764967      -0.91401237      -1.45075322
C        2.88957686       0.32328889       1.23969008
C        1.98576005      -3.08990340       1.53115490
C        1.12453443      -2.86278100      -0.72927327
C        1.20639808      -0.66838066      -2.43693988
C        1.54221724       3.46054412       0.58250276
C        2.85152864      -1.69858048       0.34528204
C        1.83890065       2.44093464       1.62345468
C       -0.63712160       1.20197483      -3.70219241
C        2.75512957       1.85216701      -0.39666956
C        0.66308010      -3.35117716       1.90931139
C        1.70140003       1.30966162      -3.60584021
C       -2.06745525       2.72240861      -1.42928347
C       -1.22012425      -2.84081701      -1.22545118
C        0.07489317      -2.27665380       2.58790105
C        2.03527248       0.46487204      -2.40906919
C        0.18495747       3.55893297       0.21061119
C       -2.92394496       0.42113922      -0.92764573
C        0.07171771       3.49048858      -1.25073108
60
Properties=species:S:1:pos:R:3 trajectory=trial0001_proposal001_step005_proposal_relax trajectory_step=11 pbc="F F F"
C       -2.49733637      -2.11233301       0.76194508
C        2.27665247      -3.01150758       0.09495463
C        1.19696034       0.01358254       2.29922190
C       -0.98501470       3.30076385      -2.17933629
C       -2.69942698       3.20819352      -0.21901322
C        2.64933109      -1.82050214       1.75376189
C       -3.12604743      -1.21533182       1.75785286
C       -1.35793197      -2.58330350       2.78808853
C        2.19408209       3.07077290      -0.71438845
C       -0.36726404       2.54039239      -3.30439491
C       -0.71364102       3.04245248       1.21163420
C        2.85579515       1.69677184       1.01764264
C       -2.36380978      -2.09615275      -0.68133837
C        1.26424665       3.04465376      -1.80481994
C        2.47501296       0.65576711      -1.04371187
C       -1.12707656      -0.39450962       2.60151539
C        2.71149663      -0.32741063       0.00655145
C       -1.51540632       0.62570675      -2.77990846
C       -2.20486407       1.35460283      -1.73719148
C       -0.41654160      -3.59081421       0.96499976
C        0.56710163       0.54770212      -4.24981701
C       -0.75299113      -1.53055813      -3.40325142
C       -3.66688685       2.33554685       0.42869006
C       -3.55925384       0.18081939       1.51596047
C       -2.81769951       1.23893747       2.19992112
C       -1.46364092       0.95938675       2.40210548
C        0.48947389      -0.74318887      -3.65505759
C       -2.11604909      -1.36835190       2.81989875
C       -1.75063117      -0.73684111      -2.67239192
C        2.53964854      -0.51176552       2.37848512
C        0.78534259      -1.75768571      -1.61337570
C       -0.18758336      -3.31072513      -0.34030091
C       -3.07857233       2.55868122       1.71097506
C        1.03960065       2.47997388      -3.08601401
C        0.11992239      -0.91168384       2.17474673
C       -0.42152672      -2.27624056      -2.25695079
C       -3.61152346       0.87766893       0.22678816
C       -2.07071905       3.38014594       1.08236609
C       -0.43682412       1.82044912       1.91065871
C        0.89619296       1.43610536       2.09590146
C       -1.60775935      -2.97807252       1.45996444
C       -2.57357652      -0.91628335      -1.44941154
C        2.88599583       0.32616444       1.24255867
C        1.98721086      -3.09118265       1.53218398
C        1.12192506      -2.86451343      -0.72885914
C        1.20340870      -0.67151154      -2.43620455
C        1.54173860       3.46228260       0.58069290
C        2.84245487      -1.69591206       0.34588482
C        1.83962508       2.44708165       1.62509688
C       -0.63361531       1.20081531      -3.69785251
C        2.75088946       1.85664691      -0.39309483
C        0.66495322      -3.35581581       1.91046606
C        1.70329770       1.30861921      -3.60488960
C       -2.06442107       2.72150709      -1.42636180
C       -1.22273831      -2.84602454      -1.22584947
C        0.07767841      -2.27505316       2.57871444
C        2.02948259       0.46539766      -2.40391940
C        0.18459834       3.56034911       0.20932410
C       -2.91506388       0.41823607      -0.92147351
C        0.07188795       3.49738132      -1.25216686
60
Properties=species:S:1:pos:R:3 trajectory=trial0001_proposal001_step005_proposal_relax trajectory_step=12 pbc="F F F"
C       -2.49953785      -2.12185097       0.76252113
C        2.27313092      -3.00996529       0.09471609
C        1.20080302       0.02342602       2.28926483
C       -0.98526683       3.30487245      -2.18049905
C       -2.69890142       3.20702225      -0.21507687
C        2.64351546      -1.81572177       1.75553385
C       -3.12407624      -1.21968398       1.76126881
C       -1.34926328      -2.58098425       2.78396196
C        2.19517712       3.07994979      -0.71566429
C       -0.36543632       2.54018373      -3.30271359
C       -0.71568434       3.04838079       1.20946838
C        2.85678391       1.70533830       1.02164316
C       -2.36777790      -2.10796306      -0.68211922
C        1.26780479       3.05781753      -1.80957732
C        2.45028536       0.66154235      -1.03519777
C       -1.11903352      -0.39356559       2.57947422
C        2.68297560      -0.31962300       0.01412282
C       -1.50308862       0.62144385      -2.77061298
C       -2.19088618       1.35042624      -1.72634002
C       -0.41511595      -3.60454399       0.96629507
C        0.56942883       0.54424774      -4.24865058
C       -0.75324192      -1.53819185      -3.40969871
C       -3.66425894       2.33026169       0.43019820
C       -3.56009461       0.17670819       1.52215471
C       -2.81873678       1.23755959       2.20601475
C       -1.46178681       0.95931082       2.39108356
C        0.49181359      -0.75055199      -3.65865486
C       -2.10602482      -1.36669561       2.81546837
C       -1.74330304      -0.74116640      -2.66860032
C        2.54405937      -0.50765347       2.38893130
C        0.77937005      -1.76716513      -1.61808561
C       -0.18992870      -3.32055927      -0.33878438
C       -3.08190632       2.55706624       1.71405035
C        1.04147305       2.48492804      -3.08812409
C        0.12770214      -0.90824783       2.14390556
C       -0.42682168      -2.28484263      -2.26006615
C       -3.60374700       0.87178319       0.23237831
C       -2.07534955       3.38339347       1.08771695
C       -0.43699678       1.82488966       1.90213531
C        0.89627750       1.44692489       2.09237310
C       -1.60599210      -2.98580685       1.46051606
C       -2.56692584      -0.92236335      -1.44577458
C        2.87777243       0.33266468       1.24920081
C        1.99165860      -3.09459494       1.53289523
C        1.11589885      -2.86732844      -0.72660067
C        1.19886289      -0.67651068      -2.43576653
C        1.54163695       3.47228273       0.57902229
C        2.82083199      -1.68717535       0.34900067
C        1.84104696       2.46009678       1.62775191
C       -0.62673069       1.19780050      -3.69111306
C        2.74177228       1.86195270      -0.38857527
C        0.66919590      -3.36222221       1.91082974
C        1.70285257       1.30792896      -3.60261386
C       -2.05891027       2.72023279      -1.42109660
C       -1.22645548      -2.85909208      -1.22781544
C        0.08443544      -2.27008010       2.56007771
C        2.01658886       0.46686762      -2.39722425
C        0.18406159       3.56640888       0.20637506
C       -2.89894772       0.41211598      -0.91051821
C        0.07358126       3.50860468      -1.25657952
60
Properties=species:S:1:pos:R:3 trajectory=trial0001_proposal001_step005_proposal_relax trajectory_step=13 pbc="F F F"
C       -2.49952527      -2.13077399       0.76398163
C        2.26727048      -3.00397531       0.09528414
C        1.20176805       0.03000268       2.27840736
C       -0.98454310       3.30649413      -2.18102701
C       -2.69866192       3.20739017      -0.21340505
C        2.63975109      -1.81140834       1.75753788
C       -3.12269397      -1.22522740       1.76361703
C       -1.33771754      -2.57831805       2.78038801
C        2.19432592       3.08837327      -0.71546593
C       -0.36538013       2.53957616      -3.30136812
C       -0.71542607       3.05357194       1.20790197
C        2.85486374       1.71353202       1.02637348
C       -2.36953714      -2.11946655      -0.68207844
C        1.26758514       3.06749252      -1.81041933
C        2.42709013       0.66688342      -1.02378840
C       -1.11529324      -0.39228836       2.56130935
C        2.66041172      -0.30824758       0.01923162
C       -1.49248488       0.61655322      -2.75989107
C       -2.17642931       1.34600692      -1.71569942
C       -0.41458571      -3.61723641       0.96628394
C        0.57072011       0.54175703      -4.24919059
C       -0.75254222      -1.54562823      -3.41152906
C       -3.66032363       2.32636504       0.43290127
C       -3.56267794       0.17156000       1.52700753
C       -2.81918897       1.23577234       2.20777732
C       -1.45590054       0.96066547       2.37906537
C        0.49406670      -0.75593589      -3.66265408
C       -2.09731739      -1.36551079       2.81116496
C       -1.73624867      -0.74768361      -2.66283722
C        2.54371791      -0.50478290       2.39967023
C        0.77345377      -1.77086069      -1.61972863
C       -0.19356414      -3.33178232      -0.34013316
C       -3.08052281       2.55335400       1.71861524
C        1.04204210       2.48672770      -3.09020728
C        0.13233013      -0.90602389       2.11455259
C       -0.42896424      -2.29339109      -2.26507544
C       -3.59786428       0.86719289       0.23728260
C       -2.07480058       3.38581325       1.08922671
C       -0.43944465       1.82968631       1.89457669
C        0.89964175       1.45461950       2.08939193
C       -1.60426117      -2.99017911       1.46183793
C       -2.55936793      -0.92823144      -1.44106634
C        2.86519580       0.34273539       1.25219028
C        1.99801781      -3.09893075       1.53613694
C        1.11188104      -2.87254804      -0.72506712
C        1.19473248      -0.68755436      -2.43707558
C        1.54215141       3.48371565       0.57938335
C        2.79916924      -1.67602196       0.35350017
C        1.84355767       2.47352798       1.63083140
C       -0.62403344       1.19292127      -3.68704220
C        2.73151267       1.86748675      -0.38467267
C        0.67498317      -3.36663067       1.90651626
C        1.70191891       1.30669372      -3.59884363
C       -2.05366913       2.71845426      -1.41602807
C       -1.23048416      -2.87255232      -1.22860116
C        0.09322174      -2.26249030       2.54203834
C        2.00498645       0.46853227      -2.39517511
C        0.18424747       3.57678758       0.20416728
C       -2.88768248       0.40609794      -0.90308123
C        0.07709211       3.51762023      -1.25879297
60
Properties=species:S:1:pos:R:3 trajectory=trial0001_proposal001_step005_proposal_relax trajectory_step=14 pbc="F F F"
C       -2.50174264      -2.13922553       0.76547733
C        2.26274691      -2.99688451       0.09703576
C        1.20222457       0.03768214       2.26616495
C       -0.98392566       3.30834964      -2.18150190
C       -2.69949220       3.20903141      -0.21122989
C        2.63614331      -1.80687254       1.76098593
C       -3.12057955      -1.22909714       1.76681860
C       -1.32641446      -2.57434867       2.77596923
C        2.19343916       3.09550127      -0.71288026
C       -0.36465592       2.53761630      -3.30044683
C       -0.71439878       3.06024007       1.20510957
C        2.85483561       1.72415980       1.02934711
C       -2.37120653      -2.13127244      -0.68132950
C        1.27074997       3.07587387      -1.81521214
C        2.40213070       0.67514491      -1.01867386
C       -1.10857613      -0.39282678       2.54100892
C        2.63704414      -0.30016768       0.02651769
C       -1.48027049       0.61009014      -2.75129616
C       -2.16200129       1.34112254      -1.70428252
C       -0.41446593      -3.62994410       0.96915172
C        0.57201537       0.53860383      -4.24865061
C       -0.75215038      -1.55111008      -3.41653826
C       -3.65477365       2.32197559       0.43672491
C       -3.56461608       0.16770425       1.53159109
C       -2.81697310       1.23181324       2.21127457
C       -1.45600439       0.95930816       2.36711298
C        0.49605908      -0.76337907      -3.66632819
C       -2.08858321      -1.36486638       2.80861922
C       -1.72901225      -0.75217142      -2.65702100
C        2.54336744      -0.50187551       2.40724857
C        0.76762415      -1.78029360      -1.61969402
C       -0.19525090      -3.34404765      -0.34217668
C       -3.07947949       2.55272334       1.72139210
C        1.04157818       2.49020481      -3.08867284
C        0.13643027      -0.90228716       2.08558145
C       -0.43210332      -2.30360360      -2.26584725
C       -3.59325825       0.86195132       0.24035586
C       -2.07631689       3.38644964       1.09220861
C       -0.43556343       1.83343060       1.88778764
C        0.89905022       1.46447816       2.08665433
C       -1.60026729      -2.99639335       1.46247586
C       -2.55292745      -0.93543764      -1.43592203
C        2.85348751       0.34884227       1.26019764
C        2.00572871      -3.10339190       1.53653106
C        1.10476085      -2.87568874      -0.72429738
C        1.19459042      -0.69012606      -2.43966857
C        1.54272313       3.49834394       0.57970342
C        2.77575831      -1.66335951       0.35797527
C        1.84427542       2.48700636       1.63446298
C       -0.62002185       1.18922175      -3.68259765
C        2.72129692       1.87093018      -0.38187356
C        0.67885559      -3.36935927       1.90354624
C        1.69847178       1.30587581      -3.59580626
C       -2.04806509       2.71681958      -1.41152007
C       -1.23251955      -2.88651683      -1.23220464
C        0.10198398      -2.25682106       2.52289588
C        1.99186999       0.46732022      -2.39024783
C        0.18466403       3.58715814       0.20315431
C       -2.87570473       0.40026485      -0.89431204
C        0.07798537       3.52641240      -1.26264229
60
Properties=species:S:1:pos:R:3 trajectory=trial0001_proposal001_step005_proposal_relax trajectory_step=15 pbc="F F F"
C       -2.50164247      -2.13948290       0.76614767
C        2.26173410      -2.99243740       0.09772585
C        1.20002293       0.03805589       2.26427560
C       -0.98408327       3.30641948      -2.18112632
C       -2.69998909       3.20989160      -0.21256909
C        2.63725044      -1.80678080       1.76228760
C       -3.12010874      -1.22891140       1.76643382
C       -1.32483124      -2.57309653       2.77534484
C        2.19231222       3.09507261      -0.71072711
C       -0.36507897       2.53643201      -3.30031587
C       -0.71247068       3.06157847       1.20424447
C        2.85406025       1.72362103       1.02921425
C       -2.36925777      -2.13120107      -0.68023620
C        1.27062582       3.07375734      -1.81473584
C        2.40129960       0.67731811      -1.01961998
C       -1.10901179      -0.39390342       2.54027411
C        2.63815006      -0.29908212       0.02595322
C       -1.47964609       0.60896275      -2.75115834
C       -2.16141802       1.33995085      -1.70328123
C       -0.41440277      -3.62920349       0.96951053
C        0.57088442       0.53837413      -4.24829607
C       -0.75168808      -1.55078385      -3.41501256
C       -3.65289932       2.32177315       0.43763204
C       -3.56415172       0.16799177       1.53038832
C       -2.81571507       1.23079308       2.20945260
C       -1.45522651       0.95824119       2.36575269
C        0.49592763      -0.76401695      -3.66599053
C       -2.08819649      -1.36500466       2.80929232
C       -1.72833584      -0.75226233      -2.65547916
C        2.54072242      -0.50247466       2.40624394
C        0.76816973      -1.77960836      -1.61896082
C       -0.19481565      -3.34691064      -0.34374720
C       -3.07692946       2.55282225       1.72157013
C        1.04025477       2.48857295      -3.08650250
C        0.13524595      -0.90197305       2.08529800
C       -0.43121590      -2.30359832      -2.26543279
C       -3.59518516       0.86214078       0.23903811
C       -2.07407176       3.38490861       1.09089031
C       -0.43478559       1.83363438       1.88837903
C        0.89902387       1.46445132       2.08733471
C       -1.59879916      -2.99630928       1.46268125
C       -2.55304971      -0.93637893      -1.43448422
C        2.85124784       0.35061073       1.26154925
C        2.00813158      -3.10412222       1.53579573
C        1.10437823      -2.87617208      -0.72413786
C        1.19600425      -0.69086298      -2.44025816
C        1.54300684       3.50219872       0.58098485
C        2.77349067      -1.66206776       0.35887517
C        1.84261579       2.48801460       1.63493280
C       -0.62127083       1.18882540      -3.68373744
C        2.71973301       1.86996444      -0.38398429
C        0.67937508      -3.36700275       1.90102093
C        1.69567117       1.30564928      -3.59488640
C       -2.04784652       2.71572947      -1.41164579
C       -1.23188897      -2.88798598      -1.23300295
C        0.10270024      -2.25602705       2.52194746
C        1.99143933       0.46637156      -2.39030824
C        0.18506292       3.59039413       0.20423189
C       -2.87751596       0.40014119      -0.89451438
C        0.07755768       3.52528004      -1.26234570
60
Properties=species:S:1:pos:R:3 trajectory=trial0001_proposal001_step005_proposal_relax trajectory_step=16 pbc="F F F"
C       -2.50050837      -2.13978539       0.76683640
C        2.26040168      -2.98901529       0.09776618
C        1.19804430       0.03797881       2.26272284
C       -0.98436444       3.30422217      -2.18063580
C       -2.69996140       3.21011007      -0.21375234
C        2.63859280      -1.80634762       1.76323871
C       -3.11965122      -1.22912309       1.76574857
C       -1.32349248      -2.57251015       2.77527898
C        2.19121623       3.09513271      -0.70910333
C       -0.36616794       2.53541779      -3.29974342
C       -0.71040769       3.06257316       1.20419309
C        2.85137669       1.72547515       1.02900133
C       -2.36677668      -2.13098739      -0.67884012
C        1.26900715       3.07144717      -1.81295000
C        2.40107792       0.67784843      -1.02028660
C       -1.10947813      -0.39458530       2.54020338
C        2.63970095      -0.29806242       0.02583413
C       -1.47973530       0.60824129      -2.75051428
C       -2.16165198       1.33854930      -1.70284711
C       -0.41352549      -3.62796775       0.96960514
C        0.56935412       0.53760645      -4.24781203
C       -0.75152683      -1.55050212      -3.41347374
C       -3.65161789       2.32215785       0.43789472
C       -3.56344624       0.16798087       1.52879837
C       -2.81383170       1.22990629       2.20678251
C       -1.45421942       0.95781004       2.36444100
C        0.49586021      -0.76436567      -3.66541700
C       -2.08835468      -1.36515649       2.80959256
C       -1.72777411      -0.75288157      -2.65350856
C        2.53795510      -0.50230177       2.40602496
C        0.76864944      -1.77937245      -1.61723145
C       -0.19422806      -3.34962292      -0.34634189
C       -3.07392616       2.55251522       1.72110139
C        1.03850060       2.48596962      -3.08439914
C        0.13414753      -0.90170571       2.08503813
C       -0.43012044      -2.30351628      -2.26456733
C       -3.59754633       0.86266870       0.23799427
C       -2.07141892       3.38382994       1.08868919
C       -0.43468112       1.83409881       1.88847435
C        0.89865473       1.46472891       2.08807726
C       -1.59768994      -2.99563005       1.46275411
C       -2.55322220      -0.93653576      -1.43311918
C        2.84884777       0.35040829       1.26134278
C        2.01015918      -3.10460711       1.53598799
C        1.10440438      -2.87656764      -0.72480308
C        1.19765720      -0.69169605      -2.44085893
C        1.54374008       3.50561026       0.58274741
C        2.77264404      -1.65911791       0.35946584
C        1.84221891       2.48855933       1.63505661
C       -0.62326434       1.18782883      -3.68505667
C        2.71829390       1.87039896      -0.38434491
C        0.68079720      -3.36449506       1.89804946
C        1.69316845       1.30463051      -3.59376323
C       -2.04811039       2.71388185      -1.41162021
C       -1.23113963      -2.88939669      -1.23364211
C        0.10331881      -2.25471419       2.52129314
C        1.99139971       0.46545673      -2.39136369
C        0.18576181       3.59417213       0.20483752
C       -2.87990704       0.39982646      -0.89520691
C        0.07736601       3.52381016      -1.26146290
60
Properties=species:S:1:pos:R:3 trajectory=trial0001_proposal001_step005_proposal_relax trajectory_step=17 pbc="F F F"
C       -2.49902607      -2.14060170       0.76691896
C        2.26014316      -2.98682327       0.09798756
C        1.19741854       0.03913894       2.26146260
C       -0.98500610       3.30282707      -2.17973476
C       -2.69921891       3.20907584      -0.21423891
C        2.63903314      -1.80531681       1.76348397
C       -3.11909619      -1.22985456       1.76509974
C       -1.32240636      -2.57250222       2.77555202
C        2.19071737       3.09698906      -0.70857733
C       -0.36736667       2.53407227      -3.29918408
C       -0.70917221       3.06420164       1.20408915
C        2.84918996       1.72506383       1.02896449
C       -2.36489517      -2.13126694      -0.67785969
C        1.26760875       3.07023617      -1.81180198
C        2.39976266       0.67848214      -1.01953476
C       -1.10895255      -0.39426570       2.53865949
C        2.63833073      -0.29632864       0.02574581
C       -1.47943203       0.60704098      -2.74910439
C       -2.16191969       1.33706303      -1.70210071
C       -0.41197059      -3.62736718       0.96836026
C        0.56811266       0.53634871      -4.24715120
C       -0.75159432      -1.55119429      -3.41278951
C       -3.65158606       2.32233262       0.43773984
C       -3.56243568       0.16735961       1.52791132
C       -2.81209725       1.22933036       2.20461671
C       -1.45345130       0.95777709       2.36278359
C        0.49563852      -0.76552262      -3.66483848
C       -2.08775126      -1.36514379       2.80881637
C       -1.72688722      -0.75350657      -2.65151398
C        2.53704168      -0.50131614       2.40738608
C        0.76856034      -1.77962548      -1.61658549
C       -0.19385055      -3.35252093      -0.34755799
C       -3.07193471       2.55230220       1.71975948
C        1.03685428       2.48408812      -3.08246475
C        0.13419410      -0.90114273       2.08209927
C       -0.43003997      -2.30394517      -2.26400621
C       -3.59872683       0.86266601       0.23759578
C       -2.07015716       3.38380973       1.08718550
C       -0.43425424       1.83516399       1.88723456
C        0.89803725       1.46604436       2.08838246
C       -1.59605634      -2.99603931       1.46289898
C       -2.55265914      -0.93727494      -1.43165242
C        2.84663498       0.35305842       1.26145165
C        2.01240499      -3.10426746       1.53582213
C        1.10452471      -2.87730638      -0.72571026
C        1.19824979      -0.69326621      -2.44066475
C        1.54437538       3.50880401       0.58366501
C        2.77141042      -1.65789751       0.35980656
C        1.84098812       2.49073282       1.63609202
C       -0.62485759       1.18679466      -3.68509411
C        2.71637423       1.87157126      -0.38387857
C        0.68180536      -3.36267517       1.89665425
C        1.69158545       1.30311458      -3.59285883
C       -2.04798385       2.71189096      -1.41122419
C       -1.23108136      -2.89109113      -1.23416326
C        0.10436398      -2.25385928       2.51944997
C        1.99115578       0.46473799      -2.39125762
C        0.18652586       3.59732834       0.20553231
C       -2.88093473       0.39913049      -0.89484620
C        0.07633024       3.52362723      -1.26060722
60
Properties=species:S:1:pos:R:3 trajectory=trial0001_proposal001_step005_proposal_relax trajectory_step=18 pbc="F F F"
C       -2.49690782      -2.14195506       0.76685669
C        2.26038211      -2.98551882       0.09762175
C        1.19766984       0.04115648       2.26042822
C       -0.98630966       3.30144081      -2.17861779
C       -2.69808861       3.20686486      -0.21454630
C        2.63916963      -1.80291296       1.76364777
C       -3.11814308      -1.23097244       1.76413568
C       -1.32123495      -2.57284659       2.77590678
C        2.19067213       3.09995493      -0.70871484
C       -0.36878481       2.53247807      -3.29815264
C       -0.70840353       3.06673025       1.20389793
C        2.84601415       1.72690105       1.02914428
C       -2.36294823      -2.13183624      -0.67700573
C        1.26602321       3.06981179      -1.81033424
C        2.39750693       0.67966455      -1.01890904
C       -1.10772999      -0.39374800       2.53577330
C        2.63519787      -0.29494202       0.02655399
C       -1.47906585       0.60569528      -2.74708495
C       -2.16257816       1.33514293      -1.70115901
C       -0.40977716      -3.62689567       0.96707648
C        0.56672322       0.53450610      -4.24597068
C       -0.75193539      -1.55270491      -3.41223593
C       -3.65265907       2.32213114       0.43693597
C       -3.56089463       0.16652384       1.52711629
C       -2.81073386       1.22923125       2.20215838
C       -1.45188600       0.95834654       2.36050668
C        0.49515736      -0.76732843      -3.66403328
C       -2.08610953      -1.36487792       2.80702688
C       -1.72577053      -0.75471077      -2.64927755
C        2.53769059      -0.49934005       2.40891552
C        0.76818683      -1.78027299      -1.61664753
C       -0.19308910      -3.35557005      -0.34882562
C       -3.07052882       2.55194555       1.71788334
C        1.03504834       2.48175663      -3.08079055
C        0.13507313      -0.90023049       2.07738340
C       -0.43075506      -2.30455481      -2.26376417
C       -3.59951447       0.86221394       0.23757839
C       -2.06953541       3.38454826       1.08587237
C       -0.43420958       1.83673619       1.88515443
C        0.89726118       1.46843731       2.08854885
C       -1.59398221      -2.99718282       1.46299799
C       -2.55161989      -0.93832956      -1.42992230
C        2.84408210       0.35413280       1.26260102
C        2.01434627      -3.10352902       1.53571851
C        1.10527653      -2.87867998      -0.72655087
C        1.19824180      -0.69534453      -2.43970786
C        1.54497950       3.51225987       0.58424110
C        2.77020214      -1.65628406       0.35983316
C        1.83999734       2.49355677       1.63723753
C       -0.62633332       1.18535303      -3.68432330
C        2.71378666       1.87336151      -0.38298371
C        0.68357961      -3.36131477       1.89554998
C        1.69008398       1.30137765      -3.59174406
C       -2.04769976       2.70941930      -1.41056561
C       -1.23129181      -2.89319831      -1.23448971
C        0.10533223      -2.25272465       2.51702811
C        1.99086904       0.46371103      -2.38978534
C        0.18702123       3.60054229       0.20629126
C       -2.88141177       0.39803603      -0.89379872
C        0.07492745       3.52412031      -1.25947454
