60
Properties=species:S:1:pos:R:3 trajectory=trial0001_proposal001_step001_proposal_relax trajectory_step=0 pbc="F F F"
C       -2.48298960      -2.09146262       0.63945431
C        2.18844377      -2.88224086       0.05831034
C        1.24661430       0.01595559       2.62634121
C       -0.98067351       3.24580331      -1.97565618
C       -2.82219567       3.07283841      -0.31053752
C        2.77985158      -1.86442632       1.74596189
C       -2.88673382      -1.05944905       1.54650292
C       -1.48438324      -2.46315061       2.74015217
C        2.23438099       2.94173253      -0.69051411
C       -0.34358456       2.64328656      -3.10159565
C       -0.80212775       3.00275480       1.24934267
C        3.03442222       1.52389675       0.87043044
C       -2.25937006      -1.99974163      -0.79396705
C        1.32373856       3.28579626      -1.68569372
C        2.95314847       0.48798812      -1.12643839
C       -1.18442345      -0.22865656       3.05332126
C        3.26834138      -0.49830415      -0.07939517
C       -1.91369917       0.79270767      -3.10798710
C       -2.61065603       1.43127184      -2.04541912
C       -0.43566989      -3.40578970       0.97127497
C        0.42784012       0.66847318      -3.87376593
C       -0.79310845      -1.38058254      -3.31104369
C       -3.83054429       2.26344193       0.31440325
C       -3.28845983       0.26164017       1.27660361
C       -2.80982664       1.26976100       2.14676400
C       -1.48901454       1.11168364       2.66301466
C        0.42468556      -0.67120921      -3.51580708
C       -2.15329014      -1.22596948       2.76676707
C       -1.90154116      -0.61675127      -2.87279911
C        2.50636383      -0.52171056       2.17368271
C        0.98860369      -2.24127051      -2.01107184
C       -0.15943468      -3.32634376      -0.38896684
C       -3.22404819       2.52111552       1.62228992
C        1.07818087       2.56946730      -2.84481804
C        0.12302604      -0.79139427       3.00233117
C       -0.40352284      -2.42586472      -2.43048405
C       -3.70598431       0.84776359       0.05678373
C       -2.18177161       3.22375273       0.95667930
C       -0.45650213       1.95207829       2.19816427
C        0.88845797       1.37927241       2.22355687
C       -1.70133924      -2.99173750       1.43850117
C       -2.62044525      -0.86309553      -1.61687880
C        3.23466418       0.17477480       1.14863705
C        1.86159024      -2.90671839       1.47508567
C        1.16511320      -3.01313137      -0.86822029
C        1.29525207      -0.91281339      -2.43239950
C        1.50825252       3.14813758       0.55656844
C        3.16076103      -1.84611710       0.28141601
C        1.77872985       2.00196670       1.30896315
C       -0.78035908       1.42556180      -3.67384987
C        3.03651516       1.77748505      -0.55796685
C        0.55508130      -3.03389309       1.91379542
C        1.53423233       1.27201988      -3.15997832
C       -2.22914414       2.70252143      -1.55352645
C       -1.14644841      -2.80573014      -1.29916187
C       -0.06420725      -2.22286113       2.90440196
C        2.14278215       0.28734893      -2.24763823
C        0.16973694       3.54211511       0.32865705
C       -3.17765698       0.42991090      -1.18687687
C        0.05491873       3.65637796      -1.08749108
60
Properties=species:S:1:pos:R:3 trajectory=trial0001_proposal001_step001_proposal_relax trajectory_step=1 pbc="F F F"
C       -2.48342473      -2.09381595       0.63859804
C        2.19802114      -2.88338280       0.07113963
C        1.24148536       0.01551585       2.62518876
C       -0.98387499       3.24211659      -1.97847639
C       -2.82100263       3.07001330      -0.31984593
C        2.77930128      -1.86797787       1.74691833
C       -2.88608684      -1.05846386       1.54510959
C       -1.48653356      -2.46103890       2.74333156
C        2.23720424       2.95047829      -0.69509554
C       -0.34178004       2.64554425      -3.10081933
C       -0.80410993       3.00898158       1.24429570
C        3.02400361       1.51638111       0.87543905
C       -2.25511307      -2.00004226      -0.79568424
C        1.32181428       3.29188222      -1.69084020
C        2.96265855       0.48512930      -1.13156968
C       -1.18407684      -0.22805286       3.05239552
C        3.27337137      -0.49333941      -0.08593634
C       -1.90484973       0.79084623      -3.11025741
C       -2.61210345       1.43012996      -2.04494912
C       -0.43661924      -3.40597968       0.96724395
C        0.43045139       0.66834758      -3.87280527
C       -0.79467431      -1.38947541      -3.30138842
C       -3.83301598       2.26083680       0.31287172
C       -3.29149721       0.26031188       1.27580431
C       -2.81607951       1.27859138       2.14431433
C       -1.49906678       1.10373605       2.66947046
C        0.40667683      -0.66009408      -3.51093416
C       -2.14974595      -1.22728544       2.76925507
C       -1.90656734      -0.61469451      -2.86909414
C        2.51564769      -0.52623540       2.16700229
C        0.97686365      -2.22731721      -2.02157249
C       -0.16582473      -3.33239574      -0.38765827
C       -3.22691831       2.51645116       1.62514680
C        1.07481030       2.57187217      -2.85256838
C        0.12088302      -0.80097750       3.00782310
C       -0.40538811      -2.42347234      -2.43708923
C       -3.70422677       0.84630627       0.05681969
C       -2.16983584       3.22570468       0.96123223
C       -0.44787755       1.95558551       2.19186233
C        0.89615527       1.37975473       2.20486381
C       -1.69950518      -2.99348443       1.43456841
C       -2.61730627      -0.86526337      -1.61917531
C        3.23235106       0.19371434       1.15576528
C        1.86471765      -2.90625390       1.47304255
C        1.16295846      -3.02117047      -0.85714042
C        1.31749947      -0.90811867      -2.43562851
C        1.50425575       3.13460318       0.54945445
C        3.15634042      -1.85808360       0.28099926
C        1.78526611       2.00903393       1.33038559
C       -0.77553073       1.42578115      -3.67474396
C        3.05379443       1.78138191      -0.54802567
C        0.55388547      -3.03391208       1.91952894
C        1.53929588       1.27737587      -3.15591460
C       -2.23308829       2.70679048      -1.54592252
C       -1.15147732      -2.80574059      -1.29272887
C       -0.06593189      -2.22247887       2.90241437
C        2.12180948       0.27813804      -2.25453881
C        0.16625052       3.53752704       0.33399033
C       -3.17702364       0.42970819      -1.18747630
C        0.05295730       3.66026248      -1.09018604
60
Properties=species:S:1:pos:R:3 trajectory=trial0001_proposal001_step001_proposal_relax trajectory_step=2 pbc="F F F"
C       -2.48410634      -2.09596475       0.63790470
C        2.19930809      -2.89170050       0.07619428
C        1.24032685       0.01129209       2.62094218
C       -0.98653023       3.23991008      -1.97911627
C       -2.82105757       3.06829080      -0.31624768
C        2.78175204      -1.86978679       1.74750212
C       -2.88412998      -1.05862266       1.54472590
C       -1.48825621      -2.46309055       2.74383722
C        2.24295869       2.95590368      -0.69811355
C       -0.34224287       2.64598726      -3.10247786
C       -0.80243089       3.01199233       1.24443582
C        3.01180549       1.52024528       0.88021438
C       -2.25102977      -2.00004777      -0.79631535
C        1.32018313       3.29996829      -1.69791611
C        2.97157231       0.48431756      -1.14054585
C       -1.18490930      -0.23127296       3.05282686
C        3.27950973      -0.49316272      -0.08613307
C       -1.89749239       0.79091879      -3.10893312
C       -2.61198713       1.42942766      -2.04614735
C       -0.43746026      -3.40667006       0.96903430
C        0.43223216       0.67302141      -3.87250032
C       -0.80214893      -1.38941057      -3.29449763
C       -3.83300053       2.26002722       0.31105981
C       -3.29518058       0.25950222       1.27573976
C       -2.82244081       1.28017590       2.14430900
C       -1.50206883       1.10518604       2.67281184
C        0.39189099      -0.65194430      -3.49987990
C       -2.14886678      -1.22685816       2.76990016
C       -1.90970062      -0.61623954      -2.86654413
C        2.52060504      -0.52762593       2.16350149
C        0.96886750      -2.22012220      -2.01791078
C       -0.16979142      -3.33939573      -0.38820877
C       -3.22729038       2.51982325       1.62139081
C        1.07368185       2.57852618      -2.85835727
C        0.12087620      -0.80591020       3.01388543
C       -0.40783859      -2.42599537      -2.43582398
C       -3.70254409       0.84411526       0.05560639
C       -2.17027812       3.22600594       0.96116024
C       -0.44526025       1.95428854       2.18651290
C        0.89615500       1.37435027       2.19057127
C       -1.69896756      -2.99362858       1.43304778
C       -2.61508839      -0.86611887      -1.62075263
C        3.23274173       0.19604704       1.15857328
C        1.86301121      -2.90823397       1.47962972
C        1.16041802      -3.02297848      -0.85482262
C        1.32970857      -0.90772405      -2.44821216
C        1.49804104       3.11884701       0.54186365
C        3.15870526      -1.85764399       0.28003037
C        1.79874661       2.02335387       1.34628000
C       -0.76903807       1.42727428      -3.67644543
C        3.07085499       1.78707518      -0.54064023
C        0.55470922      -3.03583883       1.92117712
C        1.54146182       1.28099049      -3.15514329
C       -2.23583221       2.70674980      -1.54545946
C       -1.15421762      -2.80641428      -1.29069241
C       -0.06910897      -2.22380366       2.90151073
C        2.11075320       0.27656568      -2.25152526
C        0.16646583       3.53296974       0.33240246
C       -3.17570177       0.42843724      -1.18867971
C        0.04922806       3.66490538      -1.09232990
60
Properties=species:S:1:pos:R:3 trajectory=trial0001_proposal001_step001_proposal_relax trajectory_step=3 pbc="F F F"
C       -2.48511022      -2.09838061       0.63692211
C        2.20036518      -2.90638045       0.08451063
C        1.24134892       0.00130483       2.60614206
C       -0.99197949       3.23672338      -1.97989593
C       -2.82009449       3.06535607      -0.31444318
C        2.78813107      -1.87440724       1.74509969
C       -2.88094999      -1.05908655       1.54354992
C       -1.49352250      -2.46839782       2.74323129
C        2.25062304       2.96202241      -0.70713805
C       -0.34426304       2.65082768      -3.10627640
C       -0.80197420       3.01602723       1.24773435
C        3.01205308       1.51601746       0.88529035
C       -2.24595132      -1.99848650      -0.79526769
C        1.32476555       3.31952016      -1.70599477
C        2.99430948       0.48999026      -1.14531267
C       -1.18620727      -0.23083794       3.05577523
C        3.29387117      -0.49082782      -0.08774772
C       -1.88541827       0.79197122      -3.10300317
C       -2.60881531       1.42808014      -2.05020863
C       -0.43776918      -3.41104008       0.97079207
C        0.43661201       0.68000988      -3.87125947
C       -0.81458877      -1.38706169      -3.28102243
C       -3.83524037       2.25616516       0.30677547
C       -3.30233437       0.25738034       1.27687661
C       -2.83154955       1.28272280       2.14773596
C       -1.50557621       1.10884700       2.67649358
C        0.37075677      -0.63527268      -3.47649423
C       -2.15040858      -1.22994036       2.76772814
C       -1.91779534      -0.61514134      -2.86380560
C        2.52303525      -0.53042251       2.16437411
C        0.95954586      -2.20815581      -2.00248347
C       -0.17545525      -3.35556991      -0.38626665
C       -3.23066679       2.52314638       1.61651123
C        1.07503657       2.59446846      -2.86929411
C        0.12213489      -0.81182812       3.02519057
C       -0.41397644      -2.42868518      -2.42986576
C       -3.70002187       0.84077440       0.05152543
C       -2.16783978       3.22932242       0.96142521
C       -0.44559469       1.94546745       2.17408420
C        0.89083179       1.35861025       2.17035416
C       -1.70022720      -2.99342424       1.43362481
C       -2.61382365      -0.86759949      -1.61940092
C        3.23299808       0.20311612       1.15507655
C        1.86765640      -2.91221424       1.49084757
C        1.15532062      -3.02219895      -0.85189516
C        1.33199624      -0.92103311      -2.47585007
C        1.48716787       3.09727466       0.51941545
C        3.16108361      -1.86182623       0.28076120
C        1.81323644       2.05192132       1.37824820
C       -0.76409370       1.43142105      -3.67974986
C        3.09895271       1.79895379      -0.53631611
C        0.54973208      -3.04042179       1.92659492
C        1.54197910       1.29045292      -3.15583001
C       -2.24138422       2.70482102      -1.54603833
C       -1.15800372      -2.81316839      -1.28846191
C       -0.07505985      -2.23056013       2.90225505
C        2.10496734       0.28940751      -2.23929222
C        0.16716683       3.52055893       0.32255367
C       -3.17249009       0.42492509      -1.19131262
C        0.04308094       3.67504782      -1.09936266
60
Properties=species:S:1:pos:R:3 trajectory=trial0001_proposal001_step001_proposal_relax trajectory_step=4 pbc="F F F"
C       -2.48468774      -2.09796692       0.63705661
C        2.19945097      -2.91245024       0.08634749
C        1.23769916      -0.00848977       2.59413643
C       -0.99293128       3.23751288      -1.98229241
C       -2.82049454       3.06302371      -0.31510014
C        2.79337080      -1.87211001       1.74413962
C       -2.88190104      -1.05900391       1.54131453
C       -1.49806614      -2.47089091       2.74434503
C        2.25367315       2.95753651      -0.71202542
C       -0.34469826       2.65838417      -3.10887877
C       -0.80002917       3.01666174       1.24783848
C        3.01802275       1.53713801       0.88544736
C       -2.24502231      -1.99888636      -0.79213044
C        1.32916396       3.33465715      -1.71869490
C        3.00880170       0.49924935      -1.14500133
C       -1.18741550      -0.23190405       3.05996788
C        3.30501865      -0.49504383      -0.08684962
C       -1.88207742       0.79381455      -3.09866043
C       -2.60698413       1.42605976      -2.05005770
C       -0.44140924      -3.41671348       0.97478590
C        0.43554381       0.68554577      -3.86916740
C       -0.81818749      -1.38383869      -3.27334967
C       -3.83548441       2.25460039       0.30376133
C       -3.30534262       0.25714021       1.27838912
C       -2.83562605       1.28361861       2.15111288
C       -1.50920039       1.10844590       2.67581721
C        0.36214438      -0.63079619      -3.46632736
C       -2.14974806      -1.22926562       2.76652631
C       -1.92432738      -0.61354589      -2.86335309
C        2.52822129      -0.53302443       2.16044891
C        0.95245169      -2.20710969      -1.99318345
C       -0.17525810      -3.36666403      -0.38701062
C       -3.23305415       2.52225712       1.61397361
C        1.07725707       2.61045834      -2.87337567
C        0.12057109      -0.81472616       3.02972042
C       -0.41783520      -2.42677465      -2.42290379
C       -3.69938515       0.83849493       0.05008220
C       -2.17030952       3.23162182       0.96143942
C       -0.45058262       1.93406373       2.16452192
C        0.88633894       1.35238793       2.16315563
C       -1.70190780      -2.99680894       1.43176401
C       -2.61659373      -0.86725531      -1.61565242
C        3.23222735       0.18655411       1.15558185
C        1.86516457      -2.92093118       1.49732179
C        1.15426767      -3.02132309      -0.84177058
C        1.33533210      -0.91331602      -2.47794185
C        1.48873853       3.08698029       0.51064905
C        3.16252302      -1.86277912       0.28151719
C        1.82659513       2.05847353       1.38160650
C       -0.76583004       1.43665150      -3.68227918
C        3.11151238       1.80758209      -0.53578533
C        0.55408429      -3.04442727       1.92781948
C        1.54358249       1.29906289      -3.15105163
C       -2.24213114       2.70327713      -1.54880815
C       -1.16256334      -2.82337208      -1.28580831
C       -0.08014280      -2.23367875       2.90844185
C        2.10624029       0.29615917      -2.23619276
C        0.16004323       3.51030994       0.31129693
C       -3.17072271       0.42392719      -1.19213697
C        0.04248220       3.68173276      -1.10632758
60
Properties=species:S:1:pos:R:3 trajectory=trial0001_proposal001_step001_proposal_relax trajectory_step=5 pbc="F F F"
C       -2.48433053      -2.09753389       0.63734292
C        2.19920801      -2.91187634       0.08670297
C        1.23670598      -0.00950238       2.59222458
C       -0.99227274       3.23912940      -1.98312505
C       -2.82068079       3.06306294      -0.31439244
C        2.79295709      -1.87465513       1.74356640
C       -2.88234575      -1.05889489       1.54176836
C       -1.49829841      -2.47140321       2.74406624
C        2.25131767       2.95628959      -0.71392411
C       -0.34491207       2.65973274      -3.11024476
C       -0.80101748       3.01490692       1.24714044
C        3.02574283       1.53294226       0.88684514
C       -2.24596123      -1.99951097      -0.79120833
C        1.33134414       3.33761880      -1.71844751
C        3.00928463       0.50042373      -1.14459514
C       -1.18821766      -0.23241280       3.06107963
C        3.30601574      -0.49567382      -0.08655046
C       -1.88392754       0.79442170      -3.09828722
C       -2.60668085       1.42623890      -2.04913135
C       -0.44099838      -3.41841357       0.97539582
C        0.43435355       0.68673198      -3.86761260
C       -0.81834853      -1.38209662      -3.27317594
C       -3.83483017       2.25461189       0.30361680
C       -3.30523727       0.25761975       1.27847106
C       -2.83594014       1.28207691       2.15158378
C       -1.50875835       1.10790775       2.67468185
C        0.36568851      -0.63096877      -3.46675697
C       -2.15025007      -1.22859426       2.76589532
C       -1.92459080      -0.61408166      -2.86370402
C        2.52646569      -0.53361803       2.16115769
C        0.95359981      -2.20772997      -1.99132907
C       -0.17494241      -3.36818095      -0.38549801
C       -3.23278860       2.52261008       1.61312735
C        1.07790858       2.61168225      -2.87487449
C        0.12013413      -0.81447688       3.02872686
C       -0.41782488      -2.42611509      -2.41990993
C       -3.69981234       0.83862534       0.05057487
C       -2.17299753       3.23135136       0.96087920
C       -0.45206544       1.93184268       2.16297145
C        0.88696617       1.35213517       2.16392841
C       -1.70287292      -2.99731304       1.43263802
C       -2.61760184      -0.86716067      -1.61497726
C        3.23253286       0.19182158       1.15216228
C        1.86723099      -2.92119649       1.49735445
C        1.15341613      -3.02007646      -0.84205334
C        1.33265515      -0.91127702      -2.47234593
C        1.48807251       3.08891270       0.51039718
C        3.16297516      -1.86300964       0.28154482
C        1.82477439       2.05549433       1.37733164
C       -0.76661580       1.43854114      -3.68220959
C        3.11113258       1.80794408      -0.53739541
C        0.55260296      -3.04494854       1.92861896
C        1.54238465       1.30069538      -3.15027954
C       -2.24087698       2.70291986      -1.55012848
C       -1.16322001      -2.82575287      -1.28620529
C       -0.08021570      -2.23501163       2.90974446
C        2.11076841       0.29880845      -2.23512027
C        0.16155731       3.50817470       0.30878616
C       -3.17115218       0.42416426      -1.19108594
C        0.04336296       3.68233357      -1.10754672
60
Properties=species:S:1:pos:R:3 trajectory=trial0001_proposal001_step001_proposal_relax trajectory_step=6 pbc="F F F"
C       -2.48337171      -2.09690506       0.63846696
C        2.19911680      -2.91278510       0.08922665
C        1.23304917      -0.01503836       2.58320671
C       -0.99122730       3.24348654      -1.98704346
C       -2.82072130       3.06216833      -0.31600437
C        2.79398686      -1.87967650       1.74254111
C       -2.88350063      -1.05826720       1.54231206
C       -1.50091794      -2.47273871       2.74413475
C        2.24738934       2.95304085      -0.71978444
C       -0.34508754       2.66679014      -3.11487951
C       -0.80404430       3.01069739       1.24300129
C        3.04345893       1.53245045       0.88986001
C       -2.24767158      -2.00147005      -0.78869468
C        1.33712985       3.35096452      -1.72405535
C        3.01707910       0.50536972      -1.14434504
C       -1.19047509      -0.23356061       3.06498958
C        3.31232833      -0.49610261      -0.08704847
C       -1.88621000       0.79631358      -3.09702546
C       -2.60535862       1.42620146      -2.04651422
C       -0.44121581      -3.42467787       0.97840397
C        0.43229358       0.69160188      -3.86167837
C       -0.81846604      -1.37875858      -3.26806633
C       -3.83412692       2.25335925       0.30208756
C       -3.30667049       0.25805319       1.27898453
C       -2.83923099       1.28041228       2.15318640
C       -1.51011459       1.10483803       2.67252565
C        0.36962554      -0.62743126      -3.46277765
C       -2.15131589      -1.22847080       2.76432141
C       -1.92819251      -0.61394390      -2.86352199
C        2.52497188      -0.53587010       2.15885461
C        0.95315367      -2.20497844      -1.98414588
C       -0.17570122      -3.37657516      -0.38171260
C       -3.23395765       2.52160116       1.61164399
C        1.07996098       2.62105587      -2.88108180
C        0.11782131      -0.81672269       3.02823210
C       -0.41936199      -2.42238101      -2.41170824
C       -3.70076042       0.83845754       0.05157312
C       -2.17682629       3.23192065       0.96025874
C       -0.45539705       1.92381093       2.15442046
C        0.88828839       1.34890528       2.15970413
C       -1.70534446      -2.99987965       1.43434388
C       -2.62033408      -0.86777303      -1.61253687
C        3.23354978       0.19722443       1.14693934
C        1.87031650      -2.92531825       1.50004509
C        1.15069124      -3.01796518      -0.83806226
C        1.32859470      -0.90419352      -2.45830705
C        1.48679672       3.08672717       0.50502018
C        3.16466696      -1.86494917       0.28171240
C        1.82592281       2.04962961       1.36987390
C       -0.76931702       1.44427658      -3.68249662
C        3.11722356       1.81143519      -0.53993223
C        0.55052693      -3.04776755       1.93207884
C        1.54010690       1.30805173      -3.14674330
C       -2.23852815       2.70294277      -1.55183312
C       -1.16709547      -2.83509996      -1.28485096
C       -0.08206312      -2.23980270       2.91412442
C        2.11971108       0.30760713      -2.23196352
C        0.16170978       3.49889785       0.30069583
C       -3.17179787       0.42423388      -1.18841319
C        0.04550655       3.68686428      -1.11333274
60
Properties=species:S:1:pos:R:3 trajectory=trial0001_proposal001_step001_proposal_relax trajectory_step=7 pbc="F F F"
C       -2.48243039      -2.09704090       0.64038263
C        2.19906075      -2.91449232       0.09311754
C        1.22901675      -0.02200182       2.57180696
C       -0.99008778       3.24995487      -1.99283014
C       -2.82088026       3.06141424      -0.31822920
C        2.79605867      -1.88448483       1.74195212
C       -2.88443154      -1.05782525       1.54289823
C       -1.50412467      -2.47457023       2.74478825
C        2.24484669       2.95027954      -0.72670707
C       -0.34540617       2.67689357      -3.12199597
C       -0.80747241       3.00366048       1.23481851
C        3.06050367       1.53666863       0.89192128
C       -2.24966378      -2.00478286      -0.78632016
C        1.34296051       3.36833060      -1.73333985
C        3.02944257       0.51067683      -1.14502370
C       -1.19334549      -0.23588276       3.06925621
C        3.31974506      -0.49465252      -0.08879865
C       -1.88851159       0.79863591      -3.09611769
C       -2.60359249       1.42641246      -2.04292185
C       -0.44238711      -3.43268919       0.98352954
C        0.43078027       0.69822033      -3.85224402
C       -0.81751187      -1.37432482      -3.25995977
C       -3.83352585       2.25218328       0.30010186
C       -3.30963962       0.25763738       1.27981091
C       -2.84397562       1.27922082       2.15491178
C       -1.51233031       1.10081586       2.67004485
C        0.37199408      -0.62124046      -3.45346796
C       -2.15314585      -1.22971398       2.76372669
C       -1.93207289      -0.61350495      -2.86259298
C        2.52321540      -0.53871920       2.15276647
C        0.95081114      -2.19753122      -1.97304485
C       -0.17824522      -3.38778192      -0.37764269
C       -3.23616876       2.52028145       1.61020669
C        1.08218755       2.63471558      -2.89032609
C        0.11481237      -0.82132475       3.02772640
C       -0.42091196      -2.41732903      -2.40158747
C       -3.70237844       0.83813894       0.05290429
C       -2.18023119       3.23239554       0.95893164
C       -0.45738956       1.91491762       2.14223591
C        0.88969832       1.34284217       2.14943593
C       -1.70754720      -3.00324535       1.43671508
C       -2.62301213      -0.86932588      -1.61006836
C        3.23700412       0.19917647       1.14395301
C        1.87185919      -2.93104060       1.50437469
C        1.14697437      -3.01687558      -0.83170897
C        1.32532846      -0.89370702      -2.44075212
C        1.48480276       3.07739321       0.49617872
C        3.16736650      -1.86719828       0.28146295
C        1.82901279       2.04253138       1.36167150
C       -0.77185839       1.45056533      -3.68229725
C        3.12824050       1.81631627      -0.54168499
C        0.54902094      -3.05251088       1.93699113
C        1.53822658       1.31768539      -3.14204612
C       -2.23522919       2.70406253      -1.55268548
C       -1.17207325      -2.84596380      -1.28221395
C       -0.08512760      -2.24559610       2.91866539
C        2.12651834       0.31837954      -2.22836063
C        0.16020903       3.48756317       0.29164604
C       -3.17239483       0.42395441      -1.18527086
C        0.04797921       3.69371946      -1.12048434
60
Properties=species:S:1:pos:R:3 trajectory=trial0001_proposal001_step001_proposal_relax trajectory_step=8 pbc="F F F"
C       -2.48132940      -2.10062320       0.64446093
C        2.19564545      -2.91504375       0.09993031
C        1.22313045      -0.03438966       2.55398054
C       -0.98756508       3.26745815      -2.00430621
C       -2.82173440       3.06399709      -0.32356003
C        2.79922626      -1.88925106       1.73994784
C       -2.88571956      -1.06089467       1.54384954
C       -1.50927597      -2.47935863       2.74958501
C        2.24631282       2.94647646      -0.74027516
C       -0.34731106       2.69830507      -3.13910344
C       -0.81139022       2.98158072       1.21123793
C        3.08250526       1.53924412       0.89171144
C       -2.25593722      -2.01381408      -0.78285015
C        1.35136265       3.39334753      -1.74880875
C        3.05146743       0.52045216      -1.14862993
C       -1.19713109      -0.24135080       3.07221374
C        3.32783464      -0.49387185      -0.09041748
C       -1.89455846       0.80312098      -3.09564906
C       -2.59879680       1.42819183      -2.03577045
C       -0.44650207      -3.44817243       0.99132563
C        0.42879857       0.70740345      -3.82898233
C       -0.80950840      -1.36595747      -3.24296908
C       -3.83425456       2.25199730       0.29802629
C       -3.31745220       0.25504680       1.28319643
C       -2.84883868       1.27757664       2.15685068
C       -1.51211714       1.09526712       2.66276161
C        0.37445338      -0.60673792      -3.42568465
C       -2.15934513      -1.23544145       2.76895907
C       -1.93430770      -0.61017706      -2.85963767
C        2.51683401      -0.54350488       2.13655522
C        0.94377606      -2.17833854      -1.94030973
C       -0.18419460      -3.40558733      -0.36909725
C       -3.24050359       2.51858531       1.61026082
C        1.08581432       2.66269672      -2.90771472
C        0.11073769      -0.82951361       3.02285706
C       -0.41966688      -2.40523230      -2.38465480
C       -3.70773023       0.83748591       0.05477961
C       -2.18388667       3.23001784       0.95489626
C       -0.45950039       1.89894091       2.12062935
C        0.88688488       1.32517470       2.12292670
C       -1.71044851      -3.00866065       1.44239003
C       -2.62605013      -0.87294615      -1.60676885
C        3.25029746       0.20315232       1.14132218
C        1.87143781      -2.93775017       1.51075553
C        1.14152176      -3.01778331      -0.81752896
C        1.31970734      -0.86747259      -2.40474295
C        1.47589925       3.04988599       0.47286639
C        3.17179289      -1.86785631       0.27917544
C        1.83355687       2.02200398       1.34056622
C       -0.77526522       1.45882824      -3.67822798
C        3.14985320       1.82635731      -0.54704789
C        0.54901203      -3.06608791       1.94640437
C        1.53820309       1.33657352      -3.13324958
C       -2.22712250       2.70809860      -1.55212332
C       -1.17861075      -2.85880511      -1.27730839
C       -0.08997035      -2.25321970       2.92402606
C        2.13271637       0.33844840      -2.21697149
C        0.15757510       3.47135013       0.27455576
C       -3.17221634       0.42314682      -1.18079509
C        0.05245757       3.70791747      -1.13160862
60
Properties=species:S:1:pos:R:3 trajectory=trial0001_proposal001_step001_proposal_relax trajectory_step=9 pbc="F F F"
C       -2.48205761      -2.10425641       0.64738186
C        2.19725561      -2.91321261       0.10801606
C        1.22033687      -0.04056229       2.54326661
C       -0.98769397       3.27857210      -2.01161785
C       -2.82506423       3.06605627      -0.32202260
C        2.79874378      -1.89162518       1.73713841
C       -2.88790736      -1.06246642       1.54741238
C       -1.51077883      -2.48393477       2.75356579
C        2.24614507       2.94657013      -0.74938989
C       -0.34865459       2.71105676      -3.14841003
C       -0.81431140       2.96742175       1.19589877
C        3.09016409       1.54555705       0.88572430
C       -2.25934230      -2.01908767      -0.78302994
C        1.35497219       3.40493117      -1.75489659
C        3.06284096       0.52376913      -1.14805863
C       -1.19867533      -0.24415911       3.07016792
C        3.33271425      -0.48745671      -0.09521369
C       -1.89573820       0.80667855      -3.09547787
C       -2.59568522       1.43032919      -2.03127173
C       -0.44826682      -3.45703295       1.00003418
C        0.42808524       0.71935617      -3.81393039
C       -0.80973273      -1.35686442      -3.23470018
C       -3.83346822       2.25353800       0.29713852
C       -3.32140126       0.25187944       1.28485059
C       -2.84988495       1.27556838       2.15631418
C       -1.51449331       1.08754649       2.65933103
C        0.37688427      -0.59893526      -3.40435825
C       -2.16393374      -1.23736470       2.77317218
C       -1.93270797      -0.61157989      -2.85637923
C        2.51534696      -0.54319473       2.12852062
C        0.94147378      -2.15832871      -1.92180911
C       -0.18852237      -3.41359212      -0.36779191
C       -3.24067004       2.51912865       1.60886503
C        1.08719729       2.67448873      -2.91995901
C        0.10726399      -0.83526132       3.01852716
C       -0.41613763      -2.40166920      -2.36818612
C       -3.71063551       0.83726203       0.05662647
C       -2.18542859       3.22496760       0.95074551
C       -0.45718654       1.89072916       2.10511389
C        0.88756730       1.31292963       2.10445064
C       -1.71070561      -3.01230771       1.44652932
C       -2.62629981      -0.87364417      -1.60569806
C        3.25808718       0.19579458       1.14187056
C        1.87267843      -2.93789694       1.51242484
C        1.13491652      -3.01914148      -0.80942516
C        1.31712821      -0.85791767      -2.37794530
C        1.47480652       3.02767983       0.45799985
C        3.17021582      -1.87139588       0.27761480
C        1.82642266       2.00782283       1.32580561
C       -0.77404751       1.46491677      -3.67417663
C        3.16591274       1.82870038      -0.54994162
C        0.54488430      -3.07471396       1.95282713
C        1.53773328       1.34863568      -3.12871118
C       -2.22165179       2.71097049      -1.55366406
C       -1.18015063      -2.86213367      -1.27422379
C       -0.09050217      -2.25891103       2.92329733
C        2.13332886       0.35331679      -2.20838874
C        0.15552741       3.46175743       0.26500064
C       -3.17166084       0.42382925      -1.17726368
C        0.05533675       3.71717375      -1.14148102
60
Properties=species:S:1:pos:R:3 trajectory=trial0001_proposal001_step001_proposal_relax trajectory_step=10 pbc="F F F"
C       -2.48257707      -2.10523451       0.64747088
C        2.19468456      -2.91419389       0.10585271
C        1.22125742      -0.04031415       2.54470413
C       -0.98801033       3.27894618      -2.01166756
C       -2.82460868       3.06692096      -0.32421985
C        2.79894042      -1.88830889       1.73765590
C       -2.88795887      -1.06417198       1.54723417
C       -1.51096531      -2.48348429       2.75474122
C        2.25001386       2.94618410      -0.74847262
C       -0.34867493       2.71113421      -3.14831428
C       -0.81249378       2.96644608       1.19464716
C        3.08384023       1.54299544       0.88538424
C       -2.25952698      -2.01884491      -0.78328545
C        1.35273671       3.40120435      -1.75632192
C        3.06184369       0.52352960      -1.14903053
C       -1.19789351      -0.24534125       3.06827812
C        3.33118436      -0.48991666      -0.09435207
C       -1.89463543       0.80621462      -3.09533365
C       -2.59512913       1.43046502      -2.03199220
C       -0.44899158      -3.45671471       0.99766928
C        0.42941606       0.71587815      -3.81297286
C       -0.80654871      -1.36013938      -3.23307507
C       -3.83474355       2.25329882       0.29787407
C       -3.32194351       0.25172594       1.28510824
C       -2.84912278       1.27627599       2.15528607
C       -1.51274240       1.08956163       2.65855478
C        0.37393843      -0.59636275      -3.40224116
C       -2.16368656      -1.23916836       2.77495807
C       -1.93256782      -0.60913217      -2.85560955
C        2.51601177      -0.54366184       2.12834981
C        0.94021033      -2.15915114      -1.91788657
C       -0.18874136      -3.41221124      -0.36656373
C       -3.24048123       2.51846747       1.61027707
C        1.08668429       2.67567794      -2.91797926
C        0.10833995      -0.83520612       3.01768422
C       -0.41577542      -2.39903553      -2.37234235
C       -3.71068299       0.83722178       0.05629136
C       -2.18305187       3.22433422       0.95078952
C       -0.45723480       1.89064460       2.10628148
C        0.88462682       1.31124375       2.10298487
C       -1.71037820      -3.01176297       1.44648551
C       -2.62527816      -0.87368454      -1.60584196
C        3.25893117       0.19745715       1.14255823
C        1.86890646      -2.93739686       1.51354551
C        1.13704121      -3.01924604      -0.80855462
C        1.31924076      -0.85523005      -2.38089716
C        1.47178155       3.02587205       0.45574734
C        3.17063698      -1.86861362       0.27646853
C        1.82880807       2.00707853       1.32532437
C       -0.77388968       1.46395179      -3.67325536
C        3.16623725       1.83003728      -0.54988365
C        0.54824730      -3.07559879       1.95156308
C        1.53952911       1.34751539      -3.12875380
C       -2.22287758       2.71195536      -1.55181634
C       -1.17942726      -2.85912741      -1.27331981
C       -0.09083433      -2.25699964       2.92249574
C        2.12933955       0.35169577      -2.20716332
C        0.15569507       3.46340317       0.26509908
C       -3.17082431       0.42393550      -1.17817888
C        0.05474801       3.71726799      -1.13982931
60
Properties=species:S:1:pos:R:3 trajectory=trial0001_proposal001_step001_proposal_relax trajectory_step=11 pbc="F F F"
C       -2.48351316      -2.10611925       0.64776655
C        2.19399397      -2.91429453       0.10555596
C        1.22216911      -0.03987561       2.54587305
C       -0.98884860       3.27933881      -2.01144195
C       -2.82505849       3.06752477      -0.32448624
C        2.79793011      -1.88599891       1.73736606
C       -2.88881831      -1.06546874       1.54791548
C       -1.51047139      -2.48371746       2.75564924
C        2.25212925       2.94618046      -0.74832352
C       -0.34870372       2.71086146      -3.14757205
C       -0.81092228       2.96597682       1.19397848
C        3.07790781       1.54168348       0.88369399
C       -2.25948170      -2.01815918      -0.78348084
C        1.35115253       3.39726621      -1.75597988
C        3.05992518       0.52286287      -1.14892313
C       -1.19704728      -0.24596009       3.06576414
C        3.33013011      -0.49066678      -0.09455121
C       -1.89296717       0.80626473      -3.09471817
C       -2.59470329       1.43091040      -2.03243043
C       -0.44935637      -3.45633869       0.99684791
C        0.43021770       0.71517570      -3.81251018
C       -0.80562104      -1.36087526      -3.23293995
C       -3.83533161       2.25355455       0.29868312
C       -3.32177120       0.25106563       1.28514321
C       -2.84778292       1.27622825       2.15411233
C       -1.51197067       1.08979873       2.65795011
C        0.37229721      -0.59568113      -3.39979435
C       -2.16363795      -1.24005267       2.77619631
C       -1.93150417      -0.60831796      -2.85489580
C        2.51773802      -0.54280110       2.12954376
C        0.94017239      -2.15812144      -1.91601764
C       -0.18875437      -3.41003689      -0.36661598
C       -3.23936967       2.51814522       1.61076409
C        1.08597685       2.67452044      -2.91675397
C        0.10918173      -0.83527577       3.01629901
C       -0.41464167      -2.39824914      -2.37330514
C       -3.71035538       0.83726611       0.05605951
C       -2.18118849       3.22289075       0.95021286
C       -0.45688070       1.89055853       2.10667829
C        0.88307904       1.31001644       2.10196317
C       -1.70985596      -3.01146686       1.44661692
C       -2.62426088      -0.87283338      -1.60579430
C        3.25890979       0.19656780       1.14330360
C        1.86739550      -2.93553154       1.51329355
C        1.13764929      -3.01912422      -0.80813378
C        1.32063349      -0.85469812      -2.38207886
C        1.47092433       3.02413980       0.45410849
C        3.16932221      -1.86742649       0.27566333
C        1.82739012       2.00568479       1.32380939
C       -0.77283392       1.46356590      -3.67241007
C        3.16675270       1.83003753      -0.54986407
C        0.54903887      -3.07595800       1.95081929
C        1.54078420       1.34660045      -3.12882999
C       -2.22396079       2.71276827      -1.55144915
C       -1.17814815      -2.85553094      -1.27262584
C       -0.09045644      -2.25598181       2.92100605
C        2.12614333       0.35101421      -2.20547687
C        0.15565669       3.46455141       0.26503326
C       -3.16995751       0.42461882      -1.17857622
C        0.05414701       3.71720972      -1.13948108
60
Properties=species:S:1:pos:R:3 trajectory=trial0001_proposal001_step001_proposal_relax trajectory_step=12 pbc="F F F"
C       -2.48486756      -2.10715009       0.64880175
C        2.19372130      -2.91480969       0.10606081
C        1.22294012      -0.04056514       2.54513838
C       -0.99005322       3.28102022      -2.01203939
C       -2.82591378       3.06787312      -0.32457065
C        2.79653311      -1.88390796       1.73666133
C       -2.89087532      -1.06721504       1.54931726
C       -1.51025728      -2.48465317       2.75651239
C        2.25339400       2.94543572      -0.74990232
C       -0.34885790       2.71199366      -3.14736259
C       -0.80956882       2.96466938       1.19242544
C        3.07429072       1.54017522       0.88151989
C       -2.25959302      -2.01692884      -0.78246947
C        1.35067334       3.39545032      -1.75672237
C        3.05923799       0.52304541      -1.14821285
C       -1.19632453      -0.24726480       3.06303098
C        3.33030094      -0.49117972      -0.09517520
C       -1.89070345       0.80702847      -3.09298478
C       -2.59384258       1.43180966      -2.03220455
C       -0.44988396      -3.45729921       0.99713709
C        0.43088990       0.71545029      -3.81074370
C       -0.80501824      -1.36042853      -3.23176129
C       -3.83576095       2.25365262       0.29946693
C       -3.32164664       0.24996465       1.28500410
C       -2.84664930       1.27517062       2.15293734
C       -1.51159298       1.08852938       2.65639703
C        0.37163326      -0.59368882      -3.39584176
C       -2.16379049      -1.24115511       2.77705615
C       -1.93074032      -0.60732873      -2.85384426
C        2.52044711      -0.54174614       2.13160291
C        0.94067182      -2.15546044      -1.91288626
C       -0.18891852      -3.40868774      -0.36601386
C       -3.23755611       2.51732409       1.61058348
C        1.08548663       2.67439266      -2.91668857
C        0.10981150      -0.83620923       3.01381464
C       -0.41333331      -2.39652504      -2.37168172
C       -3.70977710       0.83734171       0.05614259
C       -2.17963421       3.22089147       0.94883921
C       -0.45693379       1.88858332       2.10459909
C        0.88164212       1.30757321       2.09952636
C       -1.70995359      -3.01184672       1.44719918
C       -2.62342103      -0.87133527      -1.60476766
C        3.25891234       0.19563568       1.14307328
C        1.86617594      -2.93389515       1.51360695
C        1.13743864      -3.01814535      -0.80651694
C        1.32093558      -0.85291264      -2.37988573
C        1.46998467       3.02136825       0.45076724
C        3.16738758      -1.86662161       0.27474800
C        1.82397473       2.00226101       1.31938384
C       -0.77188323       1.46455075      -3.67154580
C        3.16914155       1.83042825      -0.55042651
C        0.54900583      -3.07674337       1.95063034
C        1.54171824       1.34694612      -3.12799281
C       -2.22527366       2.71417684      -1.55207849
C       -1.17735395      -2.85253191      -1.27102355
C       -0.09031130      -2.25625240       2.92006852
C        2.12403491       0.35248581      -2.20233166
C        0.15557708       3.46353124       0.26288813
C       -3.16875815       0.42597519      -1.17828738
C        0.05366068       3.71804055      -1.14076867
60
Properties=species:S:1:pos:R:3 trajectory=trial0001_proposal001_step001_proposal_relax trajectory_step=13 pbc="F F F"
C       -2.48752213      -2.10845522       0.65107624
C        2.19443404      -2.91662273       0.10774021
C        1.22423640      -0.04224971       2.54371361
C       -0.99219944       3.28383213      -2.01366637
C       -2.82682363       3.06768962      -0.32589765
C        2.79402243      -1.88249745       1.73575932
C       -2.89535027      -1.07004171       1.55164868
C       -1.51071225      -2.48637310       2.75684642
C        2.25387738       2.94406590      -0.75329107
C       -0.34902325       2.71287693      -3.14748911
C       -0.80834171       2.96368393       1.19044280
C        3.07054805       1.53834877       0.87973283
C       -2.25884933      -2.01272055      -0.77837779
C        1.35130959       3.39649916      -1.75817317
C        3.06003096       0.52345579      -1.14744860
C       -1.19503143      -0.24983615       3.05920132
C        3.33072678      -0.49176811      -0.09556976
C       -1.88697600       0.80880154      -3.08902717
C       -2.59262850       1.43396495      -2.03144251
C       -0.45106495      -3.45895784       0.99779889
C        0.43179370       0.71923704      -3.81044255
C       -0.80402335      -1.35802532      -3.22950437
C       -3.83630599       2.25306877       0.30044002
C       -3.32170555       0.24749445       1.28456871
C       -2.84568436       1.27263991       2.15174041
C       -1.51048105       1.08512291       2.65284613
C        0.37051382      -0.59432787      -3.39176440
C       -2.16389165      -1.24340243       2.77708833
C       -1.92979217      -0.60554158      -2.85167660
C        2.52555045      -0.54042824       2.13634444
C        0.94171866      -2.15351310      -1.90985070
C       -0.18898276      -3.40648566      -0.36396418
C       -3.23415684       2.51456030       1.60997952
C        1.08494198       2.67382967      -2.91700271
C        0.11104157      -0.83836176       3.00944059
C       -0.41301055      -2.39303794      -2.36795844
C       -3.70823559       0.83740430       0.05612754
C       -2.17712288       3.21874928       0.94699486
C       -0.45818042       1.88472829       2.10074548
C        0.87961631       1.30386565       2.09568483
C       -1.71112562      -3.01393679       1.44790159
C       -2.62208823      -0.86792479      -1.60173213
C        3.25918444       0.19594918       1.14220192
C        1.86677947      -2.93180915       1.51427063
C        1.13670300      -3.01517215      -0.80457109
C        1.32046779      -0.84966903      -2.37671361
C        1.46871144       3.01873495       0.44513858
C        3.16428430      -1.86631788       0.27486952
C        1.82089734       1.99680390       1.31219622
C       -0.77054422       1.46554508      -3.67141677
C        3.17210090       1.83160100      -0.55165531
C        0.54717763      -3.07737231       1.95103836
C        1.54184140       1.34757593      -3.12612424
C       -2.22864574       2.71813734      -1.55388837
C       -1.17650560      -2.84817554      -1.26784763
C       -0.09034998      -2.25825733       2.92019645
C        2.12254384       0.35467931      -2.19803363
C        0.15452011       3.46128330       0.25859770
C       -3.16676957       0.42868273      -1.17708832
C        0.05312466       3.71865615      -1.14254396
60
Properties=species:S:1:pos:R:3 trajectory=trial0001_proposal001_step001_proposal_relax trajectory_step=14 pbc="F F F"
C       -2.48864005      -2.10910948       0.65211927
C        2.19466754      -2.91744743       0.10775318
C        1.22482623      -0.04288163       2.54298542
C       -0.99268564       3.28507627      -2.01454438
C       -2.82759860       3.06786001      -0.32491891
C        2.79355792      -1.88129081       1.73589526
C       -2.89722674      -1.07138191       1.55289218
C       -1.51072954      -2.48753537       2.75690183
C        2.25363356       2.94378899      -0.75477600
C       -0.34921494       2.71350125      -3.14732066
C       -0.80802757       2.96313559       1.18986995
C        3.07090349       1.53730737       0.87828451
C       -2.25831029      -2.01085973      -0.77671507
C        1.35154591       3.39719740      -1.75932157
C        3.06044950       0.52363958      -1.14709202
C       -1.19451525      -0.25121129       3.05752529
C        3.33087861      -0.49171091      -0.09556202
C       -1.88556272       0.80934548      -3.08745865
C       -2.59224482       1.43508865      -2.03103404
C       -0.45123026      -3.45959687       0.99861804
C        0.43225060       0.71677131      -3.80998765
C       -0.80506338      -1.35761553      -3.22833175
C       -3.83594945       2.25307502       0.30075164
C       -3.32193492       0.24663707       1.28437815
C       -2.84512065       1.27096210       2.15143543
C       -1.51056505       1.08329979       2.65130690
C        0.37203142      -0.59046804      -3.39203864
C       -2.16403186      -1.24387655       2.77702883
C       -1.92946801      -0.60454222      -2.85057923
C        2.52767306      -0.53996585       2.13822045
C        0.94240163      -2.15210555      -1.90944338
C       -0.18889066      -3.40534121      -0.36360727
C       -3.23252401       2.51385229       1.60910181
C        1.08477570       2.67412538      -2.91671001
C        0.11129534      -0.83942357       3.00782937
C       -0.41275044      -2.39191266      -2.36601272
C       -3.70771677       0.83734670       0.05651838
C       -2.17734702       3.21768769       0.94584590
C       -0.45806088       1.88332480       2.09872358
C        0.87961146       1.30256340       2.09394022
C       -1.71218449      -3.01486019       1.44841282
C       -2.62135845      -0.86642437      -1.60031508
C        3.25929759       0.19577796       1.14212810
C        1.86537476      -2.93200977       1.51522978
C        1.13655039      -3.01429868      -0.80307890
C        1.31972017      -0.84954056      -2.37499675
C        1.46838652       3.01746447       0.44353563
C        3.16340289      -1.86601157       0.27495628
C        1.81742500       1.99535354       1.30958788
C       -0.77047044       1.46667159      -3.67133086
C        3.17324830       1.83165190      -0.55217580
C        0.54738227      -3.07773748       1.95086848
C        1.54177828       1.34805694      -3.12529782
C       -2.22972603       2.71962263      -1.55561764
C       -1.17653705      -2.84622932      -1.26622076
C       -0.09054417      -2.25927331       2.92036374
C        2.12227559       0.35573996      -2.19669073
C        0.15476983       3.46004075       0.25720263
C       -3.16587456       0.43002770      -1.17667877
C        0.05256464       3.71895493      -1.14414383
60
Properties=species:S:1:pos:R:3 trajectory=trial0001_proposal001_step001_proposal_relax trajectory_step=15 pbc="F F F"
C       -2.48850778      -2.10897895       0.65203378
C        2.19482593      -2.91743671       0.10772223
C        1.22478771      -0.04278095       2.54314490
C       -0.99242620       3.28480178      -2.01461950
C       -2.82743080       3.06795928      -0.32503407
C        2.79391540      -1.88195582       1.73625888
C       -2.89698841      -1.07115617       1.55272168
C       -1.51088138      -2.48747785       2.75674339
C        2.25323913       2.94407512      -0.75445650
C       -0.34910904       2.71317387      -3.14743634
C       -0.80844308       2.96340479       1.19021560
C        3.07209420       1.53774848       0.87879174
C       -2.25808953      -2.01076339      -0.77665559
C        1.35166610       3.39808851      -1.75932082
C        3.06075259       0.52355718      -1.14737952
C       -1.19464758      -0.25117552       3.05794062
C        3.33076192      -0.49156242      -0.09521585
C       -1.88608916       0.80933061      -3.08777833
C       -2.59248316       1.43512034      -2.03110055
C       -0.45111209      -3.45934153       0.99856089
C        0.43217083       0.71704304      -3.81088651
C       -0.80508546      -1.35750738      -3.22857466
C       -3.83575187       2.25292862       0.30058503
C       -3.32220289       0.24675163       1.28450405
C       -2.84541283       1.27098499       2.15169573
C       -1.51056648       1.08334314       2.65139647
C        0.37222098      -0.59153824      -3.39332534
C       -2.16399130      -1.24379190       2.77683730
C       -1.92962889      -0.60454508      -2.85045629
C        2.52707939      -0.54019259       2.13794128
C        0.94225812      -2.15283102      -1.91043703
C       -0.18886337      -3.40536570      -0.36355426
C       -3.23287583       2.51379445       1.60915623
C        1.08479686       2.67417746      -2.91674404
C        0.11116907      -0.83941012       3.00841274
C       -0.41318498      -2.39210774      -2.36638579
C       -3.70788070       0.83731611       0.05657937
C       -2.17780671       3.21820876       0.94619431
C       -0.45796621       1.88371452       2.09899862
C        0.88000784       1.30302873       2.09439218
C       -1.71237897      -3.01509305       1.44838095
C       -2.62138542      -0.86647169      -1.60023296
C        3.25950787       0.19614711       1.14229181
C        1.86571267      -2.93258768       1.51527354
C        1.13663177      -3.01446109      -0.80347491
C        1.31958821      -0.85005933      -2.37574937
C        1.46842330       3.01816808       0.44430760
C        3.16393600      -1.86617123       0.27542676
C        1.81828324       1.99628669       1.31058801
C       -0.77071946       1.46633611      -3.67167042
C        3.17257571       1.83146396      -0.55219251
C        0.54733507      -3.07767640       1.95098669
C        1.54141965       1.34790675      -3.12543571
C       -2.22959046       2.71968971      -1.55566474
C       -1.17678598      -2.84662882      -1.26623637
C       -0.09065629      -2.25947663       2.92069265
C        2.12293036       0.35529836      -2.19758492
C        0.15489156       3.46021321       0.25766540
C       -3.16607289       0.42995422      -1.17664385
C        0.05260717       3.71881596      -1.14398359
