60
Properties=species:S:1:pos:R:3 trajectory=trial0001_proposal001_step007_proposal_relax trajectory_step=0 pbc="F F F"
C       -2.68731721      -2.15113007      -0.27155277
C        1.77990342      -3.58748319       0.69191569
C        0.23820012      -0.44718558       2.50593607
C       -0.45060192       3.61013752      -1.82459515
C       -2.75160319       3.07582859      -0.97931508
C        1.93250024      -2.37500033       2.24799371
C       -3.31301048      -1.14428825       0.50683138
C       -2.56838037      -2.69399262       2.00488035
C        2.18772326       3.14297498       0.23727808
C        0.62728958       3.17958463      -2.64246883
C       -1.32947550       2.80037742       1.06330846
C        2.46823966       0.90324878       0.82786111
C       -1.90511527      -1.86433034      -1.47180040
C        1.67018184       4.01198609      -0.79564545
C        4.73500776       2.16863348      -0.38676093
C       -2.29503032      -0.45868989       2.58666337
C        2.94333299      -1.33879626       0.43063026
C       -0.64341463       1.17025517      -3.15185669
C       -1.84551099       1.69211106      -2.60842236
C       -1.01708003      -3.67972460       0.64193242
C        1.78554749       1.19854938      -2.50679096
C        0.55476288      -0.83019973      -2.61505118
C       -3.89466583       2.20730903      -0.82155516
C       -3.62272188       0.18215706       0.16698119
C       -3.54274291       1.13220915       1.23221312
C       -2.42379937       0.89730373       2.15034890
C        1.69897769      -0.13830235      -2.00418865
C       -3.12133752      -1.40811209       1.89937353
C       -0.66570281      -0.23315831      -2.94685630
C        1.56499045      -0.99808109       2.23222867
C        1.57446554      -2.30774801      -1.25926690
C       -0.28481620      -3.56270373      -0.56876047
C       -3.77980708       2.38015964       0.63609990
C        1.90836680       3.45246105      -2.06585115
C       -1.03256982      -1.12678547       2.87568773
C        0.48923881      -2.12365532      -2.13946988
C       -3.62167691       0.82094342      -1.09952388
C       -2.56098506       3.10345282       0.43268089
C       -1.20115777       1.60638437       1.87072587
C        0.04196786       0.80570511       1.82660161
C       -2.33656414      -3.18742289       0.66982727
C       -1.89316127      -0.63985479      -2.27231745
C        2.60822741      -0.38947800       1.40443736
C        1.01874558      -3.39581160       1.89352856
C        1.16212255      -3.40436283      -0.53888128
C        2.16018836      -1.13230137      -0.85156417
C        1.00035493       2.61826839       0.71638010
C        2.78281945      -2.63004044       1.07630815
C        1.02670416       1.16147008       0.79358818
C        0.58332186       1.83854273      -3.05454070
C        3.21527364       2.05392756       0.18517598
C       -0.38109397      -3.36369141       1.88074369
C        2.67683902       2.23917601      -2.14162113
C       -1.74115467       2.94220356      -1.93814242
C       -0.72103915      -2.67860118      -1.59526920
C       -1.27030428      -2.53071019       2.62400997
C        3.72495155       2.04766238      -1.22249314
C       -0.12113944       3.36426442       0.59176289
C       -2.66507072       0.58505417      -2.10756231
C        0.16841265       4.06958951      -0.61360715
60
Properties=species:S:1:pos:R:3 trajectory=trial0001_proposal001_step007_proposal_relax trajectory_step=1 pbc="F F F"
C       -2.68684016      -2.15029943      -0.27184151
C        1.78987680      -3.58628743       0.69326541
C        0.23672250      -0.44916352       2.49706530
C       -0.45011853       3.61034101      -1.82429633
C       -2.75322760       3.07849160      -0.97825643
C        1.92976954      -2.37084680       2.25181329
C       -3.31595493      -1.14246520       0.50582908
C       -2.56390902      -2.69313606       2.00355724
C        2.18550914       3.14735922       0.23513079
C        0.62326013       3.17893782      -2.64025680
C       -1.33083979       2.79853353       1.06751694
C        2.44670337       0.90248847       0.82323655
C       -1.89942609      -1.86604378      -1.47310499
C        1.67357413       4.01147274      -0.79140126
C        4.73251182       2.16542065      -0.37574576
C       -2.29298888      -0.46627555       2.58659346
C        2.93412370      -1.34458085       0.41286301
C       -0.64776168       1.16317574      -3.15283672
C       -1.84446852       1.69206933      -2.60708462
C       -1.00850712      -3.67940431       0.63303064
C        1.78559186       1.20432193      -2.49756435
C        0.56069021      -0.82853531      -2.60884599
C       -3.89164337       2.20991938      -0.81931191
C       -3.61995974       0.18060947       0.16736151
C       -3.53986219       1.12846123       1.22989396
C       -2.42466490       0.89683519       2.14780492
C        1.69060580      -0.14421257      -1.99697356
C       -3.11881306      -1.40402956       1.89851874
C       -0.66562048      -0.22808900      -2.94612556
C        1.56445644      -0.99875275       2.24566708
C        1.55963864      -2.31078412      -1.26990036
C       -0.27929576      -3.56409878      -0.56782513
C       -3.77742758       2.38339833       0.63870211
C        1.90729926       3.44679141      -2.06670893
C       -1.02736635      -1.12667488       2.87310685
C        0.47793226      -2.11883295      -2.14528978
C       -3.61865771       0.82595526      -1.10001094
C       -2.55864108       3.10426429       0.43366939
C       -1.20417286       1.60515580       1.86478025
C        0.03829184       0.80043519       1.80520634
C       -2.34025221      -3.18447790       0.66792993
C       -1.89103272      -0.64098659      -2.27106458
C        2.61197007      -0.37438847       1.40735261
C        1.01469822      -3.39628766       1.89215364
C        1.15964235      -3.42661656      -0.50918223
C        2.18473286      -1.12382431      -0.84965259
C        1.01605079       2.57734981       0.70812554
C        2.78366896      -2.62742243       1.08369829
C        1.03174189       1.19098386       0.80479799
C        0.58669423       1.83781089      -3.05414707
C        3.21324107       2.05199938       0.19475405
C       -0.38083025      -3.36305005       1.87801333
C        2.67628596       2.24266108      -2.13954224
C       -1.74007584       2.93985456      -1.94017636
C       -0.71858162      -2.67410490      -1.59990297
C       -1.26784322      -2.53028903       2.62588255
C        3.71813765       2.04554623      -1.23189473
C       -0.14283518       3.37573869       0.58269125
C       -2.66188727       0.58563865      -2.10714873
C        0.17069110       4.07222935      -0.61571634
60
Properties=species:S:1:pos:R:3 trajectory=trial0001_proposal001_step007_proposal_relax trajectory_step=2 pbc="F F F"
C       -2.68645484      -2.14887551      -0.27294263
C        1.80109359      -3.58850733       0.70575965
C        0.23523914      -0.44963162       2.48546859
C       -0.45044990       3.61063322      -1.82478304
C       -2.75233406       3.08185653      -0.97812857
C        1.92582439      -2.36766068       2.25575063
C       -3.31809378      -1.14217244       0.50450284
C       -2.56006705      -2.69071593       2.00166593
C        2.18437393       3.14598549       0.23580438
C        0.62078849       3.17695278      -2.63889678
C       -1.33444765       2.79955782       1.06957286
C        2.43293560       0.90103116       0.81785501
C       -1.89517793      -1.86680229      -1.47349526
C        1.67553708       4.01170802      -0.79020093
C        4.72034543       2.16023581      -0.36879022
C       -2.29019330      -0.46910201       2.58599247
C        2.92520304      -1.34336062       0.40589939
C       -0.64779622       1.16170423      -3.15447201
C       -1.84351980       1.69102417      -2.60620653
C       -1.00700389      -3.67726981       0.62746276
C        1.78293275       1.20611281      -2.48744385
C        0.56173850      -0.82278331      -2.60514203
C       -3.88883462       2.21260792      -0.81639284
C       -3.61767708       0.18156996       0.16526090
C       -3.53694004       1.12677658       1.22745705
C       -2.42531441       0.89333708       2.14623193
C        1.68656865      -0.14366650      -1.98812474
C       -3.11597039      -1.40305394       1.89738107
C       -0.66345490      -0.22738647      -2.94398851
C        1.56692690      -0.99542066       2.25695063
C        1.54954170      -2.31851329      -1.26931689
C       -0.27517895      -3.56664578      -0.56742972
C       -3.77508824       2.38489354       0.64180702
C        1.90474209       3.44516395      -2.06497878
C       -1.02280176      -1.12735769       2.87057287
C        0.47119962      -2.11680927      -2.14707457
C       -3.61495629       0.83007168      -1.09966466
C       -2.55801997       3.10556668       0.43503671
C       -1.20590515       1.60111044       1.85818027
C        0.03028626       0.79364313       1.78452421
C       -2.33866689      -3.18360543       0.66554805
C       -1.88824754      -0.64141421      -2.26997821
C        2.61518785      -0.36767667       1.40722422
C        1.01507747      -3.39512159       1.89266410
C        1.15873206      -3.43318951      -0.50107976
C        2.19893159      -1.12827648      -0.85610457
C        1.00854506       2.57634548       0.69149824
C        2.78475684      -2.62271766       1.08959466
C        1.03329251       1.20087740       0.81733510
C        0.58654571       1.83560353      -3.05355274
C        3.21391405       2.05103993       0.19996154
C       -0.38077710      -3.36263147       1.87364062
C        2.67467756       2.24468317      -2.13851391
C       -1.73978962       2.93883815      -1.94043217
C       -0.71704550      -2.67316895      -1.60263658
C       -1.26461140      -2.53143895       2.62665440
C        3.71967678       2.04390973      -1.22918171
C       -0.14115371       3.37150151       0.57707300
C       -2.65954006       0.58620783      -2.10587675
C        0.17150431       4.07471571      -0.61729885
60
Properties=species:S:1:pos:R:3 trajectory=trial0001_proposal001_step007_proposal_relax trajectory_step=3 pbc="F F F"
C       -2.68335663      -2.14527054      -0.27978953
C        1.83018797      -3.60475855       0.73093595
C        0.22921476      -0.45351719       2.43844215
C       -0.45300026       3.61228905      -1.82817090
C       -2.74768685       3.09535477      -0.97657890
C        1.91391360      -2.34979629       2.27363714
C       -3.32340542      -1.14144585       0.49774805
C       -2.54382320      -2.68467468       1.99181243
C        2.18045338       3.14066887       0.23598914
C        0.61462410       3.16826606      -2.63359801
C       -1.33602288       2.80572649       1.07320821
C        2.40432196       0.89758212       0.80056359
C       -1.88500068      -1.86661355      -1.47220290
C        1.68150990       4.01811240      -0.79044369
C        4.68677305       2.13842970      -0.32517162
C       -2.27902646      -0.47518452       2.58278514
C        2.89643042      -1.33292971       0.40174778
C       -0.64695148       1.16102585      -3.16134054
C       -1.83850458       1.68719025      -2.60451521
C       -1.00523241      -3.66896611       0.61572200
C        1.77006994       1.20889589      -2.44669843
C        0.56316055      -0.81016888      -2.58656574
C       -3.87760899       2.22399467      -0.80514679
C       -3.60928660       0.18626873       0.15554447
C       -3.52677011       1.12335072       1.22010967
C       -2.42573120       0.87895229       2.14071773
C        1.68012570      -0.13694173      -1.95017058
C       -3.10536047      -1.40241294       1.89126539
C       -0.65822610      -0.22295721      -2.93677777
C        1.58262922      -0.97342112       2.29053838
C        1.53029824      -2.33761920      -1.26026244
C       -0.26656745      -3.57796021      -0.57153619
C       -3.76796016       2.38763503       0.65325313
C        1.89490981       3.44328618      -2.05721702
C       -1.00746486      -1.13116407       2.86070885
C        0.46314293      -2.10803021      -2.14678396
C       -3.60017986       0.84459180      -1.09737866
C       -2.55756513       3.11423069       0.43942077
C       -1.21626089       1.58437229       1.82739357
C       -0.00518725       0.76436159       1.71342657
C       -2.33188221      -3.17788961       0.65613121
C       -1.87703891      -0.64150522      -2.26519675
C        2.62026332      -0.35943205       1.40236311
C        1.01540225      -3.38813017       1.90466411
C        1.17176421      -3.44697464      -0.46941534
C        2.22600553      -1.16466421      -0.89183603
C        0.98664280       2.58268110       0.62852998
C        2.79107958      -2.59731873       1.11255930
C        1.02702506       1.22105722       0.85030414
C        0.58404703       1.82924469      -3.04834723
C        3.20416865       2.04743197       0.22055191
C       -0.37674901      -3.36140786       1.85571613
C        2.67590247       2.24678026      -2.12561696
C       -1.73882275       2.93721471      -1.93878050
C       -0.71694130      -2.68027351      -1.60731259
C       -1.25193594      -2.53811079       2.62567336
C        3.70426275       2.03868515      -1.23568292
C       -0.15254309       3.35757676       0.55466738
C       -2.64948142       0.58721230      -2.10134650
C        0.17385241       4.08735911      -0.62404375
60
Properties=species:S:1:pos:R:3 trajectory=trial0001_proposal001_step007_proposal_relax trajectory_step=4 pbc="F F F"
C       -2.68233274      -2.14280651      -0.28605054
C        1.85061426      -3.60963271       0.75760790
C        0.22521776      -0.46204509       2.40707247
C       -0.45400919       3.61634625      -1.83293439
C       -2.74386524       3.10533151      -0.97208594
C        1.91057574      -2.33412284       2.28575212
C       -3.32204786      -1.14020530       0.49055707
C       -2.53320397      -2.68372149       1.98284591
C        2.17411397       3.14633230       0.22914120
C        0.61450594       3.16503432      -2.62705955
C       -1.34376142       2.80492770       1.07134124
C        2.39911787       0.89644759       0.80012291
C       -1.88270534      -1.86575176      -1.47027831
C        1.68250450       4.03195383      -0.79261381
C        4.63786516       2.11629230      -0.30643137
C       -2.27312502      -0.48183030       2.57958264
C        2.88519863      -1.33360396       0.40454745
C       -0.64800578       1.16284118      -3.16726006
C       -1.83547584       1.68951084      -2.60368315
C       -1.00177922      -3.66640926       0.60977477
C        1.76045852       1.20970337      -2.41619076
C        0.56269358      -0.80256442      -2.56874070
C       -3.86948607       2.23107584      -0.79887652
C       -3.60333692       0.18816494       0.15135054
C       -3.52312229       1.12107615       1.21872093
C       -2.42548479       0.87496794       2.13431963
C        1.67829604      -0.13889256      -1.92408875
C       -3.09692149      -1.40382435       1.88450599
C       -0.65327190      -0.22099348      -2.93242452
C        1.59172207      -0.95216946       2.30304298
C        1.53556396      -2.35023998      -1.25443083
C       -0.26010984      -3.59052736      -0.57336062
C       -3.76321955       2.38978983       0.65925626
C        1.89267064       3.44287802      -2.05604428
C       -0.99949523      -1.13705022       2.85240293
C        0.46803553      -2.11622085      -2.13166490
C       -3.58895489       0.85392578      -1.09716371
C       -2.55831304       3.12551988       0.44425209
C       -1.22630354       1.57240107       1.79898593
C       -0.03023901       0.74397938       1.67503027
C       -2.32762968      -3.17253685       0.64985379
C       -1.87084898      -0.63871187      -2.25998903
C        2.61232101      -0.35269739       1.39425540
C        1.02855013      -3.37934926       1.91273065
C        1.17567705      -3.44345532      -0.46988804
C        2.23135520      -1.18158464      -0.89863097
C        0.97369891       2.56512630       0.59992346
C        2.78234502      -2.59073660       1.12977283
C        1.02154531       1.22754883       0.83507614
C        0.58588616       1.82652935      -3.03803812
C        3.19576713       2.04387213       0.22547479
C       -0.37188705      -3.35816841       1.84954644
C        2.65930226       2.24686270      -2.12461660
C       -1.73692415       2.93731638      -1.93666166
C       -0.71288475      -2.69140180      -1.60987918
C       -1.24460557      -2.54338100       2.62006393
C        3.72491631       2.03591739      -1.19812780
C       -0.16251192       3.36376224       0.52823537
C       -2.64174940       0.58866127      -2.09878012
C        0.16770017       4.10082772      -0.63094852
60
Properties=species:S:1:pos:R:3 trajectory=trial0001_proposal001_step007_proposal_relax trajectory_step=5 pbc="F F F"
C       -2.68267723      -2.14329049      -0.28566547
C        1.84452171      -3.60841033       0.75049959
C        0.22562385      -0.46149845       2.41170344
C       -0.45399978       3.61689303      -1.83352198
C       -2.74388903       3.10425489      -0.97235380
C        1.91276934      -2.33446795       2.28512255
C       -3.32071972      -1.14029172       0.49127815
C       -2.53545577      -2.68465890       1.98359640
C        2.17241630       3.14561594       0.22973289
C        0.61537870       3.16617542      -2.62788152
C       -1.34257036       2.80553736       1.06861458
C        2.40364432       0.89868993       0.80239547
C       -1.88326370      -1.86620092      -1.47089473
C        1.68097419       4.03279847      -0.79338347
C        4.65224793       2.11823568      -0.30044180
C       -2.27455815      -0.48024458       2.57944287
C        2.88926063      -1.33523738       0.40690214
C       -0.64691275       1.16382390      -3.16669229
C       -1.83599494       1.69027934      -2.60412763
C       -1.00191885      -3.66758106       0.61227793
C        1.76152657       1.20817974      -2.41950551
C        0.56232979      -0.80690690      -2.56865648
C       -3.87036428       2.22969306      -0.80009962
C       -3.60432463       0.18816526       0.15211515
C       -3.52510669       1.12204373       1.21964901
C       -2.42597736       0.87563959       2.13518784
C        1.67933318      -0.14001156      -1.92781244
C       -3.09784567      -1.40448314       1.88453491
C       -0.65374644      -0.22176273      -2.93295936
C        1.58961636      -0.95418463       2.29777194
C        1.54055223      -2.34796174      -1.25494954
C       -0.26089859      -3.58983713      -0.57333175
C       -3.76420232       2.38926902       0.65775402
C        1.89407818       3.44419398      -2.05661809
C       -1.00172489      -1.13736328       2.85307555
C        0.47003477      -2.11567511      -2.13195669
C       -3.59035498       0.85219686      -1.09683715
C       -2.55956083       3.12543583       0.44422780
C       -1.22492889       1.57347686       1.80092693
C       -0.02494592       0.74756703       1.68147159
C       -2.32717714      -3.17379165       0.65034288
C       -1.87194998      -0.63855268      -2.26013502
C        2.61107312      -0.35538728       1.39458561
C        1.02706901      -3.37959804       1.91283679
C        1.17687390      -3.44255375      -0.47082773
C        2.22698991      -1.17702587      -0.89211372
C        0.97325680       2.57353624       0.60438880
C        2.78241846      -2.59212749       1.12738532
C        1.02008267       1.21700468       0.82803459
C        0.58484130       1.82700336      -3.03760956
C        3.19270461       2.04480018       0.22545825
C       -0.37028684      -3.35855652       1.85146680
C        2.66483956       2.24522328      -2.12035091
C       -1.73701546       2.93822338      -1.93621685
C       -0.71338336      -2.69154042      -1.60888079
C       -1.24608209      -2.54265334       2.61966314
C        3.71263273       2.03655453      -1.21201556
C       -0.15892629       3.36145300       0.53251282
C       -2.64274881       0.58918080      -2.09927473
C        0.16702872       4.10099993      -0.63163831
60
Properties=species:S:1:pos:R:3 trajectory=trial0001_proposal001_step007_proposal_relax trajectory_step=6 pbc="F F F"
C       -2.68234566      -2.14323313      -0.28806713
C        1.84338240      -3.60845163       0.74945200
C        0.22397498      -0.46406462       2.40415382
C       -0.45461600       3.62020925      -1.83697751
C       -2.74251400       3.10745142      -0.97082800
C        1.91471887      -2.32769198       2.29044750
C       -3.31808759      -1.13959749       0.48920422
C       -2.53398782      -2.68603410       1.98056101
C        2.16545592       3.14720399       0.22770519
C        0.61662140       3.16643179      -2.62626020
C       -1.34310406       2.80616354       1.06304560
C        2.40496052       0.90225332       0.80511366
C       -1.88204802      -1.86710145      -1.47153110
C        1.67899573       4.04056090      -0.79567698
C        4.64898180       2.11041732      -0.28452346
C       -2.27419231      -0.48121847       2.57756025
C        2.89015217      -1.33805181       0.41109408
C       -0.64595835       1.16512209      -3.16830882
C       -1.83518626       1.69256387      -2.60456271
C       -0.99916172      -3.66851814       0.61312517
C        1.75878262       1.20619695      -2.41001163
C        0.56193783      -0.81097093      -2.55936486
C       -3.86753647       2.23092617      -0.79906092
C       -3.60310459       0.18903214       0.15147355
C       -3.52693293       1.12245003       1.22019704
C       -2.42689191       0.87448587       2.13361670
C        1.67939981      -0.14296644      -1.92108172
C       -3.09535986      -1.40575163       1.88123654
C       -0.65215237      -0.22162999      -2.93144502
C        1.58977641      -0.94845456       2.29569473
C        1.54975238      -2.35005860      -1.25400357
C       -0.25843279      -3.59438473      -0.57411082
C       -3.76372928       2.38965962       0.65817780
C        1.89515167       3.44616700      -2.05677280
C       -1.00143633      -1.14036095       2.84986853
C        0.47449530      -2.11763003      -2.12652803
C       -3.58722157       0.85410461      -1.09596552
C       -2.56219745       3.13087453       0.44636606
C       -1.22718675       1.56974354       1.79002450
C       -0.02716001       0.74355699       1.67149762
C       -2.32435296      -3.17350378       0.64790523
C       -1.87040112      -0.63717848      -2.25792538
C        2.60646977      -0.35562399       1.39215174
C        1.02963509      -3.37579653       1.91696621
C        1.18154693      -3.44288620      -0.46778327
C        2.22470212      -1.17653976      -0.88370054
C        0.96848558       2.57381416       0.59714000
C        2.77962819      -2.59061119       1.13200258
C        1.01484085       1.20656177       0.80894896
C        0.58443607       1.82637740      -3.03154810
C        3.18460590       2.04516011       0.22804852
C       -0.36539438      -3.35784146       1.85140270
C        2.66626444       2.24283248      -2.11233822
C       -1.73614474       2.93983833      -1.93460588
C       -0.71201666      -2.69634999      -1.60866046
C       -1.24497212      -2.54385909       2.61659883
C        3.70514317       2.03617524      -1.21319878
C       -0.16094582       3.36104416       0.52727024
C       -2.64055196       0.59107755      -2.09885066
C        0.16363308       4.10819429      -0.63615528
60
Properties=species:S:1:pos:R:3 trajectory=trial0001_proposal001_step007_proposal_relax trajectory_step=7 pbc="F F F"
C       -2.67981196      -2.14346059      -0.29541133
C        1.84627890      -3.60793430       0.75709070
C        0.21835869      -0.46976932       2.37795323
C       -0.45657838       3.63094207      -1.84702710
C       -2.73921438       3.11822881      -0.96698709
C        1.91801908      -2.31020511       2.30679370
C       -3.31174569      -1.13749934       0.48269044
C       -2.52805520      -2.68958106       1.97119476
C        2.14547565       3.15202489       0.22188746
C        0.61943970       3.16596082      -2.62150621
C       -1.34601890       2.80665701       1.04905509
C        2.39794900       0.90982930       0.80867339
C       -1.87615309      -1.87052474      -1.47407039
C        1.67402075       4.06141476      -0.80116393
C        4.62782230       2.08586356      -0.24254205
C       -2.27227936      -0.48581468       2.57195214
C        2.88910582      -1.34249789       0.42092963
C       -0.64373790       1.16643972      -3.17245049
C       -1.83198528       1.69834159      -2.60561075
C       -0.98928787      -3.67065943       0.61238169
C        1.75056160       1.20192888      -2.37891026
C        0.56106949      -0.81673528      -2.53295832
C       -3.85792067       2.23578940      -0.79496770
C       -3.59916611       0.19170029       0.14907373
C       -3.53149410       1.12280310       1.22057739
C       -2.42914577       0.87034158       2.12829289
C        1.67756878      -0.14998162      -1.89745343
C       -3.08758474      -1.40860957       1.87150006
C       -0.64629535      -0.22130755      -2.92504661
C        1.58978018      -0.93273630       2.29508364
C        1.56899059      -2.35986898      -1.24996561
C       -0.24864875      -3.60758612      -0.57543272
C       -3.76213973       2.39173302       0.66062305
C        1.89711576       3.45066319      -2.05590751
C       -0.99880000      -1.14748627       2.83903117
C        0.48385756      -2.12443678      -2.11178753
C       -3.57671230       0.86149429      -1.09337712
C       -2.56928076       3.14726221       0.45228842
C       -1.23332603       1.55787353       1.75576210
C       -0.03694891       0.72886412       1.63230061
C       -2.31509421      -3.17290633       0.63999954
C       -1.86395663      -0.63371312      -2.25171339
C        2.59708605      -0.35091403       1.38707727
C        1.03804866      -3.36430045       1.92805945
C        1.19300605      -3.44801393      -0.45841233
C        2.22516408      -1.17827856      -0.86423923
C        0.95268050       2.56681839       0.56772201
C        2.77360628      -2.58534832       1.14742570
C        1.00016997       1.18713946       0.75992004
C        0.58485111       1.82326093      -3.01304150
C        3.16477753       2.04751785       0.23778004
C       -0.35413157      -3.35575947       1.84947477
C        2.66358445       2.23826429      -2.09361299
C       -1.73340360       2.94412458      -1.93081774
C       -0.70593268      -2.70878370      -1.60901762
C       -1.24060336      -2.54791408       2.60860791
C        3.69506854       2.03320638      -1.20326143
C       -0.16914142       3.36045789       0.50821797
C       -2.63334254       0.59674531      -2.09692552
C        0.15508750       4.12922486      -0.64759888
60
Properties=species:S:1:pos:R:3 trajectory=trial0001_proposal001_step007_proposal_relax trajectory_step=8 pbc="F F F"
C       -2.67158254      -2.14708841      -0.30299433
C        1.84768280      -3.60172301       0.77094364
C        0.21228664      -0.46970892       2.35226476
C       -0.45803280       3.64788747      -1.85942347
C       -2.73800875       3.13105661      -0.96639811
C        1.92235267      -2.29921634       2.32416074
C       -3.30392661      -1.13682576       0.47506071
C       -2.52370641      -2.69569285       1.96150941
C        2.12202248       3.15723986       0.21665142
C        0.62270560       3.16633473      -2.61778357
C       -1.35007205       2.80358164       1.03232282
C        2.37621677       0.91486521       0.80527192
C       -1.86653930      -1.87717904      -1.47979701
C        1.66661596       4.08005007      -0.80477457
C        4.60710996       2.06146741      -0.20457875
C       -2.27246891      -0.48960424       2.56503783
C        2.89176726      -1.33872478       0.43660684
C       -0.63838548       1.16462024      -3.17156148
C       -1.82708324       1.70404091      -2.60709916
C       -0.97477684      -3.67515325       0.61145449
C        1.74444952       1.19776856      -2.34787185
C        0.56189236      -0.82174221      -2.50655518
C       -3.84700159       2.24049715      -0.79163121
C       -3.59800176       0.19404596       0.14746047
C       -3.53978979       1.12425974       1.22192604
C       -2.42971563       0.86783038       2.12198988
C        1.67482332      -0.15520400      -1.87106310
C       -3.08149773      -1.41304644       1.86087061
C       -0.63985231      -0.22228788      -2.91385010
C        1.58240531      -0.92420364       2.29206312
C        1.58561069      -2.36964027      -1.24145352
C       -0.23498170      -3.61932011      -0.57459457
C       -3.76379308       2.39543722       0.66162523
C        1.89844969       3.45582104      -2.05366952
C       -0.99856241      -1.14940949       2.82461595
C        0.49496200      -2.13107729      -2.10025926
C       -3.56584695       0.86904926      -1.09002763
C       -2.57820079       3.16570412       0.45711234
C       -1.23620698       1.54530050       1.71778541
C       -0.04578770       0.71448156       1.58429799
C       -2.30142060      -3.17623464       0.63115536
C       -1.85556972      -0.63166715      -2.24627761
C        2.59305723      -0.34005654       1.39170087
C        1.04166345      -3.35304706       1.93927251
C        1.20669435      -3.46180140      -0.45104771
C        2.22624584      -1.18208816      -0.84430060
C        0.93183850       2.55482105       0.52563662
C        2.77623519      -2.58009322       1.16286241
C        0.98087718       1.17114532       0.70203522
C        0.58604489       1.81719781      -2.98857268
C        3.14469481       2.05722699       0.25371713
C       -0.34539702      -3.35526331       1.84925713
C        2.66012379       2.23475409      -2.07260863
C       -1.73016656       2.95098301      -1.92907486
C       -0.69547012      -2.71974347      -1.60754846
C       -1.23817318      -2.55085497       2.60167607
C        3.69001619       2.02689011      -1.18136654
C       -0.17974476       3.35923011       0.48708426
C       -2.62561597       0.60288829      -2.09463373
C        0.14714207       4.15151049      -0.65640893
60
Properties=species:S:1:pos:R:3 trajectory=trial0001_proposal001_step007_proposal_relax trajectory_step=9 pbc="F F F"
C       -2.65605788      -2.15087637      -0.30942618
C        1.85638714      -3.58713869       0.79108042
C        0.20488589      -0.46965798       2.32464867
C       -0.45904053       3.66792541      -1.87144566
C       -2.73765111       3.14628392      -0.96912760
C        1.92364505      -2.29412358       2.33705310
C       -3.29475016      -1.14141376       0.46304327
C       -2.51803640      -2.70300841       1.95168905
C        2.10065842       3.16373296       0.21520998
C        0.62400197       3.16495461      -2.61201867
C       -1.36385150       2.79911459       1.01334527
C        2.36239721       0.91709388       0.79355223
C       -1.85650434      -1.88644604      -1.48292352
C        1.66046642       4.09512156      -0.80518395
C        4.59261925       2.04386964      -0.16850999
C       -2.27532467      -0.49036434       2.55478390
C        2.89748438      -1.33279488       0.44925435
C       -0.63524682       1.16071157      -3.15988866
C       -1.81923745       1.70882599      -2.60466073
C       -0.96306238      -3.68184874       0.61186610
C        1.74743327       1.19924459      -2.31727882
C        0.56707488      -0.81543222      -2.48929671
C       -3.83772732       2.24542316      -0.79089650
C       -3.60027929       0.19190039       0.14771442
C       -3.54587151       1.12695762       1.22531525
C       -2.43151785       0.86878197       2.11052377
C        1.67393897      -0.16284469      -1.84399293
C       -3.07910251      -1.41970334       1.84979383
C       -0.62810485      -0.22555873      -2.89913160
C        1.57751310      -0.91863658       2.28883902
C        1.59386779      -2.38308353      -1.23027653
C       -0.21883566      -3.63115628      -0.57351140
C       -3.76693635       2.40131270       0.66228432
C        1.90136086       3.45472350      -2.04826219
C       -1.00162448      -1.14739878       2.80709367
C        0.51056829      -2.14778516      -2.08529265
C       -3.55400233       0.87561320      -1.08852664
C       -2.58758792       3.17953432       0.45685178
C       -1.24471545       1.53166777       1.67966901
C       -0.06743008       0.69962020       1.53654767
C       -2.28860879      -3.18002900       0.62431674
C       -1.85046179      -0.63302436      -2.24090674
C        2.58069810      -0.32242508       1.40864222
C        1.05280634      -3.34477380       1.94925767
C        1.22637057      -3.47512047      -0.45038371
C        2.23500848      -1.18536715      -0.82173227
C        0.90571012       2.54162014       0.46791494
C        2.78297022      -2.57374099       1.18535029
C        0.95635533       1.15975332       0.64364271
C        0.59234349       1.81788654      -2.95897868
C        3.12305661       2.06317807       0.27633124
C       -0.34860272      -3.35540135       1.85543332
C        2.65770298       2.23236831      -2.04984653
C       -1.72646669       2.96091954      -1.93427121
C       -0.67666989      -2.72785920      -1.60754917
C       -1.23852738      -2.54805781       2.59621708
C        3.68033476       2.02074524      -1.15523598
C       -0.19551702       3.35978315       0.45839882
C       -2.61622329       0.60396046      -2.09179098
C        0.13652383       4.17273201      -0.66711483
60
Properties=species:S:1:pos:R:3 trajectory=trial0001_proposal001_step007_proposal_relax trajectory_step=10 pbc="F F F"
C       -2.64256937      -2.15648384      -0.31315571
C        1.85892031      -3.57647183       0.79973819
C        0.19902858      -0.46639590       2.30801146
C       -0.46029277       3.68419982      -1.88307779
C       -2.73914817       3.15647813      -0.97530665
C        1.92654233      -2.29055188       2.34885045
C       -3.28885809      -1.14377832       0.45672871
C       -2.51812753      -2.70737157       1.94644850
C        2.08228028       3.16639644       0.21620759
C        0.62765233       3.16779917      -2.60714033
C       -1.36847145       2.79463592       0.99856069
C        2.33501506       0.91829350       0.78448495
C       -1.84500272      -1.89427142      -1.48875195
C        1.65503328       4.10336954      -0.80586516
C        4.58009809       2.03397737      -0.15117408
C       -2.27977979      -0.49100591       2.54649035
C        2.90364401      -1.32171014       0.46749315
C       -0.62486720       1.15828787      -3.14828055
C       -1.81390449       1.71060022      -2.60259854
C       -0.95123005      -3.68756244       0.61186631
C        1.74911894       1.19630444      -2.29872256
C        0.57509618      -0.82573558      -2.47368090
C       -3.83059159       2.24787729      -0.79096964
C       -3.60351549       0.19188237       0.14675673
C       -3.55469055       1.12921657       1.22482074
C       -2.43311829       0.86849410       2.10435845
C        1.67529813      -0.16284949      -1.82621525
C       -3.07867968      -1.42471898       1.84177439
C       -0.62426787      -0.22614358      -2.88732019
C        1.56495031      -0.91885624       2.28644500
C        1.60559434      -2.38563623      -1.21963490
C       -0.20588391      -3.63851824      -0.56955339
C       -3.77224145       2.40433693       0.66063353
C        1.90108542       3.45719005      -2.04282406
C       -1.00542716      -1.14172323       2.79357606
C        0.52106893      -2.14392707      -2.08600227
C       -3.54701247       0.87894851      -1.08460086
C       -2.59640845       3.19003164       0.45473899
C       -1.24900661       1.52524388       1.65273105
C       -0.07480983       0.69145048       1.49919481
C       -2.27772498      -3.18598200       0.61854477
C       -1.84415521      -0.63669555      -2.23825121
C        2.58055599      -0.31219740       1.41999191
C        1.04524829      -3.34183425       1.95631611
C        1.23999873      -3.49404728      -0.44233898
C        2.23816476      -1.19123319      -0.80938895
C        0.88653836       2.52938580       0.42388912
C        2.79663783      -2.56673006       1.19674975
C        0.94033261       1.15256825       0.60132837
C        0.59288234       1.81114804      -2.93694543
C        3.11349439       2.07334434       0.29159340
C       -0.34231260      -3.35823884       1.85961331
C        2.65694155       2.23225103      -2.03453804
C       -1.72549847       2.97028271      -1.93747891
C       -0.66590420      -2.73401353      -1.60399449
C       -1.24080441      -2.54576968       2.59397227
C        3.68258001       2.01521252      -1.12448682
C       -0.20946774       3.35734004       0.44036556
C       -2.61069185       0.60597478      -2.08919522
C        0.13127027       4.18822099      -0.67257882
60
Properties=species:S:1:pos:R:3 trajectory=trial0001_proposal001_step007_proposal_relax trajectory_step=11 pbc="F F F"
C       -2.63983348      -2.15735271      -0.31145473
C        1.86118532      -3.57420368       0.80143629
C        0.19733003      -0.46437963       2.31001441
C       -0.46053760       3.68489255      -1.88421527
C       -2.74171217       3.15544561      -0.97930483
C        1.92434028      -2.29442498       2.34675249
C       -3.29026991      -1.14463068       0.45714854
C       -2.52014771      -2.70666921       1.94834162
C        2.08288918       3.16502432       0.21923913
C        0.62842887       3.16762995      -2.60617904
C       -1.36998336       2.79400054       0.99844516
C        2.33070342       0.91581369       0.78416090
C       -1.84275384      -1.89571881      -1.48844356
C        1.65565684       4.09954028      -0.80332683
C        4.58459685       2.04127921      -0.15651831
C       -2.28253265      -0.49006784       2.54490263
C        2.90553032      -1.31735621       0.47027729
C       -0.62254459       1.15729119      -3.14097602
C       -1.81314031       1.70866752      -2.59964334
C       -0.95184522      -3.68839061       0.61335749
C        1.75260939       1.19642895      -2.30357121
C        0.57795591      -0.82372734      -2.48026846
C       -3.83190692       2.24673995      -0.79281265
C       -3.60553122       0.19066585       0.14636759
C       -3.55632827       1.12871885       1.22238120
C       -2.43539671       0.86933499       2.10388719
C        1.67957239      -0.16076494      -1.82946899
C       -3.08209270      -1.42412136       1.84219145
C       -0.62313180      -0.22755129      -2.88578074
C        1.56140091      -0.92165244       2.28771317
C        1.60439947      -2.38331135      -1.21836205
C       -0.20530236      -3.63696512      -0.56762862
C       -3.77478130       2.40361579       0.65820462
C        1.90072153       3.45611705      -2.04048598
C       -1.00804868      -1.13810427       2.79301652
C        0.52216630      -2.14365656      -2.08845141
C       -3.54831879       0.87697260      -1.08423302
C       -2.59711620       3.18676479       0.45011901
C       -1.25046221       1.52817264       1.65610473
C       -0.07456954       0.69378596       1.50210611
C       -2.27831146      -3.18752729       0.62046002
C       -1.84336962      -0.63936125      -2.24005935
C        2.58153209      -0.31151434       1.42037808
C        1.04420364      -3.34408061       1.95415726
C        1.24001291      -3.49445948      -0.44399761
C        2.24041117      -1.19270557      -0.81293931
C        0.88635628       2.52769294       0.42072998
C        2.80115362      -2.56568876       1.19618296
C        0.94161051       1.15683061       0.60802305
C        0.59468794       1.81166347      -2.93594035
C        3.11651597       2.07359332       0.29217112
C       -0.34506853      -3.35994568       1.86132545
C        2.65941492       2.23381547      -2.03612720
C       -1.72723511       2.97159685      -1.94082121
C       -0.66394978      -2.73246509      -1.60303755
C       -1.24222389      -2.54436552       2.59548969
C        3.68428312       2.01682447      -1.12183548
C       -0.21109120       3.35623145       0.43835220
C       -2.61166427       0.60392875      -2.08806607
C        0.13213938       4.18637203      -0.67128511
60
Properties=species:S:1:pos:R:3 trajectory=trial0001_proposal001_step007_proposal_relax trajectory_step=12 pbc="F F F"
C       -2.63359449      -2.15876926      -0.30854743
C        1.86694814      -3.56971939       0.80313242
C        0.19165837      -0.46108501       2.30939005
C       -0.46155233       3.68915149      -1.88851801
C       -2.74717307       3.15537534      -0.98835687
C        1.92008697      -2.29699674       2.34520025
C       -3.29224386      -1.14731115       0.45542287
C       -2.52374222      -2.70572753       1.95073206
C        2.08188336       3.16294225       0.22449699
C        0.63088093       3.16717214      -2.60254322
C       -1.37543483       2.79392583       0.99362842
C        2.32715697       0.91436359       0.78446232
C       -1.83691437      -1.89934024      -1.48711014
C        1.65581186       4.09621424      -0.79784024
C        4.59087294       2.05483532      -0.15841768
C       -2.28893512      -0.48791775       2.54029419
C        2.91029502      -1.31186472       0.47427275
C       -0.61784393       1.15526853      -3.12348897
C       -1.81018574       1.70478034      -2.59208865
C       -0.95178012      -3.69121055       0.61693667
C        1.76217343       1.19775696      -2.30817976
C        0.58734592      -0.82388848      -2.48884895
C       -3.83474072       2.24355194      -0.79794565
C       -3.60979970       0.18748523       0.14486852
C       -3.56150749       1.12749140       1.21739642
C       -2.44251828       0.87157176       2.10057945
C        1.68961914      -0.15983552      -1.83443588
C       -3.08910320      -1.42440302       1.84146076
C       -0.61891836      -0.22925826      -2.88186415
C        1.55554962      -0.92456357       2.28891984
C        1.60560396      -2.38140556      -1.21527840
C       -0.20216390      -3.63589208      -0.56333870
C       -3.78053445       2.40246921       0.65231839
C        1.90186063       3.45439377      -2.03452495
C       -1.01497714      -1.13306130       2.78966421
C        0.52851127      -2.14274075      -2.09079857
C       -3.54946781       0.87357951      -1.08485302
C       -2.60094699       3.18196256       0.43988315
C       -1.25501745       1.53118594       1.65769409
C       -0.07879396       0.69798461       1.50315285
C       -2.27871879      -3.18994820       0.62410787
C       -1.84083680      -0.64511105      -2.24205127
C        2.57699674      -0.31022342       1.42377826
C        1.04343259      -3.34704042       1.95210536
C        1.24439591      -3.49366642      -0.44418172
C        2.24782320      -1.19267213      -0.81430361
C        0.88064509       2.52436871       0.40906348
C        2.80875915      -2.56208743       1.20006927
C        0.93819947       1.15915046       0.61396638
C        0.59969057       1.81206439      -2.92974641
C        3.11801433       2.07292351       0.29500031
C       -0.34799027      -3.36320082       1.86567405
C        2.66320205       2.23635972      -2.03732770
C       -1.73085472       2.97526504      -1.94879542
C       -0.65705109      -2.73228424      -1.60049104
C       -1.24498625      -2.54118650       2.59725192
C        3.68657467       2.02134832      -1.11407949
C       -0.21546040       3.35192329       0.42923867
C       -2.61107708       0.59897482      -2.08554273
C        0.13147993       4.18686036      -0.67246044
60
Properties=species:S:1:pos:R:3 trajectory=trial0001_proposal001_step007_proposal_relax trajectory_step=13 pbc="F F F"
C       -2.62249972      -2.16167574      -0.30623877
C        1.88059370      -3.56333712       0.81203629
C        0.17812010      -0.45860212       2.30126535
C       -0.46389815       3.70043111      -1.90158235
C       -2.75879826       3.15774979      -1.00631598
C        1.91330882      -2.29352785       2.34841883
C       -3.29529136      -1.15258092       0.44946872
C       -2.52782160      -2.70579006       1.95263850
C        2.06932383       3.15846540       0.23101657
C        0.63663234       3.16663391      -2.59313328
C       -1.38641651       2.79254984       0.97800772
C        2.31548630       0.91542055       0.78918645
C       -1.82298248      -1.90690134      -1.48379353
C        1.65520475       4.09968230      -0.79051541
C        4.59495423       2.07542729      -0.14275689
C       -2.30291604      -0.48511184       2.53054600
C        2.91831786      -1.30475026       0.48458487
C       -0.60438347       1.15294327      -3.09207846
C       -1.80348665       1.69866454      -2.57696974
C       -0.94903505      -3.69700864       0.62285863
C        1.77776164       1.19541559      -2.30598045
C        0.60568522      -0.82439583      -2.49560272
C       -3.83972045       2.23838267      -0.81024316
C       -3.61745336       0.18154356       0.13800957
C       -3.57538552       1.12603947       1.20786609
C       -2.45605862       0.87453237       2.09187969
C        1.71184540      -0.16138540      -1.83836386
C       -3.10078268      -1.42638339       1.83736016
C       -0.60490291      -0.23569532      -2.87155870
C        1.54063406      -0.92031784       2.28991194
C        1.62024204      -2.37665833      -1.20921414
C       -0.19040962      -3.63740421      -0.55492604
C       -3.79201272       2.39962734       0.63936944
C        1.90401294       3.45575719      -2.02326062
C       -1.02634410      -1.12703748       2.77930298
C        0.54326397      -2.14759167      -2.08744806
C       -3.54889087       0.86673781      -1.08899328
C       -2.61234256       3.17867331       0.42159112
C       -1.27031752       1.53564888       1.64850427
C       -0.09344820       0.69989470       1.49669116
C       -2.27578302      -3.19310013       0.62817496
C       -1.83171128      -0.65480310      -2.24139461
C        2.56562514      -0.30821877       1.42847894
C        1.04642467      -3.34708227       1.95267396
C        1.25458126      -3.49183795      -0.43779555
C        2.26299659      -1.19341212      -0.81316443
C        0.87079423       2.51003638       0.38186111
C        2.81689816      -2.55532367       1.21308173
C        0.93216133       1.15833457       0.60843113
C        0.60760007       1.81031170      -2.91182853
C        3.11293188       2.07378457       0.30272069
C       -0.34799470      -3.36691653       1.87286490
C        2.67632969       2.24261346      -2.02971101
C       -1.73663957       2.98319375      -1.96254786
C       -0.64133510      -2.73512540      -1.59594541
C       -1.24956597      -2.53831254       2.59725070
C        3.68734979       2.03144389      -1.10058131
C       -0.23160929       3.34483222       0.40466390
C       -2.60498864       0.58994530      -2.08111986
C        0.12675345       4.19586013      -0.67944895
60
Properties=species:S:1:pos:R:3 trajectory=trial0001_proposal001_step007_proposal_relax trajectory_step=14 pbc="F F F"
C       -2.61240072      -2.16514641      -0.30488196
C        1.89295259      -3.56058343       0.82051201
C        0.16110486      -0.45542114       2.29158491
C       -0.46680105       3.71275607      -1.91603709
C       -2.77196451       3.16021318      -1.02505375
C        1.90577621      -2.28471685       2.35467318
C       -3.29919287      -1.15770224       0.44273254
C       -2.53211602      -2.70649738       1.95312707
C        2.05408200       3.15474864       0.23452877
C        0.64332014       3.16419059      -2.58379390
C       -1.40166479       2.79201108       0.95757686
C        2.30651577       0.91650959       0.79713344
C       -1.80772912      -1.91427197      -1.47969776
C        1.65260391       4.10739739      -0.78223282
C        4.59391177       2.09706170      -0.12053901
C       -2.31674374      -0.48320094       2.52105306
C        2.92595426      -1.30016798       0.49591205
C       -0.59299196       1.14678125      -3.06080366
C       -1.79344952       1.69254525      -2.56206330
C       -0.94395331      -3.70262312       0.62910167
C        1.79660011       1.19692096      -2.30071941
C        0.62620025      -0.83177019      -2.49732244
C       -3.84579446       2.23160692      -0.82542130
C       -3.62563074       0.17519625       0.12968248
C       -3.59174521       1.12339560       1.19688663
C       -2.47337076       0.87706031       2.08151626
C        1.73647987      -0.16520470      -1.84230385
C       -3.11272649      -1.42908471       1.83217732
C       -0.58899226      -0.24011692      -2.86064821
C        1.52598471      -0.91548093       2.28979365
C        1.63674746      -2.37791584      -1.20252636
C       -0.17748639      -3.63909379      -0.54554999
C       -3.80434512       2.39617394       0.62274350
C        1.90830757       3.45808971      -2.01251880
C       -1.04008160      -1.12390306       2.76835989
C        0.56216479      -2.14881121      -2.08346232
C       -3.54878484       0.85919757      -1.09563919
C       -2.62677539       3.17673184       0.40217545
C       -1.28625492       1.53802194       1.63617522
C       -0.10790365       0.70309688       1.48665797
C       -2.27155808      -3.19575435       0.63129829
C       -1.81852522      -0.66457414      -2.23885635
C        2.55222884      -0.30504641       1.43113815
C        1.04993093      -3.34442812       1.95698325
C        1.26933002      -3.48590654      -0.42755724
C        2.28227001      -1.19112526      -0.80977104
C        0.85172094       2.50579875       0.35406107
C        2.82318152      -2.54604143       1.22802757
C        0.92123240       1.14697488       0.60345259
C        0.62052988       1.81028200      -2.88947684
C        3.10515944       2.07557962       0.31156492
C       -0.34623030      -3.36952209       1.87872942
C        2.68660194       2.24856156      -2.02309736
C       -1.74261399       2.99026052      -1.97654291
C       -0.62462145      -2.74013739      -1.58961006
C       -1.25302385      -2.53592024       2.59685021
C        3.69200135       2.04357663      -1.08339792
C       -0.24048051       3.33249191       0.37659793
C       -2.59624620       0.58043462      -2.07711739
C        0.11991312       4.20679046      -0.68796141
60
Properties=species:S:1:pos:R:3 trajectory=trial0001_proposal001_step007_proposal_relax trajectory_step=15 pbc="F F F"
C       -2.60683803      -2.16827133      -0.30543517
C        1.90258160      -3.56198544       0.83034854
C        0.14525724      -0.45311417       2.28282263
C       -0.46909861       3.72247487      -1.92892529
C       -2.78343205       3.16217654      -1.04142462
C        1.89997973      -2.27114890       2.36308521
C       -3.30292243      -1.16256031       0.43582433
C       -2.53466289      -2.70836651       1.95086222
C        2.03833172       3.15304485       0.23194925
C        0.64894674       3.16383009      -2.57529078
C       -1.41440714       2.79119831       0.93496660
C        2.30067213       0.92233090       0.80449210
C       -1.79424284      -1.91940857      -1.47549565
C        1.64817275       4.11948487      -0.77803247
C        4.58792499       2.11442794      -0.09054403
C       -2.32800789      -0.48297130       2.51418863
C        2.93045239      -1.29940449       0.50351466
C       -0.57892302       1.14249670      -3.03967786
C       -1.78262870       1.68773919      -2.55158490
C       -0.93692109      -3.70583354       0.63325403
C        1.81382670       1.19994596      -2.29122578
C        0.64533524      -0.84021503      -2.49167266
C       -3.85226021       2.22392548      -0.84194075
C       -3.63304127       0.16982258       0.12101488
C       -3.60756046       1.12049523       1.18616442
C       -2.48922861       0.87776234       2.07147810
C        1.75782645      -0.17045428      -1.84430549
C       -3.12102109      -1.43305490       1.82694586
C       -0.57357094      -0.24437009      -2.85055056
C        1.51454664      -0.90887019       2.28768895
C        1.65507169      -2.38128020      -1.19747801
C       -0.16427753      -3.64007975      -0.53799968
C       -3.81550597       2.39182357       0.60560475
C        1.91335807       3.46317037      -2.00551016
C       -1.05209328      -1.12465943       2.75967791
C        0.57950932      -2.15168959      -2.07680515
C       -3.54892684       0.85248396      -1.10550744
C       -2.64199133       3.17792947       0.38627536
C       -1.30097540       1.53777816       1.62060022
C       -0.12187230       0.70436377       1.47684390
C       -2.26624311      -3.19694400       0.63159822
C       -1.80336891      -0.67113460      -2.23321399
C        2.54042401      -0.30401356       1.43434035
C        1.05212731      -3.33912209       1.96583017
C        1.28329460      -3.47951855      -0.41305462
C        2.30190617      -1.18924537      -0.80520201
C        0.83782711       2.49314562       0.33584201
C        2.82308464      -2.53794090       1.24321515
C        0.90888892       1.14011465       0.59502638
C        0.63029171       1.80662576      -2.86843353
C        3.09170705       2.07883518       0.32186009
C       -0.34130795      -3.36857195       1.88208828
C        2.69596142       2.25449985      -2.01498714
C       -1.74592693       2.99364080      -1.98667140
C       -0.60931250      -2.74550387      -1.58324319
C       -1.25545141      -2.53551502       2.59562590
C        3.69624109       2.05565816      -1.07101449
C       -0.25403284       3.32358375       0.35284716
C       -2.58548770       0.57277515      -2.07499003
C        0.11260158       4.21795253      -0.69745547
60
Properties=species:S:1:pos:R:3 trajectory=trial0001_proposal001_step007_proposal_relax trajectory_step=16 pbc="F F F"
C       -2.60433082      -2.17181351      -0.30841767
C        1.91024604      -3.56521707       0.84598891
C        0.13140218      -0.45153151       2.27742194
C       -0.47104465       3.72923319      -1.93985863
C       -2.79514528       3.16169119      -1.05852196
C        1.89487954      -2.25728974       2.37239813
C       -3.30731375      -1.16779124       0.42901116
C       -2.53548031      -2.71232412       1.94669998
C        2.01697244       3.15071720       0.22487467
C        0.65467777       3.16312151      -2.56883213
C       -1.42887197       2.78680301       0.91057782
C        2.29466428       0.92891511       0.81224699
C       -1.78105427      -1.92331554      -1.47040697
C        1.64191761       4.13386721      -0.77780949
C        4.57380599       2.13168394      -0.05661366
C       -2.34020629      -0.48394057       2.50872310
C        2.93321274      -1.30042088       0.51019006
C       -0.56272039       1.13789341      -3.02633112
C       -1.76983394       1.68304132      -2.54532806
C       -0.92869278      -3.70602886       0.63588076
C        1.82920544       1.20006768      -2.27984137
C        0.66376169      -0.84679892      -2.48160300
C       -3.85978117       2.21554328      -0.86253732
C       -3.64152608       0.16363154       0.10964974
C       -3.62392408       1.11731471       1.17419113
C       -2.50328769       0.87702411       2.06081979
C        1.77997844      -0.17470865      -1.84522446
C       -3.12732949      -1.43824561       1.82127960
C       -0.55459639      -0.25011907      -2.84038414
C        1.50173619      -0.89889762       2.28366327
C        1.67859043      -2.38359167      -1.19266300
C       -0.14893941      -3.63966565      -0.53036365
C       -3.82756765       2.38538700       0.58503807
C        1.91777832       3.47272027      -2.00174507
C       -1.06245417      -1.12638542       2.75388009
C        0.59684904      -2.15841056      -2.06728111
C       -3.55014858       0.84331692      -1.11935172
C       -2.65969368       3.18074715       0.37048535
C       -1.31750812       1.53653120       1.60242201
C       -0.13745124       0.70451472       1.47124400
C       -2.25944763      -3.19793439       0.62942933
C       -1.78587252      -0.67483943      -2.22416354
C        2.53084491      -0.30111389       1.43649705
C        1.05483405      -3.33183134       1.97906295
C        1.29520708      -3.47356429      -0.39539469
C        2.32176905      -1.18987934      -0.80149129
C        0.82434595       2.49003753       0.32421861
C        2.81732498      -2.53235862       1.25854744
C        0.89961014       1.12953350       0.58663933
C        0.64120271       1.80456855      -2.84722054
C        3.07674323       2.08579863       0.33172167
C       -0.33580582      -3.36347860       1.88499196
C        2.70900702       2.26339047      -2.00431498
C       -1.74653778       2.99292276      -1.99441718
C       -0.59451407      -2.74921836      -1.57658953
C       -1.25940775      -2.53707133       2.59382972
C        3.70414709       2.06981495      -1.05652404
C       -0.26534505       3.31544546       0.33134860
C       -2.57183497       0.56630892      -2.07501062
C        0.10356138       4.22648785      -0.70652817
60
Properties=species:S:1:pos:R:3 trajectory=trial0001_proposal001_step007_proposal_relax trajectory_step=17 pbc="F F F"
C       -2.60148610      -2.17805517      -0.31344164
C        1.91484661      -3.56933053       0.86951722
C        0.11613552      -0.44780278       2.27849523
C       -0.47319476       3.73166728      -1.94990105
C       -2.80857521       3.15674138      -1.08187921
C        1.88797560      -2.24340000       2.38349455
C       -3.31362964      -1.17524307       0.42118217
C       -2.53708631      -2.71838345       1.94049021
C        1.99767498       3.15342643       0.21359141
C        0.66162843       3.16317729      -2.56408244
C       -1.44912130       2.77756512       0.88141022
C        2.28309663       0.93392790       0.81766570
C       -1.76586493      -1.92611527      -1.46452905
C        1.63156882       4.14790747      -0.77841815
C        4.55731928       2.15584417      -0.01481250
C       -2.35432353      -0.48583041       2.50324425
C        2.93577841      -1.29912548       0.52281973
C       -0.54352327       1.12982891      -3.01708297
C       -1.75193863       1.67547625      -2.54415249
C       -0.91773945      -3.70197206       0.63915363
C        1.85093200       1.20550174      -2.26734265
C        0.68599141      -0.85441973      -2.46913143
C       -3.86914290       2.20362846      -0.89091442
C       -3.65371326       0.15377921       0.09422191
C       -3.64133661       1.11199968       1.15729811
C       -2.52072387       0.87459059       2.04671076
C        1.80596491      -0.17848845      -1.84373385
C       -3.13417408      -1.44563834       1.81350820
C       -0.53063165      -0.25498237      -2.82826714
C        1.48759136      -0.89115024       2.27918855
C        1.70176810      -2.39316919      -1.18350894
C       -0.13100752      -3.63619372      -0.51949254
C       -3.84387445       2.37624763       0.55643620
C        1.92349960       3.48413400      -2.00157745
C       -1.07503703      -1.12594607       2.75259994
C        0.62004264      -2.16240620      -2.05872916
C       -3.55289916       0.83005380      -1.13919011
C       -2.68117509       3.18098223       0.34945852
C       -1.33798933       1.53396007       1.58264440
C       -0.15043480       0.70647022       1.46836346
C       -2.25137837      -3.20089942       0.62435619
C       -1.76315233      -0.67773023      -2.21282077
C        2.52520792      -0.29398812       1.43797439
C        1.05454247      -3.32610014       1.99863217
C        1.31032591      -3.46697629      -0.37708315
C        2.34677049      -1.19176050      -0.79953758
C        0.80665226       2.48073333       0.31884557
C        2.81289164      -2.52492456       1.27398314
C        0.88868414       1.12779293       0.58256959
C        0.65872273       1.80415666      -2.82506418
C        3.05928511       2.09943615       0.34532263
C       -0.33461928      -3.35514638       1.88935869
C        2.72393622       2.27533130      -1.99363639
C       -1.74437818       2.98779795      -2.00237437
C       -0.57653749      -2.75017541      -1.56757851
C       -1.26586139      -2.53689845       2.59417084
C        3.71292704       2.08953083      -1.04122598
C       -0.28406620       3.31125063       0.31293289
C       -2.55500071       0.55931455      -2.07650905
C        0.09246479       4.23028623      -0.71541890
60
Properties=species:S:1:pos:R:3 trajectory=trial0001_proposal001_step007_proposal_relax trajectory_step=18 pbc="F F F"
C       -2.59753262      -2.18728474      -0.31986676
C        1.92003234      -3.57162910       0.90196528
C        0.09843288      -0.43844503       2.28618548
C       -0.47504845       3.72901943      -1.96088127
C       -2.82571844       3.14546158      -1.11722993
C        1.87766175      -2.22978163       2.39565528
C       -3.32315151      -1.18894239       0.40886390
C       -2.54140795      -2.72589458       1.93188439
C        1.96863949       3.15616902       0.20296286
C        0.67102711       3.16510990      -2.56080064
C       -1.48027230       2.76351973       0.84391916
C        2.26861269       0.94416889       0.81781035
C       -1.74376975      -1.92861300      -1.45706096
C        1.61627725       4.15977444      -0.78042488
C        4.53434876       2.19543663       0.03401330
C       -2.37435710      -0.48839574       2.49535279
C        2.94054482      -1.29427893       0.53727021
C       -0.50836308       1.12330462      -3.00757446
C       -1.72885836       1.66350581      -2.54582544
C       -0.90412732      -3.69306425       0.64537859
C        1.88317056       1.21386476      -2.25411223
C        0.72018543      -0.85515832      -2.45769199
C       -3.88274680       2.18327855      -0.93322400
C       -3.67219686       0.13813707       0.07198324
C       -3.66417138       1.10277553       1.12816940
C       -2.54626498       0.86953792       2.02631492
C        1.84221920      -0.18046522      -1.84033230
C       -3.14398825      -1.45586527       1.80281925
C       -0.49851540      -0.26337430      -2.81132207
C        1.47120692      -0.88430064       2.27546048
C        1.73145201      -2.39964284      -1.17221251
C       -0.10771115      -3.62686820      -0.50542555
C       -3.86814347       2.36158369       0.51446853
C        1.93146451       3.50045274      -2.00189463
C       -1.09472864      -1.12163499       2.75713201
C        0.64989377      -2.17280905      -2.04689309
C       -3.55774499       0.81036833      -1.16845862
C       -2.71131034       3.17478288       0.31541510
C       -1.36353920       1.52880156       1.56071131
C       -0.16718513       0.71157490       1.47201064
C       -2.24272410      -3.20682597       0.61794769
C       -1.73143958      -0.68130439      -2.19948783
C        2.51798035      -0.28464910       1.44500087
C        1.04987570      -3.32254200       2.02668004
C        1.32856169      -3.46473398      -0.34909893
C        2.38234125      -1.19814364      -0.79677972
C        0.78708727       2.48264089       0.31379223
C        2.80896225      -2.51637440       1.29632856
C        0.87169951       1.13064821       0.59015806
C        0.68010961       1.79969655      -2.80284389
C        3.03857786       2.11925880       0.36372655
C       -0.33704580      -3.34351956       1.89859092
C        2.74452335       2.29473543      -1.98409225
C       -1.73989155       2.97552334      -2.01606049
C       -0.54890831      -2.74660112      -1.55537888
C       -1.27729022      -2.53346515       2.59781671
C        3.72923891       2.12022928      -1.01452475
C       -0.30998625       3.30497326       0.29739755
C       -2.53254212       0.54802628      -2.07994172
C        0.07716248       4.22853580      -0.72554108
60
Properties=species:S:1:pos:R:3 trajectory=trial0001_proposal001_step007_proposal_relax trajectory_step=19 pbc="F F F"
C       -2.58805836      -2.19907790      -0.33030700
C        1.92629563      -3.56671695       0.94278517
C        0.08282888      -0.42674357       2.29740589
C       -0.47547407       3.72184781      -1.97268781
C       -2.84187360       3.12905203      -1.16115362
C        1.86599192      -2.22271443       2.40902573
C       -3.33301265      -1.20617841       0.39154213
C       -2.54666882      -2.73299234       1.92292420
C        1.93955274       3.16409479       0.20003742
C        0.68303707       3.16294512      -2.56314440
C       -1.51592098       2.74373097       0.80828147
C        2.24817523       0.95213960       0.81308037
C       -1.71518266      -1.93212683      -1.45098252
C        1.59715796       4.16675049      -0.78270910
C        4.51197956       2.24191001       0.08705380
C       -2.39992164      -0.49102603       2.48244101
C        2.94939248      -1.28510615       0.55765636
C       -0.47643368       1.11152583      -2.99842098
C       -1.70183267       1.64803672      -2.55357625
C       -0.89076612      -3.68092608       0.65245064
C        1.91576858       1.21888930      -2.23832401
C        0.76122079      -0.85993247      -2.44373242
C       -3.89459379       2.16006415      -0.98121674
C       -3.69240561       0.11726062       0.04318548
C       -3.68868977       1.08973905       1.09008938
C       -2.57401395       0.86146123       2.00048533
C        1.88225453      -0.17561298      -1.82723204
C       -3.15498978      -1.46692087       1.78715566
C       -0.45985009      -0.26690957      -2.79285903
C        1.45259442      -0.87544480       2.27716274
C        1.76451137      -2.40672636      -1.15298707
C       -0.08294292      -3.61686061      -0.48625120
C       -3.89832303       2.34313680       0.46608404
C        1.93748959       3.51828843      -2.00275915
C       -1.11565404      -1.10994031       2.76566204
C        0.68686399      -2.17328359      -2.03909263
C       -3.55954371       0.78617949      -1.20048613
C       -2.74564986       3.16217676       0.27211433
C       -1.39385535       1.52036063       1.53603771
C       -0.18935112       0.71588685       1.47593530
C       -2.23423499      -3.21620832       0.61197779
C       -1.69672467      -0.68594364      -2.18820499
C        2.50790175      -0.26783524       1.45480750
C        1.04362093      -3.32120138       2.05889263
C        1.34945094      -3.46871710      -0.32333461
C        2.41932376      -1.20865545      -0.78788242
C        0.75699375       2.48871833       0.30357988
C        2.80989312      -2.50740618       1.32560744
C        0.85336177       1.14455420       0.59669833
C        0.71278508       1.80179152      -2.78356544
C        3.01318604       2.14385765       0.38586398
C       -0.34217930      -3.33196968       1.91500943
C        2.77309750       2.31910017      -1.96854052
C       -1.73449607       2.95873890      -2.03527338
C       -0.51706782      -2.74071495      -1.54098272
C       -1.29445201      -2.52694153       2.60339209
C        3.74069141       2.15820079      -0.98457716
C       -0.34080055       3.30273006       0.28486261
C       -2.50719330       0.53504018      -2.08600846
C        0.05734474       4.22291353      -0.73479074
60
Properties=species:S:1:pos:R:3 trajectory=trial0001_proposal001_step007_proposal_relax trajectory_step=20 pbc="F F F"
C       -2.57849601      -2.20895402      -0.33962371
C        1.92958098      -3.56158500       0.96897424
C        0.07044183      -0.41806466       2.30929223
C       -0.47481468       3.70825681      -1.98349633
C       -2.85133546       3.11048258      -1.19878198
C        1.85627397      -2.21378704       2.42232986
C       -3.33982820      -1.22111707       0.37357604
C       -2.55204680      -2.73512937       1.91777818
C        1.91905183       3.17557873       0.20734644
C        0.69437215       3.16268248      -2.56858068
C       -1.54450087       2.73102183       0.78710007
C        2.23012437       0.95808889       0.81099109
C       -1.69097893      -1.93427564      -1.44724099
C        1.58054330       4.16647923      -0.78150215
C        4.49364844       2.28116696       0.12202521
C       -2.42014059      -0.49230268       2.46960789
C        2.95831516      -1.27821574       0.58270361
C       -0.44837428       1.10799456      -2.99322838
C       -1.68519428       1.63330007      -2.56327928
C       -0.88377808      -3.67074302       0.66388924
C        1.94270391       1.22775411      -2.22486789
C        0.79345966      -0.85299488      -2.43691097
C       -3.90167590       2.13985422      -1.01971628
C       -3.70473791       0.09745970       0.01521193
C       -3.70597368       1.07506357       1.05731838
C       -2.59972643       0.85340517       1.97617072
C        1.91180278      -0.17235986      -1.81002798
C       -3.16525339      -1.47386997       1.77056797
C       -0.42629534      -0.27109542      -2.77972224
C        1.44233246      -0.86803672       2.28567182
C        1.78663970      -2.41401818      -1.13604507
C       -0.06667049      -3.60866740      -0.47082062
C       -3.92398583       2.32628171       0.42682041
C        1.94205705       3.52890549      -2.00239986
C       -1.13254937      -1.09978661       2.77531209
C        0.71850403      -2.17583897      -2.02816804
C       -3.55540579       0.76522152      -1.22752900
C       -2.76738818       3.14351962       0.23633052
C       -1.42081652       1.51217859       1.52124105
C       -0.20270980       0.72138699       1.47848258
C       -2.23106759      -3.22260807       0.60907355
C       -1.66955461      -0.69061984      -2.18552743
C        2.49640329      -0.25677030       1.45825943
C        1.03931459      -3.32230267       2.08227488
C        1.36784448      -3.47022758      -0.30665753
C        2.44492687      -1.21220078      -0.77239846
C        0.73544690       2.49752847       0.30047489
C        2.81560810      -2.49684822       1.34980279
C        0.83782627       1.15695908       0.60760321
C        0.73614582       1.79781492      -2.78188260
C        2.99640057       2.16175713       0.39867027
C       -0.34953254      -3.32581265       1.93055093
C        2.78974535       2.33755664      -1.96021936
C       -1.72977002       2.94453081      -2.05496185
C       -0.48970557      -2.73447341      -1.53141726
C       -1.30752212      -2.51862218       2.60964502
C        3.74911713       2.19341200      -0.95645055
C       -0.36898700       3.30698376       0.28037676
C       -2.48955004       0.52234422      -2.09321252
C        0.04034414       4.21664630      -0.74259862
60
Properties=species:S:1:pos:R:3 trajectory=trial0001_proposal001_step007_proposal_relax trajectory_step=21 pbc="F F F"
C       -2.56553119      -2.22096402      -0.35155614
C        1.93696017      -3.55141878       0.99835069
C        0.05494242      -0.40604698       2.31981620
C       -0.47220231       3.68978228      -1.99892508
C       -2.85880759       3.08718049      -1.24001813
C        1.84560435      -2.20190226       2.44158278
C       -3.34528541      -1.23987251       0.34732991
C       -2.55975719      -2.73425246       1.91166562
C        1.89329782       3.19039772       0.22396331
C        0.70792140       3.15962793      -2.57874148
C       -1.57695628       2.72070565       0.76786102
C        2.20754478       0.96853879       0.81078248
C       -1.66089547      -1.93655238      -1.44574273
C        1.55938609       4.16516053      -0.77885120
C        4.47541636       2.32656635       0.16723079
C       -2.44319337      -0.49542594       2.45170309
C        2.96991090      -1.26856935       0.61503142
C       -0.41760746       1.10065832      -2.98928219
C       -1.66759275       1.61646368      -2.57810933
C       -0.87566070      -3.66112501       0.67775455
C        1.97159241       1.23805503      -2.20629310
C        0.83594933      -0.84922158      -2.42330277
C       -3.90679051       2.11239282      -1.06518242
C       -3.71432769       0.07416796      -0.02091630
C       -3.72921416       1.05455541       1.01404837
C       -2.63258655       0.84211761       1.94548646
C        1.94412281      -0.16624428      -1.78248087
C       -3.17716311      -1.47980575       1.74855993
C       -0.39137322      -0.27117199      -2.76730488
C        1.43077507      -0.85595804       2.30175046
C        1.81675888      -2.41454143      -1.11561003
C       -0.04908148      -3.60032569      -0.45217542
C       -3.95187648       2.30479443       0.38132372
C        1.94639661       3.53904745      -1.99813118
C       -1.15419418      -1.08870854       2.78422212
C        0.75498888      -2.17431353      -2.01395726
C       -3.54726041       0.74237351      -1.25851845
C       -2.79195406       3.11626596       0.19276429
C       -1.44958452       1.50271494       1.50313425
C       -0.22029733       0.72489193       1.47918331
C       -2.22736194      -3.22866152       0.60805188
C       -1.63527530      -0.69885417      -2.18786816
C        2.47858068      -0.24597559       1.46340567
C        1.03745819      -3.31882259       2.10637573
C        1.38644471      -3.47501692      -0.28488917
C        2.46978218      -1.21580565      -0.74629987
C        0.71036844       2.51088913       0.30067474
C        2.82095171      -2.48660807       1.38361253
C        0.81701521       1.17231803       0.61850196
C        0.76540718       1.79463757      -2.78697608
C        2.97403932       2.18056210       0.41293017
C       -0.35658426      -3.32082887       1.95062403
C        2.80484524       2.35824809      -1.94815464
C       -1.72512183       2.92700850      -2.08304830
C       -0.45543851      -2.72977111      -1.51943201
C       -1.32047023      -2.50862809       2.61774161
C        3.75120471       2.23694517      -0.92942949
C       -0.40003438       3.31253595       0.27666859
C       -2.46650164       0.50445506      -2.10740734
C        0.01892481       4.21162288      -0.75532136
60
Properties=species:S:1:pos:R:3 trajectory=trial0001_proposal001_step007_proposal_relax trajectory_step=22 pbc="F F F"
C       -2.53612632      -2.24382883      -0.37714595
C        1.95492693      -3.53164083       1.04807809
C        0.01895799      -0.38596580       2.33223368
C       -0.46728223       3.66055097      -2.03588831
C       -2.86963589       3.04313495      -1.31682047
C        1.82713234      -2.17207716       2.48932238
C       -3.35135631      -1.27367241       0.29283396
C       -2.57080881      -2.73229927       1.90131275
C        1.84595654       3.22003094       0.25786897
C        0.73452391       3.15408791      -2.59691123
C       -1.63040058       2.71091367       0.73315030
C        2.16881361       0.98988249       0.82052024
C       -1.59984035      -1.94868500      -1.44557803
C        1.51858534       4.16765168      -0.77215259
C        4.43148908       2.40956364       0.24597909
C       -2.49059648      -0.49960154       2.41174860
C        2.99042605      -1.25511672       0.67335178
C       -0.36292764       1.09039552      -2.98350521
C       -1.62969098       1.58131569      -2.61169972
C       -0.86107138      -3.65201320       0.70270281
C        2.01772400       1.24786558      -2.17006977
C        0.90791557      -0.84507753      -2.39047601
C       -3.91499642       2.06072842      -1.15288742
C       -3.72564093       0.02901009      -0.09462454
C       -3.78076762       1.01357574       0.93263951
C       -2.69245333       0.82334647       1.88348710
C        2.00393214      -0.15041657      -1.72659713
C       -3.20178513      -1.49142899       1.70364867
C       -0.31016906      -0.28471031      -2.74568499
C        1.40269665      -0.82541353       2.33417219
C        1.87460582      -2.41982651      -1.06817254
C       -0.01099942      -3.58898550      -0.41385478
C       -4.00251337       2.25901294       0.29198290
C        1.94625349       3.55749734      -1.98156601
C       -1.19564032      -1.07073516       2.78724664
C        0.82734831      -2.16787887      -1.98258360
C       -3.52140225       0.69369428      -1.32752059
C       -2.83707033       3.06420572       0.11394798
C       -1.50650531       1.48822336       1.46677144
C       -0.26767040       0.72927531       1.47674157
C       -2.21269422      -3.23652618       0.60930618
C       -1.57100150      -0.72018873      -2.19726832
C        2.43278497      -0.22145381       1.48675929
C        1.03168177      -3.29816419       2.14762626
C        1.42745270      -3.47322638      -0.24104066
C        2.51861808      -1.21066337      -0.68319091
C        0.65717263       2.52893997       0.31269469
C        2.83003879      -2.46206445       1.45855434
C        0.77493799       1.19890190       0.62914746
C        0.82101430       1.78599863      -2.79785223
C        2.92965008       2.21369317       0.44017737
C       -0.35521755      -3.31324135       1.98818240
C        2.83098060       2.39935258      -1.91470646
C       -1.72019820       2.89893964      -2.14034271
C       -0.39210772      -2.72581729      -1.49417487
C       -1.34605704      -2.49472822       2.63018938
C        3.75406873       2.31976883      -0.86262091
C       -0.45822214       3.32238075       0.26019205
C       -2.42351293       0.46716399      -2.14199500
C       -0.02271643       4.20663348      -0.78743171
60
Properties=species:S:1:pos:R:3 trajectory=trial0001_proposal001_step007_proposal_relax trajectory_step=23 pbc="F F F"
C       -2.51700102      -2.26067538      -0.39532755
C        1.96583477      -3.51896242       1.09112399
C       -0.01052257      -0.37458516       2.34040357
C       -0.46618078       3.64211592      -2.06236082
C       -2.87568729       3.01114985      -1.36654412
C        1.81542116      -2.14491861       2.52807106
C       -3.35180433      -1.29693977       0.25560143
C       -2.57512956      -2.73387453       1.89104816
C        1.80803393       3.23961442       0.27489589
C        0.75083545       3.14952621      -2.61045206
C       -1.66831742       2.70617987       0.70883465
C        2.14234460       1.00602283       0.83385887
C       -1.56178914      -1.95841184      -1.44674263
C        1.48767207       4.17454629      -0.76716883
C        4.40344009       2.46360742       0.31364835
C       -2.52155193      -0.50262001       2.38426989
C        2.99633990      -1.24110785       0.72450281
C       -0.32078987       1.07328024      -2.99052757
C       -1.60264377       1.56000842      -2.64084943
C       -0.84394541      -3.64918598       0.72027294
C        2.04911809       1.25984297      -2.14336615
C        0.96108495      -0.84368349      -2.35685659
C       -3.91880011       2.02290161      -1.21818973
C       -3.72986961      -0.00119432      -0.15048741
C       -3.81589344       0.98392081       0.87934314
C       -2.73324000       0.81158180       1.83911028
C        2.03990637      -0.14300485      -1.68741905
C       -3.21706436      -1.50223315       1.67163833
C       -0.26253680      -0.28857394      -2.73646914
C        1.38012822      -0.80313497       2.35435520
C        1.91616980      -2.41867571      -1.03614924
C        0.01746574      -3.58187697      -0.38918894
C       -4.03430616       2.22438709       0.22638352
C        1.94504245       3.56906813      -1.96974443
C       -1.22466020      -1.06427018       2.78350586
C        0.87570121      -2.17113345      -1.95225534
C       -3.50581940       0.65956592      -1.37804196
C       -2.86539259       3.03226338       0.06580904
C       -1.54696521       1.48163369       1.44096591
C       -0.29870089       0.73394506       1.47239898
C       -2.19796706      -3.23836092       0.60668525
C       -1.52321284      -0.73667593      -2.20489292
C        2.40701923      -0.20613891       1.50414334
C        1.03458539      -3.27493919       2.17503962
C        1.45497866      -3.46691415      -0.20691091
C        2.54935286      -1.20573756      -0.64289023
C        0.62719537       2.55119295       0.33459089
C        2.83047285      -2.44347305       1.50946701
C        0.74522598       1.20753664       0.63927698
C        0.85611889       1.78071642      -2.80520999
C        2.89351435       2.23854074       0.46408403
C       -0.35971624      -3.30388968       2.00842022
C        2.84486512       2.42436433      -1.88443733
C       -1.71389859       2.87635326      -2.17931096
C       -0.34757742      -2.72565701      -1.47597609
C       -1.36012508      -2.48935868       2.63670797
C        3.74526192       2.37406988      -0.83248298
C       -0.49404277       3.33198644       0.24576622
C       -2.38684741       0.43971343      -2.17588860
C       -0.05051990       4.20085937      -0.80987431
60
Properties=species:S:1:pos:R:3 trajectory=trial0001_proposal001_step007_proposal_relax trajectory_step=24 pbc="F F F"
C       -2.50017447      -2.27312074      -0.40847606
C        1.97545009      -3.50522753       1.12081585
C       -0.03621942      -0.36836746       2.34070317
C       -0.46621924       3.63231553      -2.08420799
C       -2.87352126       2.98670357      -1.39392358
C        1.80958772      -2.11948900       2.56417496
C       -3.34461392      -1.31264050       0.22635074
C       -2.57568395      -2.73551203       1.88144224
C        1.78471575       3.25460860       0.28856692
C        0.75866980       3.14481827      -2.62142466
C       -1.68856882       2.71199883       0.69816559
C        2.12471971       1.01942261       0.85289098
C       -1.53790811      -1.96992019      -1.45302133
C        1.46456343       4.18213747      -0.76284581
C        4.37816013       2.49409175       0.35043104
C       -2.54128314      -0.50565785       2.36095535
C        2.99197374      -1.22597417       0.76611451
C       -0.29466147       1.05764054      -3.00833467
C       -1.58225581       1.54451160      -2.67205656
C       -0.82891888      -3.65519006       0.73065279
C        2.06346023       1.26853424      -2.12573152
C        0.99326273      -0.84827850      -2.32289825
C       -3.91555163       1.99309210      -1.26569375
C       -3.72317768      -0.02201239      -0.19298672
C       -3.84119251       0.96038182       0.84143448
C       -2.76017650       0.80461460       1.80686381
C        2.05582635      -0.13635122      -1.65610604
C       -3.22584714      -1.51089356       1.64795714
C       -0.23235537      -0.29469226      -2.73764952
C        1.35960641      -0.78492446       2.37143830
C        1.94611408      -2.40953075      -1.00872028
C        0.03936740      -3.58101924      -0.37227139
C       -4.04797066       2.19677367       0.17893123
C        1.93778120       3.57284376      -1.95563752
C       -1.24655780      -1.06504465       2.76892095
C        0.90580385      -2.17048301      -1.92643943
C       -3.48921398       0.63538823      -1.41965752
C       -2.88118006       3.00998212       0.03750384
C       -1.57182587       1.48389314       1.42549526
C       -0.32463285       0.73638093       1.46835544
C       -2.18016999      -3.23641663       0.60457616
C       -1.49068412      -0.75349269      -2.21886611
C        2.38867697      -0.19478985       1.52626686
C        1.03633950      -3.24604958       2.18858910
C        1.47373784      -3.45768479      -0.17730688
C        2.56483377      -1.19559965      -0.60797240
C        0.60871450       2.56814963       0.37002028
C        2.82761964      -2.42725032       1.55013186
C        0.72514372       1.21453280       0.64601431
C        0.87856400       1.77776662      -2.81574032
C        2.86972111       2.25507786       0.48376478
C       -0.35762999      -3.29698798       2.01889653
C        2.84086360       2.43755765      -1.85837929
C       -1.70908670       2.85982415      -2.20922580
C       -0.31864040      -2.73137752      -1.46165327
C       -1.36729747      -2.48928568       2.63900469
C        3.73357215       2.40722815      -0.80263711
C       -0.51462106       3.34036961       0.23512239
C       -2.36030638       0.41714692      -2.21266656
C       -0.06809222       4.19576505      -0.82981263
60
Properties=species:S:1:pos:R:3 trajectory=trial0001_proposal001_step007_proposal_relax trajectory_step=25 pbc="F F F"
C       -2.45434938      -2.30614808      -0.43938108
C        2.00188321      -3.46727032       1.20995700
C       -0.10123015      -0.34941241       2.34080037
C       -0.46981543       3.61219560      -2.13808418
C       -2.87717592       2.92628523      -1.47887231
C        1.78570277      -2.06295635       2.64725972
C       -3.33298563      -1.35452580       0.15890467
C       -2.58033363      -2.74848853       1.85328148
C        1.72334427       3.28963278       0.31720169
C        0.77775795       3.13779401      -2.63901539
C       -1.75304408       2.71534423       0.65228719
C        2.07417510       1.05266445       0.89592301
C       -1.47085305      -2.00105872      -1.46635513
C        1.40972331       4.20276479      -0.75384797
C        4.32268114       2.58268974       0.46023496
C       -2.59753104      -0.51549562       2.30175985
C        2.98532639      -1.18633960       0.85870666
C       -0.21647108       1.02794086      -3.04260007
C       -1.52476536       1.49867161      -2.74307094
C       -0.78980052      -3.66310433       0.75381239
C        2.10959557       1.28527390      -2.08325154
C        1.06726957      -0.85024257      -2.25691220
C       -3.91204470       1.91908922      -1.39181714
C       -3.71824798      -0.07818092      -0.29305492
C       -3.90233399       0.90588126       0.73523897
C       -2.83237424       0.78722798       1.72872813
C        2.11299206      -0.11885618      -1.58934778
C       -3.25125156      -1.53672941       1.58972940
C       -0.13933172      -0.32717063      -2.72731487
C        1.30016916      -0.74336174       2.40929234
C        2.02398543      -2.39667720      -0.93434390
C        0.10545647      -3.57899706      -0.32529564
C       -4.08836529       2.13017677       0.05103909
C        1.92409639       3.58882103      -1.92713522
C       -1.30593641      -1.05921111       2.73830010
C        0.98841975      -2.17564971      -1.86496959
C       -3.45327500       0.56905782      -1.52733141
C       -2.93521861       2.96282899      -0.04938065
C       -1.64163329       1.48938170       1.38371863
C       -0.38988664       0.74714916       1.46329620
C       -2.13401681      -3.24381290       0.59340573
C       -1.40904880      -0.79347303      -2.24649516
C        2.34306345      -0.15046897       1.58580453
C        1.02952503      -3.18622669       2.23929946
C        1.52995022      -3.43576158      -0.10104757
C        2.62170372      -1.17456388      -0.53021779
C        0.55098864       2.60515805       0.43389038
C        2.82657073      -2.37991255       1.65429516
C        0.67775509       1.24488449       0.67326377
C        0.93641824       1.76668766      -2.82171126
C        2.80699853       2.30400568       0.54684389
C       -0.35068575      -3.27547115       2.04830125
C        2.84590658       2.47652607      -1.79399106
C       -1.69554228       2.81726701      -2.28048399
C       -0.24100355      -2.74299119      -1.42569477
C       -1.39449928      -2.48517987       2.64361586
C        3.70914352       2.48724364      -0.72870429
C       -0.57479582       3.35091045       0.20600146
C       -2.29844690       0.36239111      -2.29281561
C       -0.11369708       4.18207991      -0.87344003
60
Properties=species:S:1:pos:R:3 trajectory=trial0001_proposal001_step007_proposal_relax trajectory_step=26 pbc="F F F"
C       -2.38645089      -2.34921594      -0.48097162
C        2.03200142      -3.40654138       1.33026199
C       -0.18546753      -0.32655218       2.33958793
C       -0.47547071       3.58225658      -2.20166672
C       -2.87422850       2.84150466      -1.59797209
C        1.74757828      -1.98975235       2.75488577
C       -3.31074760      -1.41294418       0.07139468
C       -2.58506289      -2.77038734       1.81216820
C        1.64694380       3.34210590       0.36211352
C        0.80196431       3.12596743      -2.66074490
C       -1.84003926       2.72019939       0.59498221
C        2.00919785       1.10425348       0.95748048
C       -1.38406816      -2.04629351      -1.48909238
C        1.34188125       4.22081908      -0.74253362
C        4.24399925       2.69182711       0.57839924
C       -2.67138643      -0.52833773       2.21989283
C        2.97215881      -1.12178413       0.98359265
C       -0.12160885       0.97265137      -3.09512285
C       -1.45100183       1.43729002      -2.84515529
C       -0.73361229      -3.67291283       0.78582513
C        2.16186400       1.30333563      -2.03159702
C        1.16630980      -0.85841914      -2.17236435
C       -3.89887117       1.82164273      -1.55584201
C       -3.70401104      -0.15333271      -0.42833121
C       -3.96550568       0.83374079       0.59098655
C       -2.92405775       0.76374972       1.62756567
C        2.17932190      -0.09254514      -1.50486694
C       -3.28251159      -1.57754930       1.50838375
C       -0.03335859      -0.35308699      -2.72702369
C        1.22407782      -0.69013197       2.46318528
C        2.11494343      -2.37861741      -0.83279854
C        0.19307952      -3.58131335      -0.26508178
C       -4.13747726       2.04215834      -0.12170572
C        1.89955399       3.60685431      -1.89165736
C       -1.38364689      -1.04930937       2.69823136
C        1.09676568      -2.17527062      -1.78341203
C       -3.40582007       0.47792197      -1.66444879
C       -2.99922916       2.90547250      -0.16681526
C       -1.73509722       1.49701979       1.33984688
C       -0.47142060       0.77196991       1.45875529
C       -2.07534230      -3.25983422       0.57507925
C       -1.31023742      -0.84992583      -2.29274679
C        2.28333165      -0.08973211       1.67154782
C        1.02195691      -3.11327295       2.31116083
C        1.61103924      -3.40717441       0.00388515
C        2.69146271      -1.13813487      -0.42399157
C        0.47872684       2.66485041       0.51655427
C        2.82969403      -2.30430837       1.79478030
C        0.61493522       1.29581185       0.72991545
C        1.00978036       1.75922204      -2.83275698
C        2.73883475       2.37249742       0.63276627
C       -0.35256530      -3.24587204       2.08539679
C        2.84277562       2.52359629      -1.71320942
C       -1.67445899       2.75258591      -2.37416547
C       -0.13820412      -2.76208187      -1.38125782
C       -1.43391147      -2.47948233       2.64315538
C        3.67826230       2.58046874      -0.60453614
C       -0.65614957       3.36796697       0.17599639
C       -2.21904477       0.28728963      -2.40529490
C       -0.17176248       4.15737316      -0.92240244
60
Properties=species:S:1:pos:R:3 trajectory=trial0001_proposal001_step007_proposal_relax trajectory_step=27 pbc="F F F"
C       -2.31459314      -2.38905839      -0.51774626
C        2.05941509      -3.33184329       1.45048905
C       -0.26241067      -0.30556140       2.33246945
C       -0.48089434       3.55136338      -2.24869182
C       -2.86392689       2.75843259      -1.70965994
C        1.70492707      -1.91963866       2.85224832
C       -3.27858237      -1.46963305      -0.01100922
C       -2.58841188      -2.79853084       1.76416772
C        1.58912824       3.39945058       0.40900094
C        0.81601531       3.11442593      -2.67382683
C       -1.92276419       2.72417837       0.54227800
C        1.95318495       1.16089137       1.02982907
C       -1.30278386      -2.09512153      -1.51859139
C        1.28198256       4.22961896      -0.73406335
C        4.17885702       2.78161043       0.67907736
C       -2.73841717      -0.54677267       2.13962471
C        2.95075557      -1.04060856       1.09976017
C       -0.03733925       0.93500533      -3.15568375
C       -1.38537712       1.37310122      -2.95030589
C       -0.67862067      -3.68101124       0.81271050
C        2.19854264       1.32317847      -1.98940489
C        1.24052831      -0.85808707      -2.10932394
C       -3.87303320       1.72849045      -1.70519476
C       -3.67817692      -0.22712896      -0.54711390
C       -3.99904620       0.76804128       0.44894047
C       -3.00361000       0.74025224       1.53724615
C        2.22807736      -0.06827271      -1.43385239
C       -3.30444760      -1.62413880       1.42975459
C        0.05839432      -0.39263568      -2.73212714
C        1.15062825      -0.64226511       2.51633615
C        2.19536768      -2.34908203      -0.72892760
C        0.28073274      -3.59152301      -0.21063179
C       -4.16865301       1.96523966      -0.28605491
C        1.87444166       3.61562845      -1.85871455
C       -1.45796536      -1.04058110       2.65638106
C        1.18926252      -2.17306044      -1.70524793
C       -3.35803226       0.39300317      -1.79280059
C       -3.05259177       2.86039071      -0.28506711
C       -1.81933745       1.51115897       1.31011223
C       -0.54821584       0.80427747       1.46552731
C       -2.01757702      -3.28526119       0.55198818
C       -1.23056456      -0.90625039      -2.34960465
C        2.22976933      -0.02505320       1.75892445
C        1.00557996      -3.05382582       2.38431252
C        1.68778245      -3.38162039       0.10913545
C        2.74605116      -1.09641075      -0.32382487
C        0.40707313       2.72669760       0.59272317
C        2.83116460      -2.21909999       1.92975121
C        0.56369307       1.36932820       0.80545667
C        1.06499584       1.74725926      -2.84448898
C        2.68195521       2.44206544       0.72069852
C       -0.35461833      -3.21646752       2.11621076
C        2.83080359       2.55797707      -1.62996123
C       -1.64553263       2.68293443      -2.46052749
C       -0.04350060      -2.78685360      -1.34424804
C       -1.47613337      -2.47280403       2.63167981
C        3.63067263       2.64184505      -0.49660247
C       -0.72884027       3.38252462       0.15771862
C       -2.15507848       0.21360678      -2.51535958
C       -0.22009254       4.12651011      -0.95768222
60
Properties=species:S:1:pos:R:3 trajectory=trial0001_proposal001_step007_proposal_relax trajectory_step=28 pbc="F F F"
C       -2.23292502      -2.43539831      -0.56090066
C        2.08441823      -3.24735312       1.58402840
C       -0.34498332      -0.27910645       2.32749336
C       -0.48495976       3.50585887      -2.28858350
C       -2.84908298       2.66806379      -1.84387898
C        1.64811048      -1.84526087       2.95144342
C       -3.24046764      -1.53550485      -0.10056682
C       -2.59238803      -2.83652818       1.70622457
C        1.51226978       3.46639513       0.46190140
C        0.83406610       3.10048679      -2.67854318
C       -2.01830345       2.72154430       0.46907008
C        1.89071144       1.23721747       1.12011578
C       -1.20722913      -2.14945796      -1.54915281
C        1.21806842       4.23571678      -0.72611183
C        4.11251130       2.87865343       0.79857481
C       -2.81325573      -0.57413607       2.05315865
C        2.93586515      -0.95564664       1.21522886
C        0.05343603       0.88523468      -3.20878012
C       -1.31582899       1.29860297      -3.05939545
C       -0.62049470      -3.68090128       0.83943563
C        2.23663092       1.34302248      -1.94084061
C        1.31342730      -0.85911822      -2.05561768
C       -3.84343068       1.62484255      -1.86926224
C       -3.64722145      -0.30761801      -0.67180887
C       -4.01748016       0.70209806       0.28759251
C       -3.08816634       0.70849469       1.43823145
C        2.28161837      -0.03938380      -1.36828889
C       -3.32568562      -1.67692472       1.33697856
C        0.15964744      -0.42976537      -2.74224969
C        1.06835251      -0.58563265       2.56971032
C        2.27830361      -2.32024305      -0.61143429
C        0.37980270      -3.60411001      -0.14666796
C       -4.19893920       1.88382570      -0.46620627
C        1.85479789       3.62319847      -1.82596620
C       -1.54027490      -1.03160923       2.61603127
C        1.29415442      -2.16551097      -1.61980999
C       -3.30854852       0.29569403      -1.93119669
C       -3.10803801       2.81492541      -0.42529988
C       -1.91695916       1.52557557       1.27539911
C       -0.62578064       0.84949578       1.48344230
C       -1.95592426      -3.32268998       0.52174726
C       -1.14138204      -0.97126454      -2.40857319
C        2.16297655       0.05917649       1.85050257
C        0.98427901      -2.99665506       2.47979060
C        1.77543441      -3.34822994       0.22656697
C        2.80108263      -1.04074095      -0.21430974
C        0.33564377       2.80481849       0.66032546
C        2.82416691      -2.11377004       2.07785791
C        0.50465441       1.45375488       0.90417559
C        1.12385971       1.73696429      -2.84768663
C        2.61707117       2.52419431       0.81743679
C       -0.35585049      -3.18382250       2.14937278
C        2.81235495       2.58982852      -1.54974289
C       -1.61120370       2.60639396      -2.54836984
C        0.06498000      -2.81409082      -1.30701949
C       -1.52504622      -2.46395761       2.61053614
C        3.58337413       2.69292995      -0.38236486
C       -0.81624544       3.39357960       0.14146039
C       -2.08710031       0.13073847      -2.62814689
C       -0.27225967       4.09339098      -0.98884193
60
Properties=species:S:1:pos:R:3 trajectory=trial0001_proposal001_step007_proposal_relax trajectory_step=29 pbc="F F F"
C       -2.13463643      -2.48688003      -0.60850629
C        2.09814484      -3.13081018       1.72600461
C       -0.42778702      -0.25394119       2.31582533
C       -0.48268937       3.44118354      -2.29287089
C       -2.81163110       2.57229888      -1.97014080
C        1.56977547      -1.75580607       3.04287582
C       -3.16897786      -1.59977823      -0.19129587
C       -2.58755588      -2.88829700       1.62938682
C        1.47034057       3.56366141       0.52320410
C        0.84067620       3.07771686      -2.66378546
C       -2.09980734       2.71797731       0.40063435
C        1.82706407       1.35312568       1.26181654
C       -1.10797544      -2.21946239      -1.59473194
C        1.16628443       4.22733106      -0.71951051
C        4.05924162       2.93133998       0.87514185
C       -2.87715326      -0.61517072       1.95779295
C        2.90143830      -0.82878984       1.33061545
C        0.12455899       0.84633415      -3.27030717
C       -1.26197226       1.21768824      -3.17734990
C       -0.55339516      -3.68000895       0.86243458
C        2.22386622       1.34359007      -1.90329417
C        1.35538622      -0.85173010      -2.02578657
C       -3.78033220       1.52780270      -2.01274672
C       -3.57163007      -0.38302239      -0.78706848
C       -3.96593343       0.64099314       0.12651992
C       -3.14234980       0.66990927       1.34562144
C        2.28836307      -0.00378982      -1.32569431
C       -3.32503113      -1.74610291       1.22856693
C        0.22303712      -0.48085519      -2.78626195
C        0.98237202      -0.52239996       2.62371591
C        2.33289490      -2.25612368      -0.48431953
C        0.48119507      -3.63145653      -0.08973113
C       -4.18254902       1.81242356      -0.64221277
C        1.82312832       3.61438971      -1.78914324
C       -1.61503106      -1.03215373       2.56114477
C        1.37427536      -2.15303536      -1.52164454
C       -3.25193778       0.19356652      -2.05585182
C       -3.13071250       2.78412458      -0.57670196
C       -2.00666779       1.55015211       1.26058104
C       -0.69801518       0.92390811       1.52538682
C       -1.89303778      -3.37611134       0.47897432
C       -1.07395362      -1.04909160      -2.49462676
C        2.09928437       0.15329952       1.94956132
C        0.96329534      -2.94757473       2.57880355
C        1.85424696      -3.29876483       0.35286808
C        2.80545998      -0.95052998      -0.10117194
C        0.24309478       2.89264107       0.73486137
C        2.79303269      -1.97742114       2.22082517
C        0.45343782       1.57664518       1.04936968
C        1.14485517       1.72079410      -2.85600355
C        2.56636592       2.61827015       0.91403779
C       -0.36734203      -3.15176290       2.16575712
C        2.76802112       2.58858720      -1.45696927
C       -1.56211656       2.51651457      -2.62715766
C        0.17348376      -2.85846989      -1.27999250
C       -1.56772836      -2.46742488       2.55332650
C        3.50525451       2.66893109      -0.27278154
C       -0.87889667       3.40797937       0.13872496
C       -2.03058803       0.03393613      -2.75130688
C       -0.31382603       4.04993547      -0.99719667
60
Properties=species:S:1:pos:R:3 trajectory=trial0001_proposal001_step007_proposal_relax trajectory_step=30 pbc="F F F"
C       -2.05548037      -2.54371852      -0.66414723
C        2.11620157      -3.05423186       1.85223563
C       -0.50663434      -0.21156165       2.32965904
C       -0.47751850       3.37067358      -2.31529497
C       -2.80198174       2.48411306      -2.11733237
C        1.50156506      -1.66935769       3.13096984
C       -3.12774360      -1.66813021      -0.29626282
C       -2.59435828      -2.92267284       1.56834458
C        1.37767334       3.64379438       0.57992325
C        0.86610225       3.05599263      -2.66765264
C       -2.19138299       2.69562112       0.31589391
C        1.75067247       1.45030556       1.36525248
C       -0.99291945      -2.26986178      -1.61603949
C        1.09803876       4.23207207      -0.70568259
C        3.99583517       3.03016729       0.99875325
C       -2.95035182      -0.64702713       1.87135693
C        2.89743498      -0.73319365       1.45518657
C        0.20708699       0.81341998      -3.29150292
C       -1.19611831       1.14231554      -3.26093764
C       -0.49951607      -3.66563946       0.89437655
C        2.25667004       1.36369594      -1.84768687
C        1.44905312      -0.85558399      -1.98095249
C       -3.75400595       1.41952942      -2.17883051
C       -3.53493472      -0.46549175      -0.91471037
C       -3.96673499       0.57603858      -0.02864559
C       -3.21939187       0.62727932       1.23262691
C        2.33752788       0.02029280      -1.25934709
C       -3.34081941      -1.79931602       1.12477963
C        0.33290848      -0.52541932      -2.79176633
C        0.90304412      -0.45566925       2.67069174
C        2.41198970      -2.21092014      -0.37151981
C        0.57724615      -3.63074669      -0.02261095
C       -4.21559155       1.73061853      -0.81822142
C        1.82186288       3.62408213      -1.75389050
C       -1.69264905      -1.02296070       2.53553220
C        1.48028844      -2.13415240      -1.44473068
C       -3.20046977       0.09450749      -2.19095534
C       -3.17595623       2.72570116      -0.73247191
C       -2.10607343       1.55006377       1.21042679
C       -0.78321263       0.97361203       1.56228821
C       -1.84068625      -3.42068358       0.44704227
C       -0.97035162      -1.11627656      -2.54313781
C        2.02528565       0.23699369       2.01966452
C        0.93544666      -2.90615693       2.67892948
C        1.92799435      -3.26313136       0.47160006
C        2.83809235      -0.89501407      -0.00039812
C        0.17471355       2.97048368       0.78524014
C        2.76963062      -1.87272096       2.35774364
C        0.37428009       1.67288381       1.14812147
C        1.20523547       1.69786611      -2.85346639
C        2.48579977       2.71191096       0.99619147
C       -0.36869241      -3.12554270       2.20438295
C        2.76937764       2.60930583      -1.37959469
C       -1.52440237       2.43491158      -2.71731537
C        0.29847804      -2.88042627      -1.24222889
C       -1.61161423      -2.45572437       2.52869629
C        3.46835889       2.70938059      -0.16319166
C       -0.98627721       3.42689690       0.11486683
C       -1.95585731      -0.05595645      -2.84322537
C       -0.37155179       4.02304348      -1.02880780
60
Properties=species:S:1:pos:R:3 trajectory=trial0001_proposal001_step007_proposal_relax trajectory_step=31 pbc="F F F"
C       -2.06612043      -2.54823702      -0.66756196
C        2.07933557      -3.06064593       1.79927686
C       -0.47503003      -0.19428126       2.34581854
C       -0.46480704       3.34103457      -2.23890225
C       -2.78287565       2.52028177      -2.08373312
C        1.47837517      -1.68398410       3.06319046
C       -3.09141197      -1.65350806      -0.27955209
C       -2.57871473      -2.93332902       1.55366605
C        1.38197915       3.64991362       0.56443164
C        0.85469078       3.04683518      -2.62591900
C       -2.13809088       2.67584605       0.30495972
C        1.76327536       1.49501185       1.41514651
C       -1.00492217      -2.26859246      -1.61021706
C        1.13380888       4.21810349      -0.70854661
C        4.04395176       2.93919652       0.92257189
C       -2.89965504      -0.66956009       1.89270685
C        2.89136675      -0.71292407       1.39491518
C        0.13120461       0.82525097      -3.24433959
C       -1.23155612       1.15541450      -3.19604410
C       -0.52337848      -3.64858609       0.86666527
C        2.18946340       1.35166683      -1.86836486
C        1.38037795      -0.86689224      -2.05495839
C       -3.73478668       1.44747401      -2.10463032
C       -3.49021639      -0.42934307      -0.84575675
C       -3.85265313       0.61477148       0.03059106
C       -3.13985873       0.61727913       1.26243558
C        2.26039093       0.00473090      -1.31787050
C       -3.29574741      -1.79576795       1.13075440
C        0.28176559      -0.52632210      -2.81980217
C        0.91980483      -0.45699753       2.63199972
C        2.33363394      -2.17479707      -0.39495246
C        0.54970759      -3.62817222      -0.03906656
C       -4.14586558       1.76571786      -0.74126222
C        1.84832246       3.59187820      -1.75621129
C       -1.65561476      -1.04369271       2.54399670
C        1.42038295      -2.11058570      -1.48320861
C       -3.20796410       0.12806013      -2.13363018
C       -3.10192953       2.75483553      -0.70153805
C       -2.05658841       1.54557295       1.22460840
C       -0.75792319       1.00015522       1.61434286
C       -1.85183362      -3.44364845       0.43741273
C       -1.00669881      -1.11925153      -2.53198388
C        2.03263082       0.25412297       1.98362050
C        0.91698217      -2.93985127       2.67107751
C        1.88080267      -3.23877295       0.44878017
C        2.74107009      -0.86061442      -0.04605029
C        0.21640834       2.99616574       0.73283908
C        2.71608491      -1.85802058       2.28729477
C        0.36479141       1.69152988       1.18253202
C        1.15176195       1.69290201      -2.81882246
C        2.50296756       2.71416398       0.96386901
C       -0.35857205      -3.14203542       2.17292793
C        2.74703799       2.53614969      -1.41625612
C       -1.51882850       2.44569340      -2.66204904
C        0.27075016      -2.88442417      -1.26910403
C       -1.58902726      -2.46291321       2.48934821
C        3.46578340       2.57449936      -0.22084393
C       -0.96335738       3.41714169       0.13474569
C       -1.98954906      -0.04450785      -2.78465855
C       -0.33471627       4.02914398      -0.99247172
60
Properties=species:S:1:pos:R:3 trajectory=trial0001_proposal001_step007_proposal_relax trajectory_step=32 pbc="F F F"
C       -1.99984592      -2.60915779      -0.72488010
C        2.10161512      -3.00866111       1.92354966
C       -0.56193026      -0.15366896       2.37711148
C       -0.45486508       3.28199340      -2.29222284
C       -2.79697815       2.43646215      -2.21702782
C        1.42752932      -1.61456972       3.14948660
C       -3.07071733      -1.71832306      -0.38357953
C       -2.58264053      -2.94548406       1.51495735
C        1.31023039       3.71905393       0.60830075
C        0.90072760       3.02982809      -2.63833259
C       -2.22033188       2.65457143       0.23204421
C        1.67252225       1.57078339       1.47929522
C       -0.89645618      -2.30628593      -1.61769277
C        1.06282120       4.23907803      -0.70683485
C        3.96376176       3.04976580       1.06094916
C       -2.96827413      -0.68866049       1.80906827
C        2.89721469      -0.65294837       1.51111682
C        0.23734316       0.76937512      -3.24439466
C       -1.16511677       1.08615418      -3.25610473
C       -0.47488931      -3.64388327       0.89952102
C        2.24804763       1.35519101      -1.79981956
C        1.50596597      -0.86165127      -1.99223917
C       -3.73354803       1.35022678      -2.26946892
C       -3.47486282      -0.50393038      -0.98712720
C       -3.91530589       0.53616942      -0.12166388
C       -3.22055631       0.57648405       1.15191587
C        2.33437436       0.03062400      -1.22135988
C       -3.32042498      -1.82795695       1.03361283
C        0.40040770      -0.54713452      -2.81214170
C        0.84594385      -0.38747741       2.67835530
C        2.41635627      -2.15328414      -0.29925218
C        0.62719256      -3.60693452       0.02735466
C       -4.19695120       1.67386341      -0.90958480
C        1.84284485       3.61166012      -1.71345704
C       -1.72809650      -1.02716191       2.52562980
C        1.54436504      -2.12488150      -1.40538837
C       -3.15842093       0.03439086      -2.26140252
C       -3.16689556       2.66830653      -0.84264646
C       -2.15112161       1.53193753       1.15626513
C       -0.85169221       1.03221066       1.62449513
C       -1.80520259      -3.46279083       0.41921924
C       -0.88085342      -1.17671660      -2.55610110
C        1.95388152       0.32516750       2.04079232
C        0.92064674      -2.87119236       2.74946504
C        1.94565013      -3.19987660       0.53142456
C        2.79216675      -0.81841290       0.06674665
C        0.09094369       3.04464995       0.78860003
C        2.69394405      -1.79209935       2.41179884
C        0.28781475       1.75414242       1.22953148
C        1.22804322       1.67873916      -2.82296105
C        2.41333615       2.79182101       1.03046094
C       -0.37279125      -3.12103980       2.21873685
C        2.77189123       2.58616658      -1.33236345
C       -1.50199886       2.38675570      -2.75342676
C        0.38920062      -2.89084014      -1.22406162
C       -1.61939684      -2.45539654       2.49196221
C        3.44263692       2.67290704      -0.10912554
C       -1.04030448       3.44408052       0.09925547
C       -1.89252255      -0.12468482      -2.86653277
C       -0.40581104       4.01282993      -1.05161009
60
Properties=species:S:1:pos:R:3 trajectory=trial0001_proposal001_step007_proposal_relax trajectory_step=33 pbc="F F F"
C       -1.98048627      -2.63032999      -0.74128769
C        2.10787353      -2.99480636       1.94747000
C       -0.59551429      -0.14180721       2.39177540
C       -0.45071386       3.27248752      -2.30817861
C       -2.80064968       2.41345607      -2.24552768
C        1.41277845      -1.57743049       3.17187370
C       -3.05650592      -1.73302873      -0.41320189
C       -2.57476553      -2.94371019       1.50103004
C        1.28342110       3.73620271       0.61136920
C        0.91253225       3.02243149      -2.63564428
C       -2.23100824       2.65390155       0.21107215
C        1.64079777       1.59811447       1.49858814
C       -0.86794683      -2.32133131      -1.62210079
C        1.04769990       4.24755969      -0.70891365
C        3.93734329       3.06216783       1.08746063
C       -2.97543140      -0.69228201       1.77988728
C        2.87628041      -0.62480991       1.54789427
C        0.26325538       0.76168093      -3.24797975
C       -1.13968788       1.06559213      -3.26516984
C       -0.45744621      -3.65102083       0.91044478
C        2.25908937       1.35375717      -1.77975295
C        1.54346720      -0.87090224      -1.96717081
C       -3.73065051       1.32565153      -2.31281294
C       -3.45903516      -0.52444100      -1.02855262
C       -3.93233695       0.50439583      -0.15641001
C       -3.23255447       0.56539396       1.11930542
C        2.34212940       0.03826506      -1.18783998
C       -3.31475279      -1.84180566       1.00520632
C        0.43073508      -0.56275236      -2.80881357
C        0.82231705      -0.36964012       2.69166309
C        2.43349565      -2.13394692      -0.27082668
C        0.64347999      -3.59536573       0.03863974
C       -4.20062414       1.64083555      -0.95480258
C        1.83020509       3.61077650      -1.69677010
C       -1.74414234      -1.02741593       2.51290690
C        1.57721120      -2.12689567      -1.39318878
C       -3.13720780       0.01030880      -2.29537369
C       -3.17080538       2.64010556      -0.86610217
C       -2.16960495       1.52954801       1.13679379
C       -0.87934233       1.04542494       1.62462964
C       -1.78915933      -3.46091569       0.41416195
C       -0.84736658      -1.19363816      -2.56381696
C        1.93756152       0.34127492       2.06304268
C        0.91131071      -2.84897646       2.75266457
C        1.95441883      -3.18139354       0.56426517
C        2.79273802      -0.80172070       0.09982217
C        0.06355261       3.06315682       0.82223042
C        2.68310328      -1.76980618       2.43332250
C        0.25836691       1.77429722       1.24066891
C        1.24812447       1.67052808      -2.82058281
C        2.38840771       2.81135956       1.04926750
C       -0.37404038      -3.11496168       2.22720672
C        2.77207586       2.59284775      -1.30020439
C       -1.49738392       2.36851237      -2.77589521
C        0.41176296      -2.89722143      -1.20927528
C       -1.62251467      -2.45833983       2.49044241
C        3.42426520       2.69654044      -0.07537898
C       -1.05969995       3.45659063       0.07886284
C       -1.86110826      -0.14900441      -2.88985061
C       -0.41669700       4.00681990      -1.07432371
60
Properties=species:S:1:pos:R:3 trajectory=trial0001_proposal001_step007_proposal_relax trajectory_step=34 pbc="F F F"
C       -1.93317862      -2.67634489      -0.78069039
C        2.11137847      -2.95167511       2.01324071
C       -0.66156033      -0.10618523       2.42053648
C       -0.44317715       3.24017838      -2.33025258
C       -2.79849768       2.36525206      -2.31491029
C        1.36677171      -1.51381835       3.20921324
C       -3.01313191      -1.77210378      -0.47984490
C       -2.55474798      -2.95454097       1.45973571
C        1.22406456       3.77983867       0.62243048
C        0.93167910       3.00014800      -2.62140585
C       -2.25777654       2.64188980       0.15199103
C        1.57645756       1.66308218       1.56375490
C       -0.80206168      -2.35994150      -1.63375279
C        1.01166213       4.26346371      -0.71166358
C        3.88689885       3.08428565       1.14884194
C       -2.98995444      -0.71345969       1.71432428
C        2.83391030      -0.55264365       1.61586062
C        0.31664797       0.73308542      -3.24699878
C       -1.08668599       1.02037889      -3.28206534
C       -0.42417644      -3.65908058       0.92609751
C        2.27422902       1.35492095      -1.73623354
C        1.60638240      -0.88532518      -1.93799414
C       -3.71520848       1.26283212      -2.40925747
C       -3.41650882      -0.57239835      -1.10644759
C       -3.93872128       0.44368549      -0.24006633
C       -3.25228219       0.53672897       1.04570191
C        2.35044913       0.05169005      -1.12964189
C       -3.29670529      -1.87191312       0.93729130
C        0.49905029      -0.59506439      -2.80678201
C        0.76132334      -0.32281662       2.71542216
C        2.46134994      -2.08886511      -0.20062566
C        0.68809018      -3.57598276       0.07365044
C       -4.19511677       1.57418672      -1.04982986
C        1.81815298       3.60011509      -1.66221661
C       -1.78080902      -1.03082416       2.48634695
C        1.64353993      -2.13406394      -1.35987653
C       -3.09126539      -0.04255307      -2.37254207
C       -3.17760191       2.58432667      -0.93602623
C       -2.21195580       1.52951319       1.09441901
C       -0.94062111       1.08009258       1.64573395
C       -1.74621593      -3.47451547       0.39782136
C       -0.77564019      -1.23789921      -2.58238233
C        1.88917047       0.40469795       2.11115833
C        0.89282435      -2.79731412       2.77982536
C        1.97470056      -3.13306652       0.63163954
C        2.78170732      -0.75128020       0.16664947
C       -0.00496588       3.12727472       0.86910666
C        2.64430625      -1.70364502       2.48643900
C        0.19494764       1.83249883       1.29136217
C        1.28721558       1.65545347      -2.79996016
C        2.32845948       2.86688668       1.09656551
C       -0.37506307      -3.10189507       2.23845917
C        2.75869935       2.59508828      -1.24194453
C       -1.47795468       2.32184474      -2.81837963
C        0.47450680      -2.90959245      -1.18570584
C       -1.63549882      -2.46064098       2.47459046
C        3.38333012       2.71440665      -0.00460192
C       -1.09905112       3.47557366       0.04650042
C       -1.79864347      -0.20589560      -2.93561810
C       -0.43651000       3.99220942      -1.10877287
60
Properties=species:S:1:pos:R:3 trajectory=trial0001_proposal001_step007_proposal_relax trajectory_step=35 pbc="F F F"
C       -1.85271990      -2.75137873      -0.84055030
C        2.10414752      -2.87617179       2.10272972
C       -0.75696478      -0.04360961       2.47666616
C       -0.43134232       3.19303066      -2.36941160
C       -2.78466430       2.28917277      -2.42206336
C        1.27601570      -1.42334632       3.23074370
C       -2.93542076      -1.83817145      -0.57388471
C       -2.50873042      -2.97068687       1.39504866
C        1.12774818       3.84506732       0.63083447
C        0.95503690       2.95870373      -2.58734323
C       -2.27407620       2.60766008       0.05114564
C        1.45571547       1.78071973       1.63981102
C       -0.70015602      -2.42031970      -1.65458459
C        0.96817367       4.28158974      -0.72717189
C        3.79846892       3.10287562       1.25516789
C       -2.98665721      -0.74809139       1.60272983
C        2.75097336      -0.43939077       1.68600817
C        0.42366110       0.69409739      -3.20746101
C       -0.98977040       0.95086790      -3.26927420
C       -0.38070837      -3.66668258       0.94602907
C        2.29705837       1.34473844      -1.65708401
C        1.70569117      -0.90785408      -1.90777880
C       -3.68497769       1.17175272      -2.54804608
C       -3.34993273      -0.65093926      -1.22149089
C       -3.92767866       0.34272698      -0.36185707
C       -3.26082000       0.48687515       0.92119589
C        2.35083166       0.06496382      -1.04227998
C       -3.24132688      -1.91305027       0.82874758
C        0.61547994      -0.64377040      -2.78686504
C        0.66308680      -0.24129454       2.75702684
C        2.47616659      -2.03085498      -0.10454372
C        0.74930211      -3.53502932       0.13704485
C       -4.17363970       1.45809190      -1.17953628
C        1.79677573       3.58435260      -1.61484088
C       -1.82609950      -1.02612351       2.46065247
C        1.76067221      -2.14499280      -1.32120368
C       -3.01238710      -0.12785743      -2.47510211
C       -3.18156531       2.48021472      -1.05125613
C       -2.27494078       1.52245084       1.01641886
C       -1.03171755       1.14767468       1.68409358
C       -1.67741875      -3.50656424       0.36956828
C       -0.66209812      -1.30428940      -2.59212039
C        1.78316000       0.51406686       2.19456424
C        0.84174971      -2.72243279       2.80711279
C        1.98335944      -3.04786923       0.72138294
C        2.73495584      -0.66644504       0.25626016
C       -0.11744264       3.21252835       0.91175513
C        2.56929483      -1.58578862       2.55154841
C        0.07365767       1.95746682       1.37335286
C        1.34413627       1.61571244      -2.74516773
C        2.22000699       2.95182700       1.16358365
C       -0.37513142      -3.07940208       2.25203461
C        2.73454053       2.59983815      -1.14923643
C       -1.44029119       2.25492568      -2.85849757
C        0.57298866      -2.92058655      -1.15576882
C       -1.64783532      -2.46279771       2.44642722
C        3.31253662       2.72637113       0.10472490
C       -1.17006460       3.50219652      -0.01230110
C       -1.69421642      -0.28104616      -2.97635996
C       -0.45397819       3.97456121      -1.15310656
60
Properties=species:S:1:pos:R:3 trajectory=trial0001_proposal001_step007_proposal_relax trajectory_step=36 pbc="F F F"
C       -1.76299992      -2.81937094      -0.89425301
C        2.10277245      -2.78131861       2.21408914
C       -0.85361955       0.01816192       2.50585964
C       -0.42208742       3.15387099      -2.40488825
C       -2.76609760       2.19610677      -2.54672374
C        1.18704081      -1.33849818       3.27682980
C       -2.86582592      -1.91017935      -0.67893719
C       -2.47883954      -2.99393388       1.33078733
C        1.02991917       3.91649881       0.65601718
C        0.97821827       2.91718396      -2.57215620
C       -2.34046483       2.57295061      -0.05697332
C        1.34513825       1.87538904       1.72190043
C       -0.58632435      -2.48256435      -1.67940680
C        0.90729543       4.29266336      -0.72554698
C        3.70348484       3.15842831       1.38876264
C       -3.00485580      -0.77766501       1.49415688
C        2.67359189      -0.31821470       1.78033914
C        0.51670330       0.63633495      -3.19766146
C       -0.88419850       0.88175251      -3.29354633
C       -0.32717366      -3.66891159       0.97521834
C        2.33189415       1.35956528      -1.57715164
C        1.81540827      -0.92015723      -1.85867168
C       -3.64578780       1.05733136      -2.70317216
C       -3.29703636      -0.74898861      -1.34459723
C       -3.92603321       0.24183608      -0.51091081
C       -3.29851816       0.43605294       0.79272201
C        2.37640701       0.08173604      -0.95641758
C       -3.20367680      -1.96213365       0.72576146
C        0.73402635      -0.69143622      -2.77124754
C        0.56058325      -0.15951241       2.81707067
C        2.53147372      -1.97124420      -0.00100826
C        0.82211840      -3.50999217       0.19535881
C       -4.17502671       1.34541561      -1.34476983
C        1.77943478       3.57474638      -1.57735510
C       -1.89086554      -1.01689961       2.43240207
C        1.87711027      -2.15829454      -1.26538531
C       -2.93918370      -0.21976823      -2.59958541
C       -3.20100145       2.38868815      -1.18475331
C       -2.34523873       1.52136945       0.95100420
C       -1.13579080       1.21086980       1.71515318
C       -1.60811086      -3.54841784       0.34060605
C       -0.54419462      -1.36394520      -2.62100043
C        1.68192948       0.62684426       2.27192555
C        0.81164547      -2.64707151       2.86278616
C        2.02000046      -2.98542800       0.83964371
C        2.71735117      -0.60423918       0.35370823
C       -0.23589724       3.33193380       0.92902407
C        2.51315780      -1.46968545       2.65266093
C       -0.03916882       2.05093009       1.47515381
C        1.42259463       1.60377038      -2.69490752
C        2.11647392       3.04103361       1.24172716
C       -0.39363527      -3.05414525       2.26791820
C        2.71310065       2.61588186      -1.04978321
C       -1.39026160       2.17098092      -2.92242066
C        0.68932167      -2.93865273      -1.11807460
C       -1.67570550      -2.45234169       2.42189023
C        3.23780060       2.76406074       0.22551885
C       -1.24125643       3.52136757      -0.05723226
C       -1.58524591      -0.36042034      -3.03795917
C       -0.49125413       3.94995787      -1.20127576
60
Properties=species:S:1:pos:R:3 trajectory=trial0001_proposal001_step007_proposal_relax trajectory_step=37 pbc="F F F"
C       -1.80065106      -2.78417614      -0.85940072
C        2.08244090      -2.81244952       2.14159734
C       -0.80521460       0.00112413       2.48948865
C       -0.42323371       3.19445779      -2.38318451
C       -2.75879627       2.23884265      -2.47055449
C        1.21591545      -1.39568185       3.21503551
C       -2.88600628      -1.87810883      -0.61842858
C       -2.47517725      -2.97802473       1.36780555
C        1.07331383       3.87361852       0.62330920
C        0.96039251       2.93010641      -2.57103665
C       -2.29706219       2.57270023      -0.01594702
C        1.37942101       1.81247773       1.65773923
C       -0.64185628      -2.45199159      -1.66476597
C        0.94404661       4.27995508      -0.72922458
C        3.72997405       3.10832593       1.33453563
C       -2.95407111      -0.75996009       1.54711427
C        2.66690124      -0.36904220       1.70211566
C        0.47357521       0.66173240      -3.16909854
C       -0.91627512       0.93087078      -3.23222997
C       -0.36444053      -3.66690411       0.95784299
C        2.31645919       1.36072497      -1.59901617
C        1.76665245      -0.91394708      -1.88806202
C       -3.64863260       1.10589799      -2.60538845
C       -3.32462371      -0.71488704      -1.26727926
C       -3.91035763       0.27958753      -0.42532666
C       -3.24838586       0.45658467       0.85272796
C        2.35412581       0.06508733      -1.00402826
C       -3.18508063      -1.92891077       0.78969520
C        0.67781861      -0.66629039      -2.75819374
C        0.60151596      -0.18895282       2.79963286
C        2.49182368      -2.00637753      -0.07087759
C        0.76541044      -3.51117971       0.15717859
C       -4.16061072       1.39316801      -1.24570556
C        1.79197153       3.57223181      -1.60495149
C       -1.84579726      -1.01370298       2.45726630
C        1.81824678      -2.16865247      -1.30916853
C       -2.96452785      -0.16486189      -2.52020447
C       -3.17343154       2.42143167      -1.10772630
C       -2.28842664       1.51790449       0.97523019
C       -1.09745044       1.18229533       1.69963822
C       -1.64148814      -3.53642547       0.36024166
C       -0.59947593      -1.31902285      -2.58774178
C        1.71429735       0.58581959       2.21583572
C        0.82162498      -2.68176924       2.81137531
C        1.97650670      -3.01212215       0.76626377
C        2.68834247      -0.64919227       0.28436849
C       -0.18979330       3.28506449       0.86411219
C        2.52296545      -1.52257798       2.57454806
C       -0.00490310       2.00793956       1.41748441
C        1.39105738       1.61584944      -2.68565993
C        2.15396246       2.98803230       1.18924047
C       -0.39527558      -3.06873055       2.24487401
C        2.71101064       2.60635169      -1.09888773
C       -1.39770345       2.21269415      -2.86615126
C        0.62768841      -2.92408646      -1.14188999
C       -1.65579094      -2.44750300       2.43409047
C        3.25769419       2.74535673       0.17262016
C       -1.19353360       3.50214254      -0.05115443
C       -1.62554753      -0.30168865      -2.96616739
C       -0.46091529       3.96912739      -1.17733389
60
Properties=species:S:1:pos:R:3 trajectory=trial0001_proposal001_step007_proposal_relax trajectory_step=38 pbc="F F F"
C       -1.74656723      -2.81084760      -0.88255004
C        2.07960645      -2.76275000       2.19865797
C       -0.85218306       0.02700201       2.48638153
C       -0.41514452       3.15741664      -2.39738545
C       -2.73507567       2.17530781      -2.54392173
C        1.16942335      -1.35336239       3.25966242
C       -2.85338154      -1.92738927      -0.66652689
C       -2.47289792      -2.99852117       1.34126224
C        1.02366817       3.92038458       0.64692298
C        0.97934656       2.93298916      -2.56639085
C       -2.35086820       2.56269675      -0.06722086
C        1.32183914       1.86169255       1.70307750
C       -0.57258648      -2.47671419      -1.67244183
C        0.90887725       4.27226744      -0.73439250
C        3.67288663       3.16700457       1.41577738
C       -2.98257029      -0.77884099       1.50077269
C        2.64503126      -0.32137690       1.75202690
C        0.53443196       0.64190358      -3.16476373
C       -0.86933304       0.89326101      -3.26847342
C       -0.34509094      -3.65663389       0.96845504
C        2.33678799       1.37895352      -1.55590882
C        1.80866118      -0.91660859      -1.86592474
C       -3.61361352       1.03627313      -2.68587445
C       -3.30932684      -0.76634551      -1.33856638
C       -3.90267277       0.24053554      -0.51476267
C       -3.27878407       0.43152532       0.78661145
C        2.39149942       0.08354865      -0.97477446
C       -3.17980970      -1.94950240       0.73742867
C        0.74175445      -0.67672061      -2.75527292
C        0.55170157      -0.14434597       2.83565544
C        2.54070215      -2.01087549      -0.00870803
C        0.81410843      -3.51520152       0.20114739
C       -4.17197188       1.34485345      -1.35133184
C        1.78774367       3.58261271      -1.58445255
C       -1.88950293      -1.00146068       2.44248233
C        1.88064660      -2.16382914      -1.26416121
C       -2.92554335      -0.22800501      -2.58769850
C       -3.19627668       2.38301319      -1.20317234
C       -2.35095142       1.51411752       0.94068108
C       -1.14821401       1.21338701       1.71621810
C       -1.61120788      -3.56620185       0.35347978
C       -0.53516612      -1.35299898      -2.60587111
C        1.66721051       0.62080635       2.24049890
C        0.80268843      -2.65501303       2.86465258
C        2.02341448      -2.99152746       0.82135538
C        2.70003888      -0.61915549       0.35119311
C       -0.24214522       3.31120265       0.88076636
C        2.50001381      -1.45062869       2.65291054
C       -0.06477107       2.06807634       1.45307121
C        1.41989893       1.60597977      -2.67916987
C        2.09988648       3.03211860       1.22942612
C       -0.39474763      -3.04946648       2.26523620
C        2.70347127       2.62926556      -1.04823977
C       -1.36792040       2.17668670      -2.90618046
C        0.69470437      -2.93574521      -1.12593043
C       -1.68280651      -2.43568053       2.41746295
C        3.22555733       2.78299710       0.24794239
C       -1.25270299       3.49260096      -0.08378440
C       -1.57661926      -0.34149839      -3.00063125
C       -0.49452780       3.95704998      -1.19850999
60
Properties=species:S:1:pos:R:3 trajectory=trial0001_proposal001_step007_proposal_relax trajectory_step=39 pbc="F F F"
C       -1.70960806      -2.83528527      -0.89512729
C        2.07659834      -2.72535479       2.23452962
C       -0.88700124       0.04733721       2.49353647
C       -0.40792865       3.14180732      -2.41260091
C       -2.71947226       2.13393792      -2.58730012
C        1.13608485      -1.31658049       3.28443478
C       -2.83075696      -1.95159831      -0.69918329
C       -2.46665101      -3.00395557       1.32497692
C        0.98307608       3.94485861       0.65260821
C        0.99350595       2.92505172      -2.56416753
C       -2.37694062       2.55258745      -0.10457092
C        1.27440470       1.89676511       1.72262240
C       -0.52865706      -2.49295302      -1.67559268
C        0.88348727       4.27446208      -0.73553308
C        3.63064074       3.19989563       1.47959222
C       -2.99283345      -0.78563601       1.46308725
C        2.61807080      -0.29076931       1.78033999
C        0.57499555       0.63476165      -3.15559934
C       -0.82961019       0.86841524      -3.27631982
C       -0.32562971      -3.65302468       0.98201137
C        2.34885518       1.38478038      -1.52608687
C        1.84954324      -0.91957092      -1.84118795
C       -3.58897684       0.99381031      -2.74156519
C       -3.29306076      -0.80682667      -1.38451842
C       -3.90173245       0.20805664      -0.56921164
C       -3.29157565       0.41127514       0.73702054
C        2.41189803       0.08709620      -0.94265104
C       -3.16439225      -1.96761786       0.70227632
C        0.78734641      -0.69181851      -2.74560196
C        0.51618326      -0.11525005       2.85718769
C        2.57174267      -1.99587512       0.02191906
C        0.84149874      -3.50863794       0.22383907
C       -4.17368976       1.30087475      -1.41377083
C        1.78270931       3.58886011      -1.56829666
C       -1.91343790      -0.99483711       2.43139798
C        1.92551987      -2.16497416      -1.24101417
C       -2.89370865      -0.27174492      -2.62739022
C       -3.20647119       2.34944946      -1.25726450
C       -2.38482450       1.51160108       0.91184685
C       -1.19118186       1.23787628       1.71761478
C       -1.59137080      -3.57890176       0.34566833
C       -0.48793844      -1.37264284      -2.61044694
C        1.62188207       0.65164954       2.25997780
C        0.78805794      -2.62961852       2.88339340
C        2.03601769      -2.98245299       0.86169033
C        2.69948654      -0.60349310       0.38405560
C       -0.28883227       3.33535611       0.88304559
C        2.47468447      -1.41290939       2.69233107
C       -0.11111292       2.09829585       1.47278289
C        1.44660236       1.60582484      -2.66161836
C        2.05061057       3.05941312       1.25606542
C       -0.40130752      -3.03576043       2.27414227
C        2.70163313       2.64740665      -1.00192683
C       -1.34605847       2.15306149      -2.92807353
C        0.73824145      -2.94428125      -1.10861879
C       -1.68720785      -2.43317303       2.41076096
C        3.19396616       2.81031086       0.28543207
C       -1.28322365       3.48950889      -0.11012465
C       -1.53090193      -0.36693799      -3.01570313
C       -0.51062831       3.94837688      -1.22089695
60
Properties=species:S:1:pos:R:3 trajectory=trial0001_proposal001_step007_proposal_relax trajectory_step=40 pbc="F F F"
C       -1.66552882      -2.86125990      -0.90564332
C        2.06518952      -2.67993570       2.27022812
C       -0.93005496       0.07331283       2.49904934
C       -0.39555761       3.12897496      -2.43069217
C       -2.69319283       2.08379749      -2.63247499
C        1.09354097      -1.27546672       3.31260807
C       -2.79984706      -1.98111527      -0.73217412
C       -2.45554093      -3.01055699       1.31016170
C        0.92915567       3.96891269       0.65453689
C        1.01211209       2.92065945      -2.55968069
C       -2.40726832       2.53815630      -0.15062701
C        1.21098175       1.93194086       1.73804359
C       -0.47652219      -2.51087700      -1.67411197
C        0.85296494       4.27733680      -0.73785618
C        3.56717541       3.23383122       1.54839983
C       -2.99763257      -0.79397924       1.42019933
C        2.57504966      -0.25768043       1.80709200
C        0.62265682       0.62699311      -3.13815412
C       -0.77909369       0.84512005      -3.27549003
C       -0.30592827      -3.64822979       0.99769252
C        2.36288752       1.39486419      -1.48562641
C        1.89826230      -0.92230404      -1.81014607
C       -3.55103416       0.93995005      -2.80121305
C       -3.27360637      -0.85673282      -1.43378091
C       -3.89603758       0.16643877      -0.63009176
C       -3.29994262       0.38756766       0.67777861
C        2.43605906       0.09123985      -0.90723113
C       -3.14035088      -1.98481934       0.66579177
C        0.84148460      -0.70470145      -2.73015045
C        0.47060083      -0.07892666       2.88129730
C        2.60752309      -1.98655273       0.05549112
C        0.86797679      -3.50132243       0.24827089
C       -4.17055150       1.24834355      -1.48527571
C        1.77745485       3.59825895      -1.55009996
C       -1.93708743      -0.98619981       2.41778962
C        1.97691312      -2.16925503      -1.21517482
C       -2.85007536      -0.32371556      -2.66838670
C       -3.21471574       2.30957555      -1.31748890
C       -2.42225782       1.50941215       0.87534751
C       -1.24665574       1.26399241       1.71480871
C       -1.56755364      -3.59341837       0.34104243
C       -0.43075777      -1.39123739      -2.61003343
C        1.56444072       0.68637235       2.27395026
C        0.76961547      -2.59595700       2.90059703
C        2.05102903      -2.97133148       0.90187806
C        2.69507392      -0.59117054       0.41595113
C       -0.34525497       3.35889293       0.87296092
C        2.43971973      -1.36890607       2.73072011
C       -0.17035367       2.13018676       1.48577163
C        1.47989046       1.60945993      -2.63292155
C        1.98928211       3.08958975       1.28271540
C       -0.40865327      -3.01927503       2.28057282
C        2.69431515       2.66815352      -0.95310126
C       -1.31475013       2.12579488      -2.94921111
C        0.78804084      -2.95408884      -1.08800160
C       -1.69143058      -2.42694792       2.40392021
C        3.15578374       2.85244385       0.34917327
C       -1.31708823       3.48179904      -0.14900925
C       -1.47288282      -0.39383613      -3.02220881
C       -0.52735204       3.93871001      -1.24955840
60
Properties=species:S:1:pos:R:3 trajectory=trial0001_proposal001_step007_proposal_relax trajectory_step=41 pbc="F F F"
C       -1.59685117      -2.89488910      -0.91264749
C        2.03089188      -2.61173229       2.31079768
C       -1.00836889       0.11414873       2.50026494
C       -0.36376982       3.11655476      -2.46220902
C       -2.63769757       2.00368393      -2.68999110
C        1.02172656      -1.20821243       3.36952870
C       -2.74147899      -2.02846927      -0.77014630
C       -2.43409010      -3.02290996       1.29449768
C        0.83458500       3.99764120       0.64914570
C        1.05022120       2.93105868      -2.54813607
C       -2.45667396       2.51611908      -0.22805694
C        1.10090639       1.97772221       1.75247002
C       -0.39315939      -2.53644668      -1.65778234
C        0.80243133       4.28816841      -0.74431543
C        3.45144522       3.29384332       1.67055384
C       -2.99757402      -0.80937510       1.35676351
C        2.48906233      -0.21125259       1.83660418
C        0.69866272       0.62023468      -3.10389540
C       -0.69578166       0.81500120      -3.26454920
C       -0.27639711      -3.64097085       1.02063883
C        2.38130135       1.41671902      -1.41160826
C        1.97231113      -0.92463784      -1.75918011
C       -3.46874996       0.84839457      -2.88300610
C       -3.23445186      -0.93507881      -1.50208507
C       -3.87570263       0.09501991      -0.72311746
C       -3.30432016       0.35251601       0.58708307
C        2.47304142       0.09974228      -0.85842615
C       -3.09937774      -2.01003319       0.61946682
C        0.92609839      -0.71227920      -2.70139322
C        0.38794313      -0.02349076       2.90673111
C        2.66374117      -1.98399541       0.10674755
C        0.90560345      -3.49511995       0.28418078
C       -4.14769493       1.16574806      -1.60204901
C        1.76832105       3.62069961      -1.51685324
C       -1.96669526      -0.97513397       2.38650164
C        2.05254695      -2.17845042      -1.17198122
C       -2.76604656      -0.40830427      -2.72203274
C       -3.22063954       2.25157623      -1.40820431
C       -2.48194033       1.50836309       0.81594939
C       -1.34082212       1.29754771       1.69845939
C       -1.52677819      -3.61154261       0.34575828
C       -0.33700271      -1.41513042      -2.59826513
C        1.47245246       0.72908065       2.27795393
C        0.73648314      -2.53275790       2.92230180
C        2.08178291      -2.95691191       0.96137020
C        2.69251998      -0.58106911       0.45992190
C       -0.44385405       3.37882424       0.83791635
C        2.37289812      -1.30005953       2.77656623
C       -0.27306891       2.16655960       1.48342147
C        1.52948184       1.62089399      -2.57921411
C        1.87458978       3.13956017       1.32110177
C       -0.41466675      -2.98917187       2.28520312
C        2.68016761       2.70299399      -0.86663934
C       -1.25434698       2.08371513      -2.97668809
C        0.86005759      -2.97066113      -1.05331919
C       -1.69974378      -2.41280631       2.39263064
C        3.07876822       2.92281752       0.43307293
C       -1.36644570       3.46345164      -0.22229874
C       -1.37486106      -0.43769291      -3.01789588
C       -0.55036914       3.92046797      -1.29939166
60
Properties=species:S:1:pos:R:3 trajectory=trial0001_proposal001_step007_proposal_relax trajectory_step=42 pbc="F F F"
C       -1.51655298      -2.93709855      -0.92313304
C        1.99672890      -2.52949335       2.38021283
C       -1.10443246       0.15556276       2.50101498
C       -0.32789369       3.08809425      -2.50435648
C       -2.57791152       1.91901708      -2.77060680
C        0.94225661      -1.12805801       3.44754586
C       -2.67721970      -2.08038943      -0.81973070
C       -2.41619449      -3.04283508       1.26892913
C        0.71585775       4.03726146       0.65138186
C        1.10183899       2.93700600      -2.53487502
C       -2.51651323       2.49808124      -0.31695124
C        0.98638936       2.03577700       1.78832148
C       -0.29495761      -2.56668951      -1.64219141
C        0.74230747       4.30818901      -0.74811658
C        3.30864688       3.36849667       1.77624574
C       -3.01383061      -0.83215291       1.27908503
C        2.41435963      -0.15530072       1.87307293
C        0.79119092       0.61258729      -3.07623945
C       -0.60863535       0.76163363      -3.27537626
C       -0.23183966      -3.63165490       1.04894788
C        2.39666788       1.44146586      -1.33139661
C        2.05141688      -0.92443374      -1.71306116
C       -3.37357490       0.74404422      -2.98977537
C       -3.17008049      -1.02140110      -1.58255744
C       -3.84952658       0.02221238      -0.84410707
C       -3.32589420       0.30973585       0.48639975
C        2.51190449       0.11115650      -0.79802590
C       -3.07365306      -2.05237612       0.55892646
C        1.03023414      -0.72734765      -2.67082406
C        0.28911050       0.03194520       2.92376313
C        2.72590345      -1.96451514       0.18020839
C        0.97428567      -3.49361996       0.33926654
C       -4.11394698       1.06627686      -1.74396679
C        1.76204191       3.64773487      -1.46551234
C       -2.01271386      -0.96864040       2.33922648
C        2.13868672      -2.18066103      -1.10912872
C       -2.66772792      -0.50446090      -2.79446305
C       -3.23118203       2.18931655      -1.52721000
C       -2.56305448       1.50618925       0.74790947
C       -1.44869503       1.32942819       1.68565680
C       -1.47267089      -3.63160779       0.34708413
C       -0.22279872      -1.45547630      -2.58826031
C        1.36501274       0.78598402       2.28826333
C        0.69950134      -2.45604286       2.96347932
C        2.12121875      -2.94469327       1.03680153
C        2.70693644      -0.55394110       0.52715652
C       -0.55949819       3.40750292       0.80788997
C        2.29137976      -1.22089286       2.84366957
C       -0.38834676       2.20943587       1.49286524
C        1.58316732       1.63259376      -2.52734942
C        1.75351750       3.21368590       1.37420814
C       -0.42025289      -2.94842066       2.29849038
C        2.65398349       2.73865313      -0.78611969
C       -1.18920553       2.03241757      -3.01633136
C        0.95046782      -2.98707036      -1.00884343
C       -1.71348495      -2.40402450       2.37231354
C        2.99933751       2.99790156       0.57022530
C       -1.43558084       3.44927918      -0.29423672
C       -1.26644366      -0.50245426      -3.03812668
C       -0.57941526       3.89736764      -1.34946247
60
Properties=species:S:1:pos:R:3 trajectory=trial0001_proposal001_step007_proposal_relax trajectory_step=43 pbc="F F F"
C       -1.53897788      -2.91887204      -0.90720393
C        1.99217893      -2.55542823       2.34928423
C       -1.08607569       0.13860114       2.49182769
C       -0.32561232       3.10142422      -2.49497804
C       -2.57866964       1.94840799      -2.73945672
C        0.95980287      -1.14885251       3.43413214
C       -2.68798093      -2.06470726      -0.78987098
C       -2.41891606      -3.04119517       1.28290025
C        0.73160958       4.01738735       0.64224567
C        1.09710349       2.94854863      -2.53371769
C       -2.50083852       2.50398549      -0.29529108
C        1.01014415       2.01357107       1.76807975
C       -0.32246755      -2.55317857      -1.63202165
C        0.75651309       4.31053722      -0.74681527
C        3.32313227       3.35626813       1.74319784
C       -3.00618457      -0.83062568       1.30277182
C        2.42734295      -0.18167552       1.84740387
C        0.76475557       0.62048500      -3.07735762
C       -0.62985419       0.77838993      -3.26621593
C       -0.24240660      -3.63109958       1.04362480
C        2.38406947       1.43908468      -1.34734143
C        2.02583138      -0.92272473      -1.72600806
C       -3.37546806       0.77123108      -2.94990225
C       -3.17002924      -0.99304960      -1.54693540
C       -3.84086327       0.04296290      -0.80507344
C       -3.31644615       0.32237038       0.51817979
C        2.49863874       0.10839026      -0.81852181
C       -3.08594753      -2.04199817       0.58586672
C        1.00229770      -0.71360565      -2.67266338
C        0.30828889       0.00836317       2.90067724
C        2.70379836      -1.97621520       0.16141405
C        0.95696066      -3.50200184       0.32689188
C       -4.09970001       1.09254959      -1.70355398
C        1.76608827       3.64786089      -1.47224974
C       -1.99725319      -0.97542709       2.34025978
C        2.10579531      -2.17446872      -1.12317705
C       -2.67758703      -0.47801410      -2.76216296
C       -3.21975158       2.21204296      -1.49364965
C       -2.54461060       1.50558428       0.76184508
C       -1.42742275       1.30831646       1.67673144
C       -1.48239962      -3.61979455       0.35676408
C       -0.24833358      -1.44080734      -2.57688265
C        1.38829734       0.75936217       2.26461151
C        0.70315229      -2.46930394       2.94997836
C        2.11366462      -2.95251085       1.01369824
C        2.71094642      -0.56636111       0.50016129
C       -0.53271467       3.38153439       0.79657978
C        2.29940172      -1.24418471       2.81085252
C       -0.36383363       2.18258912       1.46702566
C        1.56707683       1.63760745      -2.53261841
C        1.77141329       3.19685142       1.35629869
C       -0.41419305      -2.95323369       2.29079922
C        2.65183591       2.73151753      -0.80727282
C       -1.19745561       2.04762937      -2.99897098
C        0.92287117      -2.97961305      -1.01477986
C       -1.70887564      -2.40558821       2.37507028
C        3.01087891       2.97832764       0.53178394
C       -1.41811721       3.44813558      -0.28533079
C       -1.28947112      -0.48737542      -3.02371815
C       -0.56481062       3.90227638      -1.33899020
60
Properties=species:S:1:pos:R:3 trajectory=trial0001_proposal001_step007_proposal_relax trajectory_step=44 pbc="F F F"
C       -1.50071827      -2.93764320      -0.91697205
C        1.97990440      -2.52087237       2.39726461
C       -1.13557531       0.15001082       2.48986759
C       -0.30975543       3.08359549      -2.50892874
C       -2.55602381       1.92046481      -2.79448235
C        0.92119027      -1.11646247       3.45882725
C       -2.65406669      -2.09894502      -0.81731573
C       -2.40533887      -3.05986985       1.25901199
C        0.67649444       4.04419875       0.64893847
C        1.11441599       2.95089464      -2.52033398
C       -2.53345307       2.49189165      -0.34001928
C        0.95732479       2.04874917       1.79791418
C       -0.27143031      -2.57441115      -1.62394079
C        0.72774428       4.32112352      -0.74605882
C        3.25670207       3.40282785       1.79459193
C       -3.02422760      -0.85504946       1.25793671
C        2.39666902      -0.13928090       1.88566144
C        0.80898812       0.60003407      -3.06896453
C       -0.58535379       0.75036783      -3.28284276
C       -0.21881084      -3.62459330       1.06071164
C        2.39074972       1.44959515      -1.30821214
C        2.06881170      -0.92061179      -1.70281544
C       -3.33618392       0.72442815      -3.01054568
C       -3.12449702      -1.01678664      -1.58489011
C       -3.82144501       0.00232521      -0.86185677
C       -3.33944872       0.30250122       0.46884170
C        2.50835067       0.12253241      -0.78757959
C       -3.08984755      -2.06790406       0.54926516
C        1.05319326      -0.72245763      -2.66394765
C        0.26045681       0.03106646       2.90071685
C        2.71655996      -1.96377568       0.21309890
C        0.99340596      -3.50436056       0.36280532
C       -4.07543722       1.04955780      -1.77460546
C        1.75786480       3.65322863      -1.44824115
C       -2.02915641      -0.98051074       2.31475796
C        2.14522702      -2.16827702      -1.08281713
C       -2.62871931      -0.51367160      -2.80720402
C       -3.22029754       2.18193239      -1.55177812
C       -2.58420642       1.50022327       0.72817132
C       -1.47801792       1.31832653       1.67739203
C       -1.44288454      -3.62878477       0.35929131
C       -0.19153727      -1.46576043      -2.57779704
C        1.34822445       0.78888465       2.27095295
C        0.68485500      -2.43419787       2.98060232
C        2.14206815      -2.92105785       1.05986457
C        2.72088855      -0.53978325       0.53608524
C       -0.58933203       3.40140706       0.79635480
C        2.26624806      -1.19518256       2.84403392
C       -0.41910341       2.21463291       1.48369681
C        1.59492299       1.62818799      -2.51438355
C        1.71094051       3.23941136       1.38870778
C       -0.41315213      -2.93533778       2.29681104
C        2.63188409       2.74002135      -0.75752384
C       -1.16681937       2.01181794      -3.02603585
C        0.97200755      -2.97948264      -0.98736101
C       -1.72685546      -2.40058640       2.35761317
C        2.97297684       2.98777715       0.56612388
C       -1.45468525       3.45271802      -0.31664652
C       -1.23584092      -0.52860198      -3.05414480
C       -0.57622544       3.88980583      -1.35944168
60
Properties=species:S:1:pos:R:3 trajectory=trial0001_proposal001_step007_proposal_relax trajectory_step=45 pbc="F F F"
C       -1.49211389      -2.93649825      -0.90860594
C        1.97648438      -2.51653102       2.40213522
C       -1.14544919       0.14330577       2.47953868
C       -0.30299019       3.08170444      -2.51096079
C       -2.54637218       1.92109914      -2.80315094
C        0.91418975      -1.11076519       3.46187680
C       -2.64994477      -2.10126341      -0.81488877
C       -2.40637468      -3.06404921       1.25794311
C        0.66247389       4.04487676       0.64885676
C        1.12128159       2.95332731      -2.51725086
C       -2.53969995       2.49174383      -0.34607020
C        0.94622735       2.04977513       1.79516069
C       -0.26260703      -2.57271627      -1.61474947
C        0.72282436       4.32495063      -0.74537910
C        3.23008279       3.42025713       1.79214388
C       -3.03222332      -0.85998049       1.25282824
C        2.39648833      -0.13820088       1.88220105
C        0.81747540       0.60115511      -3.06641122
C       -0.57624836       0.74465626      -3.28825095
C       -0.21121266      -3.61977342       1.06716621
C        2.38731842       1.45341918      -1.30153912
C        2.07355314      -0.91607659      -1.69736338
C       -3.31841404       0.72183659      -3.01588386
C       -3.10355093      -1.01612058      -1.58212339
C       -3.81094898       0.00127380      -0.86922444
C       -3.34621990       0.29793665       0.46764943
C        2.51089001       0.12595851      -0.78279441
C       -3.09830246      -2.08016208       0.54842652
C        1.06284301      -0.72224319      -2.65783772
C        0.25154048       0.02679249       2.88897037
C        2.71717846      -1.95842395       0.22058837
C        1.00372394      -3.50953605       0.37240094
C       -4.05965648       1.04351089      -1.78379847
C        1.75548655       3.65964151      -1.44099532
C       -2.03776018      -0.98504082       2.30475305
C        2.14538871      -2.16107295      -1.07046037
C       -2.61202621      -0.51647018      -2.80778491
C       -3.21614617       2.18116549      -1.56311163
C       -2.59346006       1.49540478       0.72131622
C       -1.48762457       1.31230076       1.66786739
C       -1.43477642      -3.62616055       0.36338747
C       -0.18033540      -1.46811646      -2.57202669
C        1.33911676       0.78578039       2.25954665
C        0.67842171      -2.43242700       2.98671885
C        2.14427156      -2.92127155       1.07273128
C        2.73023277      -0.53724159       0.54159625
C       -0.60126524       3.39494382       0.78547508
C        2.25824839      -1.19116198       2.84626480
C       -0.43216414       2.20705877       1.47574116
C        1.59726617       1.63160639      -2.51156332
C        1.69660089       3.24675576       1.39219794
C       -0.41391613      -2.92728453       2.29919701
C        2.62217670       2.74189169      -0.75005376
C       -1.15630232       2.00948142      -3.02862227
C        0.97658134      -2.97669172      -0.97556131
C       -1.72896159      -2.40171040       2.35290037
C        2.96278224       2.99018589       0.57519004
C       -1.46297104       3.45039014      -0.32468339
C       -1.22348050      -0.53505483      -3.06083530
C       -0.57700740       3.88813981      -1.36256222
60
Properties=species:S:1:pos:R:3 trajectory=trial0001_proposal001_step007_proposal_relax trajectory_step=46 pbc="F F F"
C       -1.44360774      -2.94906953      -0.89906584
C        1.96559230      -2.47976501       2.44665828
C       -1.19188178       0.14138276       2.45562728
C       -0.28454323       3.06615122      -2.52208719
C       -2.51040445       1.89627471      -2.85703657
C        0.87272280      -1.07700648       3.47142412
C       -2.61893803      -2.12883831      -0.83429352
C       -2.39932787      -3.08221855       1.24316514
C        0.60125045       4.06457690       0.65178715
C        1.14040159       2.94930601      -2.50609885
C       -2.57052333       2.47851244      -0.39009483
C        0.88138996       2.07380714       1.80129829
C       -0.21078790      -2.58023321      -1.59514867
C        0.69263199       4.33243211      -0.74308846
C        3.13514247       3.48488750       1.82740165
C       -3.05929679      -0.88492555       1.21496641
C        2.37453680      -0.10744527       1.89668280
C        0.86729514       0.59193676      -3.05367643
C       -0.52025916       0.71849444      -3.30440300
C       -0.18368324      -3.60705920       1.09194571
C        2.38798797       1.46516691      -1.26468192
C        2.11555453      -0.90946603      -1.66258213
C       -3.26204436       0.68496297      -3.06800005
C       -3.04014388      -1.03920113      -1.61036389
C       -3.78307131      -0.02671558      -0.92394003
C       -3.37015674       0.27193017       0.42951409
C        2.53049290       0.13962699      -0.74642006
C       -3.10670432      -2.11799910       0.51674266
C        1.11822602      -0.73294966      -2.63601452
C        0.20355398       0.03851602       2.87480361
C        2.73642582      -1.93382211       0.26929791
C        1.04322736      -3.51207171       0.41465416
C       -4.02388190       0.99970727      -1.84858599
C        1.74534363       3.67039109      -1.41661477
C       -2.07620198      -0.99101809       2.27566610
C        2.17634123      -2.14430185      -1.02610293
C       -2.54830465      -0.54800201      -2.83646948
C       -3.20839935       2.15485326      -1.62637302
C       -2.63414937       1.48169763       0.68506991
C       -1.54290495       1.31087120       1.64737407
C       -1.40027122      -3.63034533       0.36704377
C       -0.12025678      -1.48732513      -2.56461195
C        1.28571014       0.80627166       2.24662329
C        0.65803304      -2.41175774       3.01687367
C        2.15761719      -2.90477933       1.12680740
C        2.74411033      -0.51571023       0.57870968
C       -0.65818349       3.39978742       0.76420060
C        2.22606777      -1.14915495       2.87842658
C       -0.49420069       2.22184157       1.47251732
C        1.62493049       1.63799604      -2.48836679
C        1.62732650       3.28053910       1.41870549
C       -0.42299423      -2.90317981       2.30836294
C        2.59206812       2.75463591      -0.70466926
C       -1.11632482       1.98566944      -3.05041349
C        1.01859870      -2.97497772      -0.93339281
C       -1.74177726      -2.40187782       2.33627889
C        2.91539823       3.01081000       0.62701929
C       -1.50264031       3.44381032      -0.36173936
C       -1.16030004      -0.56522941      -3.08808087
C       -0.59118904       3.87987986      -1.38500476
60
Properties=species:S:1:pos:R:3 trajectory=trial0001_proposal001_step007_proposal_relax trajectory_step=47 pbc="F F F"
C       -1.39000671      -2.96205406      -0.89409628
C        1.95963460      -2.44064180       2.49963209
C       -1.24323780       0.14153393       2.42641053
C       -0.26925827       3.04652291      -2.53092501
C       -2.47256063       1.86456221      -2.91612199
C        0.82718524      -1.03977462       3.46961841
C       -2.57930324      -2.15797854      -0.86360467
C       -2.39469092      -3.10004814       1.22048447
C        0.53787991       4.08733494       0.65405486
C        1.15431663       2.94509397      -2.49109897
C       -2.59952582       2.45718511      -0.44321602
C        0.80740045       2.10196991       1.80657058
C       -0.15225929      -2.58856337      -1.57403757
C        0.65940272       4.33458958      -0.74511771
C        3.03296882       3.55744367       1.87034900
C       -3.09270911      -0.91330669       1.17287431
C        2.34321650      -0.06383515       1.92413588
C        0.93103117       0.58210070      -3.03699671
C       -0.45629316       0.69621283      -3.31980873
C       -0.16132395      -3.59653850       1.11900044
C        2.39192216       1.47475452      -1.22244980
C        2.16337244      -0.89842484      -1.62073520
C       -3.20435840       0.64292233      -3.12751688
C       -2.97482158      -1.06795266      -1.64425803
C       -3.75140541      -0.06335941      -0.98335411
C       -3.39457684       0.23960581       0.38143736
C        2.55427091       0.15520449      -0.70325800
C       -3.10544648      -2.16131331       0.47788165
C        1.18062083      -0.74432560      -2.61236156
C        0.15048991       0.05546547       2.85725804
C        2.75642419      -1.90655873       0.32417149
C        1.07845448      -3.50508917       0.46184388
C       -3.98956779       0.95445210      -1.92282385
C        1.72661981       3.67707639      -1.39250706
C       -2.11842879      -1.00066617       2.24871961
C        2.21675601      -2.13510544      -0.96653889
C       -2.47504011      -0.57894734      -2.87119659
C       -3.19821896       2.12043668      -1.69778746
C       -2.67740495       1.46368112       0.64386648
C       -1.59748764       1.31797707       1.62313213
C       -1.36286732      -3.63917288       0.37181536
C       -0.05300798      -1.50802282      -2.56151519
C        1.22655635       0.83175846       2.23780611
C        0.63401936      -2.39203247       3.04940645
C        2.17247047      -2.87460497       1.19033274
C        2.74977274      -0.48709674       0.62132348
C       -0.72338652       3.41488714       0.74331937
C        2.19507169      -1.09770615       2.91383855
C       -0.56950268       2.23729747       1.47459733
C        1.65575313       1.63313138      -2.46382145
C        1.54867900       3.31402963       1.44515305
C       -0.42885205      -2.88259504       2.32094207
C        2.56274189       2.76676334      -0.64906685
C       -1.07112922       1.95815651      -3.07725604
C        1.06766375      -2.97210634      -0.88947348
C       -1.75860002      -2.40151582       2.32151569
C        2.85813680       3.03288069       0.68214993
C       -1.54006604       3.43673245      -0.39939619
C       -1.08630618      -0.59410725      -3.11554249
C       -0.61056419       3.87196198      -1.40953120
60
Properties=species:S:1:pos:R:3 trajectory=trial0001_proposal001_step007_proposal_relax trajectory_step=48 pbc="F F F"
C       -1.34377581      -2.97264248      -0.89152974
C        1.95434254      -2.40555661       2.54936275
C       -1.28670569       0.14368847       2.39859296
C       -0.25819549       3.03058784      -2.53706508
C       -2.43669190       1.83355534      -2.96428419
C        0.78902231      -1.01196941       3.46249561
C       -2.54026220      -2.18315520      -0.88713894
C       -2.38497362      -3.11710063       1.20578673
C        0.48273362       4.10492393       0.65055799
C        1.16494055       2.93546242      -2.47782135
C       -2.61845551       2.43457301      -0.49051350
C        0.74139511       2.12138877       1.80859512
C       -0.10162482      -2.59289825      -1.55695577
C        0.62765919       4.33455940      -0.74706915
C        2.94673999       3.61926286       1.90928543
C       -3.11993563      -0.94095937       1.13920840
C        2.31409800      -0.02468307       1.94661366
C        0.98079554       0.57086444      -3.02553247
C       -0.39582683       0.68052105      -3.32952205
C       -0.14486451      -3.58965544       1.14233727
C        2.39797995       1.48516803      -1.18384502
C        2.20382419      -0.89740404      -1.57808991
C       -3.15389661       0.60422699      -3.17706496
C       -2.92373220      -1.09132799      -1.67847439
C       -3.72453575      -0.09529383      -1.03778485
C       -3.41084082       0.21114821       0.33796606
C        2.57556031       0.16733201      -0.66645691
C       -3.09953747      -2.18864248       0.43985165
C        1.23643899      -0.75103486      -2.58978677
C        0.10248161       0.07049622       2.83848196
C        2.77575611      -1.88302822       0.37689916
C        1.10246047      -3.49135411       0.50356177
C       -3.96357941       0.91159862      -1.98448498
C        1.71081081       3.67722074      -1.37069591
C       -2.15300078      -1.00746669       2.22687966
C        2.25420759      -2.12251687      -0.92134572
C       -2.41209132      -0.60441017      -2.89786619
C       -3.18647801       2.09033336      -1.75591818
C       -2.71229745       1.44882319       0.60504793
C       -1.65156720       1.31679935       1.60001788
C       -1.33819943      -3.64760195       0.37504199
C        0.00641292      -1.52306209      -2.55940987
C        1.17398251       0.85777753       2.23083323
C        0.62000907      -2.37083397       3.07618292
C        2.18152899      -2.84776935       1.24144350
C        2.74904552      -0.46162931       0.66075783
C       -0.77913898       3.42575787       0.73059452
C        2.16660159      -1.05548463       2.94375357
C       -0.62797713       2.26182260       1.46935581
C        1.68545480       1.63790360      -2.43670505
C        1.47769283       3.34002302       1.46342542
C       -0.43966591      -2.87052148       2.33154706
C        2.53868188       2.77646253      -0.60397697
C       -1.03482698       1.93613336      -3.09987016
C        1.10861372      -2.97101977      -0.85100068
C       -1.77214935      -2.40495416       2.31047540
C        2.80480740       3.05613956       0.73022992
C       -1.57013154       3.42717107      -0.43303305
C       -1.01994383      -0.61265218      -3.13278000
C       -0.62855141       3.86518366      -1.43093356
60
Properties=species:S:1:pos:R:3 trajectory=trial0001_proposal001_step007_proposal_relax trajectory_step=49 pbc="F F F"
C       -1.31846216      -2.97769156      -0.89222213
C        1.95395763      -2.38950763       2.57909624
C       -1.31162465       0.14537279       2.37835134
C       -0.25453315       3.02178971      -2.53906343
C       -2.41472594       1.81126684      -2.98663444
C        0.76600661      -0.99663406       3.45157699
C       -2.51352068      -2.19206368      -0.90163119
C       -2.38019103      -3.12401907       1.19740271
C        0.44880071       4.11183842       0.64370969
C        1.16611793       2.93017305      -2.46648516
C       -2.62145128       2.41616992      -0.52002369
C        0.70340259       2.13231984       1.80495806
C       -0.07256861      -2.59227779      -1.54858961
C        0.60681627       4.33111809      -0.74966548
C        2.90046951       3.65273322       1.93194243
C       -3.13341274      -0.95804770       1.12187912
C        2.29503640      -0.00098795       1.96219854
C        1.01352283       0.56908152      -3.01800937
C       -0.36066284       0.67698984      -3.33260919
C       -0.14413683      -3.58862708       1.15522566
C        2.40529716       1.49034516      -1.16037911
C        2.22471007      -0.89610375      -1.55113346
C       -3.12604100       0.58020882      -3.20222352
C       -2.90014882      -1.10670645      -1.70163420
C       -3.70966263      -0.11582524      -1.06759256
C       -3.41602337       0.19315623       0.30787211
C        2.58841670       0.17389212      -0.64478975
C       -3.08625598      -2.19726710       0.41895634
C        1.26893507      -0.75231887      -2.57489061
C        0.07535138       0.07711669       2.82270281
C        2.78755313      -1.87065333       0.41338149
C        1.10793911      -3.47243696       0.52863441
C       -3.95217904       0.88893367      -2.02030167
C        1.70033773       3.66999057      -1.35816980
C       -2.17092139      -1.01321710       2.21699197
C        2.27765478      -2.12054625      -0.89460950
C       -2.37435867      -0.61655703      -2.91173662
C       -3.17740027       2.06901500      -1.78679886
C       -2.72887011       1.43798398       0.57906108
C       -1.68021382       1.31783976       1.58194083
C       -1.32805636      -3.65568457       0.37603531
C        0.04328975      -1.52698592      -2.55837667
C        1.14438847       0.87303791       2.22885923
C        0.61105139      -2.36006214       3.08689616
C        2.18326291      -2.82859646       1.26831487
C        2.74244957      -0.44598231       0.68619080
C       -0.80983636       3.43755286       0.72454860
C        2.15108303      -1.02784448       2.95946156
C       -0.66351878       2.27152115       1.46387778
C        1.70352634       1.63826140      -2.41905380
C        1.43698777       3.35143202       1.46705386
C       -0.44383081      -2.87094004       2.34208958
C        2.52722961       2.78384045      -0.57892215
C       -1.01542739       1.92501290      -3.11307428
C        1.13292335      -2.96799103      -0.82999835
C       -1.78138863      -2.40844503       2.30799798
C        2.76935513       3.07561194       0.75805951
C       -1.58457408       3.41726588      -0.45109466
C       -0.98127673      -0.61641586      -3.13395839
C       -0.63997388       3.85984489      -1.44336733
60
Properties=species:S:1:pos:R:3 trajectory=trial0001_proposal001_step007_proposal_relax trajectory_step=50 pbc="F F F"
C       -1.28001736      -2.98726590      -0.90016080
C        1.95102327      -2.36307993       2.62565130
C       -1.35406610       0.14799494       2.35323219
C       -0.24776303       3.00620490      -2.54822429
C       -2.38683380       1.77362420      -3.01924659
C        0.72767876      -0.97431249       3.44565328
C       -2.47181490      -2.20370876      -0.92424069
C       -2.37257338      -3.13267138       1.17927833
C        0.39669049       4.12612432       0.63761004
C        1.17405318       2.92060957      -2.44468367
C       -2.62771783       2.38597406      -0.56535815
C        0.64971511       2.15215821       1.80739610
C       -0.02413636      -2.59634179      -1.53912499
C        0.57844660       4.32720458      -0.75909999
C        2.83531343       3.69920979       1.97368919
C       -3.14680418      -0.97388649       1.08837670
C        2.26766803       0.03801516       1.98989250
C        1.06442556       0.56427415      -3.00712985
C       -0.31111263       0.66764505      -3.33976694
C       -0.13935959      -3.58789236       1.17309647
C        2.42156010       1.50063583      -1.12252148
C        2.25813605      -0.89325708      -1.51449524
C       -3.08507133       0.54014723      -3.24531434
C       -2.86655072      -1.13487195      -1.74142117
C       -3.69420493      -0.15037294      -1.12364669
C       -3.42154018       0.16644437       0.26121984
C        2.60319802       0.18355094      -0.60806220
C       -3.06177164      -2.20902865       0.38907525
C        1.32109432      -0.74734287      -2.55626724
C        0.02926463       0.08957034       2.79821430
C        2.80295107      -1.85297451       0.46270369
C        1.11485497      -3.44167652       0.56499715
C       -3.93636506       0.84943561      -2.07947870
C        1.67857171       3.66647641      -1.33126028
C       -2.19690464      -1.02115748       2.19996561
C        2.32369166      -2.11625760      -0.84641531
C       -2.32033186      -0.64124237      -2.93989615
C       -3.16535015       2.03126396      -1.83838106
C       -2.75515332       1.41947386       0.53320467
C       -1.72506777       1.31830400       1.55833048
C       -1.30946544      -3.66986630       0.37636175
C        0.10128355      -1.53305320      -2.55293091
C        1.10193100       0.90005818       2.22985856
C        0.59675494      -2.33698439       3.10307873
C        2.18699798      -2.79810751       1.31906331
C        2.73771095      -0.42418720       0.72672267
C       -0.87026709       3.45184609       0.71742600
C        2.12022203      -0.98888335       2.98966057
C       -0.71624102       2.29176256       1.45738953
C        1.73168780       1.63941198      -2.39303557
C        1.37856253       3.37798875       1.47182328
C       -0.45517131      -2.87515425       2.36034480
C        2.51180505       2.79478300      -0.54130628
C       -0.98527594       1.90399817      -3.13529213
C        1.16898128      -2.95994061      -0.79995929
C       -1.79551860      -2.41403960       2.30616167
C        2.71816278       3.10921169       0.79764648
C       -1.60711707       3.40581007      -0.47801125
C       -0.92411633      -0.62663112      -3.13440374
C       -0.65812797       3.84525639      -1.45976101
60
Properties=species:S:1:pos:R:3 trajectory=trial0001_proposal001_step007_proposal_relax trajectory_step=51 pbc="F F F"
C       -1.26779657      -2.99087932      -0.90229200
C        1.94644829      -2.35351648       2.64258611
C       -1.36797895       0.14789128       2.34542765
C       -0.24267684       3.00084451      -2.55259771
C       -2.37491290       1.76163914      -3.03009632
C        0.71085869      -0.96429614       3.44692864
C       -2.45762042      -2.20591972      -0.92866673
C       -2.36706120      -3.13538370       1.17540854
C        0.37591727       4.13164658       0.63362941
C        1.17634231       2.92024261      -2.43538967
C       -2.62974481       2.37617615      -0.58193330
C        0.63494216       2.16191742       1.80757418
C       -0.00808908      -2.59693545      -1.53709345
C        0.56389986       4.32888561      -0.75618836
C        2.81608474       3.71021032       1.98412339
C       -3.14460563      -0.97751913       1.07781987
C        2.26126321       0.04668272       1.99952545
C        1.07831174       0.56905271      -3.00521000
C       -0.29600036       0.66238985      -3.34192041
C       -0.13895893      -3.58736323       1.17920558
C        2.42819486       1.50432729      -1.11086582
C        2.27071395      -0.88978422      -1.50218801
C       -3.07178122       0.52648570      -3.25992965
C       -2.85684371      -1.14294982      -1.75375464
C       -3.69184085      -0.16405565      -1.13971088
C       -3.42380701       0.15923023       0.24056013
C        2.60506257       0.18761055      -0.59597687
C       -3.05338578      -2.20866954       0.37946022
C        1.33834984      -0.74658807      -2.54860705
C        0.01592867       0.09040700       2.78901345
C        2.80712666      -1.84766619       0.48352455
C        1.11833330      -3.42969892       0.57668591
C       -3.93109341       0.83555695      -2.10048684
C        1.67402898       3.66448654      -1.32302170
C       -2.20435559      -1.02412175       2.19309657
C        2.33506685      -2.11348388      -0.83634171
C       -2.30470039      -0.65161421      -2.94951486
C       -3.16135248       2.01863829      -1.85149082
C       -2.75951658       1.41155141       0.51727952
C       -1.73686252       1.31792251       1.54876161
C       -1.30342762      -3.67266149       0.37450172
C        0.11930592      -1.53149226      -2.54738266
C        1.09009181       0.90602928       2.22887364
C        0.58607556      -2.33302165       3.10590220
C        2.18639110      -2.79060375       1.33132120
C        2.73999759      -0.41878065       0.74019797
C       -0.88825846       3.45718342       0.71355358
C        2.10795961      -0.97768163       2.99935744
C       -0.73494746       2.28954696       1.45544455
C        1.74131452       1.63952889      -2.38421291
C        1.36150628       3.38850527       1.47265015
C       -0.45790896      -2.87774006       2.36922560
C        2.50764930       2.80140993      -0.52816383
C       -0.97727421       1.89736708      -3.14183612
C        1.18116602      -2.95362850      -0.78712121
C       -1.80270877      -2.41699184       2.30504973
C        2.70381333       3.12431583       0.80980826
C       -1.61863061       3.39992902      -0.48825964
C       -0.90644630      -0.63130065      -3.13209949
C       -0.66093191       3.83701649      -1.46591559
60
Properties=species:S:1:pos:R:3 trajectory=trial0001_proposal001_step007_proposal_relax trajectory_step=52 pbc="F F F"
C       -1.26276623      -2.99157041      -0.90222644
C        1.94147131      -2.35176965       2.64797179
C       -1.37186916       0.14534033       2.34175650
C       -0.23935753       2.99870053      -2.55398916
C       -2.37090496       1.75842733      -3.03386081
C        0.70226669      -0.96268338       3.44779017
C       -2.45256895      -2.20445634      -0.92926270
C       -2.36590721      -3.13507990       1.17269202
C        0.36586980       4.13382296       0.63422661
C        1.17794451       2.92008218      -2.43070708
C       -2.63080720       2.37195858      -0.58732580
C        0.63090825       2.16514721       1.80700650
C       -0.00248944      -2.59632989      -1.53538244
C        0.55824318       4.33022850      -0.75501983
C        2.80904943       3.71350391       1.98500450
C       -3.14144313      -0.97728459       1.07206026
C        2.26203224       0.04687836       2.00299897
C        1.08341542       0.57129101      -3.00435658
C       -0.29213311       0.66010374      -3.34340269
C       -0.13831591      -3.58636149       1.18178270
C        2.43067429       1.50632990      -1.10732121
C        2.27564414      -0.88529714      -1.49840566
C       -3.06588817       0.52301123      -3.26568954
C       -2.85145722      -1.14555670      -1.75591718
C       -3.69267295      -0.16905703      -1.14578583
C       -3.42459175       0.15675530       0.23309769
C        2.60443408       0.19021169      -0.58989196
C       -3.04981746      -2.20950727       0.37805845
C        1.34430948      -0.74423101      -2.54537276
C        0.01186730       0.08857655       2.78279412
C        2.80709041      -1.84448076       0.49039389
C        1.11950039      -3.42505300       0.58207689
C       -3.92716052       0.83053048      -2.10809688
C        1.67139986       3.66612466      -1.31805113
C       -2.20687248      -1.02587361       2.18943878
C        2.33758131      -2.11033167      -0.83138670
C       -2.29946644      -0.65592671      -2.95289576
C       -3.15941853       2.01243557      -1.85729877
C       -2.75861001       1.40641230       0.50941484
C       -1.74033887       1.31375140       1.54322511
C       -1.29925613      -3.67188619       0.37392734
C        0.12583094      -1.52890544      -2.54170105
C        1.08721407       0.90692566       2.22570062
C        0.57971156      -2.33188911       3.10843983
C        2.18419444      -2.78802835       1.33839922
C        2.74408073      -0.41724032       0.74611436
C       -0.89528520       3.45560912       0.71095382
C        2.10116657      -0.97412456       3.00361964
C       -0.73962031       2.28725995       1.45270836
C        1.74455583       1.64138550      -2.38121009
C        1.35513265       3.39392028       1.47262133
C       -0.46179576      -2.88029427       2.37255697
C        2.50535493       2.80500893      -0.52456500
C       -0.97303989       1.89467477      -3.14420165
C        1.18431958      -2.94741347      -0.78078263
C       -1.80585318      -2.41959803       2.30476308
C        2.70107066       3.13106860       0.81227446
C       -1.62384040       3.39736685      -0.49304802
C       -0.90084673      -0.63395340      -3.13102787
C       -0.66131379       3.83161989      -1.46745701
60
Properties=species:S:1:pos:R:3 trajectory=trial0001_proposal001_step007_proposal_relax trajectory_step=53 pbc="F F F"
C       -1.23931283      -2.99753930      -0.90480705
C        1.92678300      -2.33634525       2.67340788
C       -1.39073591       0.14334463       2.33066577
C       -0.23088950       2.98726594      -2.55884075
C       -2.35440825       1.74074267      -3.05853923
C        0.67286405      -0.94916554       3.45165601
C       -2.43005962      -2.21261994      -0.94051298
C       -2.35965613      -3.14036386       1.16045834
C        0.33110312       4.14684353       0.63831458
C        1.18566624       2.91821918      -2.41861444
C       -2.64103618       2.35744919      -0.61316480
C        0.60647594       2.17940048       1.81042892
C        0.02417391      -2.59744803      -1.52817468
C        0.53814098       4.33191999      -0.75356769
C        2.77430211       3.73551669       2.00217134
C       -3.14098165      -0.98393215       1.04687910
C        2.25339743       0.06051015       2.02083035
C        1.10844384       0.57082226      -2.99899403
C       -0.26716531       0.64839833      -3.34915377
C       -0.13070270      -3.58253309       1.19306909
C        2.43785182       1.51551198      -1.08802382
C        2.29857239      -0.87660008      -1.47976857
C       -3.04220109       0.50114030      -3.29618922
C       -2.83030106      -1.15956273      -1.77497029
C       -3.69105860      -0.18989526      -1.17815411
C       -3.42997660       0.14275481       0.20378151
C        2.61128309       0.20065589      -0.56541028
C       -3.03884635      -2.21809070       0.35913543
C        1.37296121      -0.74099294      -2.53281687
C       -0.00899326       0.09360209       2.77062302
C        2.81441591      -1.83172684       0.51776207
C        1.13004219      -3.41253543       0.60426150
C       -3.91567385       0.80423322      -2.14455154
C        1.66058533       3.67182356      -1.30123165
C       -2.22062320      -1.03005922       2.17676628
C        2.35671679      -2.09727056      -0.80737952
C       -2.27407370      -0.67556482      -2.97121458
C       -3.15496189       1.98898739      -1.88861947
C       -2.76667357       1.39149927       0.48094793
C       -1.75833032       1.30956025       1.52808239
C       -1.28337339      -3.67199046       0.37212364
C        0.15572971      -1.52979713      -2.52995589
C        1.06754754       0.91758432       2.22148741
C        0.55721614      -2.32436217       3.12333527
C        2.18371269      -2.77308285       1.36942717
C        2.75256003      -0.40592483       0.77207133
C       -0.92749699       3.45757469       0.70268086
C        2.07726854      -0.95622201       3.02575140
C       -0.76660082       2.29139321       1.45036404
C        1.76023509       1.64439573      -2.36875728
C        1.32274716       3.41414634       1.48187302
C       -0.47205762      -2.88167333       2.38327890
C        2.49596705       2.81637554      -0.50511847
C       -0.95528421       1.88162851      -3.15666632
C        1.20241218      -2.93510725      -0.75900651
C       -1.81757557      -2.42493531       2.30071674
C        2.68466132       3.15141727       0.83075124
C       -1.64201239       3.38999093      -0.51070379
C       -0.87310892      -0.64711038      -3.13592646
C       -0.66903956       3.81802250      -1.47603965
60
Properties=species:S:1:pos:R:3 trajectory=trial0001_proposal001_step007_proposal_relax trajectory_step=54 pbc="F F F"
C       -1.22364245      -2.99899460      -0.90585581
C        1.90686925      -2.32559828       2.69291095
C       -1.39725052       0.14101994       2.31948318
C       -0.22628327       2.97975221      -2.55775997
C       -2.34388936       1.72760202      -3.07359201
C        0.65314649      -0.94693450       3.45136773
C       -2.41625142      -2.21354932      -0.95187706
C       -2.35788836      -3.14181526       1.15169488
C        0.31088045       4.15501312       0.63986911
C        1.18856540       2.91902628      -2.41156899
C       -2.64581962       2.34531628      -0.63169769
C        0.59276564       2.18364117       1.80792242
C        0.03943463      -2.59289388      -1.51970030
C        0.52373126       4.33028686      -0.74965956
C        2.75215913       3.74744868       2.00812382
C       -3.13754483      -0.98973903       1.03076367
C        2.24643465       0.06599436       2.03459141
C        1.12386434       0.57355870      -2.99312892
C       -0.25198097       0.64378234      -3.35027633
C       -0.12945337      -3.57973442       1.20023805
C        2.44124167       1.52291202      -1.07563706
C        2.31310395      -0.86285308      -1.46480186
C       -3.02688387       0.48744062      -3.31442936
C       -2.81982775      -1.17082228      -1.78517722
C       -3.69087279      -0.20549858      -1.19636910
C       -3.42986066       0.13202624       0.18341403
C        2.61980563       0.21091141      -0.54864850
C       -3.02693181      -2.22383720       0.34671199
C        1.38831565      -0.73689239      -2.52081647
C       -0.01947819       0.09674418       2.76150138
C        2.81946782      -1.82206579       0.53630020
C        1.13356693      -3.40179159       0.61712453
C       -3.90865361       0.78849734      -2.17006044
C        1.65074978       3.67674012      -1.29289990
C       -2.22660880      -1.03434078       2.16807039
C        2.36408626      -2.08907393      -0.78719341
C       -2.25869091      -0.68637460      -2.98120625
C       -3.15050565       1.97254156      -1.90905688
C       -2.76550148       1.37883156       0.46041651
C       -1.76600963       1.30122334       1.51181831
C       -1.27235970      -3.66978978       0.37287436
C        0.17213327      -1.52595186      -2.52002026
C        1.05818826       0.92250148       2.21647873
C        0.54274104      -2.31866113       3.13701629
C        2.18026847      -2.76177988       1.38548243
C        2.75798852      -0.39793225       0.78925479
C       -0.94618606       3.45342931       0.69623607
C        2.05828365      -0.95133352       3.03973136
C       -0.77820001       2.29307226       1.44306248
C        1.76942240       1.64918058      -2.36042353
C        1.30476809       3.42459563       1.48704387
C       -0.48720218      -2.88696195       2.38869511
C        2.49186881       2.82802666      -0.49269292
C       -0.94259999       1.87387833      -3.16359471
C        1.21306232      -2.92311622      -0.74278676
C       -1.82542094      -2.43059450       2.29860122
C        2.67522799       3.16763968       0.84035037
C       -1.65153322       3.38032601      -0.52186291
C       -0.85418717      -0.65276108      -3.13585644
C       -0.67399723       3.80901050      -1.48027018
60
Properties=species:S:1:pos:R:3 trajectory=trial0001_proposal001_step007_proposal_relax trajectory_step=55 pbc="F F F"
C       -1.21794052      -2.99993536      -0.90599210
C        1.90566804      -2.32353174       2.69628549
C       -1.40179775       0.14159079       2.31596522
C       -0.22549144       2.97756455      -2.55794041
C       -2.33958263       1.72315092      -3.08049892
C        0.64745337      -0.94216740       3.45217965
C       -2.41104295      -2.21908960      -0.95564920
C       -2.35677905      -3.14485073       1.14897408
C        0.30418726       4.15681933       0.64110371
C        1.18970764       2.91889382      -2.41086696
C       -2.64841602       2.34222074      -0.63800721
C        0.58553254       2.18594253       1.80813853
C        0.04560744      -2.59281545      -1.51672350
C        0.52012859       4.32969830      -0.75056552
C        2.74163745       3.75549298       2.01503903
C       -3.14060518      -0.99439861       1.02565716
C        2.24174462       0.07030228       2.03863706
C        1.13015168       0.57117464      -2.99062146
C       -0.24436667       0.64211705      -3.35103363
C       -0.12713371      -3.57860576       1.20304269
C        2.44164129       1.52606207      -1.06997328
C        2.31785171      -0.86345090      -1.45868834
C       -3.02077095       0.48128208      -3.32154623
C       -2.81478456      -1.17373259      -1.79186502
C       -3.68790265      -0.20971342      -1.20441608
C       -3.43106649       0.12793315       0.17782141
C        2.62416838       0.21378906      -0.54385184
C       -3.02611575      -2.22701584       0.34076912
C        1.39495060      -0.73651296      -2.51718829
C       -0.02491800       0.09949203       2.76117152
C        2.82227681      -1.81921908       0.54368913
C        1.13638632      -3.40072727       0.62267469
C       -3.90605103       0.78231616      -2.17832838
C        1.64910051       3.67733131      -1.29019579
C       -2.23010220      -1.03503844       2.16494633
C        2.36904037      -2.08533053      -0.78128640
C       -2.25070245      -0.69005695      -2.98507823
C       -3.14963469       1.96833172      -1.91775631
C       -2.76962964       1.37667040       0.45481900
C       -1.77106228       1.30150903       1.50846770
C       -1.26931926      -3.67053768       0.37275010
C        0.17954509      -1.52825048      -2.51968263
C        1.05213370       0.92541367       2.21690942
C        0.53658948      -2.31759271       3.14094137
C        2.18131968      -2.75706424       1.39381256
C        2.75780043      -0.39357189       0.79523662
C       -0.95183738       3.45550406       0.69472328
C        2.05457346      -0.94454873       3.04394897
C       -0.78463737       2.29577123       1.44257097
C        1.77313812       1.65004880      -2.35689537
C        1.29607502       3.42765235       1.49037124
C       -0.48674530      -2.88485277       2.39107249
C        2.48899484       2.83006090      -0.48822606
C       -0.93841497       1.87051679      -3.16632891
C        1.21800863      -2.92300974      -0.73876086
C       -1.82857255      -2.43023867       2.29671557
C        2.66935316       3.16975155       0.84452657
C       -1.65491611       3.37855253      -0.52610185
C       -0.84695733      -0.65528799      -3.13834634
C       -0.67684331       3.80846984      -1.48231664
60
Properties=species:S:1:pos:R:3 trajectory=trial0001_proposal001_step007_proposal_relax trajectory_step=56 pbc="F F F"
C       -1.21303525      -2.99993190      -0.90632839
C        1.90076464      -2.32129844       2.70028301
C       -1.40382076       0.14183380       2.31176021
C       -0.22567123       2.97549490      -2.55705392
C       -2.33588681       1.71832731      -3.08683320
C        0.64203167      -0.93942623       3.45340815
C       -2.40696587      -2.22404535      -0.96052200
C       -2.35598211      -3.14777735       1.14609687
C        0.29964918       4.15817402       0.64229474
C        1.19006044       2.92003703      -2.41080413
C       -2.64995939       2.33837785      -0.64454761
C        0.58124855       2.18638068       1.80715383
C        0.05044145      -2.59084647      -1.51301552
C        0.51680611       4.32829134      -0.75046643
C        2.73297359       3.76086650       2.01943658
C       -3.14185722      -0.99885111       1.02059311
C        2.23676491       0.07334399       2.04318109
C        1.13509087       0.57039561      -2.98703702
C       -0.23787400       0.64125971      -3.35054716
C       -0.12612004      -3.57741592       1.20540103
C        2.44178938       1.53033063      -1.06485443
C        2.32154005      -0.86204200      -1.45214041
C       -3.01588733       0.47526454      -3.32807154
C       -2.81226115      -1.17738481      -1.79864097
C       -3.68593823      -0.21404137      -1.21167648
C       -3.43048250       0.12337146       0.17198798
C        2.62979614       0.21815945      -0.53905289
C       -3.02418257      -2.22953581       0.33431256
C        1.39979364      -0.73505282      -2.51200792
C       -0.02878092       0.10238798       2.76194003
C        2.82476933      -1.81604798       0.55082688
C        1.13793421      -3.39905014       0.62710101
C       -3.90452345       0.77646675      -2.18620562
C        1.64699706       3.67871404      -1.28888877
C       -2.23164828      -1.03592646       2.16166782
C        2.37245988      -2.08081062      -0.77452184
C       -2.24425705      -0.69310878      -2.98855016
C       -3.14884210       1.96412432      -1.92579760
C       -2.77115526       1.37355190       0.44876591
C       -1.77251044       1.30101197       1.50346548
C       -1.26693185      -3.67048644       0.37255169
C        0.18511793      -1.52906450      -2.51854894
C        1.04813243       0.92736326       2.21799972
C        0.52993334      -2.31677708       3.14563346
C        2.18092597      -2.75236609       1.39980466
C        2.75771091      -0.38894942       0.80127084
C       -0.95578448       3.45639830       0.69295472
C        2.04960461      -0.94149190       3.04804713
C       -0.78844189       2.29652601       1.44070727
C        1.77595518       1.65148297      -2.35360225
C        1.29012734       3.42946644       1.49338145
C       -0.48869316      -2.88422778       2.39312848
C        2.48726295       2.83350028      -0.48553411
C       -0.93513278       1.86782715      -3.16799852
C        1.22185485      -2.92181912      -0.73489617
C       -1.83200821      -2.43050080       2.29492221
C        2.66494808       3.17308310       0.84840696
C       -1.65675769       3.37560124      -0.52916356
C       -0.84095491      -0.65666260      -3.13957012
C       -0.67951160       3.80780389      -1.48337832
60
Properties=species:S:1:pos:R:3 trajectory=trial0001_proposal001_step007_proposal_relax trajectory_step=57 pbc="F F F"
C       -1.20592928      -2.99999515      -0.90670327
C        1.89257163      -2.31772925       2.70751316
C       -1.40679736       0.14117847       2.30499874
C       -0.22576413       2.97292572      -2.55664355
C       -2.33100761       1.71105798      -3.09568787
C        0.63315836      -0.93583134       3.45667239
C       -2.40244205      -2.22965682      -0.96798605
C       -2.35557425      -3.15129559       1.14154324
C        0.29299225       4.15982374       0.64316173
C        1.19062940       2.92179417      -2.41006100
C       -2.65106906       2.33215361      -0.65439250
C        0.57616667       2.18706975       1.80538809
C        0.05771440      -2.58754574      -1.50802974
C        0.51163339       4.32713598      -0.74946375
C        2.72093613       3.76801973       2.02568806
C       -3.14218303      -1.00412686       1.01258722
C        2.23054018       0.07710541       2.04967162
C        1.14203105       0.57139507      -2.98112258
C       -0.22929068       0.63964942      -3.34979017
C       -0.12534606      -3.57559416       1.20879468
C        2.44289733       1.53630821      -1.05795938
C        2.32677307      -0.85757005      -1.44243912
C       -3.00894895       0.46712165      -3.33766908
C       -2.80815907      -1.18429208      -1.80815764
C       -3.68326449      -0.22091453      -1.22228722
C       -3.42922643       0.11678663       0.16219290
C        2.63705122       0.22498397      -0.53132312
C       -3.02139579      -2.23395567       0.32601196
C        1.40667460      -0.73264801      -2.50341651
C       -0.03500850       0.10549666       2.76275472
C        2.82741159      -1.81036143       0.56209357
C        1.14014044      -3.39562755       0.63342355
C       -3.90173382       0.76829707      -2.19823508
C        1.64410380       3.68144874      -1.28709970
C       -2.23378542      -1.03762801       2.15552058
C        2.37693967      -2.07499960      -0.76384465
C       -2.23508971      -0.69788398      -2.99425674
C       -3.14758585       1.95741123      -1.93731551
C       -2.77231161       1.36797044       0.43887836
C       -1.77432004       1.29877421       1.49494552
C       -1.26292490      -3.67074877       0.37178296
C        0.19355508      -1.52889313      -2.51561173
C        1.04277822       0.92977335       2.22026273
C        0.52062823      -2.31505841       3.15219851
C        2.17906820      -2.74646621       1.40808502
C        2.75883646      -0.38222162       0.81046140
C       -0.96173030       3.45654595       0.69075793
C        2.04112222      -0.93831079       3.05414681
C       -0.79262566       2.29621007       1.43682227
C        1.77954137       1.65437893      -2.34856586
C        1.28215470       3.43220492       1.49664613
C       -0.49338883      -2.88425160       2.39635237
C        2.48492667       2.84008076      -0.48098867
C       -0.93052580       1.86413691      -3.16989228
C        1.22778624      -2.91863227      -0.72829881
C       -1.83682903      -2.43195472       2.29234806
C        2.65861844       3.17879721       0.85253440
C       -1.66013383       3.37122801      -0.53345464
C       -0.83176109      -0.65849986      -3.14043220
C       -0.68260218       3.80570830      -1.48488132
60
Properties=species:S:1:pos:R:3 trajectory=trial0001_proposal001_step007_proposal_relax trajectory_step=58 pbc="F F F"
C       -1.19441179      -3.00010634      -0.90817830
C        1.87800884      -2.31197747       2.72104861
C       -1.41297379       0.13855850       2.29254503
C       -0.22563553       2.97035652      -2.55788906
C       -2.32364315       1.69893815      -3.11173140
C        0.61679278      -0.93017265       3.46745052
C       -2.39671793      -2.24297719      -0.98076913
C       -2.35511360      -3.15883716       1.13282508
C        0.28174705       4.16137824       0.64404970
C        1.19152098       2.92638676      -2.40852266
C       -2.65154908       2.32057243      -0.67242928
C        0.56863774       2.18737940       1.80321915
C        0.07113546      -2.58259049      -1.49974255
C        0.50404357       4.32676837      -0.74905368
C        2.70025233       3.77718531       2.03246438
C       -3.14203809      -1.01336245       0.99572581
C        2.21955123       0.08320846       2.06302699
C        1.15258863       0.57338879      -2.96838774
C       -0.21522163       0.63758998      -3.34769260
C       -0.12376682      -3.57227061       1.21414061
C        2.44660431       1.54833473      -1.04656722
C        2.33607025      -0.84878983      -1.42262424
C       -2.99706747       0.45269565      -3.35593704
C       -2.80124626      -1.19747749      -1.82718685
C       -3.67690834      -0.23429829      -1.24306852
C       -3.42670244       0.10499067       0.14200816
C        2.64810761       0.23813074      -0.51650289
C       -3.02057517      -2.24325988       0.31139524
C        1.41833565      -0.72576945      -2.48716339
C       -0.04750004       0.11042458       2.76729552
C        2.82954722      -1.79941487       0.58280097
C        1.14311511      -3.39031087       0.64477766
C       -3.89590321       0.75338596      -2.21985176
C        1.63939060       3.68949007      -1.28522322
C       -2.23775130      -1.04155528       2.14124287
C        2.38591191      -2.06306858      -0.74381434
C       -2.21918736      -0.70781179      -3.00661887
C       -3.14564729       1.94605709      -1.95736101
C       -2.77318028       1.35783462       0.42023628
C       -1.77693899       1.29341205       1.47845182
C       -1.25607811      -3.67205012       0.37000855
C        0.20950005      -1.52779739      -2.50920099
C        1.03323725       0.93406262       2.22816382
C        0.50511077      -2.30979152       3.16370757
C        2.17574981      -2.73636674       1.42471769
C        2.76267099      -0.36940610       0.82750914
C       -0.97196823       3.45588404       0.68710417
C        2.02471481      -0.93227426       3.06526598
C       -0.79784052       2.29305163       1.42869054
C        1.78514097       1.66108279      -2.33808143
C        1.27112238       3.43673771       1.50093199
C       -0.50227245      -2.88421750       2.40105412
C        2.48128145       2.85208217      -0.47572996
C       -0.92356620       1.85700743      -3.17267408
C        1.23871128      -2.91244824      -0.71643135
C       -1.84604099      -2.43518137       2.28640886
C        2.64724772       3.19289966       0.86713613
C       -1.66594182       3.36532733      -0.53998825
C       -0.81476139      -0.66227558      -3.14201558
C       -0.68707281       3.80153612      -1.48673677
60
Properties=species:S:1:pos:R:3 trajectory=trial0001_proposal001_step007_proposal_relax trajectory_step=59 pbc="F F F"
C       -1.19070888      -3.00059277      -0.90850873
C        1.87246522      -2.30933019       2.72689705
C       -1.41517118       0.13680420       2.28817753
C       -0.22537585       2.96992683      -2.55897757
C       -2.32161741       1.69498519      -3.11674542
C        0.61061568      -0.92821787       3.47248805
C       -2.39615022      -2.24613270      -0.98564081
C       -2.35565921      -3.16080002       1.12963342
C        0.27805851       4.16169625       0.64347955
C        1.19187220       2.92838770      -2.40756013
C       -2.65084553       2.31671869      -0.67850645
C        0.56699158       2.18769435       1.80259636
C        0.07574350      -2.58093561      -1.49736134
C        0.50081007       4.32767299      -0.74811412
C        2.69481772       3.78131200       2.03833021
C       -3.14094530      -1.01563043       0.98915611
C        2.21653567       0.08468948       2.06779936
C        1.15580047       0.57650139      -2.96343981
C       -0.21148146       0.63657167      -3.34669090
C       -0.12403742      -3.57118601       1.21582390
C        2.44857340       1.55251622      -1.04300595
C        2.33889201      -0.84353184      -1.41640102
C       -2.99311287       0.44833780      -3.36215564
C       -2.79859450      -1.20357680      -1.83279056
C       -3.67484311      -0.23922696      -1.25014285
C       -3.42545930       0.10113582       0.13402660
C        2.65078769       0.24280859      -0.51080500
C       -3.02058828      -2.24744748       0.30719058
C        1.42243418      -0.72353336      -2.48051903
C       -0.05195486       0.11115428       2.76917277
C        2.82941577      -1.79515401       0.59054818
C        1.14452677      -3.38780799       0.64842189
C       -3.89327480       0.74870717      -2.22758172
C        1.63866517       3.69265454      -1.28463702
C       -2.23904635      -1.04338737       2.13519357
C        2.38814934      -2.05998603      -0.73661712
C       -2.21403994      -0.71157978      -3.01160171
C       -3.14491199       1.94185895      -1.96369182
C       -2.77243612       1.35368085       0.41306116
C       -1.77724060       1.29052811       1.47208989
C       -1.25348111      -3.67250195       0.36913272
C        0.21493630      -1.52633108      -2.50597997
C        1.03039444       0.93491333       2.23162709
C        0.49963773      -2.30818553       3.16687547
C        2.17390559      -2.73384491       1.42954105
C        2.76478961      -0.36520049       0.83386779
C       -0.97517157       3.45474235       0.68588574
C        2.01830730      -0.93132837       3.06947164
C       -0.79911114       2.29041287       1.42509275
C        1.78632310       1.66356226      -2.33468495
C        1.26664389       3.43801326       1.50144425
C       -0.50583591      -2.88442370       2.40275564
C        2.48062931       2.85806851      -0.47184245
C       -0.92137079       1.85517329      -3.17331633
C        1.24254332      -2.90930868      -0.71174732
C       -1.84905163      -2.43704480       2.28408475
C        2.64414150       3.19616946       0.86510227
C       -1.66840048       3.36332483      -0.54231685
C       -0.80918194      -0.66369003      -3.14197366
C       -0.68768052       3.79947257      -1.48738236
60
Properties=species:S:1:pos:R:3 trajectory=trial0001_proposal001_step007_proposal_relax trajectory_step=60 pbc="F F F"
C       -1.18924374      -3.00158748      -0.90896141
C        1.87048449      -2.30760323       2.73091880
C       -1.41727124       0.13482280       2.28586324
C       -0.22506714       2.97088226      -2.56081914
C       -2.32123428       1.69341999      -3.11934869
C        0.60688513      -0.92699044       3.47774652
C       -2.39725807      -2.24887547      -0.98842664
C       -2.35663100      -3.16219894       1.12757574
C        0.27613528       4.16114485       0.64218522
C        1.19236339       2.92992030      -2.40662158
C       -2.64944041       2.31486155      -0.68177621
C        0.56610029       2.18770127       1.80309991
C        0.07862539      -2.58102929      -1.49681411
C        0.49953535       4.32954023      -0.74830441
C        2.69290744       3.78261408       2.04121406
C       -3.14037812      -1.01667963       0.98384612
C        2.21506388       0.08560032       2.07145211
C        1.15672268       0.57912924      -2.95961334
C       -0.21021264       0.63617564      -3.34558483
C       -0.12427832      -3.57076413       1.21643447
C        2.45082269       1.55520112      -1.04133309
C        2.34033918      -0.83986389      -1.41220599
C       -2.99081785       0.44626105      -3.36606262
C       -2.79664887      -1.20823592      -1.83646185
C       -3.67271011      -0.24240798      -1.25518405
C       -3.42454279       0.09910902       0.12806030
C        2.65058162       0.24569294      -0.50671513
C       -3.02278436      -2.25137898       0.30500862
C        1.42487512      -0.72142568      -2.47623963
C       -0.05555252       0.11098205       2.77182549
C        2.82803452      -1.79230186       0.59535456
C        1.14533611      -3.38641242       0.65053581
C       -3.89086933       0.74614675      -2.23205173
C        1.63908465       3.69580498      -1.28466382
C       -2.24029828      -1.04506620       2.12989534
C        2.38971202      -2.05836702      -0.73232014
C       -2.21132270      -0.71463879      -3.01569131
C       -3.14447160       1.93970017      -1.96672535
C       -2.77158300       1.35123232       0.40822709
C       -1.77770637       1.28782974       1.46815467
C       -1.25232162      -3.67332190       0.36835580
C        0.21863986      -1.52505486      -2.50354715
C        1.02838767       0.93536015       2.23583359
C        0.49735913      -2.30658634       3.16772653
C        2.17289273      -2.73303282       1.43314800
C        2.76640867      -0.36271602       0.83828811
C       -0.97686042       3.45332824       0.68538283
C        2.01443196      -0.93045357       3.07262116
C       -0.79923634       2.28802314       1.42236625
C        1.78640927       1.66581654      -2.33206322
C        1.26478571       3.43830398       1.50048832
C       -0.50762227      -2.88407309       2.40303326
C        2.48081355       2.86199125      -0.47015696
C       -0.92064761       1.85463367      -3.17362251
C        1.24492423      -2.90745613      -0.70893371
C       -1.85057487      -2.43857616       2.28199494
C        2.64240638       3.19922018       0.86512154
C       -1.66981369       3.36334413      -0.54357425
C       -0.80576875      -0.66473974      -3.14196091
C       -0.68727316       3.79832310      -1.48774599
60
Properties=species:S:1:pos:R:3 trajectory=trial0001_proposal001_step007_proposal_relax trajectory_step=61 pbc="F F F"
C       -1.18678261      -3.00387012      -0.90987464
C        1.86822040      -2.30466948       2.73700000
C       -1.42089917       0.13197309       2.28277064
C       -0.22434597       2.97240432      -2.56301957
C       -2.31996992       1.69135281      -3.12376523
C        0.60139228      -0.92531944       3.48496847
C       -2.39776482      -2.25471691      -0.99294065
C       -2.35807017      -3.16507429       1.12454993
C        0.27279466       4.16032265       0.64034505
C        1.19332217       2.93242643      -2.40528642
C       -2.64808517       2.31272616      -0.68687918
C        0.56293637       2.18770395       1.80438554
C        0.08301352      -2.58192212      -1.49586856
C        0.49771849       4.33228679      -0.74931558
C        2.68978773       3.78475151       2.04521938
C       -3.14087976      -1.01986291       0.97524028
C        2.21189365       0.08781791       2.07823354
C        1.15831115       0.58204380      -2.95370977
C       -0.20771178       0.63597078      -3.34338652
C       -0.12401912      -3.57030845       1.21731391
C        2.45383214       1.55957514      -1.03794195
C        2.34301675      -0.83539453      -1.40522456
C       -2.98636446       0.44263444      -3.37227393
C       -2.79344181      -1.21486198      -1.84285792
C       -3.66893228      -0.24732119      -1.26339425
C       -3.42311122       0.09568375       0.11875886
C        2.65040275       0.25017214      -0.49984014
C       -3.02661119      -2.25768341       0.30006444
C        1.42888938      -0.71816812      -2.47019010
C       -0.06121331       0.11144510       2.77656574
C        2.82664069      -1.78827270       0.60263149
C        1.14676602      -3.38466887       0.65430739
C       -3.88677970       0.74179128      -2.23918571
C        1.63980377       3.70061463      -1.28455768
C       -2.24283526      -1.04781939       2.12196816
C        2.39222855      -2.05527932      -0.72607476
C       -2.20681262      -0.71976620      -3.02195267
C       -3.14349983       1.93655652      -1.97158215
C       -2.77062319       1.34771701       0.40086505
C       -1.77911776       1.28396239       1.46259624
C       -1.25089617      -3.67442653       0.36751663
C        0.22442448      -1.52392596      -2.50032169
C        1.02417410       0.93653414       2.24237770
C        0.49425929      -2.30396293       3.16928363
C        2.17231251      -2.73103481       1.43941432
C        2.76725146      -0.35892058       0.84580070
C       -0.97951897       3.45155378       0.68352102
C        2.00930080      -0.92782819       3.07894086
C       -0.80096968       2.28517972       1.41882142
C        1.78709943       1.66927648      -2.32766139
C        1.26132018       3.43839235       1.49948862
C       -0.50963251      -2.88273205       2.40242207
C        2.48145302       2.86762048      -0.46822596
C       -0.91916142       1.85435095      -3.17493738
C        1.24847507      -2.90556967      -0.70479468
C       -1.85294047      -2.44032684       2.27830794
C        2.63961845       3.20439271       0.86746043
C       -1.67148940       3.36338500      -0.54623445
C       -0.80041553      -0.66645980      -3.14258225
C       -0.68713674       3.79782774      -1.48903115
60
Properties=species:S:1:pos:R:3 trajectory=trial0001_proposal001_step007_proposal_relax trajectory_step=62 pbc="F F F"
C       -1.18139606      -3.00954941      -0.91189701
C        1.86421448      -2.29872005       2.74753208
C       -1.42770039       0.12718435       2.27767736
C       -0.22195510       2.97448403      -2.56521766
C       -2.31528314       1.68758437      -3.13224744
C        0.59122875      -0.92249648       3.49454267
C       -2.39561160      -2.26564755      -1.00342093
C       -2.36104269      -3.17088917       1.11809540
C        0.26647533       4.15894278       0.63752455
C        1.19587065       2.93725477      -2.40251472
C       -2.64832884       2.30936981      -0.69651565
C        0.55443184       2.18823978       1.80672147
C        0.09052939      -2.58392638      -1.49327219
C        0.49463255       4.33650873      -0.75097028
C        2.68335595       3.78887649       2.05180700
C       -3.14336197      -1.02772506       0.95987963
C        2.20456535       0.09308270       2.09282520
C        1.16232086       0.58639055      -2.94304776
C       -0.20226813       0.63664353      -3.33860667
C       -0.12340507      -3.56938180       1.21892547
C        2.45702739       1.56778839      -1.02929458
C        2.34787041      -0.82757389      -1.39320264
C       -2.97576763       0.43567928      -3.38306353
C       -2.78740165      -1.22661535      -1.85436359
C       -3.66248264      -0.25638147      -1.27837284
C       -3.41961322       0.08772676       0.10292750
C        2.65105676       0.25855099      -0.48581782
C       -3.03097302      -2.26943222       0.28876874
C        1.43605964      -0.71326505      -2.45976347
C       -0.07139937       0.11292290       2.78440848
C        2.82615252      -1.78167117       0.61535889
C        1.15032778      -3.38157493       0.66163960
C       -3.87855028       0.73355155      -2.25287285
C        1.63994529       3.70887885      -1.28358959
C       -2.24807291      -1.05283807       2.10913099
C        2.39580641      -2.04924409      -0.71382739
C       -2.19757188      -0.72838143      -3.03285419
C       -3.14062720       1.93052389      -1.98186362
C       -2.76908414       1.34047869       0.38755236
C       -1.78251487       1.27732126       1.45330488
C       -1.24775125      -3.67627926       0.36688735
C        0.23372687      -1.52307104      -2.49528301
C        1.01470362       0.93905079       2.25255891
C        0.48679617      -2.30121525       3.17190996
C        2.17238673      -2.72544974       1.45113957
C        2.76405036      -0.35227393       0.86085474
C       -0.98479537       3.44753204       0.67745942
C        2.00187060      -0.92213920       3.09437514
C       -0.80782425       2.28249549       1.41362940
C        1.78987536       1.67442939      -2.31974760
C        1.25403645       3.43813087       1.49930816
C       -0.51183204      -2.87900972       2.40081191
C        2.48374345       2.87840044      -0.46449739
C       -0.91437150       1.85511118      -3.17893465
C        1.25429712      -2.90277434      -0.69722114
C       -1.85767207      -2.44234791       2.27101028
C        2.63467771       3.21407428       0.87279858
C       -1.67371628       3.36207614      -0.55365341
C       -0.79082208      -0.66912528      -3.14369664
C       -0.68821165       3.79999328      -1.49350689
60
Properties=species:S:1:pos:R:3 trajectory=trial0001_proposal001_step007_proposal_relax trajectory_step=63 pbc="F F F"
C       -1.17579839      -3.01477465      -0.91419755
C        1.85927019      -2.29303317       2.75775347
C       -1.43440888       0.12344917       2.27306781
C       -0.21885757       2.97632766      -2.56755916
C       -2.30944784       1.68420439      -3.14042091
C        0.58189764      -0.92165838       3.50192479
C       -2.39212006      -2.27615147      -1.01111410
C       -2.36148514      -3.17669870       1.11315808
C        0.25974985       4.15747417       0.63551424
C        1.19863057       2.94024732      -2.39973553
C       -2.64917493       2.30590650      -0.70573982
C        0.54633412       2.18927007       1.80897395
C        0.09744853      -2.58563892      -1.49103141
C        0.49079318       4.34059326      -0.75193417
C        2.67658107       3.79328679       2.05885888
C       -3.14482234      -1.03537574       0.94711977
C        2.19825523       0.09787974       2.10575047
C        1.16594398       0.58891106      -2.93448914
C       -0.19568335       0.63648710      -3.33490876
C       -0.12115282      -3.56803511       1.22089139
C        2.45931776       1.57494798      -1.02061276
C        2.35272901      -0.82245117      -1.38111105
C       -2.96559673       0.42958642      -3.39281369
C       -2.78176309      -1.23513363      -1.86642726
C       -3.65720896      -0.26486854      -1.29145601
C       -3.41703061       0.08065039       0.08853533
C        2.65094414       0.26582587      -0.47353343
C       -3.03378201      -2.27770396       0.27747696
C        1.44212041      -0.70899207      -2.45138649
C       -0.08089057       0.11404880       2.78927853
C        2.82599321      -1.77508630       0.62755415
C        1.15304788      -3.37893983       0.66876419
C       -3.87122241       0.72543935      -2.26523972
C        1.64058849       3.71529197      -1.28164196
C       -2.25319369      -1.05702302       2.09854182
C        2.39918055      -2.04207956      -0.70448898
C       -2.18925978      -0.73611127      -3.04144224
C       -3.13791972       1.92511070      -1.99141347
C       -2.76843253       1.33357028       0.37584342
C       -1.78654703       1.27215943       1.44555021
C       -1.24514530      -3.67820707       0.36544475
C        0.24209335      -1.52264405      -2.49077800
C        1.00553402       0.94184116       2.26045957
C        0.48280619      -2.29618947       3.17555261
C        2.17235681      -2.72056361       1.46153122
C        2.76052553      -0.34653202       0.87412471
C       -0.98994181       3.44506104       0.67078718
C        1.99470226      -0.91708521       3.10852062
C       -0.81452997       2.27997373       1.41059848
C        1.79337455       1.67967789      -2.31197723
C        1.24646990       3.43882041       1.49981693
C       -0.51713558      -2.87713763       2.39804434
C        2.48510640       2.88768214      -0.46126658
C       -0.90948499       1.85565237      -3.18255856
C        1.25979886      -2.89992790      -0.68982074
C       -1.86157908      -2.44468089       2.26463324
C        2.63031116       3.22214866       0.87669125
C       -1.67674656       3.36026227      -0.56080802
C       -0.78171486      -0.67090753      -3.14442026
C       -0.68920062       3.80212181      -1.49820680
60
Properties=species:S:1:pos:R:3 trajectory=trial0001_proposal001_step007_proposal_relax trajectory_step=64 pbc="F F F"
C       -1.17327732      -3.01743889      -0.91526979
C        1.85826036      -2.29106716       2.76065837
C       -1.43728527       0.12245123       2.27152386
C       -0.21707916       2.97706088      -2.56796591
C       -2.30614090       1.68303096      -3.14363298
C        0.57826365      -0.92036967       3.50311836
C       -2.38973743      -2.27959994      -1.01547686
C       -2.36190994      -3.17891595       1.11034169
C        0.25717983       4.15672004       0.63482179
C        1.20004114       2.94159780      -2.39846306
C       -2.65057810       2.30461342      -0.70930471
C        0.54203492       2.18983256       1.80997393
C        0.10000591      -2.58646352      -1.48979055
C        0.48982352       4.34180341      -0.75248754
C        2.67317071       3.79477419       2.06065287
C       -3.14611308      -1.03901072       0.94270118
C        2.19486186       0.10026656       2.11145458
C        1.16841628       0.58947235      -2.93109954
C       -0.19270420       0.63702528      -3.33347421
C       -0.12082786      -3.56752260       1.22135122
C        2.45891134       1.57747277      -1.01628945
C        2.35384218      -0.82027325      -1.37744308
C       -2.96072183       0.42744589      -3.39610459
C       -2.77943034      -1.23876037      -1.87027223
C       -3.65523770      -0.26802165      -1.29638156
C       -3.41587744       0.07712629       0.08402964
C        2.65094867       0.26847043      -0.46851597
C       -3.03307861      -2.28126422       0.27298064
C        1.44444718      -0.70828176      -2.44822956
C       -0.08440456       0.11441090       2.79043731
C        2.82642455      -1.77289385       0.63185959
C        1.15486909      -3.37805760       0.67153228
C       -3.86814178       0.72255778      -2.26999735
C        1.64021490       3.71746652      -1.28076467
C       -2.25549816      -1.05861665       2.09562801
C        2.40011757      -2.03990759      -0.70002299
C       -2.18508864      -0.73800378      -3.04455001
C       -3.13655312       1.92304458      -1.99588272
C       -2.76880712       1.33096933       0.37178328
C       -1.78889084       1.27087305       1.44339867
C       -1.24338798      -3.67946327       0.36521105
C        0.24466406      -1.52314965      -2.48980052
C        1.00128245       0.94279296       2.26282714
C        0.47921237      -2.29624463       3.17594797
C        2.17288595      -2.71793844       1.46573819
C        2.75686006      -0.34425453       0.87957288
C       -0.99190424       3.44351498       0.66750869
C        1.99321918      -0.91428863       3.11498998
C       -0.81863539       2.28070597       1.41007777
C        1.79525610       1.68036740      -2.30914021
C        1.24341208       3.43892542       1.50089733
C       -0.51691975      -2.87536938       2.39774399
C        2.48588871       2.89093290      -0.45999419
C       -0.90624282       1.85620864      -3.18444079
C        1.26169339      -2.89918201      -0.68734766
C       -1.86349580      -2.44500319       2.26194894
C        2.62842695       3.22535857       0.87994927
C       -1.67750069       3.35913415      -0.56471144
C       -0.77840850      -0.67126840      -3.14462893
C       -0.69012885       3.80448310      -1.50094876
60
Properties=species:S:1:pos:R:3 trajectory=trial0001_proposal001_step007_proposal_relax trajectory_step=65 pbc="F F F"
C       -1.17130081      -3.01935718      -0.91644908
C        1.85712972      -2.28972756       2.76255075
C       -1.43963484       0.12214410       2.27045577
C       -0.21521157       2.97790660      -2.56859415
C       -2.30292378       1.68245193      -3.14582351
C        0.57576534      -0.91983483       3.50308416
C       -2.38729539      -2.28172929      -1.01827823
C       -2.36119315      -3.18059319       1.10808346
C        0.25545077       4.15584851       0.63426278
C        1.20141974       2.94211663      -2.39735733
C       -2.65176978       2.30325745      -0.71198154
C        0.53908512       2.19028203       1.81091418
C        0.10176245      -2.58684971      -1.48891624
C        0.48927772       4.34269429      -0.75279525
C        2.67005301       3.79575233       2.06212525
C       -3.14661602      -1.04140328       0.94034318
C        2.19229298       0.10202936       2.11518492
C        1.17064139       0.58924837      -2.92903623
C       -0.18978516       0.63749896      -3.33289013
C       -0.12033102      -3.56702037       1.22156197
C        2.45783306       1.57887936      -1.01289076
C        2.35396398      -0.81920227      -1.37477100
C       -2.95695677       0.42643056      -3.39801676
C       -2.77784746      -1.24068500      -1.87312837
C       -3.65412649      -0.27020965      -1.29949806
C       -3.41527652       0.07441896       0.08154339
C        2.65014252       0.27005204      -0.46516033
C       -3.03103486      -2.28289899       0.26995560
C        1.44562714      -0.70815928      -2.44634091
C       -0.08697062       0.11424147       2.78971008
C        2.82632714      -1.77115863       0.63484149
C        1.15601442      -3.37756827       0.67329913
C       -3.86602765       0.72063003      -2.27306746
C        1.63984186       3.71864508      -1.27991391
C       -2.25722959      -1.05961395       2.09462336
C        2.40073122      -2.03808179      -0.69689845
C       -2.18196121      -0.73836151      -3.04598544
C       -3.13549987       1.92176101      -1.99931649
C       -2.76971597       1.32926818       0.36940100
C       -1.79115054       1.27085050       1.44260926
C       -1.24183255      -3.68097071       0.36460575
C        0.24609955      -1.52367075      -2.48938723
C        0.99813736       0.94336865       2.26387983
C        0.47696704      -2.29596749       3.17607803
C        2.17328442      -2.71613471       1.46841103
C        2.75338718      -0.34257878       0.88303619
C       -0.99331592       3.44222597       0.66478104
C        1.99209396      -0.91266459       3.11929531
C       -0.82192500       2.28157214       1.41040526
C        1.79680887       1.68047367      -2.30698131
C        1.24112330       3.43920665       1.50214063
C       -0.51724386      -2.87464237       2.39745448
C        2.48613925       2.89280139      -0.45861940
C       -0.90314061       1.85657515      -3.18557165
C        1.26299669      -2.89852716      -0.68563463
C       -1.86474113      -2.44550767       2.26031133
C        2.62703198       3.22707561       0.88200755
C       -1.67799759       3.35805662      -0.56777830
C       -0.77591381      -0.67096132      -3.14438511
C       -0.69083218       3.80659563      -1.50326022
60
Properties=species:S:1:pos:R:3 trajectory=trial0001_proposal001_step007_proposal_relax trajectory_step=66 pbc="F F F"
C       -1.16826478      -3.02224835      -0.91857414
C        1.85498127      -2.28791127       2.76559393
C       -1.44336282       0.12156972       2.26882924
C       -0.21228748       2.97988159      -2.57036952
C       -2.29826260       1.68195071      -3.14883924
C        0.57163282      -0.91912478       3.50381599
C       -2.38431111      -2.28445208      -1.02225278
C       -2.35946140      -3.18306687       1.10487509
C        0.25315501       4.15400053       0.63286597
C        1.20352058       2.94297537      -2.39579027
C       -2.65234897       2.30106321      -0.71608731
C        0.53521930       2.19080784       1.81270592
C        0.10451168      -2.58721816      -1.48801885
C        0.48841359       4.34454740      -0.75334865
C        2.66529396       3.79682063       2.06486840
C       -3.14647554      -1.04455903       0.93687043
C        2.18865178       0.10426845       2.12029276
C        1.17389566       0.58952728      -2.92602245
C       -0.18511230       0.63804767      -3.33220534
C       -0.11958126      -3.56654879       1.22160791
C        2.45636256       1.58093347      -1.00814446
C        2.35347696      -0.81722893      -1.37016039
C       -2.95165832       0.42562079      -3.40085634
C       -2.77552775      -1.24383507      -1.87735897
C       -3.65239126      -0.27348926      -1.30395674
C       -3.41458831       0.07103246       0.07735216
C        2.64751215       0.27242712      -0.46013613
C       -3.02771471      -2.28502805       0.26582202
C        1.44737106      -0.70801611      -2.44303209
C       -0.09099665       0.11336190       2.78835655
C        2.82502057      -1.76784522       0.63983201
C        1.15752012      -3.37674096       0.67555775
C       -3.86289058       0.71803667      -2.27760836
C        1.64019221       3.72051995      -1.27874343
C       -2.25985594      -1.06130688       2.09300970
C        2.40143459      -2.03553778      -0.69234150
C       -2.17725844      -0.73853339      -3.04800500
C       -3.13395490       1.92005133      -2.00404831
C       -2.77126787       1.32707217       0.36590244
C       -1.79494899       1.27089278       1.44155782
C       -1.23940674      -3.68378089       0.36287690
C        0.24845423      -1.52392237      -2.48847486
C        0.99374294       0.94396903       2.26602929
C        0.47401132      -2.29504717       3.17614379
C        2.17328811      -2.71421949       1.47216692
C        2.74877262      -0.33982673       0.88800853
C       -0.99483272       3.44021582       0.66089906
C        1.98947190      -0.91076356       3.12454378
C       -0.82580450       2.28183446       1.41082706
C        1.79859492       1.68096766      -2.30338616
C        1.23783278       3.43942527       1.50368398
C       -0.51848477      -2.87438394       2.39669213
C        2.48599173       2.89543202      -0.45640580
C       -0.89860989       1.85732114      -3.18667296
C        1.26510314      -2.89731969      -0.68304816
C       -1.86630242      -2.44712636       2.25803516
C        2.62496527       3.22932924       0.88479772
C       -1.67863048       3.35637447      -0.57194543
C       -0.77201199      -0.67019189      -3.14381487
C       -0.69116195       3.80927381      -1.50654317
60
Properties=species:S:1:pos:R:3 trajectory=trial0001_proposal001_step007_proposal_relax trajectory_step=67 pbc="F F F"
C       -1.16187170      -3.02735084      -0.92377256
C        1.84831110      -2.28431133       2.77315765
C       -1.45167197       0.11934960       2.26499246
C       -0.20667707       2.98411909      -2.57463661
C       -2.28953715       1.68080071      -3.15548829
C        0.56121006      -0.91853984       3.50717197
C       -2.37729174      -2.29185248      -1.03019880
C       -2.35657700      -3.18773465       1.09636715
C        0.24851553       4.15062278       0.62959206
C        1.20855581       2.94565615      -2.39301180
C       -2.65152219       2.29562464      -0.72527101
C        0.52738977       2.19099387       1.81702929
C        0.11173210      -2.58753507      -1.48630708
C        0.48779048       4.34811435      -0.75539398
C        2.65389127       3.79972891       2.07276943
C       -3.14559985      -1.04913404       0.92680571
C        2.18095091       0.10905272       2.13048426
C        1.18226946       0.58951442      -2.91901803
C       -0.17580938       0.64005759      -3.33105768
C       -0.11758564      -3.56712164       1.22101115
C        2.45399684       1.58531855      -0.99875768
C        2.35318325      -0.81225395      -1.35766297
C       -2.94033763       0.42301861      -3.40844278
C       -2.77013174      -1.24977838      -1.88811401
C       -3.64856499      -0.28004593      -1.31545758
C       -3.41322547       0.06408567       0.06776111
C        2.64146391       0.27861581      -0.44819009
C       -3.02051216      -2.29082404       0.25797414
C        1.45218284      -0.70493547      -2.43590385
C       -0.10099910       0.11265777       2.78645110
C        2.82080537      -1.76072712       0.65086285
C        1.15974869      -3.37498021       0.68058670
C       -3.85625688       0.71211023      -2.28811043
C        1.63993661       3.72648557      -1.27691571
C       -2.26497605      -1.06567654       2.08847181
C        2.40410529      -2.02928136      -0.68047379
C       -2.16743808      -0.73977815      -3.05265827
C       -3.13038485       1.91564216      -2.01442431
C       -2.77456844       1.32339321       0.35717648
C       -1.80282114       1.26983491       1.43847969
C       -1.23381521      -3.68952211       0.35900448
C        0.25586225      -1.52326589      -2.48522513
C        0.98453447       0.94580088       2.27150636
C        0.46652843      -2.29278450       3.17763888
C        2.17215395      -2.70987335       1.48129470
C        2.74188805      -0.33315200       0.89923330
C       -0.99824992       3.43419693       0.65471309
C        1.98019708      -0.90750562       3.13366144
C       -0.83369437       2.28162812       1.40901583
C        1.80121982       1.68442274      -2.29555859
C        1.22984552       3.43981019       1.50618551
C       -0.52145513      -2.87525635       2.39556184
C        2.48479649       2.90144838      -0.44869169
C       -0.88948903       1.85769896      -3.18909422
C        1.27010261      -2.89471113      -0.67749578
C       -1.86976268      -2.45154495       2.25381500
C        2.61940905       3.23370121       0.89054008
C       -1.67824428       3.35289122      -0.58033196
C       -0.76149509      -0.66907894      -3.14321576
C       -0.69138332       3.81243878      -1.51220615
60
Properties=species:S:1:pos:R:3 trajectory=trial0001_proposal001_step007_proposal_relax trajectory_step=68 pbc="F F F"
C       -1.16038617      -3.02866912      -0.92466229
C        1.84736671      -2.28383946       2.77443996
C       -1.45317537       0.11907112       2.26462908
C       -0.20548247       2.98504398      -2.57586575
C       -2.28805421       1.68088859      -3.15641494
C        0.55911119      -0.91800834       3.50764797
C       -2.37704552      -2.29165357      -1.03187523
C       -2.35501416      -3.18891273       1.09617048
C        0.24778674       4.14961373       0.62876520
C        1.20905439       2.94650001      -2.39274348
C       -2.65076668       2.29511636      -0.72671954
C        0.52593130       2.19149583       1.81780132
C        0.11285226      -2.58765413      -1.48652075
C        0.48690768       4.34920637      -0.75533010
C        2.65213441       3.79970680       2.07395816
C       -3.14476812      -1.05045176       0.92588476
C        2.17974963       0.10955512       2.13210592
C        1.18287246       0.59127581      -2.91862794
C       -0.17367610       0.63969844      -3.33086080
C       -0.11753672      -3.56742528       1.22117177
C        2.45342918       1.58651592      -0.99719286
C        2.35252006      -0.81105696      -1.35605308
C       -2.93883710       0.42336635      -3.40938758
C       -2.76908915      -1.25143004      -1.88858238
C       -3.64788934      -0.28114066      -1.31651620
C       -3.41327655       0.06395945       0.06550681
C        2.63954760       0.27923929      -0.44633609
C       -3.01967268      -2.29060963       0.25605369
C        1.45353655      -0.70546670      -2.43397486
C       -0.10248006       0.11182557       2.78631317
C        2.81980350      -1.75920840       0.65336482
C        1.16048909      -3.37470406       0.68090955
C       -3.85512792       0.71178110      -2.28991982
C        1.64153479       3.72680028      -1.27638659
C       -2.26603702      -1.06642637       2.08766884
C        2.40381255      -2.02879590      -0.67943773
C       -2.16519536      -0.73958079      -3.05366916
C       -3.12968747       1.91525736      -2.01542021
C       -2.77514658       1.32285343       0.35629059
C       -1.80447972       1.26989035       1.43817984
C       -1.23317969      -3.69066163       0.35767442
C        0.25696989      -1.52274100      -2.48481063
C        0.98306610       0.94572600       2.27264204
C        0.46563714      -2.29271532       3.17760411
C        2.17151289      -2.70984879       1.48222083
C        2.74081439      -0.33224391       0.90092857
C       -0.99816627       3.43425579       0.65278785
C        1.97851960      -0.90714453       3.13458705
C       -0.83444581       2.28007805       1.40966793
C        1.80176300       1.68432289      -2.29413722
C        1.22872103       3.43965166       1.50657250
C       -0.52242520      -2.87603979       2.39483270
C        2.48412054       2.90201663      -0.44848318
C       -0.88825893       1.85855089      -3.18918344
C        1.27106454      -2.89433921      -0.67655566
C       -1.87006726      -2.45277063       2.25286192
C        2.61863894       3.23429792       0.89225519
C       -1.67828534       3.35201437      -0.58126983
C       -0.76042493      -0.66870391      -3.14303853
C       -0.69056244       3.81294602      -1.51329222
