48
Lattice="11.1993 0.0 0.0 -1.2854978032009368 7.478419419099571 0.0 0.3097925953658349 -1.871895630053651 11.018127943895124" Properties=species:S:1:pos:R:3 source_doi=10.1039/c7sc01459g source_section="SI section 7" source_name=phase-139 reported_vasp_energy_rounded=-429.25 role=reported_phase pbc="T T T"
O        6.07688282       2.80286840       0.97362945
O       -0.46354414       5.52830594       6.94127071
O        2.45944327       6.03083494       7.60973857
O        6.09979659       6.65621676       3.93583164
O        0.17927318       1.78909641       6.94119118
O        5.61191363      -1.12678448      10.20463511
O        1.29663682       1.98126482      10.24176320
O        4.62713238       4.47849842       8.69145659
O        0.65389222       5.72046292      10.24177174
O        6.74253337       2.91704521       3.93583769
O        8.12148852       1.22931991       5.81598255
O        3.10220102       2.29164181       7.60972719
O        7.47873980       4.96852557       5.81603600
O        8.16366467       1.23663083       2.07941096
O        5.43413001       6.54206815       0.97363424
O        1.59627039       0.10791907       8.72863174
O        2.51113914       6.03985281       0.30594981
O        9.93476196      -0.38383192       5.83464017
O       10.07081967       5.41419786       3.97889466
O        4.96918322       2.61242514      10.20463181
O        7.52091993       4.97584436       2.07938491
O        8.69142242       7.10193149       2.09936887
O        6.65609007      -0.94730768       6.88495763
O        5.26985572       0.73927574       8.69146290
O        9.29201804       3.35536944       5.83462861
O       -0.40026307       5.53941649       1.02954318
O        0.24242581       1.80020320       1.02950039
O        6.01338425       2.79187559       6.88497007
O        9.33417343       3.36271633       2.09937114
O        3.15388706       2.30065956       0.30595578
O        0.95351612       3.84711645       8.72863307
O       10.71360846       1.67499064       3.97885960
Ti       9.46944962       5.31085427       2.25717303
Ti      10.07427681       1.56498774       5.68613250
Ti       1.76923033       0.13769200      10.70569934
Ti       0.77787512       5.74177677       8.26079061
Ti       1.12648027       3.87688782      10.70571058
Ti       6.73870778       6.76618056       2.22844270
Ti       1.42063853       2.00257131       8.26076114
Ti       9.43150336       5.30420100       5.68616778
Ti      10.11219012       1.57164245       2.25715259
Ti       5.14508431       0.71784264      10.67247809
Ti       7.34339890       3.02040025       5.65773538
Ti       4.50234571       4.45705007      10.67247106
Ti       5.43961203      -1.15637343       8.22749322
Ti       7.98613802      -0.71880483       5.65773580
Ti       4.79687302       2.58283718       8.22749483
Ti       7.38145581       3.02698360       2.22844477
