60
Properties=species:S:1:pos:R:3 entry_id=4 rank=28 energy=-477.6527404785156 pbc="F F F"
C        1.59952938      -3.22997824      -1.15339399
C        2.56622418       0.39549696      -2.19443058
C        1.69447983       1.88052509       2.35680397
C        2.42257318      -2.10055309      -1.42447658
C       -2.73587420       1.09677723       2.26670046
C        2.22958104       0.67859924       0.25447062
C       -0.02334324      -3.64757577       0.83695609
C        2.54137309      -1.51608055       2.15479680
C       -2.88447140       0.49619448      -3.29111584
C       -0.48912528      -1.08590501      -0.78679134
C       -1.13103192       1.83811706       3.95249637
C        1.38862819       3.83826045       0.30255612
C        0.28092404      -3.54725201      -1.55244374
C       -0.65443136       4.07344795      -0.71405753
C        1.07948240       3.62751330      -2.20180245
C       -0.29707613      -0.54193316       0.51972953
C        2.16130626       2.68776746      -2.27288343
C       -2.94790540      -3.06683026       0.35916876
C       -3.61881771      -2.04447539       0.71178395
C        2.90550808       1.01310852      -0.95588397
C       -2.79048131       1.66119749      -2.48709225
C       -1.72534027      -1.73008553      -1.33739381
C        0.15105653      -2.53111563       2.95596371
C       -2.60122871       0.03089424       1.28979963
C       -0.46762424      -1.56570906       3.46559727
C       -1.24916997      -0.38034381       1.54037305
C       -2.81950326      -0.69728185      -1.05055684
C        2.03558490      -2.46031652       1.31378940
C       -1.86695676      -2.97973265      -0.49062863
C        2.34037035       1.83433277       1.09418052
C       -1.90458875      -1.66518104      -3.92345211
C        1.92741481      -0.89283265      -2.01124884
C       -1.10843166      -0.43149099       2.97563765
C       -1.23012671       3.62835284      -1.98307760
C        1.92450650       0.74085124       3.09958463
C       -1.31838829      -2.20915042      -2.76735680
C        0.73878224      -3.05875838       1.76809810
C       -1.81824821       0.76449403       3.37190524
C       -0.27828583       2.64106355       3.50323020
C        0.65085459       2.89184978       2.49046277
C        2.24221107      -2.65189439      -0.09021704
C       -0.58418128      -3.64331472      -0.36632259
C        2.46170936       2.94881828       0.22240418
C        1.01596833      -0.01082615       0.04087982
C        0.77061986      -0.60482288      -1.23291904
C       -3.05025499       0.31267892      -1.93915146
C       -2.33892950      -1.38624626      -5.20982599
C        2.18984320       1.47912960      -3.01294212
C        0.38654887       3.68241440       1.32422303
C       -2.32626212       2.83264573      -2.17968327
C        0.73646516       4.11887806      -0.90469609
C        2.83337480       2.42406327      -1.04664556
C       -0.12184636       3.56473730      -2.90882838
C       -2.73284641       2.39821901       1.79219170
C       -0.26896549      -3.06684785      -2.69942241
C        2.38791993      -0.44907532       2.84292390
C       -2.55264440      -0.43173391      -4.22090246
C       -0.91769039       3.82662279       0.68753705
C       -3.32878578      -0.71759774       0.31981424
C       -2.08305785       3.29902469       1.23058092
