60
Properties=species:S:1:pos:R:3 entry_id=28 rank=0 energy=-503.0376892089844 pbc="F F F"
C        1.30520190      -2.34173475       0.69560558
C        2.48221964       0.16600866      -2.49462370
C        2.41730582       1.89997277       1.23184801
C        2.58172619      -1.74059727       0.66317112
C       -0.95583073      -1.43573646       3.21846475
C        3.76296140       1.20554806      -0.70713575
C       -1.34494968      -3.18675936       0.92048493
C        0.98065639      -0.08692245       2.62375531
C       -3.34701412       0.20746992      -2.41256724
C        3.16721844      -1.11939626       1.81315068
C        0.36101460      -1.35867744       2.76940853
C        1.10723780       3.52783510      -0.62372051
C        0.45161182      -2.32567772      -0.48165852
C       -1.08192211       3.75076495      -1.13206390
C        0.24047144       2.89471526      -2.79074813
C        4.02608758      -0.02541607       1.32373627
C        1.43370498       2.18287292      -3.03266242
C       -3.34877226      -1.69839090      -0.86109828
C       -3.77951988      -1.39818953       0.45833737
C        3.32143333       1.23949805      -2.05935179
C       -3.65809137       1.24765614      -1.45311553
C       -1.44013455      -1.27558131      -2.32710722
C       -2.35939047      -2.79914840       1.85623715
C       -3.43662562       0.56201728       1.57992715
C       -3.24393046      -1.74904362       1.70661197
C       -1.21414115       0.90696726       2.29516693
C       -4.53033083       0.36014269      -0.75809368
C       -0.43189526      -3.36062008       2.02196243
C       -1.97533648      -1.99312297      -1.21842945
C        3.02488140       2.20553036      -0.00594016
C        0.16084035       0.10844037      -3.24053399
C        2.23693432      -0.96567027      -1.65066009
C       -3.02027006      -0.54028221       2.41340256
C       -1.88967368       2.87091058      -1.90211783
C        3.12037868       0.91204237       1.94792742
C       -0.03248186      -1.14661443      -2.57344779
C       -1.41704720      -2.77549684       2.93617380
C       -1.73366780      -0.30794642       2.91697423
C        0.23350012       1.08677785       2.21243858
C        0.98450173       2.09874208       1.43559152
C        0.68070058      -2.49055520       1.96972783
C       -0.97582846      -2.59455576      -0.32078078
C        2.36629791       3.02205028      -0.95680930
C        3.93633548      -0.03548015      -0.09454844
C        3.03258453      -1.05364595      -0.47582067
C       -4.10995014      -0.74143806      -1.65956781
C       -1.06893902       0.84745411      -3.22683354
C        1.38750612       0.76562253      -3.18894604
C        0.36970985       3.04061681       0.52006501
C       -2.74255867       2.20204493      -0.97125758
C        0.21112250       3.80508244      -1.68890472
C        2.58969378       2.47023240      -2.25165155
C       -1.03890077       2.23360581      -2.87302417
C       -2.30015393       1.44092489       1.45556775
C        0.94571384      -1.63171222      -1.65857395
C        2.37048869      -0.14292477       2.50087674
C       -2.06941920      -0.10530653      -2.85067425
C       -1.01638718       3.22364067       0.19756771
C       -4.19808720      -0.03441878       0.53711803
C       -2.13187378       2.33699458       0.35617055
