60
Properties=species:S:1:pos:R:3 entry_id=3 rank=23 energy=-481.482177734375 pbc="F F F"
C        1.72800175      -3.49579444      -0.73950675
C        2.59011348      -0.11175354      -2.27178350
C        1.99167686       1.96108509       1.95844086
C        2.80702923      -2.53339518      -0.87661158
C       -2.49699060       1.84544277       3.37369695
C        2.76977340       0.73814560       0.06590925
C       -0.51897668      -3.09585865       0.79337300
C        2.26518242      -1.59391377       2.45427171
C       -3.19221634       0.26300868      -2.39722805
C        0.06138836      -1.23804801      -0.32929772
C       -1.12880958       1.49624793       3.63947167
C        1.05075794       3.44808552      -0.27918614
C        0.58626408      -3.20173482      -1.50356883
C       -1.13957175       3.58236233      -1.02667126
C        0.40745228       2.70106475      -2.49895075
C        0.19298005      -0.18158175       0.70099492
C        1.59382064       1.96396326      -2.58445059
C       -2.91765348      -2.39335913      -0.92975888
C       -3.18292104      -1.62415882       0.03186509
C        3.12916455       0.85264359      -1.33442918
C       -3.70688073       1.58469051      -2.30299369
C       -1.32092490      -1.51822179      -2.61711770
C       -0.86931880      -2.63688357       2.15018050
C       -2.07853388      -0.14340053       1.67542682
C       -1.59974984      -1.92743349       3.00464784
C       -0.74278145       0.43836748       1.55356327
C       -4.03600441       0.41760810       0.04288208
C        1.84165953      -2.63337346       1.69897211
C       -1.66269102      -2.38409793      -1.55299764
C        2.67282331       2.01941197       0.68530283
C        0.32504125      -0.01419834      -3.24581534
C        2.14958939      -1.45233179      -1.78083066
C       -2.09866452      -0.67251954       3.02809384
C       -1.87621064       2.90144705      -2.07840493
C        2.31078338       0.88330295       2.75447435
C        0.04818789      -1.39019401      -3.01600065
C        0.46616915      -3.03259603       1.71248345
C       -2.16507706       0.52538333       3.85667761
C       -0.30929459       1.42525456       2.48642928
C        0.61815395       2.39836472       1.92207066
C        2.31368135      -2.97014568       0.38701237
C       -0.48387737      -2.59076852      -0.63018804
C        2.31075641       2.86512410      -0.39893954
C        1.55606254       0.04414668       0.16656167
C        1.28618074      -0.89660381      -0.78810590
C       -3.96833899       0.57900706      -1.26732720
C       -0.89541881       0.72989771      -3.09595539
C        1.56763971       0.58925021      -2.97462127
C        0.19917494       3.20333952       0.82915917
C       -3.22281281       2.81606978      -2.35328085
C        0.22810956       3.58249382      -1.41509427
C        2.60473905       2.15543759      -1.62367331
C       -0.86078754       2.09940684      -2.76693708
C       -2.77052991       2.66926039       2.31721114
C        1.02943308      -2.20975517      -2.46881753
C        2.41941863      -0.39214355       2.87264005
C       -1.94655324      -0.21462062      -2.79614900
C       -1.18891461       3.40569653       0.41717929
C       -3.11511575      -0.42414659       0.71300859
C       -2.22866616       3.14915473       1.28769099
