60
Properties=species:S:1:pos:R:3 entry_id=29 rank=25 energy=-480.4962463378906 pbc="F F F"
C        1.32092796      -3.63802011      -0.92060245
C        2.31451542      -0.19120772      -2.16332604
C        1.87315691       2.04179305       1.94372687
C        2.34078350      -2.60311775      -0.82863279
C       -2.33941054       1.94515239       3.34450056
C        2.60775222       0.56075857       0.18772240
C       -1.24705113      -2.65791257       1.08367747
C        1.43643121      -1.11580966       1.73936796
C       -2.92253880       0.66094114      -2.01084149
C       -0.43995253      -0.27764253      -0.63888324
C       -0.98854662       1.80039645       3.81483634
C        1.09298016       3.49357678      -0.28737670
C        0.32995723      -3.29972215      -1.92787747
C       -1.09428154       3.44421372      -1.03583566
C        0.48097211       2.79411093      -2.59791664
C        0.08412577       0.61986638       0.41211327
C        1.61361865       1.96956342      -2.61894333
C       -2.42860289      -3.30616895      -1.18078727
C       -1.50934109      -3.43922437      -0.05796475
C        2.88128767       0.69688597      -1.20535049
C       -3.13609105       2.05042972      -2.18483542
C       -1.51606234      -1.23012500      -2.83520941
C       -0.64488618      -2.66504416       3.35147147
C       -1.50564373      -0.27099363       1.92214231
C       -1.31386098      -1.70114715       3.79594016
C       -0.83820302       1.01696556       1.48883761
C       -1.83332514      -0.86203978      -0.47900168
C        1.11121503      -2.52699633       1.54664982
C       -1.85677853      -1.95346677      -1.61146893
C        2.55967819       1.86869779       0.74435979
C        0.25190625       0.10754516      -3.45784074
C        1.73949754      -1.46169888      -1.71212306
C       -1.70966660      -0.46770330       3.31630171
C       -1.84712734       2.94126024      -2.20057640
C        1.35873236       0.99318212       2.81357321
C       -0.15300709      -1.24082363      -3.19997746
C       -0.18477762      -2.91982071       2.05943314
C       -1.91494483       0.75889963       4.03450141
C       -0.01314985       1.69892118       2.71080978
C        0.69467629       2.80237367       1.98125393
C        1.59404307      -3.03805070       0.31211930
C       -0.90829908      -3.12054621      -1.33347839
C        2.26514388       2.74788478      -0.34072153
C        1.35558564      -0.22146949       0.48930612
C        0.80407265      -0.88410626      -0.73416911
C       -2.91033389       0.07355694      -0.79776419
C       -0.90766688       0.93998433      -3.35373126
C        1.48776152       0.59533262      -3.01121999
C        0.23212736       3.42094708       0.82954636
C       -3.28831071       3.27266139      -2.59811437
C        0.26384210       3.55394672      -1.42539813
C        2.52618783       2.02734760      -1.54089509
C       -0.79872645       2.29337056      -3.00031342
C       -2.71429142       2.44867307       2.17106412
C        0.75270757      -2.11527407      -2.59461357
C        1.54933018      -0.33338148       2.83860043
C       -1.98254446       0.11821074      -2.96253098
C       -1.11380637       3.22083902       0.38164331
C       -1.69221565      -1.32462170       0.95871820
C       -1.77265012       2.24897634       1.21110359
