60
Properties=species:S:1:pos:R:3 source_escape=runs/20260728-block-krylov-fixed-starter-escape/output/cases/plateau_accepted-seed43-balanced_refinement/escape.xyz pbc="F F F"
C        0.14546728       0.76132431       2.99648596
C       -2.65229503       0.46526785       1.35797699
C       -1.78524012      -2.14436151      -0.24107045
C        2.29718990       0.59369987      -2.69969343
C        3.44085275      -0.51375277      -0.83975571
C       -0.04295926       0.88851218      -0.73420656
C        0.84063506      -0.45486811       2.86685727
C       -1.26497470      -0.90326121       3.62295115
C       -0.62378902      -0.95449576      -3.79847621
C        1.61022621       1.74502914      -3.14899599
C        1.64077025      -2.26375291      -1.38659496
C       -2.21341413      -1.87758018      -2.45849362
C        0.06739533       1.60553767       1.77988935
C        0.42345142      -0.03401497      -3.93652622
C       -2.28167879       0.42376155      -2.49039065
C       -0.39225901      -2.14924115       1.73331804
C       -2.72326366      -0.00534511      -1.17580541
C        1.77362226       2.78905803      -0.97801199
C        2.61444552       1.72173198      -0.55869362
C       -2.23988380       1.23490913       3.63655784
C       -0.00730439       3.19664238      -2.56858507
C       -0.39880033       3.50070207      -0.17223679
C        3.66295897      -0.57810727       0.56528289
C        1.95232796      -0.67709718       2.04036872
C        1.99616936      -1.93032549       1.38389325
C        0.76779310      -2.46373356       0.93094974
C       -0.84065652       3.46680354      -1.50128279
C       -0.14984299      -1.46355848       2.94328314
C        0.94328247       3.17720395       0.11020557
C       -0.07434477       0.79565022       0.53032519
C       -2.33214810       2.21599771      -0.30595122
C       -2.30156741       1.52891824       2.26399372
C        3.14797976      -1.94145262       0.56730412
C        0.40950761       1.35549734      -3.83281895
C       -1.63681488      -1.82963103       1.11950507
C       -1.47692565       2.94213286       0.57026463
C        2.79247910       0.24338043       1.36271379
C        2.87331582      -1.83545454      -0.83295329
C        0.60906752      -2.69120659      -0.47419783
C       -0.73035882      -2.77829525      -0.96337122
C       -1.04111810       0.48102665       3.73369285
C        1.27829767       2.33540961       1.22915612
C       -2.59575373      -1.43075581      -1.15680008
C       -2.59373396      -1.17496522       3.20037666
C       -3.58956774      -0.56712895       3.98421488
C       -1.97069339       2.62219790      -1.59702562
C       -0.06580774      -2.11993989      -3.16533392
C       -2.70763637       0.87286582      -0.04121610
C       -1.03889566      -2.68674694      -2.33883740
C        1.32973291       2.83490226      -2.30335805
C       -1.90655593      -0.72735452      -3.24701202
C       -3.37370202       0.66372702       4.22407894
C       -0.63340203       2.17104647      -3.37309888
C        2.94150480       0.65465157      -1.43894737
C       -1.22361889       2.36330788       1.79889520
C       -2.50634094      -0.89494697       1.80118667
C       -1.81770180       1.74011243      -2.68842805
C        1.24230411      -1.80812540      -2.67925531
C        2.41411581       1.50029354       0.83169933
C        1.58712877      -0.53386014      -3.22934343
