60
Properties=species:S:1:pos:R:3 trial_index=6 seed_entry_id=5 discovered_entry_id=6 energy=-477.9105529785156 status=accepted pbc="F F F"
C        1.09119197      -1.13352445       3.37352733
C        1.78053537      -2.17875816      -0.27971469
C        2.67062115       1.91200769      -2.20415743
C        2.96400618      -1.62640176       1.91174174
C       -2.35976900       4.17133129      -1.37212617
C        0.93516329       0.03058876      -0.49417210
C        0.85042297       0.26814369       3.35132966
C        3.65410917       1.75129608       1.31413072
C       -3.24447208      -2.54253224      -1.65655188
C       -1.13366301       0.74010482       1.85126075
C        0.00026296       3.74536853      -0.37390745
C        0.57070609       0.52027155      -3.29566513
C        0.29819123      -2.20385284       2.84591875
C       -1.55835422       0.29312770      -2.69106375
C        0.21355594      -1.57434354      -2.53621268
C       -0.75869726       1.06081348       0.37725241
C       -0.34507161      -2.27217182      -1.44008249
C       -2.24814862      -0.13990975       2.03281049
C       -3.44947274       0.38994173       1.59933574
C        1.91623191      -0.94621506      -1.00151759
C       -2.64879005      -1.31465812      -1.57698483
C       -1.69825147      -2.13506850       0.67397947
C        0.25190678       2.46733330       2.39728652
C       -1.63796338       1.57738514      -0.69873185
C       -0.58925655       3.49725983       2.03503145
C        0.74114587       1.51824569       0.20376248
C       -0.39383928      -0.27932479      -0.31053210
C        2.53232220       1.51546381       2.05270065
C       -1.85652625      -1.54931309       1.96338927
C        2.87703035       0.87359884      -3.09564201
C       -1.34501666      -3.53514078       0.60997683
C        2.05331436      -2.29851423       1.13946390
C       -0.73244001       3.94832716       0.80847204
C       -2.85565172      -0.12702513      -2.37023463
C        3.54615329       2.14236399      -1.15741657
C        0.08087059      -3.40881685       0.65666925
C        2.22311648       0.52752234       3.04268724
C       -1.31891340       4.19325637      -0.53795424
C        0.88823930       2.75116274      -0.68871679
C        1.30517608       2.38070367      -1.99355677
C        2.48552309      -0.92285273       2.95605240
C       -1.05228871      -2.05274126       2.94291190
C        1.87018958      -0.01315533      -3.22512336
C        1.28110062       1.99486381       1.52778253
C       -0.16187098       1.11736270       2.80768874
C       -1.31507630      -1.41077746      -0.63171127
C       -2.18253156      -4.28963822      -0.19772774
C        0.59424285      -2.87946727      -0.56510746
C        0.26067909       1.65409049      -2.56242546
C       -3.56194070       1.10539977      -1.95646479
C       -0.43050870      -0.45563765      -3.10215159
C        1.59147528      -1.15838000      -2.38355628
C       -3.03438739       1.34645300      -0.60803957
C       -3.17028027       3.47101297      -2.08748726
C        0.85182248      -2.82686782       1.69084068
C        3.85046469       2.06086072       0.07151668
C       -2.90915238      -3.62989666      -1.04821127
C       -1.06036505       1.45736577      -2.03682015
C       -3.68801431       1.01972930       0.54626419
C       -3.70486851       2.35366369      -2.50258594
