60
Properties=species:S:1:pos:R:3 trial_index=10 seed_entry_id=8 discovered_entry_id=9 energy=-480.4373474121094 status=accepted pbc="F F F"
C       -0.89115899      -0.47514003       2.41426413
C       -2.93246390      -2.57343620       0.78140901
C        3.50836436      -1.37662187      -1.70536437
C       -0.66757474      -1.77543341       3.09169329
C        2.78659541       2.03653268      -2.85321379
C       -0.71256970      -1.94140943       0.15260653
C       -0.13316619       0.82353132       2.42562609
C        3.54522353      -1.68587919       1.94343541
C       -2.85552702       2.66845391      -2.02430455
C       -1.06239322      -0.76384589       0.90723573
C        4.46425453       2.90553937      -1.17316845
C       -0.95536109      -2.77874383      -2.26716531
C       -2.31090744      -0.02093665       2.68418865
C       -0.76796050      -0.32424860      -2.43434785
C       -2.62045792      -1.72502459      -1.81796785
C        0.67018881       1.96552785       0.68211839
C       -2.99225970      -0.73545158      -0.79183800
C       -1.10614402       1.81026379       2.05306142
C       -0.62607577       2.49375245       0.93227553
C       -1.77410304      -2.89182057       0.00837712
C       -2.78985102       1.26552919      -2.20971625
C       -1.90997782      -0.21409710       0.04271960
C        4.51327205       1.65399847       2.28914090
C        0.84658804       1.77122700      -0.69280077
C        4.83365619       2.41562127       1.27516611
C        2.25724411      -0.18983694      -0.02523866
C       -4.25301866       1.21138161      -0.33091594
C        3.11794980      -0.36704890       2.26172333
C       -2.40522684       1.31331662       2.25266182
C        0.19436914      -1.82788423      -0.95508668
C       -4.35445507       0.65532538       0.99000848
C       -2.74847778      -2.28928671       2.14710330
C        4.83011765       2.81912078       0.08101659
C       -1.46015872       0.92460367      -2.63140348
C        3.11456679      -1.29618975      -0.36587256
C       -4.13182324      -0.66974011       1.30910156
C        3.92434285       0.63202232       2.76552544
C        3.78843080       2.71310821      -2.21515342
C        1.48622561       0.49857101      -1.16654840
C        3.29658145      -0.42733792      -2.53646573
C       -1.59491055      -2.61377890       2.84198993
C       -3.47609576       1.66467101       1.45133237
C        0.31874299      -2.90754178      -1.84425345
C        2.09754151       0.14554200       1.32465682
C        1.06172230       1.06267954       1.67009887
C       -3.62027283       0.47982855      -1.35237772
C       -3.50860682       2.32600692       0.16919336
C       -3.71720566      -1.50139941       0.24807079
C        2.52939421       0.69241630      -2.31295119
C       -0.58286355       2.09147019      -2.68815861
C       -1.53082156      -1.50944456      -2.66366599
C       -2.08935182      -2.96636246      -1.37357186
C       -0.25291244       2.41780048      -1.32458911
C        1.70041575       2.45675423      -3.61064327
C       -3.26233789      -0.97185193       2.36573511
C        3.54916005      -2.07748513       0.73539088
C       -2.55136301       2.93118361      -0.67284348
C        0.37332691      -0.55082777      -1.61657370
C       -1.20166054       2.80855931      -0.32427574
C        0.45984446       2.34515494      -3.57076097
