60
Properties=species:S:1:pos:R:3 trial_index=16 seed_entry_id=11 discovered_entry_id=12 energy=-485.4131774902344 status=accepted pbc="F F F"
C        1.60472954      -3.43332309      -0.69302445
C        1.89817380       0.02717083      -2.26578295
C        1.97903184       1.80537240       2.07205914
C        2.48763929      -2.36047194      -1.06068937
C       -2.69004789       0.42512548       0.57807290
C        2.60305326       0.61061739       0.07655438
C       -0.18205019      -3.46240384       1.27453178
C        2.72505242      -1.62663333       2.43952910
C       -2.60391913       1.85081549      -3.71440588
C       -0.02438025      -1.45366336       0.21836817
C       -1.77920921       1.76782199       2.48549088
C        1.21502481       3.61186588       0.01713651
C        0.28007396      -3.30641927      -1.16006289
C       -0.84795716       4.32299195      -0.68887214
C        0.47530379       3.35326725      -2.27226515
C        0.38969805      -0.53424079       1.26193658
C        1.38018987       2.29664057      -2.41981433
C       -2.68872854      -2.96937370       2.89336237
C       -3.27297487      -2.97378967       1.77189473
C        2.72487943       0.79876955      -1.35999022
C       -3.26910182       1.73893236      -1.46620457
C       -1.98168773      -1.82669062      -1.54469849
C       -0.39554332      -2.93231661       2.54256947
C       -2.46916443      -0.79863794       1.28650834
C       -1.48519018      -2.19350390       3.02582502
C       -0.35766707      -0.05989285       2.35084089
C       -2.33228087      -0.45047942      -1.74612656
C        2.21664452      -2.63822881       1.69605301
C       -1.98180457      -2.52378746      -0.33357363
C        2.64045952       1.85772935       0.76961413
C       -1.20754218      -0.31916545      -2.71283979
C        1.51834691      -1.36329837      -1.80791211
C       -1.56137915      -0.90605528       2.41282035
C       -1.71120974       3.69239515      -1.64944940
C        2.39801420       0.79053552       2.88917211
C       -0.86261931      -1.70773117      -2.44447196
C        0.91998581      -3.16682440       2.04378325
C       -2.42070300       1.67771701       1.25879776
C       -0.44642095       1.38673411       2.55579024
C        0.60150445       2.25040096       2.01116256
C        2.36057922      -2.83981164       0.28667966
C       -0.54764120      -2.82014543      -0.00147448
C        2.34397833       2.82538772      -0.22554856
C        1.46134764      -0.12577755       0.37575308
C        0.87116819      -0.88636146      -0.62637675
C       -3.52835743       1.76011495      -2.86428248
C       -0.44530897       0.81352427      -3.13709364
C        0.95699180       0.98376023      -2.81561487
C        0.27548310       3.23551276       1.03527477
C       -2.60563286       2.85431505      -0.92371246
C        0.49819810       4.13634634      -1.09112756
C        2.44826619       2.18901466      -1.50948653
C       -0.87663459       3.15243310      -2.67185346
C       -2.92431325       0.49100151      -0.85076013
C        0.35991516      -2.29463168      -2.20392213
C        2.76926317      -0.44322878       2.92456081
C       -1.22856486       1.99334870      -3.41322491
C       -1.01524451       3.61920250       0.54957257
C       -2.81923683      -2.10880752       0.73822258
C       -2.15807658       2.80681068       0.42703706
