60
Properties=species:S:1:pos:R:3 trial_index=4 seed_entry_id=3 discovered_entry_id=4 energy=-481.26617431640625 status=accepted pbc="F F F"
C        1.43026241      -3.39678446      -0.97234852
C        2.20475581       0.00864630      -2.21641288
C        1.98920780       1.89323489       2.07305239
C        2.38526703      -2.38019275      -1.29094270
C       -2.82848474       0.68418615       1.52487524
C        2.67898976       0.68777236       0.15859233
C       -0.21744620      -3.45923132       0.96119829
C        2.64347629      -1.61180162       2.18876623
C       -2.84638810       1.29579667      -3.17525797
C       -0.21266826      -1.01633458       0.29122544
C       -1.61908580       2.03687103       3.09646156
C        1.07505759       3.47269752      -0.13244395
C        0.10816238      -3.04438471      -1.36633715
C       -0.96440158       4.01342250      -0.95751813
C        0.43575557       2.99245297      -2.42733625
C        0.36973825      -0.25473223       1.33786720
C        1.58177765       2.20362169      -2.56176279
C       -4.15205673      -3.82477587       1.04550037
C       -3.40242047      -2.81536163       1.13068746
C        2.85798244       0.83841697      -1.26036323
C       -3.60804028       2.06888918      -2.24522273
C       -1.89198637      -0.94818585      -1.25735856
C       -0.33484612      -2.92987697       2.31988891
C       -2.45076821      -0.62178050       1.90736232
C       -0.96355209      -2.07839305       3.06842964
C       -0.24747929       0.17054787       2.53017237
C       -2.80958740       0.10803469      -0.97146877
C        2.18695349      -2.65033188       1.41408242
C       -1.45986152      -1.74722090      -0.04371281
C        2.66505201       1.95884082       0.79462930
C       -0.71528208       0.18116152      -3.24982715
C        1.50778947      -1.21422568      -1.75894495
C       -1.33897863      -0.78098506       2.81665764
C       -1.77521586       3.52477142      -2.02090515
C        2.39838852       0.80279403       2.83813166
C       -0.96817979      -0.97472607      -2.36551914
C        0.90426784      -3.19782229       1.64970887
C       -2.67821767       1.67326216       2.53145960
C       -0.31876248       1.56758517       2.78819480
C        0.61089926       2.33805610       2.00541752
C        2.30719475      -2.93412320       0.00099937
C       -0.77378971      -3.06251365      -0.27971006
C        2.32176313       2.86947211      -0.25289870
C        1.52865417      -0.04107322       0.46604621
C        0.90976397      -0.81159033      -0.49269943
C       -3.46372223       0.67214638      -2.09196720
C        0.50587085       0.37401911      -3.85740822
C        1.55769390       0.87997111      -3.16637348
C        0.12335270       3.01973229       0.83816346
C       -2.87071657       2.90786592      -1.40718626
C        0.38936474       3.87030526      -1.30840119
C        2.52674825       2.19559742      -1.50445873
C       -0.92307631       2.66857238      -2.79567356
C       -2.76316813       1.03955060       0.16453488
C        0.17632127      -1.86229562      -2.20327591
C        2.72876936      -0.45783872       2.77060330
C       -1.43944828       1.43362435      -3.22722080
C       -1.20700931       3.20086903       0.20531953
C       -2.54570818      -1.74638227       1.01297331
C       -2.40096248       2.40968132      -0.16435755
