60
Properties=species:S:1:pos:R:3 trial_index=19 seed_entry_id=14 discovered_entry_id=15 energy=-484.2410888671875 status=accepted pbc="F F F"
C        2.21339408      -3.46716581      -1.16422739
C        1.84259308       0.10537293      -2.18903526
C        1.95238025       1.85364935       2.09347952
C        2.83247917      -2.13628198      -1.42507075
C       -2.74866407       0.57217817       0.55313915
C        2.51620043       0.68160352       0.11326253
C       -0.73073372      -4.09106116       1.17958992
C        3.24284609      -1.50073170       2.07667855
C       -2.59092204       1.84267948      -3.75200559
C        0.23253323      -1.80199777       0.52636616
C       -1.80708552       1.87120466       2.45623307
C        1.19715521       3.68998896       0.00386623
C        1.00908433      -3.54084801      -1.80279398
C       -0.85685528       4.39273511      -0.73783871
C        0.47030089       3.40930189      -2.29647709
C        0.45444821      -0.61331887       1.43062800
C        1.37810438       2.36017143      -2.42433775
C       -1.83445873      -3.00515762       3.90486229
C       -2.79541080      -2.65468669       2.20239011
C        2.65346808       0.86967126      -1.30181744
C       -3.27416314       1.80534060      -1.51928254
C       -1.81062887      -1.74773547      -1.31806040
C       -2.29569193      -3.85898188       2.81122950
C       -2.54620034      -0.59428003       1.31012127
C       -2.08964764      -1.85599088       3.14151748
C       -0.40808817       0.01368074       2.38346620
C       -2.25102590      -0.41453329      -1.66806243
C        3.23406409      -2.32989655       1.11952035
C       -1.91323342      -2.42805706      -0.08567137
C        2.58786797       1.92054018       0.79296927
C       -1.16012971      -0.33010585      -2.66619809
C        1.59981832      -1.28711937      -1.76350897
C       -1.71229275      -0.63750155       2.49789345
C       -1.71576288       3.75178574      -1.70009708
C        2.41759933       0.76115401       2.84626515
C       -0.74613412      -1.72092704      -2.30662003
C       -1.44932152      -4.67052984       2.04573673
C       -2.46250527       1.81790731       1.22949487
C       -0.47187779       1.46498652       2.51871562
C        0.58504694       2.31852973       2.00384544
C        2.96311013      -2.73628571      -0.13906947
C       -0.66097676      -2.92634303       0.46769477
C        2.32934701       2.90093463      -0.21062167
C        1.46538338      -0.16399695       0.47496685
C        1.03207503      -1.13333910      -0.41827640
C       -3.53333729       1.77808882      -2.91688290
C       -0.44460120       0.83130152      -3.12556080
C        0.93429836       1.03816947      -2.78444573
C        0.25380006       3.31318105       1.01589088
C       -2.63222378       2.94097183      -0.97513288
C        0.49127009       4.20607509      -1.12219152
C        2.43616516       2.26320878      -1.49171586
C       -0.87805687       3.18644330      -2.70354130
C       -2.91836632       0.57648073      -0.87964800
C        0.54651666      -2.28659790      -2.21760280
C        2.97382742      -0.38092716       2.74502790
C       -1.22508302       2.00453521      -3.42591766
C       -1.03347984       3.71062036       0.50998984
C       -2.81252881      -1.98501049       0.93957859
C       -2.19402583       2.92546370       0.38376330
