60
Properties=species:S:1:pos:R:3 trial_index=31 seed_entry_id=20 discovered_entry_id=23 energy=-488.85406494140625 status=accepted pbc="F F F"
C        1.74967216      -3.99730176      -1.16047437
C        1.79053022       0.36769525      -2.29447221
C        2.12407337       1.55942160       1.67418551
C        2.20607567      -4.22113357       0.07959861
C       -2.74782462       0.48271506       0.46151904
C        3.14510644       0.90064680      -0.32216899
C       -0.34950288      -3.20957310       1.63364927
C        2.51157158      -2.19448044       2.98433279
C       -2.78434744       1.89539002      -3.67030428
C        0.71445550      -1.52889100       0.51617754
C       -1.42823038       2.22423606       1.58822862
C        1.22311704       3.80022174       0.10083271
C        1.13991819      -3.27975805      -1.98895885
C       -1.08286407       3.96033548      -0.23237422
C        0.16370755       3.53214848      -2.11410402
C        0.81143420      -0.72150990       1.77566879
C        1.16053009       2.60775146      -2.45258165
C       -2.94078620      -2.63143877       2.88119528
C       -3.32877527      -2.81109130       1.68131192
C        2.76713746       1.18641669      -1.64277233
C       -3.52962553       1.63308707      -1.55981791
C       -1.64585234      -1.69620609      -1.47710183
C       -0.67481911      -2.78424310       2.91022520
C       -2.44579727      -0.67818166       1.20449935
C       -1.74601841      -1.90443104       3.17947603
C       -0.36881258       0.00448545       2.27267965
C       -2.25113957      -0.43332661      -1.80731510
C        1.98898219      -3.41273892       2.50581031
C       -1.62389764      -2.33421368      -0.22421668
C        2.82892889       2.02299713       0.51464478
C       -1.17807896      -0.21802872      -2.80187209
C        1.56265420      -0.94882056      -1.78086511
C       -1.61867275      -0.71885826       2.37173064
C       -1.98504848       3.47382347      -1.22738779
C        2.21946377       0.09867581       1.65603654
C       -0.59907514      -1.52496895      -2.45242111
C        0.55450756      -3.41175479       2.65183990
C       -2.69596436       1.79908761       1.08231494
C       -0.34112396       1.42015759       2.09970618
C        0.87858736       2.16024045       1.91946697
C        2.34318806      -3.98288770       1.29731126
C       -0.34034583      -2.50457822       0.41240972
C        2.33472477       3.05811868      -0.33249295
C        2.64756757      -0.23036630       0.31348903
C        1.75771277      -1.08801701      -0.35857052
C       -3.80013462       1.67892598      -2.95192169
C       -0.55870341       1.00490839      -3.18135312
C        0.80124035       1.27334423      -2.84236167
C        0.55676355       3.38268512       1.28161055
C       -3.19596475       2.83457686      -0.82314568
C        0.21041486       4.14045956      -0.83886688
C        2.33708433       2.54713091      -1.66822286
C       -1.20004221       3.18728681      -2.39954641
C       -2.96607525       0.47585772      -0.96612681
C        0.73387605      -2.00314076      -2.35420830
C        2.02597423      -1.06548825       2.55004539
C       -1.45306694       2.13175194      -3.32382361
C       -0.86134107       3.41586900       1.05466137
C       -2.69144415      -2.03802615       0.69597053
C       -3.51418858       2.79198669       0.53144766
