60
Properties=species:S:1:pos:R:3 entry_id=16 rank=0 energy=-499.2615661621094 pbc="F F F"
C       -1.25050578      -3.03207952      -2.47920423
C        0.27204012      -0.27300378      -1.61612726
C        1.22045984      -4.13744865       1.74054475
C        1.19358738      -2.65798304      -2.12447944
C       -1.00297215      -4.69833612       2.69917501
C        2.39618469      -2.79892237      -0.13935690
C       -1.86401614      -5.02593738      -1.04607393
C        1.49794530      -4.80814260      -1.33240252
C       -5.93912452       0.36652548       1.10185598
C       -2.08503990       0.45184315      -1.78218555
C        0.32730873      -6.45715182       1.63897928
C        0.75160137      -1.43739616       2.72720527
C       -2.24176217      -3.78471850      -1.69520284
C       -1.38524001      -0.52103321       2.61701268
C        0.33704821       0.80680548       1.75821545
C       -3.16376949      -0.40994301      -1.48416652
C        1.12073469       0.44277646       0.63123048
C       -3.32653942      -2.86772817      -1.39487994
C       -4.16096280      -2.73178525      -0.21764477
C        2.15556163      -1.41635735      -0.47194387
C       -4.90534580      -1.61964025       2.35436400
C       -3.67422250      -0.42202113      -0.18564435
C        0.11018895      -6.46353839      -0.64148744
C       -2.29713393      -5.36438076       0.28847631
C       -0.42552237      -7.01851000       0.51016266
C       -2.92477800      -4.43926500       1.20077029
C       -4.63068020      -1.39060828       0.09005246
C        0.32060996      -4.79592824      -2.14684346
C       -2.99013664      -1.66386256      -2.07388310
C        1.96916374      -3.00094090       1.22432456
C       -3.17692755       1.71061391      -0.06873927
C        1.26181348      -1.32518510      -1.59240198
C       -1.59027097      -6.36768221       1.00606379
C       -1.97080011       0.43112998       1.66381617
C        1.21553500      -5.44229454       1.12695669
C       -1.97280540       1.57644464      -0.92248304
C       -0.65659688      -5.64185814      -1.52081290
C       -0.88161609      -5.99405809       2.20134733
C       -2.26667930      -4.12836667       2.43645653
C        0.11123604      -3.82127804       2.64378544
C        0.08021547      -3.46015649      -2.56029393
C       -1.66257702      -1.67703888      -2.58953530
C        1.75205239      -1.67490630       1.76859225
C        2.01439894      -3.51612006      -1.28234676
C       -1.01823653      -0.41552159      -2.24107046
C       -5.39495167      -0.94043359       1.27321980
C       -4.48446539       2.15375690      -0.06692129
C        0.35427794       0.70577149      -0.56556052
C       -0.18109175      -2.47301937       3.00653656
C       -3.06186092       0.47959752       0.76343378
C        0.01717702      -0.22596282       2.65889806
C        1.91129713      -0.71059535       0.71330682
C       -0.90494431       1.28594238       1.23230867
C       -3.93768687      -2.56693943       2.22651719
C       -0.77835130       1.49308881      -0.17216180
C        1.26759064      -5.70037914      -0.26722088
C       -5.39974804       1.36229235       0.50140135
C       -1.53676843      -1.92875636       2.99027189
C       -3.86354630      -3.38880855       0.98890461
C       -2.63712008      -2.81566085       2.84974897
60
Properties=species:S:1:pos:R:3 entry_id=15 rank=1 energy=-497.6693420410156 pbc="F F F"
C       -4.02650822      -4.91525797       1.13222647
C       -1.44998947      -3.37269409      -0.24011526
C        0.11544403      -5.95163946       3.92142726
C       -1.87382727      -5.89427440       0.30863010
C       -1.10799406      -4.65774705       5.65690364
C        0.18650077      -6.16999880       1.34333720
C       -4.21452242      -5.61818753       3.53495480
C       -1.84310670      -7.49349220       1.99044797
C       -3.93056966       1.20275040       4.11712343
C       -2.94531873      -1.53215779       0.44666139
C       -1.38615707      -7.08798749       5.53637184
C        1.41409958      -3.42382851       3.27139814
C       -4.63806032      -4.80541073       2.43954749
C        0.29237439      -1.43476650       3.61888470
C        1.18725130      -1.71293693       1.49460986
C       -3.71096877      -1.59276355       1.65401161
C        0.83580728      -2.74615650       0.58497090
C       -5.08559902      -3.45747256       2.64340706
C       -5.27461974      -2.92791594       3.88172467
C        0.24473487      -5.06739228       0.41248918
C       -2.70969419      -0.17262451       5.87700833
C       -3.11209164      -1.10270165       2.84799154
C       -2.93904817      -7.69167072       3.97455377
C       -3.72615771      -5.06954485       4.79794072
C       -2.80837543      -7.37815163       5.31746721
C       -3.30316407      -3.67621532       5.08926996
C       -3.71107250      -1.23089932       4.12323787
C       -3.19160905      -7.03818561       1.82218330
C       -4.51055153      -2.73954274       1.55872559
C        0.70493630      -5.71076811       2.60743473
C       -2.25269908       0.47467644       1.41593036
C       -1.07158688      -4.76279419      -0.07705578
C       -3.10722728      -6.02030162       5.65728895
C       -0.50749574      -0.65575151       2.70079677
C       -0.72495151      -7.07070994       4.25066796
C       -2.00089925      -0.49934166       0.34661177
C       -3.77615825      -6.92246673       3.12894646
C       -1.75624947      -5.82010388       6.04267762
C       -1.94960956      -3.49570421       5.56998916
C        0.00715609      -4.78053426       4.78988464
C       -3.20234084      -6.00801257       0.83981197
C       -3.88512647      -3.60336803       0.60762801
C        1.35500104      -4.44780316       2.31553341
C       -1.03930691      -6.79538573       1.08998584
C       -2.79005416      -2.89295756      -0.01249359
C       -3.62202780       0.06341533       4.84049193
C       -3.15707749       1.46983055       1.69226980
C       -0.40989288      -2.39491704      -0.05528072
C        0.60369862      -3.55174013       4.43098123
C       -1.88620617      -0.33067266       2.62588565
C        1.32292809      -2.07083142       2.84912105
C        1.07329214      -4.07717123       0.95593941
C        0.12845237      -0.74865890       1.42548086
C       -1.84375665      -1.07653853       5.93643256
C       -0.69769221      -1.03520025       0.30654173
C       -1.63715808      -7.70435666       3.37269604
C       -3.69537658       1.50755829       2.89940349
C       -0.05183969      -2.30441546       4.70580816
C       -4.12745441      -2.56717769       4.59269438
C       -1.23471770      -2.23741375       5.51923996
60
Properties=species:S:1:pos:R:3 entry_id=11 rank=2 energy=-490.00360107421875 pbc="F F F"
C       -0.80309271      -2.51711591      -0.46168149
C        1.52665792      -1.06001912       1.37007821
C        0.15664592      -5.29869748       3.63917652
C        1.54571603      -3.30185319       0.31692373
C       -2.24019818      -4.98400372       4.22844929
C        2.12813392      -4.29913783       2.32349970
C       -2.31339094      -4.31470346       0.22930091
C        0.79416103      -5.45785128       0.55228532
C       -4.33397561       0.93708657       1.89501660
C       -0.43978820      -2.23268915       2.33538409
C       -1.52988579      -6.91687688       2.85338030
C        0.62635261      -2.91473080       5.23885238
C       -2.14322022      -2.98187913      -0.29023899
C       -0.99123301      -1.26777265       5.24978617
C        1.09980504      -0.62282614       4.62908464
C       -1.81459163      -2.34329049       2.40943694
C        2.04792368      -1.01377645       3.67616550
C       -2.95640061      -1.87821168       0.07728774
C       -4.16572535      -2.05913190       0.77676935
C        2.59593520      -2.94264963       2.32396780
C       -3.63748372      -0.47705849       3.76792226
C       -2.09416175      -0.93148919       2.13977052
C       -1.20825029      -6.47580344       0.60866722
C       -2.83055919      -4.51784718       1.52368520
C       -2.16511450      -6.87616465       1.53026926
C       -2.93984038      -3.37941901       2.50658611
C       -4.64704138      -1.40624093       1.93330590
C       -0.05586680      -4.79410698      -0.38015251
C       -2.08524070      -0.92183659       0.68238653
C        1.37866915      -4.52257131       3.52070404
C       -1.02102585       2.12826973       1.58528351
C        2.17920301      -2.29320981       1.13275818
C       -2.95319103      -5.80938044       2.04940960
C       -1.16545507      -0.20128972       4.31241260
C       -0.23273021      -6.32205773       2.71220663
C        0.05020815       1.59116769       1.99385894
C       -1.36724756      -5.30228156      -0.19141766
C       -2.51567671      -6.05871454       3.38196357
C       -3.02367720      -3.82881299       3.94471188
C       -0.87208987      -4.73340015       4.50104994
C        0.29474195      -3.41668974      -0.42494910
C       -0.73562314      -1.27520230       0.22301645
C        1.58699753      -3.34591745       4.32637882
C        1.72644279      -4.54180482       1.00883642
C        0.14402984      -1.38450149       1.35650982
C       -4.57440326      -0.18783088       2.62217950
C       -2.28599318       2.25306760       1.38653977
C        1.81665498      -0.23770514       2.49725116
C       -0.64689190      -3.52859402       5.20873114
C       -2.25359680      -0.18082605       3.34816118
C        0.41377656      -1.53273206       5.41447824
C        2.32015823      -2.38162234       3.57558913
C        0.16867580       0.24695953       4.02040904
C       -3.71737521      -1.58237346       4.49765600
C        0.74223274       0.74921957       2.80951604
C        0.00878291      -6.32808032       1.32166648
C       -3.48869598       1.80188789       1.51877073
C       -1.65222766      -2.50813488       5.30899601
C       -4.18149961      -2.69371514       2.02796755
C       -2.97784474      -2.67309580       4.81117858
60
Properties=species:S:1:pos:R:3 entry_id=12 rank=3 energy=-489.9422912597656 pbc="F F F"
C       -0.62665402      -2.10768430      -0.37421175
C        1.71487973      -0.99833003       1.68862260
C       -0.07958187      -5.32948957       3.49407365
C        1.61578764      -3.14831378       0.45175455
C       -2.47845752      -4.87304096       4.00513381
C        2.05282472      -4.38426154       2.36705993
C       -2.30921053      -3.83406768       0.08969021
C        0.70121788      -5.25226522       0.44285610
C       -3.97360349       1.42657296       2.19530297
C       -0.49127258      -1.72707003       2.51440447
C       -1.84874278      -6.72402536       2.48716669
C        0.48323230      -3.14633571       5.33208871
C       -2.00598415      -2.47304554      -0.28270551
C       -1.00566711      -1.38313038       5.46405877
C        1.15472002      -0.85255480       4.98755635
C       -1.81031048      -2.13625976       2.46192713
C        2.10690678      -1.22682953       4.02853345
C       -2.74120491      -1.33400711       0.14690741
C       -3.98760451      -1.46474300       0.78632085
C        2.60800393      -3.05991001       2.52050403
C       -3.48753593      -0.22901060       3.93608799
C       -1.81857637      -0.68831873       2.34836203
C       -1.38034431      -6.10264093       0.31311931
C       -2.92251268      -4.11692323       1.32742687
C       -2.41203329      -6.51180308       1.14729001
C       -2.98359344      -3.06955585       2.41435290
C       -4.47352417      -0.88632701       1.97555016
C       -0.05443823      -4.43771870      -0.45297904
C       -1.82815432      -0.48220210       0.83622463
C        1.20799668      -4.64669276       3.49973302
C       -0.58598922       2.39260839       2.18440586
C        2.27094057      -2.26996052       1.38637906
C       -3.15111086      -5.43925702       1.72651150
C       -1.05907851      -0.20803464       4.65299204
C       -0.50160524      -6.22947642       2.46094326
C        0.40538171       1.70513031       2.56985958
C       -1.40947276      -4.84908315      -0.37147252
C       -2.79175412      -5.83797310       3.04770188
C       -3.16474928      -3.63972741       3.80305910
C       -1.10960527      -4.76282185       4.35985922
C        0.39860143      -3.09454283      -0.34975461
C       -0.49658742      -0.90434393       0.36357490
C        1.45662482      -3.56600633       4.42398148
C        1.68988508      -4.46843166       1.01686023
C        0.31857210      -1.09890752       1.51210977
C       -4.32295582       0.24953374       2.78198872
C       -1.82408242       2.64783526       1.94423344
C        1.97376549      -0.33387831       2.92626527
C       -0.83034846      -3.64946887       5.18964050
C       -2.07317238      -0.01654366       3.63663275
C        0.36589103      -1.77715309       5.64618288
C        2.30289235      -2.59707946       3.80922561
C        0.31972025       0.14810107       4.44550947
C       -3.69411978      -1.39817212       4.53432207
C        0.97125713       0.70428722       3.29993872
C       -0.18946781      -6.12344807       1.08776954
C       -3.05958935       2.27220113       1.96371068
C       -1.75974640      -2.56571456       5.35124618
C       -4.13605315      -2.22002359       1.95802206
C       -3.06483423      -2.57244908       4.77620018
60
Properties=species:S:1:pos:R:3 entry_id=13 rank=4 energy=-489.5382080078125 pbc="F F F"
C       -1.06531099      -2.69909411      -0.66485557
C        1.47339295      -1.51450990       1.03294317
C       -0.13861913      -5.58502317       3.36935427
C        1.21980085      -3.73606369      -0.03987994
C       -2.44375540      -4.96446983       4.08058865
C        1.84317895      -4.80414425       1.91758762
C       -2.72923622      -4.32510857       0.11815913
C        0.25954878      -5.80234566       0.25357928
C       -4.10668200       1.42421826       2.32888383
C       -0.57324058      -2.47066156       2.12143759
C       -2.06359774      -6.98295603       2.70831180
C        0.71132104      -3.27915099       4.93202341
C       -2.43645264      -3.03240629      -0.42958300
C       -0.70169797      -1.46416138       5.04829306
C        1.39745412      -1.04233496       4.28968485
C       -1.93646380      -2.37396183       2.24867291
C        2.21451282      -1.52748438       3.26210401
C       -3.09920598      -1.86173853       0.00685335
C       -4.26727070      -1.80870233       0.78799167
C        2.44813273      -3.50034006       1.87980263
C       -3.32215819      -0.26693378       3.95897628
C       -2.35728270      -0.92653572       2.00634792
C       -1.84101426      -6.58979299       0.44817282
C       -3.21157456      -4.44681857       1.43725924
C       -2.77784073      -6.86985494       1.43137123
C       -3.13945481      -3.28496511       2.39989027
C       -3.91874348      -0.96634924       2.01520546
C       -0.57453009      -5.04539756      -0.62120546
C       -2.10715725      -0.98195353       0.49896992
C        1.15646428      -4.95191618       3.16568910
C       -0.63547268       2.07339625       1.63393403
C        1.99378841      -2.79707179       0.73062169
C       -3.41513172      -5.72081524       1.98368672
C       -0.82128877      -0.39412483       4.10064449
C       -0.71400117      -6.55270983       2.47860361
C        0.40315998       1.36925897       1.81063421
C       -1.91929885      -5.40649778      -0.34322031
C       -2.90600430      -6.00891959       3.28090920
C       -3.11354125      -3.72749433       3.84972909
C       -1.04214980      -4.89678048       4.28245006
C       -0.07656844      -3.71490678      -0.69596925
C       -0.83893446      -1.47448610       0.03505469
C        1.54894337      -3.80536018       3.95021439
C        1.31930733      -4.99557414       0.63674393
C        0.05902179      -1.68091997       1.13726190
C       -4.27209984       0.17920368       2.85611636
C       -1.88817511       2.39333342       1.66062732
C        1.96889819      -0.71701436       2.10187390
C       -0.62507356      -3.74255942       4.98227309
C       -1.99978057      -0.21138480       3.30112515
C        0.67226056      -1.88131664       5.12331659
C        2.32704804      -2.91960839       3.14803218
C        0.52885102      -0.06681979       3.74917628
C       -3.47843758      -1.42006598       4.58912066
C        1.05915410       0.39524049       2.50710844
C       -0.56711410      -6.58407523       1.07574775
C       -3.12640672       2.14532371       1.92159759
C       -1.49511872      -2.61836707       5.14747177
C       -4.30650670      -2.37731051       2.07002623
C       -2.85807551      -2.61456651       4.72753617
60
Properties=species:S:1:pos:R:3 entry_id=10 rank=5 energy=-487.9982604980469 pbc="F F F"
C        1.26432819      -1.10892918      -1.09927007
C        4.05720236       0.64540987       1.40709985
C        2.24552334      -3.41781095       3.51214098
C        3.34757350      -1.35737772       0.18769820
C       -0.19430248      -3.31994459       3.79958878
C        4.21703866      -2.19653292       2.34812610
C        0.00333282      -2.97596589      -0.27758336
C        3.16568481      -3.58463394       0.50056527
C       -2.49351990       2.24163969       0.89407853
C        1.58192425      -0.12901622       0.97463365
C        0.83727157      -5.25551242       2.66172910
C        2.31111956      -0.97317960       5.11958177
C       -0.01494394      -1.69588596      -0.93419771
C        0.57446108       0.51806670       4.80802971
C        2.67745663       1.31875265       4.46416182
C        0.32932947      -0.70126923       1.66937252
C        3.81448412       0.94592311       3.71619839
C       -0.95244979      -0.64524987      -0.65093661
C       -2.15880120      -0.87604600       0.02515054
C        4.91417888      -0.95527866       2.62825061
C       -1.89104710       0.99481922       2.90758342
C       -0.16293851       0.61438080       1.43361883
C        1.34391009      -4.92200344       0.43005248
C       -0.53357878      -3.09559111       1.01341679
C        0.34421047      -5.37313414       1.28219033
C       -0.76084083      -1.88074238       1.86403721
C       -2.68461717      -0.14543819       1.11628105
C        2.35364392      -3.21537764      -0.62357808
C       -0.24805629       0.46462130      -0.06414844
C        3.36536230      -2.49587153       3.46770748
C        0.79893007       3.57529588       0.89289885
C        5.25384400      -0.09063348       1.61295211
C       -0.58931419      -4.35167407       1.63508110
C        0.46289847       1.46389972       3.72880756
C        2.06281133      -4.50523648       2.60276872
C        1.85582484       3.12181918       1.42848751
C        1.10560924      -3.87722187      -0.51358480
C       -0.28108840      -4.47063555       3.01884587
C       -0.96574060      -2.23083537       3.31745484
C        1.09391868      -2.94705991       4.25999132
C        2.43796894      -1.83836728      -0.81883549
C        1.12882907       0.10644006      -0.36758657
C        3.41641473      -1.35711149       4.34489288
C        3.83934803      -2.44456920       0.99465139
C        3.02768195      -0.15734836       0.87220513
C       -2.72748462       1.14272255       1.66857899
C       -0.44882205       3.63295701       0.56838480
C        3.69524512       1.56003866       2.43739812
C        1.11520341      -1.70279973       4.94079577
C       -0.50399019       1.35587387       2.63284558
C        1.95873977       0.39689437       5.20935551
C        4.27201017      -0.38468866       3.78569804
C        1.78225063       1.99379824       3.59115756
C       -1.98909570      -0.06350976       3.71248512
C        2.48157653       2.39578184       2.40092337
C        2.43141304      -4.52130892       1.24522189
C       -1.64625628       3.13956028       0.58952655
C        0.02576914      -0.77523457       4.84080121
C       -2.05772877      -1.34437659       1.35136975
C       -1.17298305      -1.06513496       4.12507726
60
Properties=species:S:1:pos:R:3 entry_id=9 rank=6 energy=-487.126953125 pbc="F F F"
C       -1.15532653      -0.98992427      -1.30604115
C        2.19441162      -1.90737780       0.22747879
C       -1.30213701      -4.23328604       2.78668784
C        0.46355892      -2.97586523      -0.66894173
C       -2.78925133      -2.53654436       3.79986033
C        0.60797546      -4.55712599       1.08805205
C       -3.20275169      -1.52876043      -0.13731010
C       -1.43196526      -4.30307678      -0.32373487
C       -0.97574073       3.57461873       1.77453089
C       -0.22305251      -1.05240416       0.78245648
C       -3.74479712      -4.33306782       2.39108349
C        0.85759277      -2.89088393       4.22105200
C       -2.41833931      -0.51965476      -0.78034439
C        0.70047412      -0.60362406       4.50483109
C        2.58088889      -1.39678099       3.47138421
C       -1.14282004      -0.54380740       1.76238995
C        2.91444510      -2.23792110       2.38470129
C       -2.22696639       0.78607606      -0.21260820
C       -3.08193576       1.32574444       0.76225157
C        1.94252513      -4.05714151       0.98738161
C       -1.04616372       1.83870986       3.49757529
C       -0.50077014       0.72519780       1.60504674
C       -3.60915029      -3.94772563       0.11057543
C       -3.43689999      -1.51380637       1.25070728
C       -4.42646584      -3.76252543       1.21822130
C       -2.60613099      -0.67592101       2.18044378
C       -2.75107157       1.98747475       1.97173345
C       -1.86496661      -3.23307597      -1.16065781
C       -0.84884683       0.96190008       0.16572726
C        0.09690606      -4.37690542       2.40730593
C        2.19424972       2.33854401       0.77227086
C        2.06389358      -3.26775158      -0.22930364
C       -4.24149339      -2.49708285       1.84382182
C        1.06982584       0.39553907       3.54185849
C       -2.40775151      -4.66110738       1.97911247
C        2.69281337       1.18502626       0.94000105
C       -3.15759816      -2.85234290      -0.69317482
C       -3.83657721      -3.09924658       3.06869229
C       -2.66844798      -1.13206913       3.62543792
C       -1.56405164      -3.25084094       3.82555678
C       -0.81128669      -2.36598490      -1.43803880
C       -0.30641793      -0.26768822      -0.42484234
C        1.14936321      -3.72754792       3.13264203
C       -0.09374921      -4.17437183      -0.04383675
C        0.78790107      -1.88971967       0.30947732
C       -1.75942462       2.78484371       2.56310181
C        1.31997897       3.28270557       0.84891728
C        3.02250067      -1.38957525       1.23382184
C       -0.50071297      -2.54991905       4.44712777
C        0.10443216       1.22425562       2.81395619
C        1.62111706      -1.71981627       4.41917705
C        2.24849535      -3.47708824       2.26312175
C        2.29258121      -0.09932765       2.97547373
C       -1.68441272       0.97333967       4.27967024
C        2.79994476       0.01857977       1.63902458
C       -2.45865556      -4.62736902       0.57388532
C        0.16221723       3.71824198       1.22920894
C       -0.58380288      -1.14173617       4.70890214
C       -3.19935650       0.69105688       2.01292497
C       -1.75798738      -0.37262634       4.44054495
60
Properties=species:S:1:pos:R:3 entry_id=14 rank=7 energy=-487.0030822753906 pbc="F F F"
C       -4.07813699      -1.00177507      -1.24637912
C       -0.78210641       1.96234886       1.04152537
C       -1.84255203      -3.39923980       2.75487973
C       -1.95444956      -2.06076563      -1.43337212
C       -4.09480489      -3.18352891       3.65409017
C       -0.82829539      -1.79401430       0.97006692
C       -5.51732779      -2.54553204       0.01335490
C       -3.04022788      -2.19683400       0.74366374
C       -6.35677818       3.21733942       3.17698687
C       -3.46935196      -1.27304525       1.55800728
C       -3.61544477      -5.08932562       2.22229751
C       -1.00962192      -1.28177508       4.45725582
C       -5.27148352      -1.23946213      -0.51874540
C       -2.49348876       0.37637280       5.11638103
C       -0.45176150       1.12527758       4.40331707
C       -3.89018167      -0.08273944       1.97222625
C       -0.00074181       1.00355542       3.08176914
C       -5.75956685      -0.00280007      -0.05826616
C       -6.51442241       0.07260108       1.09757880
C       -0.53024049      -0.40921032       1.16176403
C       -4.80960103       1.49122589       3.60751315
C       -3.72813025       0.95506823       0.95337982
C       -4.00503354      -4.36316240       0.05178544
C       -5.73893384      -2.87238139       1.39724262
C       -4.58780600      -5.08769673       1.10582924
C       -5.88511847      -1.95614561       2.50208491
C       -6.62198168       0.72773518       2.32098140
C       -4.13601052      -3.17792164      -1.90868773
C       -4.65080608       0.86862393      -0.14086067
C       -0.87067336      -2.42465166       2.28405589
C       -3.00360006       4.50417136       3.56134796
C       -1.16396142       0.72273026       0.50164015
C       -5.38910851      -4.16115514       1.85228665
C       -2.67103500       1.77645881       4.73653070
C       -2.51225637      -4.26124926       1.83816992
C       -1.82448586       4.23648136       3.18757332
C       -4.81855907      -3.53460280      -0.77510364
C       -4.53761425      -4.29817639       2.95800280
C       -4.96793787      -2.08043464       3.60614338
C       -2.69825494      -2.96449497       3.80438448
C       -3.32760126      -2.08210867      -1.79326076
C       -3.55523059       0.27573397      -0.90844053
C       -0.38931123      -1.44181744       3.20906040
C       -1.77623167      -2.06174001      -0.09234903
C       -2.55971184       0.67644359       0.05489857
C       -6.04691159       1.84377995       3.02936978
C       -4.13910760       3.78356969       3.91138549
C       -0.40855676       2.17745764       2.32033649
C       -2.30296525      -1.86290526       4.59053886
C       -3.88697196       2.37164642       4.20996514
C       -1.12341982       0.03878325       4.96495900
C       -0.06635273      -0.25395181       2.48577455
C       -1.36516961       2.23233838       4.40141861
C       -4.41538943       0.17763185       3.25988278
C       -1.07772142       3.07533598       3.29554353
C       -3.03307776      -3.63009328       0.72293687
C       -5.49806622       4.07150394       3.58946278
C       -3.24342338      -0.84144758       4.90818514
C       -6.49556192      -0.70272466       2.23909875
C       -4.45840172      -0.88124440       4.17210919
60
Properties=species:S:1:pos:R:3 entry_id=7 rank=8 energy=-485.3681945800781 pbc="F F F"
C       -2.31930177      -1.23280342      -0.84021278
C        1.72522730      -1.56331888      -0.11748130
C        0.22700953      -2.37883648       3.89916980
C       -0.28976024      -2.38514220      -1.03173930
C       -1.29990870      -0.65837227       4.76610670
C        1.47580874      -3.05132988       1.80778283
C       -3.36994080      -1.48936562       1.28456474
C       -0.95074958      -3.62101543       1.24103018
C       -2.29465704       4.18847687       0.34679185
C       -0.58298762      -0.59953219       0.54692559
C       -2.08555776      -2.98961367       4.55722182
C        2.21278183      -0.22625664       3.78641373
C       -3.32859574      -0.75187459       0.06559044
C        1.43729736       1.90699783       3.33744531
C        2.96792083       1.03054023       1.87929345
C       -0.91957907       0.36284908       1.54560800
C        3.11143932      -0.17821493       1.18610945
C       -3.28310479       0.69032352       0.06487869
C       -3.78951975       1.47443541       1.11561274
C        2.42081568      -2.33571427       0.98812009
C       -1.24113239       3.39039097       2.40468934
C       -0.82397655       1.60441863       0.68378964
C       -2.85064242      -3.58704439       2.45414657
C       -2.98497727      -0.92296946       2.51699735
C       -3.26203736      -3.06974597       3.67529676
C       -2.10823925       0.31282950       2.61904895
C       -3.26242100       2.60505271       1.78130117
C       -2.01443032      -3.23640558       0.35441017
C       -1.95833998       1.06561752      -0.25653352
C        1.45413211      -2.47278544       3.12275753
C        0.13204426       2.60549742      -1.39985679
C        0.97599144      -2.19719948      -1.38124214
C       -3.24003796      -1.64328815       3.69445367
C        1.05876261       2.39831370       2.04646000
C       -0.92538603      -3.23829228       3.74683078
C        0.35830403       1.62182980      -0.47313638
C       -3.09342657      -2.89236022       1.22534884
C       -2.31039910      -1.61451998       4.76635083
C       -1.62872210       0.51911239       4.05147906
C        0.02818531      -1.10553436       4.55522516
C       -1.71191553      -2.51749845      -0.81552028
C       -1.35949142      -0.21258413      -0.59720612
C        2.44155804      -1.43774525       3.11946329
C        0.26984618      -3.01491909       1.10837627
C        0.25933437      -1.74910979       0.35171224
C       -2.46971023       3.75635020       1.63380865
C       -0.70791110       3.56131522      -1.43453725
C        2.25447905      -0.18712965       0.05723870
C        0.96452497      -0.04797958       4.42255155
C       -0.28866028       2.69805118       1.59136009
C        2.58186197       1.02086594       3.21520442
C        3.07106939      -1.41217180       1.84486762
C        1.98927644       1.78197531       1.17161150
C       -1.22668539       2.87055020       3.63776179
C        1.60186193       1.10006306       0.00020825
C       -1.46197107      -3.77086370       2.55285642
C       -1.65680675       4.16186418      -0.73779940
C        0.53835024       1.30770127       4.23164818
C       -3.10792462       1.36558509       2.33960704
C       -0.83416119       1.70174281       4.20479870
60
Properties=species:S:1:pos:R:3 entry_id=8 rank=9 energy=-485.3360595703125 pbc="F F F"
C       -1.86048413       0.65117912      -1.00271403
C        0.89866872      -2.03748561      -0.25397529
C       -2.13695877      -4.15036290       1.80197477
C       -0.50390972      -0.92816227      -2.08156335
C       -3.18251546      -3.02436031       3.73584904
C       -0.50403923      -4.02879156      -0.14895553
C       -4.06880990       0.19603925      -0.07516443
C       -2.50659988      -2.71908226      -1.06620856
C       -0.89385334       1.76541855       3.57824520
C       -0.91447312      -0.64112822       0.70846952
C       -4.47676063      -3.23313211       1.88741275
C        0.35728210      -4.07838686       3.29725339
C       -3.00671938       1.09493291      -0.25802149
C        0.77818710      -2.35441119       4.74790745
C        2.19072261      -2.55930553       2.97767156
C       -1.31554184      -0.36087702       2.10028259
C        2.07405270      -2.78577922       1.60848022
C       -2.51883590       1.89254087       0.84182648
C       -3.39536700       1.98796876       1.89992561
C        0.87253915      -3.56627654      -0.15350509
C       -1.75507207       1.02918411       4.52687724
C       -0.62855788       0.96329693       2.31599734
C       -4.51400302      -2.19100767      -0.17301002
C       -4.91115965       0.21997208       1.12428107
C       -5.15515950      -2.17900101       1.08759292
C       -2.24869126      -1.00392645       2.79827956
C       -3.71071372       1.50540818       3.20591378
C       -2.84174729      -1.39705299      -1.52589514
C       -1.12816722       1.62586635       1.03108211
C       -0.85167601      -4.46248787       1.18540852
C        1.60632850       1.99406150       2.28483735
C        0.55913943      -1.39051591      -1.59199904
C       -5.51811067      -0.94818751       1.52305441
C        1.20568321      -1.03013385       4.40334596
C       -3.35243619      -3.74089797       1.11129313
C        0.95931898       0.78827037       2.07022330
C       -4.00329681      -1.02237397      -0.78190720
C       -4.43538608      -3.22194458       3.23912863
C       -2.58389682      -1.67074232       3.91944948
C       -2.09039530      -3.83054059       3.20423608
C       -1.82476708      -0.48147019      -1.85277416
C       -0.88197965       0.60918117       0.03071928
C        0.35359557      -4.40436957       1.93553779
C       -1.24165930      -2.90216574      -0.55953236
C       -0.55291219      -1.83457244       0.10604225
C       -3.08933593       1.15925941       4.33716865
C        0.93779813       2.88194002       2.97679923
C        1.73248487      -1.60057138       0.93118890
C       -0.86234527      -3.68451400       3.88895373
C        0.35732102      -0.01166869       4.70627604
C        1.39835582      -3.29936401       3.86537472
C        1.39615453      -3.90705695       1.11599360
C        1.92787879      -1.18086037       3.18191370
C       -0.97458897      -0.14358662       4.96456316
C        1.61565975      -0.53246038       1.94800361
C       -3.52750220      -3.20645123      -0.20440055
C       -0.18208386       2.95031303       3.66388821
C       -0.60882203      -2.59298868       4.78748641
C       -4.54859148       1.24809237       2.06197173
C       -1.51211596      -1.50136133       4.87845719
60
Properties=species:S:1:pos:R:3 entry_id=6 rank=10 energy=-482.00787353515625 pbc="F F F"
C       -5.23921475      -1.37388215       1.07181952
C       -1.65090424      -2.76438168       1.04288354
C       -1.07426578      -1.17509494       5.00000086
C       -4.09799847      -3.40001826       1.16347969
C       -1.19289232       1.25836944       4.85897185
C       -1.29689492      -3.17037706       3.42581921
C       -6.20346313      -0.21123457       2.89825270
C       -3.76400556      -2.58493394       3.89220139
C       -3.63240546       3.07456506      -1.27263726
C       -2.95578210      -0.70345151       1.51386894
C       -2.94338870       0.15071480       6.05122201
C        1.21923171      -0.66504784       3.24312804
C       -5.95628134      -0.20376057       1.55806066
C        0.97766228       1.26183032       1.94281376
C        1.13266385      -0.68198577       0.79708123
C       -2.49864863       0.68981012       1.52762286
C        0.50090180      -1.91507231       0.87504547
C       -5.42348981       0.93564222       0.80159870
C       -5.14378102       2.18543808       1.37108347
C       -0.73033233      -3.37908068       2.10387784
C       -1.63791694       3.10641674       0.22596628
C       -2.95853761       1.15558091       0.15991278
C       -4.68796313      -0.74105379       4.86427526
C       -3.43855757       1.95264335       3.37247519
C       -4.24316458       0.46600988       5.42406206
C       -2.21229873       1.52294672       2.70401401
C       -4.06887488       3.04670451       1.10702398
C       -4.96290853      -2.28710648       3.17167351
C       -4.29113803       0.50015206       0.08488838
C       -0.49131886      -2.20584520       4.14167024
C       -2.31761983       0.51705270      -2.15759294
C       -2.92347337      -3.51743344       0.74166806
C       -3.60187103       1.59920733       4.74927201
C        0.31226958       1.49376198       0.70611650
C       -2.44126515      -1.09402197       5.49649260
C       -2.01270974       0.32126678      -0.85046288
C       -5.52190347      -1.06759329       3.72529800
C       -2.40898690       1.32404382       5.50119890
C       -1.03932893       1.70462747       3.52056404
C       -0.37591532       0.08525864       4.95796541
C       -5.04364377      -2.56497057       1.79971932
C       -4.04594576      -0.80879397       0.58933207
C        0.61920846      -1.93499136       3.28729910
C       -2.59924577      -2.70304032       3.15831153
C       -2.39020573      -1.87253702       2.01284297
C       -3.03846780       2.71180945       0.03207725
C       -3.01622544       1.31047483      -2.89031813
C       -0.74774642      -1.86334894       0.22148864
C        0.70531343       0.31978786       4.08035030
C       -0.55254133       2.54805376       0.42477272
C        1.49969275      -0.05665079       1.98718320
C        0.47440071      -2.64731345       2.07330133
C        0.25591899       0.20356890       0.09522737
C        1.58653753       3.66473213       4.72362068
C       -0.90004422      -0.50016418      -0.34085749
C       -3.62674954      -1.66538454       4.96114246
C       -3.55876627       2.42821897      -2.35263398
C        0.48576937       1.63704125       3.29241347
C       -4.28172055       2.57980843       2.40991127
C        1.12019675       2.71865956       4.05053970
60
Properties=species:S:1:pos:R:3 entry_id=5 rank=11 energy=-481.4632263183594 pbc="F F F"
C       -5.31890379      -1.37790770       1.00591815
C       -1.70106849      -2.81726371       0.95389804
C       -1.02365207      -1.16889023       4.85265618
C       -4.17380198      -3.40299566       1.10754052
C       -1.15104415       1.25660735       4.67642781
C       -1.33603246      -3.20495649       3.33664439
C       -6.17661071      -0.16675684       2.86366231
C       -3.78099903      -2.58101467       3.82853238
C       -3.45858013       3.14751722      -1.27111385
C       -3.04345450      -0.77736232       1.39132509
C       -2.85760856       0.16131877       5.94252716
C        1.28516832      -0.81387598       3.13944463
C       -5.97533534      -0.18323126       1.51634407
C        1.33193340       1.14123254       1.91707128
C        1.13650635      -0.80553169       0.73578518
C       -2.64255407       0.60767628       1.45609037
C        0.47863146      -2.02648510       0.77210333
C       -5.44702111       0.93569242       0.73258917
C       -5.14782419       2.18302481       1.28614172
C       -0.78973908      -3.44435107       2.01306858
C       -1.56155206       2.96920472       0.35236808
C       -2.99662077       1.11548510       0.09251077
C       -4.65238137      -0.72331494       4.82222384
C       -3.58011101       1.93022130       3.34851401
C       -4.19051674       0.46888046       5.40599953
C       -2.42657378       1.39025366       2.64639160
C       -4.06200327       3.02757024       1.06783833
C       -4.98570901      -2.26641905       3.12581841
C       -4.34296972       0.48391025      -0.02497601
C       -0.49634644      -2.24723779       4.02650588
C       -2.21604423       0.57130988      -2.20036231
C       -3.00547433      -3.54421720       0.66944345
C       -3.61883191       1.62910332       4.74668091
C        0.44130504       1.40912185       0.80173421
C       -2.38161925      -1.07492619       5.36741044
C       -1.99908844       0.31615875      -0.88485829
C       -5.50779906      -1.03281567       3.68881264
C       -2.35379577       1.34877587       5.40929098
C       -1.27190204       1.58400955       3.36289600
C       -0.29256853       0.08683004       4.78440538
C       -5.10513997      -2.55665441       1.75659846
C       -4.13195609      -0.85043269       0.46259122
C        0.61733864      -2.04168090       3.17247547
C       -2.63495542      -2.72828841       3.07743955
C       -2.45412648      -1.92737218       1.90744560
C       -2.97432908       2.68281491       0.05031128
C       -2.83923919       1.42229562      -2.93922248
C       -0.78403780      -1.91350017       0.14384365
C        0.87805531       0.23440342       3.98389803
C       -0.45987360       2.45824952       0.58988264
C        1.66278438      -0.25251695       1.89644326
C        0.44401730      -2.76518735       1.96571084
C        0.25890220       0.14738197       0.15750814
C        1.65463539       3.86755158       4.39596650
C       -0.91250539      -0.51212486      -0.33546085
C       -3.59180476      -1.64980731       4.88065166
C       -3.35542409       2.54023307      -2.37154682
C        1.21973215       1.50404062       3.30830821
C       -4.37674366       2.61578879       2.38574798
C        1.41787500       2.75134849       3.87522393
60
Properties=species:S:1:pos:R:3 entry_id=4 rank=12 energy=-480.33892822265625 pbc="F F F"
C       -6.19397559      -0.74283023       0.42178187
C       -2.59425495      -2.35220975      -0.69522657
C       -1.19211780      -1.58289662       3.12911452
C       -4.76585667      -2.54620188      -0.02620555
C       -1.13877847       1.91792256       4.02107547
C       -1.94316281      -3.24980035       1.46780298
C       -6.98411778      -0.22732846       2.53641125
C       -4.13156363      -2.40085563       2.66197856
C       -3.22360443       5.03600234      -1.07766630
C       -3.75527715      -0.45319264       0.56467482
C       -2.17004559       0.10999357       4.35450750
C        0.94644413      -1.13371528       1.21812019
C       -7.15554882      -0.11524316       1.26782536
C        1.21037058       1.02582024       0.37312322
C        0.48395705      -0.63218634      -1.05181362
C       -2.92529557       0.65576221       0.94845638
C       -0.37659718      -1.72671998      -1.07423393
C       -5.72763840       2.33873617       0.59081871
C       -5.24176695       3.11430062       1.50334105
C       -1.64162361      -3.23185425       0.06154495
C       -1.22247500       3.69935018      -0.41963547
C       -3.37107525       1.69651282      -0.05085253
C       -4.79659452      -0.50977453       3.88296226
C       -3.31444288       2.14491074       2.74233296
C       -4.57721577       0.77231422       4.27154180
C       -2.47993123       1.14571177       2.19290977
C       -3.18076874       3.10241567       0.51117754
C       -5.44276403      -2.02782509       2.22025992
C       -4.89797979       1.41377023      -0.03167159
C       -0.88569324      -2.56202655       2.14276144
C       -2.94813577       2.12272304      -2.43742702
C       -4.02567677      -2.90558899      -1.07593223
C       -3.59279435       1.70860842       4.15929960
C        0.27276262       1.61438708      -0.54758734
C       -2.38540748      -1.24198490       3.99123598
C       -2.69869167       1.24387038      -1.44172071
C       -5.91056129      -0.96883957       3.04568600
C       -2.30175979       1.44316950       4.88131179
C       -1.45226232       0.70469414       3.17993056
C       -0.49400211      -0.36550688       2.94232908
C       -5.79808970      -2.07044795       0.84048265
C       -5.01365276       0.01189973       0.12644056
C        0.15197440      -2.30153388       1.17251082
C       -3.22271171      -2.71192201       1.64579752
C       -3.46122238      -1.86096523       0.47198952
C       -2.51892188       4.12723981      -0.21051234
C       -3.36745018       3.26721243      -2.81003276
C       -1.69836002      -1.30901531      -1.31983536
C        0.65810885      -0.16686846       2.20385449
C       -0.31948489       2.85549352      -0.45671723
C        1.29814651      -0.38888818       0.06096020
C       -0.32515020      -2.73141612      -0.09302584
C       -0.30335667       0.52543868      -1.27905006
C        0.00620976       2.57826807       3.65784858
C       -1.68115163       0.16655284      -1.48601678
C       -3.73755356      -1.50907268       3.70362917
C       -3.48702177       4.43102713      -2.18267865
C        1.05410116       1.18199490       1.80633077
C       -3.87506275       3.07222886       1.82185772
C        0.76290939       2.23365508       2.65582344
60
Properties=species:S:1:pos:R:3 entry_id=3 rank=13 energy=-478.9125671386719 pbc="F F F"
C       -2.92600784      -4.26011520       0.07218963
C       -1.00600110      -1.24786506      -1.81585286
C        0.78468952       0.16969626       1.70109266
C       -1.92193415      -3.59744650      -0.74803584
C       -1.16937373       2.35386603       3.85543471
C        0.88832033      -1.38250799      -0.21418054
C       -3.48979503      -2.96197051       1.68104124
C       -0.10774569      -2.80878572       1.79760628
C       -6.11843216       2.08881477       0.86639805
C       -2.32451491      -0.96578715       0.90006933
C       -0.46227567       0.36404022       3.63444582
C        0.93203457       2.21202743      -0.34302284
C       -3.97562784      -3.96858094       0.84348453
C       -0.78053709       3.78343329      -0.40160921
C       -0.65254545       2.22907406      -2.09817326
C       -2.59497345       0.43961495       1.07239210
C       -0.36878849       0.89299835      -2.35495968
C       -5.59449868      -0.72644227       2.08418609
C       -5.49937500       0.14632064       3.02776664
C        0.39945173      -1.06403701      -1.52750332
C       -4.35800128       3.94685543       0.31220408
C       -3.99478104       0.61776130       0.57100059
C       -1.75319901      -2.02723944       3.29426756
C       -3.21884733       1.06183573       3.20322327
C       -2.42888856      -1.05649000       3.96057780
C       -2.23011508       1.18081862       2.18383511
C       -4.77291466       1.68944975       1.42629436
C       -1.24728715      -3.68516748       1.71021481
C       -4.61921091      -0.70890482       1.06177394
C        1.25843364      -0.14156624       0.39408089
C       -5.16219911       0.80366878      -1.60071544
C       -1.67163178      -2.22963420      -1.00031079
C       -2.51084049       0.27283103       4.25346522
C       -2.12224656       3.48535139      -0.84139524
C        0.19661094      -0.60283677       2.84568743
C       -3.92544789       0.77494772      -1.02452017
C       -2.29195203      -3.12131641       2.43714816
C       -1.25340600       1.02007058       4.64323895
C       -0.85761564       1.43855753       2.70503302
C        0.30421341       1.49594668       1.83660189
C       -1.56453299      -4.23005600       0.46238117
C       -3.56333546      -1.64046660       1.13886509
C        1.26721906       0.87080224      -0.62632714
C       -0.01404903      -2.10948947       0.57997442
C       -1.31436800      -1.65070367       0.25868159
C       -5.12109223       3.03102585       0.94453234
C       -6.30417712       1.02191371      -1.05024208
C       -1.51520244       0.09186479      -2.12220437
C        0.50418465       2.54270843       0.96189758
C       -3.26184169       3.97836878      -0.28265942
C        0.11993638       2.98457956      -1.20602529
C        0.76161255       0.27848862      -1.81038437
C       -2.00751393       2.32051508      -1.70506719
C       -1.13376918       3.67075753       3.45617951
C       -2.61686185       1.00514657      -1.70649208
C       -0.38497022      -1.87910219       2.85131622
C       -6.96914908       1.49601613      -0.01765852
C       -0.38889352       3.69708576       0.99978740
C       -4.57232360       1.18776391       2.83961597
C       -0.91495574       4.07266843       2.22954817
60
Properties=species:S:1:pos:R:3 entry_id=2 rank=14 energy=-478.332275390625 pbc="F F F"
C       -2.50346612      -4.33118879      -0.11046541
C       -0.89029611      -1.14668249      -1.91797060
C        1.09106718       0.37620957       1.62612413
C       -1.51895517      -3.61516939      -0.90140750
C       -1.07765803       2.21257494       3.82483002
C        0.97417948      -1.14186272      -0.29063719
C       -3.35937228      -3.09186110       1.33189962
C        0.12836940      -2.60837545       1.72179482
C       -6.91097830       2.55513619       0.70126866
C       -2.33063912      -0.97551211       0.69626234
C       -0.25794932       0.28248394       3.51832157
C        0.86777566       2.41256970      -0.40383194
C       -3.68180159      -4.15091310       0.50013217
C       -0.98214234       3.83809896      -0.35352523
C       -0.77034780       2.36164606      -2.11492385
C       -2.62238627       0.38977780       1.01712263
C       -0.41003089       1.04959662      -2.39948516
C       -5.52759814      -0.91611481       2.05263131
C       -5.39372136      -0.00958915       2.96030728
C        0.49035840      -0.85716262      -1.60990664
C       -4.60098958       3.47539353       0.37173684
C       -4.04624936       0.55685942       0.57950108
C       -2.27640808      -2.22042666       3.34305272
C       -3.12389129       0.93359130       3.20197515
C       -2.41299439      -1.18669880       4.03212779
C       -2.18405106       1.07903743       2.13986979
C       -4.74300175       1.56739366       1.49051279
C       -1.00911635      -3.55659563       1.66296608
C       -4.60255871      -0.83002677       0.99576351
C        1.44120767       0.08671494       0.28457762
C       -5.16789151       1.01294078      -1.55830143
C       -1.46284018      -2.22160657      -1.15767285
C       -2.39762252       0.19837767       4.25811054
C       -2.30228462       3.42868425      -0.75812271
C        0.70809040      -0.51160065       2.78399401
C       -3.95103483       0.76484386      -1.02682383
C       -2.22321058      -3.12732346       2.26708266
C       -1.09255831       0.87689161       4.55612625
C       -0.78388706       1.32406453       2.60721853
C        0.37681778       1.57734078       1.76277459
C       -1.20128105      -4.13407745       0.38580122
C       -3.53529304      -1.73441474       0.87536176
C        1.31214350       1.11132064      -0.73032820
C        0.08203331      -1.88771469       0.49232694
C       -1.24313669      -1.58520886       0.09568525
C       -5.50966253       2.65550734       1.00666374
C       -6.39445661       1.31884199      -1.39393940
C       -1.50256407       0.16513626      -2.17832372
C        0.45014332       2.66539293       0.91974881
C       -3.49820550       3.70453093      -0.13733491
C       -0.03698157       3.14526328      -1.21410798
C        0.76979389       0.50103567      -1.88834091
C       -2.11983898       2.34591764      -1.68510276
C       -1.14092902       3.53431618       3.49593497
C       -2.65131208       1.00592236      -1.71080103
C        0.68569669      -1.88131519       2.73303898
C       -7.04950225       1.92877963      -0.41444550
C       -0.53115714       3.73570707       1.02722886
C       -4.49075178       1.05834160       2.85103080
C       -1.02284281       4.02379511       2.28971432
60
Properties=species:S:1:pos:R:3 entry_id=1 rank=15 energy=-476.7862243652344 pbc="F F F"
C       -0.28879566      -4.97132316       0.58453270
C        1.23504349      -1.91714529      -1.57365461
C        1.87942193       0.66713835       2.30602457
C        0.71175624      -4.15651318      -0.04160511
C       -2.90229460       1.82032920       2.91185731
C        1.91959014      -0.96507363       0.57792261
C       -1.96318849      -3.99135116       1.48447426
C        1.01768716      -2.69868251       3.20278420
C       -5.88475515       0.42650771      -1.59594751
C       -1.29268551      -1.93126046       0.71974425
C       -0.98014323       1.51175023       4.05731774
C        1.55896273       2.13347260      -0.13479425
C       -1.59229614      -5.15706002       0.81887758
C       -0.45075260       2.94636556      -0.89715413
C        0.65689578       1.48970198      -2.25803891
C       -0.71837534      -0.72026950       1.36328230
C        1.36752465       0.30198989      -2.19415548
C       -4.64209840      -2.33898880       0.85625580
C       -4.62397656      -1.26286525       1.55909921
C        2.22696115      -1.19569612      -0.80617265
C       -3.91317498       1.89074673      -1.30325598
C       -3.16692113      -1.09857319      -0.73808568
C       -1.79436170      -2.54371016       3.48498696
C       -2.80607859       0.41811912       2.31785337
C       -2.30179759      -1.48955814       3.95402046
C       -1.28206034       0.35885937       2.01249863
C       -3.87301746      -0.02118477      -0.10241706
C        0.24554626      -3.59802929       2.53623368
C       -3.46377591      -2.35491019       0.00577679
C        2.43867031       0.27656466       1.02800929
C       -3.24219609      -0.61622323      -2.97927987
C        0.55115171      -2.95634907      -0.83172834
C       -2.62292435      -0.18242720       3.71707750
C       -1.42732564       2.24145375      -1.67253104
C        1.82320674      -0.33677274       3.24831468
C       -2.31962186      -0.80624169      -1.99531064
C       -1.20639214      -3.50268950       2.66510008
C       -2.32025749       1.21437492       4.15088232
C       -0.44753384       1.21278876       2.82642800
C        0.79873673       1.59848648       2.17007148
C        0.69826123      -4.31590723       1.37080194
C       -2.35400474      -2.85260601       0.70044799
C        2.45440312       1.06030368      -0.15802107
C        0.55346885      -1.13460743       0.80087227
C       -0.08696187      -2.13652839       0.07046774
C       -4.71937650       0.87272403      -0.87316204
C       -4.43414240      -0.50722675      -3.42888173
C        0.49458311      -0.82508841      -2.20636368
C        0.70842457       2.35917576       0.98414299
C       -2.78304125       2.33477292      -1.53250053
C        0.84590187       2.49422245      -1.29980199
C        2.40101329       0.14408703      -1.27990673
C       -0.72381887       1.15336098      -2.29132354
C       -2.54609333       2.91756373       2.17512809
C       -0.90637808      -0.27765382      -2.20786274
C        1.53708821      -1.56628725       3.49355225
C       -5.47058082      -0.10789315      -2.68807356
C       -0.51660453       3.00031168       0.54541713
C       -3.83421696      -0.13848950       1.37141772
C       -1.63780988       3.16283031       1.33440698
60
Properties=species:S:1:pos:R:3 entry_id=0 rank=16 energy=-474.6697692871094 pbc="F F F"
C        1.73343345      -3.37486137      -0.91524902
C        2.05377061       0.14738548      -2.29998932
C        1.91375642       1.86957872       2.12889228
C        2.53024762      -2.20968631      -1.15132994
C       -2.92077376       1.05292178       2.39635863
C        2.47359206       0.67187338       0.13321021
C       -0.04203630      -3.76234847       0.95300275
C        2.54640140      -1.61428084       2.33210216
C       -2.62050616       0.79102935      -3.27701851
C       -0.06652935      -1.52117053       0.07004254
C       -1.20628357       1.61999626       3.80351036
C        1.12377195       3.57889311       0.02734281
C        0.41940490      -3.26519170      -1.41306931
C       -0.98469717       3.98418539      -0.79105015
C        0.58659530       3.45075866      -2.41856398
C        0.13184799      -0.45950433       1.05529631
C        1.59192741       2.42339683      -2.51705893
C       -2.92944319      -2.99339733       0.16902199
C       -3.24796621      -1.86886722       0.68085298
C        2.73317534       0.89360029      -1.26115825
C       -3.01054573       1.86061396      -2.43182256
C       -1.87696040      -1.71472535      -1.63264345
C       -0.05142030      -2.59202543       2.92401601
C       -2.28374057       0.26162913       1.38876909
C       -0.86583470      -1.79306554       3.48412338
C       -0.81573056       0.19532476       1.94197561
C       -2.52247295      -0.53976630      -1.09572900
C        2.06870139      -2.60232064       1.54520758
C       -1.83452661      -2.81289807      -0.70724571
C        2.56824779       1.90632277       0.84558744
C       -1.21142797      -1.06529786      -3.92645468
C        1.56865837      -1.24366651      -1.89505146
C       -1.35474946      -0.55211774       3.18165445
C       -1.68572530       3.76688320      -2.04323580
C        2.26871346       0.79341426       2.90901050
C       -0.89373290      -1.67905410      -2.71229388
C        0.74109519      -3.16596535       1.91100496
C       -2.18463024       0.62146336       3.62408292
C       -0.41428660       1.52649942       2.68561707
C        0.56532256       2.39396257       2.09912265
C        2.35911234      -2.78814982       0.16194915
C       -0.44079856      -2.96358660      -0.22666622
C        2.32541111       2.89971231      -0.14628283
C        1.28143338      -0.03293546       0.29100801
C        0.84216308      -0.87237238      -0.71770606
C       -2.77820328       0.52620477      -1.93817337
C       -1.42222850      -0.69857562      -5.25011180
C        1.47188017       1.13415145      -3.09458259
C        0.19744642       3.28067815       1.06275161
C       -2.93063757       3.15407173      -2.15263828
C        0.38493300       3.94131848      -1.09734738
C        2.49827076       2.28455951      -1.42351890
C       -0.66266822       3.57283106      -3.03565487
C       -2.98890922       2.37042846       1.93697958
C        0.40481768      -2.20328696      -2.38029098
C        2.57536828      -0.45659803       2.87912487
C       -2.02375870       0.05901972      -4.24583895
C       -1.16019476       3.57374888       0.58974613
C       -2.81994829      -0.57421605       0.36574710
C       -2.31121218       3.17461254       1.25566205
