60
Properties=species:S:1:pos:R:3 system=runs/20260728-safe-lbfgs-strict-quench-200-production/output-c60-seed42 state_id=plateau_accepted pbc="F F F"
C       -0.24944944       1.04527810       2.46523844
C       -1.14535513       1.17435470      -0.34738154
C        0.67771005      -3.53864818       1.80396740
C        1.86470028       0.84167242      -2.66949952
C        3.54108318       0.93767088      -0.80952345
C       -2.29175450       0.23252023      -2.55957833
C        1.04862754       0.51806252       2.78475535
C       -0.45528563      -1.21788299       3.18956153
C       -0.46298598      -1.54487755      -2.49272496
C        0.78433314       1.48261649      -3.30973181
C        2.74805150      -1.45908001      -0.49368042
C       -2.71058378      -1.84512902      -1.49563463
C       -0.54229695       2.17927520       1.62544735
C        0.34571498      -0.76446495      -3.34582761
C       -4.66218252       0.04684972      -1.67187360
C        1.77583789      -1.87957050       3.08149976
C       -4.06964275      -0.14568751      -0.40387529
C        0.57486797       3.07592304      -1.56247406
C        1.72419915       2.48804754      -0.95579793
C       -2.24456214      -0.32960947       1.70632775
C       -1.30956564       2.39759345      -3.04172555
C       -1.69362345       3.46947109      -0.89249836
C        3.77812113       1.39989563       0.52793738
C        2.27881973       0.78309273       2.15606471
C        3.21452961      -0.28138942       2.01558335
C        2.72562684      -1.62420812       2.02924500
C       -2.20819745       2.86532053      -2.06928722
C        0.88231338      -0.81843565       3.26893715
C       -0.29651347       3.49997244      -0.53768485
C       -1.64193176       0.67491624      -1.36365316
C       -3.61009995       2.22724188      -0.39390720
C       -2.79574910       0.89765963       1.26497260
C        4.08811726       0.05352524       0.96757936
C       -0.12750580       0.51239495      -3.76657427
C        0.94617807      -3.04665561       3.08912949
C       -2.52182723       2.98133876       0.15464809
C        2.57306876       1.79731173       1.21129484
C        3.73786359      -0.42075704      -0.33854572
C        2.39137807      -2.15056751       0.73721147
C        1.22055085      -2.93195965       0.67961260
C       -1.18007639      -0.12030630       2.62545220
C        0.28528222       3.01198437       0.77352005
C       -3.13369943      -1.23275695      -0.34151984
C       -0.71740330      -3.17884061       1.79808043
C       -1.06347450      -2.33633959       0.79325248
C       -3.42981855       2.11913206      -1.76695364
C        0.45294758      -2.00008418      -1.43240394
C       -3.78315135       1.00919676       0.31727713
C        0.12817713      -2.50092714      -0.14034804
C        0.09462778       2.60474803      -2.79234021
C       -1.90066869      -1.27444304      -2.41887080
C       -2.18354332      -1.37655403       0.70666837
C       -1.42837007       1.01788718      -3.47931484
C        2.49027482       1.48114283      -1.56457671
C       -1.77945132       1.90427260       0.85785487
C       -0.49311223      -2.63188745       3.10487415
C       -3.70068773       0.81782917      -2.34242542
C        1.78705512      -1.48668074      -1.61965649
C        1.63402452       2.56695656       0.46125046
C        1.65423064      -0.57471203      -2.73313891
