60
Properties=species:S:1:pos:R:3 trial_index=3 seed_entry_id=2 discovered_entry_id=3 energy=-489.8155822753906 status=accepted pbc="F F F"
C        3.04663428       2.83563533       0.79061903
C        1.00086933       1.49677296      -2.55267359
C       -2.94710246       2.43862973      -0.35662387
C        3.28475206       4.19258312       0.84172351
C       -1.01256837      -2.32528916       2.52981820
C       -0.81748696       2.99144304      -1.56004188
C        2.03694299       1.62767511       2.92459783
C       -0.45511836       3.30421989       1.08467055
C        1.24863550      -3.32655589      -2.06419874
C        0.78974015       1.39952222       0.91134568
C       -2.61280600      -0.91648874       1.40715275
C       -3.12343137       0.49020785      -2.39248873
C        3.08993727       1.43598926       0.65495407
C       -2.92022396      -1.78538999      -2.15013549
C       -1.48184660      -0.86098188      -3.71433351
C       -0.49683917       1.81888783       1.42300313
C       -0.63328552       0.28399700      -3.72944264
C        0.99335044      -0.90101773       2.73863306
C        0.40949658      -2.18413087       2.65448132
C       -0.18452095       2.29935970      -2.65753132
C        0.09499430      -3.67669202      -1.31208671
C        2.16080463      -1.31019738       0.55154291
C        0.82236521       1.37234283       3.58872183
C       -0.83157971      -3.05159721       1.28068103
C        0.19464796       0.11923969       3.35943474
C       -1.54388492       1.05769034       1.96525452
C        1.56078147      -2.61864791       0.48166407
C        0.82413684       3.60644209       1.95423858
C        1.88974711      -0.53069983       1.71943455
C       -2.20475596       2.59087520      -1.56950508
C        2.37918162      -1.12245304      -1.90215649
C        1.73507893       1.55306566      -1.32318203
C       -1.13450083       0.05263535       2.89413552
C       -1.81774650      -2.67590840      -2.31616628
C       -2.74887429       3.42666992       0.60734747
C        2.64513893      -0.61405693      -0.63018755
C        1.10578781       2.66622803       2.99887841
C       -1.77203455      -1.16005818       2.51714034
C       -2.67170103       0.50967497       1.19622866
C       -3.19774583       1.06277644      -0.00187996
C        2.04808208       3.71586314       1.28285849
C        2.08160172       0.92381474       1.59207707
C       -2.39375208       1.65855753      -2.64142121
C       -0.04767879       3.09912073      -0.37953839
C        0.92543561       2.09150874      -0.30342212
C        1.27885866      -3.40188575      -0.64353510
C        1.54500773      -0.82480545      -2.98637266
C        0.75582543       0.28695338      -3.31080496
C       -3.44743247       0.14060626      -1.04404985
C       -1.25801999      -3.28725733      -1.15601747
C       -2.76422958      -0.70216394      -3.06681022
C       -1.16904945       1.53672756      -3.33663306
C       -1.04939080      -2.17355615      -3.39289486
C       -1.66568240      -2.84423142       0.14857560
C        2.80014614       0.81894066      -0.63916747
C       -1.78659559       3.93780561       1.22919914
C        1.76363209      -2.15274566      -2.62106733
C       -3.26393936      -1.27510791      -0.88355414
C        0.59494251      -2.93554696       1.45815313
C       -2.66980701      -1.80643502       0.29287867
