60
Properties=species:S:1:pos:R:3 trial_index=12 seed_entry_id=8 discovered_entry_id=9 energy=-493.5516052246094 status=accepted pbc="F F F"
C       -2.20099069       2.21182487      -3.70163281
C       -2.49239973      -1.20894723      -1.07260658
C       -2.10578452       0.46351652       3.15305606
C       -3.41047490       2.80706152      -4.07421519
C        3.25722057       1.77849782       0.42900265
C       -3.29039722      -0.13576521       1.05515652
C        0.06912689       3.61675949      -2.90604275
C       -2.65814640       2.25895145       1.24463671
C        1.40515628      -2.84578703      -0.99267962
C       -1.90097673       2.55462838      -0.81417741
C        1.52040713       1.07354689       1.99736418
C       -1.00246766      -2.02925541       2.73282934
C       -1.03144378       1.51048475      -3.39356597
C        1.17116265      -2.66081216       2.34939728
C       -0.36849369      -3.36930133       0.76715657
C       -1.46473539       2.73046138       0.59756837
C       -1.59839387      -2.98258817       0.15978710
C        1.96774537       2.35121417      -1.57046008
C        3.09502230       1.78362412      -0.99936498
C       -3.12135903      -1.25454947       0.20382966
C        3.06651036      -1.84101668       0.40977690
C        1.29681539       0.13934947      -2.40971544
C        0.41802225       4.08077767      -1.59317131
C        3.62313812       0.39530597       0.33893938
C        1.22853865       3.28637761      -0.76785229
C       -0.19712845       2.48060157       1.21594307
C        2.32378690      -0.51218112      -1.58822708
C       -2.11136812       3.58785012      -1.73677794
C        1.25012730       1.57715282      -2.50332816
C       -2.82437730      -0.49885047       2.36950629
C       -0.00161057      -1.88800270      -2.86812298
C       -2.17245970       0.06317027      -1.67812223
C        1.05907089       2.84276248       0.57834158
C        1.92850485      -3.24943451       1.30388792
C       -2.71177012       1.67694363       3.56012790
C        0.07983654      -0.49685307      -2.82356677
C       -0.88605621       4.22533071      -2.07764269
C        2.08162367       2.04502777       1.15018217
C        0.11359759       1.39639820       2.19327585
C       -0.69612632       0.40869381       2.85666814
C       -2.77150580       3.17892894      -2.89933997
C        0.16287037       2.20944013      -3.17502319
C       -2.30590155      -1.83523019       2.27093465
C       -3.04612101       1.10771988       0.48088000
C       -2.52059254       1.22108775      -0.85841558
C        2.32023815      -1.75975689      -0.86044087
C       -0.86153849      -2.76411196      -2.18247974
C       -1.77424019      -2.46477696      -1.17423227
C       -0.16089671      -0.90758407       2.94800970
C        3.25728389      -3.05167756       1.05766416
C       -0.20072658      -3.04519606       2.16054108
C       -2.56637458      -2.31446687       0.96581827
C        0.96013774      -3.40212859       0.22258637
C        3.08159134      -0.60271863       1.15083582
C       -1.16360293       0.24596468      -2.73973276
C       -2.93837037       2.45235202       2.58548068
C        0.54419637      -2.91436231      -2.10583668
C        1.18623151      -1.26435199       2.62344598
C        3.30172194       0.38537428      -1.05712731
C        2.04403375      -0.26599857       2.06533336
