10
Properties=species:S:1:pos:R:3 pbc="F F F"
C        0.11377056      -1.20486358       1.37710202
C       -0.10115787      -0.70354386       0.16687057
C        0.10116031       0.70354353      -0.16687160
C       -0.11377115       1.20486606      -1.37710104
H       -0.04415586      -2.25162324       1.59716937
H        0.45727733      -0.57068352       2.18607067
H       -0.44529292      -1.34763173      -0.63673430
H        0.44529058       1.34762981       0.63673552
H       -0.45727106       0.57068073      -2.18606766
H        0.04415008       2.25162579      -1.59717353
