10
Properties=species:S:1:pos:R:3 pbc="F F F"
C        0.21828950      -1.46854992       0.53820150
C       -0.71800351      -0.54985670       0.33339505
C       -0.46058905       0.84482844      -0.05609626
C        0.60318547       1.26295557      -0.73147837
H        1.27267219      -1.23464941       0.45237566
H       -0.04238569      -2.48170364       0.81155861
H       -1.75894628      -0.82427837       0.47066662
H       -1.21672055       1.56901238       0.22944816
H        1.36640906       0.57415423      -1.07329857
H        0.73608887       2.30808742      -0.97477238
