10
Properties=species:S:1:pos:R:3 pbc="F F F"
C       -0.16902124      -1.56757338       0.93552339
C        0.28241307      -0.37793070       0.55719319
C       -0.28241635       0.37793268      -0.55719083
C        0.16902134       1.56757347      -0.93552283
H       -0.99736815      -2.03597645       0.41682168
H        0.26804049      -2.10608865       1.76501537
H        1.11293188       0.08261211       1.08368750
H       -1.11293188      -0.08261127      -1.08368984
H        0.99736330       2.03597916      -0.41681575
H       -0.26803245       2.10608301      -1.76502189
