10
Properties=species:S:1:pos:R:3 pbc="F F F"
C        1.43125668      -0.48051320       0.46320985
C        0.40201417       0.27234161       0.83260994
C       -0.89698663       0.32172916       0.14466293
C       -1.08626209       0.06644708      -1.14436513
H        2.36449041      -0.45892599       1.00888858
H        1.36975041      -1.15040302      -0.38606176
H        0.50090636       0.89728608       1.71430018
H       -1.75059589       0.60260260       0.75308164
H       -0.26141918      -0.17982944      -1.80222567
H       -2.07315425       0.10926511      -1.58410055
