10
Properties=species:S:1:pos:R:3 pbc="F F F"
C       -0.00222186      -1.48008201       0.55072657
C       -0.41153931      -0.24956061       0.83509178
C       -0.34727771       0.89496839      -0.08633978
C        0.53111489       1.03023620      -1.07260391
H       -0.06739275      -2.27422974       1.28164241
H        0.39767230      -1.73532911      -0.42330276
H       -0.84135208      -0.05401838       1.81219832
H       -1.07448071       1.68351655       0.07822185
H        1.30145488       0.29014838      -1.25328435
H        0.51402237       1.89435035      -1.72235011
