10
Properties=species:S:1:pos:R:3 pbc="F F F"
C       -0.36177177      -1.42587292       1.09410201
C        0.24891382      -0.36446636       0.58160385
C       -0.24891471       0.36447064      -0.58159553
C        0.36177143       1.42587306      -1.09410354
H       -1.27892964      -1.80210266       0.65605482
H        0.02893560      -1.94742978       1.95689051
H        1.16739972       0.00442401       1.02810387
H       -1.16739616      -0.00442760      -1.02809648
H        1.27892325       1.80211606      -0.65605659
H       -0.02893154       1.94741554      -1.95690290
