60
Properties=species:S:1:pos:R:3 trial_index=7 seed_entry_id=0 discovered_entry_id=1 energy=-474.66851806640625 status=accepted pbc="F F F"
C        1.73616533      -3.37545721      -0.91086519
C        2.05659140       0.15194756      -2.28788410
C        1.90103454       1.86311739       2.14383938
C        2.53107186      -2.20799798      -1.14147649
C       -2.93578003       1.04568883       2.38591669
C        2.46857073       0.67056650       0.14702745
C       -0.04824349      -3.76646883       0.94962487
C        2.53505486      -1.62118814       2.34511191
C       -2.61445857       0.78354775      -3.29203897
C       -0.06985902      -1.52424214       0.06922014
C       -1.22847183       1.60764484       3.80291651
C        1.11744817       3.57630527       0.04326583
C        0.42414692      -3.26620167      -1.41423665
C       -0.98824103       3.98004435      -0.78429752
C        0.59246334       3.45807254      -2.40564709
C        0.12430001      -0.46414459       1.05705803
C        1.59724727       2.42972702      -2.50172924
C       -2.93056228      -2.99494400       0.15684761
C       -3.25291421      -1.87101446       0.66756908
C        2.73274691       0.89603948      -1.24564927
C       -2.99994689       1.85645813      -2.44814916
C       -1.87261080      -1.71825101      -1.64081064
C       -0.06654441      -2.59917513       2.92077749
C       -2.29246544       0.25889392       1.37832027
C       -0.88580996      -1.80285823       3.47644678
C       -0.82864016       0.18931521       1.93928367
C       -2.51909948      -0.54264443      -1.10714020
C        2.06043844      -2.60699321       1.55255554
C       -1.83291169      -2.81636271      -0.71577433
C        2.56054222       1.90325838       0.86298199
C       -1.21166576      -1.08110427      -3.93637081
C        1.57200494      -1.24208166      -1.88909319
C       -1.37461577      -0.56166418       3.17397151
C       -1.68231954       3.76726299      -2.04147438
C        2.25376812       0.78484776       2.92259563
C       -0.88768742      -1.68420017      -2.71883413
C        0.73156634      -3.17167972       1.91116592
C       -2.20657644       0.61020290       3.61573080
C       -0.43050261       1.51721966       2.68915867
C        0.55187438       2.38618529       2.10970296
C        2.35613173      -2.78900658       0.17008711
C       -0.44111808      -2.96699517      -0.23105505
C        2.32096473       2.89928163      -0.12720061
C        1.27624724      -0.03538445       0.29804796
C        0.84118211      -0.87357150      -0.71380097
C       -2.77067268       0.52209447      -1.95203430
C       -1.44331235      -0.73258682      -5.26178277
C        1.47699804       1.14119761      -3.08036063
C        0.18672693       3.27414397       1.07353871
C       -2.92300864       3.14859166      -2.16284558
C        0.38289981       3.94161372      -1.08333769
C        2.49967126       2.28779178      -1.40552700
C       -0.65318782       3.58260275      -3.02973073
C       -3.00317089       2.36562302       1.93333600
C        0.41139886      -2.20366868      -2.38080338
C        2.56085853      -0.46502448       2.89480025
C       -2.02624625       0.04171276      -4.25851031
C       -1.16946027       3.56824543       0.59534068
C       -2.82379611      -0.57660869       0.35265684
C       -2.32445642       3.17157756       1.25645315
