60
Properties=species:S:1:pos:R:3 trial_index=9 seed_entry_id=3 discovered_entry_id=7 energy=-478.7372131347656 status=accepted pbc="F F F"
C        2.95445817      -3.65550099      -0.11545511
C        1.79004486      -0.23433086      -2.59624697
C        2.89421000       1.25849433       2.51658939
C        2.50025392      -2.56178290      -2.33840477
C       -2.80031902       2.69207217       2.88652184
C        1.53359063       0.10784157       0.95970773
C       -0.67439743      -2.68428982       1.61818986
C        1.89511291      -0.97503078       3.62579133
C       -3.68700767       0.92066815      -4.36050647
C        0.44400551      -1.59413707      -0.02415004
C       -0.30967289       0.13644180       3.80260186
C        1.65386441       5.88665356       0.17981215
C        2.82973037      -3.31163521      -1.32254073
C        0.92067305       4.96508520       0.67243089
C       -0.07603729       2.83095058      -2.40565352
C        0.19111101       0.26253155       1.25964520
C        0.95983270       1.96775799      -2.26888574
C       -0.56991794      -3.93889917      -1.88628291
C       -4.40642631       0.73514072       0.46323674
C        1.90411513       0.15362366      -1.21854491
C       -4.39434429       1.42723731      -1.99670976
C       -0.93883640      -3.66102613      -3.08198502
C       -0.01485871      -2.11905911       2.77614666
C       -2.83124730       0.22572249       2.46607760
C       -0.83816643      -1.05428759       3.28826164
C       -1.54553035      -1.54856016       1.29792641
C       -1.32536814      -2.91696957      -4.08072935
C        2.18707823      -2.96584583       2.15432151
C       -0.25605417      -3.85759790      -0.65001972
C        2.39084051       1.21233504       1.25658929
C       -1.83480211      -0.63129621      -5.15504545
C        2.07921983      -1.52980083      -2.95719016
C       -1.99997534      -0.92965031       2.48197562
C       -2.52582415       2.45414276      -3.00105817
C        2.30416632       0.40117695       3.40070381
C       -1.69452819      -1.96131315      -4.80945756
C        1.39948406      -2.12901411       2.91148159
C       -2.25518800       1.42613257       3.01849760
C       -0.80631685       1.32425395       3.12382386
C       -0.12162787       1.51428918       1.86616023
C        2.73593217      -3.52263074       1.17164266
C        0.01372108      -2.95481925       0.32712662
C        1.66196262       2.09164695       0.31034132
C       -0.53534516      -0.75888833       0.64064192
C        1.64857999      -0.76269420      -0.15427984
C       -4.57281308       1.12777314      -0.80731069
C        0.28575204       0.60453378      -4.31712306
C        1.12039725       0.85748397      -3.24379685
C        0.52190530       2.57914335       1.11498507
C       -3.68228151       1.71287445      -3.16790423
C        2.41121025       6.81365483      -0.31030388
C        1.62950795       1.55236484      -1.03710350
C       -1.33422427       2.80474162      -2.74982863
C       -2.06748824       3.68792146       2.46274213
C       -0.64969375       0.11782914      -4.96964135
C        1.07505278       0.05451619       4.00159374
C       -3.04422916       0.11157226      -5.05292634
C        0.13763437       3.98144281       1.23130955
C       -3.82740232       0.40367734       1.51129483
C       -1.05660930       4.21647959       1.91591248
