60
Properties=species:S:1:pos:R:3 trial_index=26 seed_entry_id=21 discovered_entry_id=22 energy=-474.8038330078125 status=accepted pbc="F F F"
C        2.44492104      -3.47060386       0.25900346
C        2.22568448       0.21718346      -0.04636164
C        3.82580430       3.99146986       2.00165007
C        1.58296553      -1.70735809      -1.30153428
C       -4.21294866       2.35043624       3.26905422
C        2.19437187       2.88624489       0.49478665
C        1.34840885      -2.50076542       3.20364949
C        3.11602564      -7.14389218       1.10554796
C       -2.83838054       0.14153491      -5.72650276
C        3.06815277      -1.14214737       1.96223714
C       -4.63537043       4.55281938       4.38900956
C       -0.01117864       3.64110403      -1.09280948
C        2.18807497      -2.18683537      -0.13344742
C       -2.26458085       4.76184101      -1.39243981
C       -0.66526139       1.87481950      -3.26733460
C        3.85938998      -0.02033044       2.31612221
C        0.45466710       1.60886364      -2.45525253
C       -1.17379807      -3.84015176      -4.41909276
C       -3.18316985      -2.22415190      -0.09559241
C        2.66081642       1.47668777       0.61684918
C       -3.06154485       4.60657674      -3.56520960
C       -2.12034645      -2.77770763      -2.36930020
C       -1.18017132      -2.39513640       3.27139042
C       -2.33020118      -1.96194466       3.02940525
C       -3.37611248      -1.32545884       2.35054647
C        4.77273550       0.63988751       3.15913965
C       -2.70003072      -2.53447776      -1.31246642
C        2.91212348      -5.91676646       0.80460709
C       -1.11593342      -4.75504998      -5.30342784
C        2.84406996       3.88276772       1.18620187
C       -0.15433829      -0.42891274      -3.29563967
C        1.51717331      -0.32353400      -1.33409704
C       -3.91061456      -0.13614780       2.76754210
C       -2.37255041       3.55189365      -3.97679233
C        4.70183875       3.28411599       2.69291922
C       -1.22798827      -2.82459295      -3.47888750
C        0.09007963      -2.64592338       3.40229531
C       -4.06502828       1.11153999       2.99807659
C        4.51613227       1.93947004       2.55372577
C       -3.01098960       4.56045821       1.09110501
C        2.66671768      -4.66896291       0.51998002
C        2.46581904      -2.03940950       2.80313739
C        1.14279124       3.14479188      -0.41209381
C        3.60521651       1.22884716       1.64850378
C        2.54322331      -1.01008004       0.62625861
C       -1.06339697      -5.69464193      -6.19861350
C       -0.99720055       0.65801621      -3.92747595
C        0.75809601       0.25841686      -2.38344121
C       -2.53678733       4.81973758      -0.06966058
C       -3.11638424       5.26661421      -2.43856141
C       -1.17048182       3.86894015      -1.83242036
C        0.80202902       2.55222424      -1.55987826
C       -1.39419154       3.09248163      -3.09552704
C       -4.14896220       3.73577667       3.33585543
C       -0.39610376      -1.72478288      -3.44584653
C        3.43456487      -8.38272726       1.21244921
C       -1.99455162       0.45162818      -4.84794093
C       -4.88552842       5.53447139       5.11560435
C       -3.47397992      -1.81905879       1.02839971
C       -3.53268992       4.28284131       2.21516855
