60
Properties=species:S:1:pos:R:3 trial_index=6 seed_entry_id=1 discovered_entry_id=4 energy=-479.9053039550781 status=accepted pbc="F F F"
C        3.27033736      -3.09594761      -0.06295751
C        1.34303782      -0.18173113      -2.61223535
C        2.14716584       1.79527625       1.63935809
C        2.55491759      -2.40786490      -2.49810665
C       -3.17154816       2.23880888       3.73647255
C        2.35212890       0.49824010      -0.25484424
C       -1.04343717      -3.29656123       1.73096526
C        3.54472838      -1.43634803       3.01749809
C       -2.52847317       0.71991874      -3.83745808
C        0.34882432      -2.01060909       0.12315255
C       -0.99849174       1.52943380       3.31518079
C        0.89534921       3.61793641      -0.10440307
C        2.52196447      -2.68207021      -1.13440568
C       -1.26056315       4.44363757      -0.16203167
C       -0.14189349       3.09918337      -3.05749812
C        0.66336553      -0.90865622       1.00225106
C        0.74514712       2.06529758      -2.96756929
C       -1.98567493      -3.01529694      -1.66490032
C       -2.78854433      -0.73652856      -0.46045525
C        1.93071281       0.60129307      -1.60659524
C       -3.21402050       1.74393494      -1.87220210
C       -2.24922991      -1.90661094      -2.49615804
C       -2.33244944      -2.62522957       3.74271209
C       -1.73260631      -0.51339367       1.89271538
C       -2.67444435      -1.40681559       3.95198072
C       -0.29612513      -0.22414076       1.84286660
C       -2.80667870      -0.73364471      -1.85708237
C        3.74336209      -2.50967662       2.34305005
C       -1.39795491      -3.44953548      -0.66859516
C        2.45930003       1.83349976       0.25575869
C       -0.46096167      -1.15003630      -4.38699925
C        1.20796506      -1.66121819      -2.52331306
C       -2.37686815      -0.27368029       3.24313095
C       -1.91966671       3.86876198      -1.30897084
C        2.46835200       0.43903702       2.07769714
C       -1.25415332      -1.88590262      -3.51379277
C       -1.63402152      -3.30101942       2.83555507
C       -2.26472209       1.13264141       3.62768621
C       -0.06291420       1.12673775       2.44552607
C        0.81164014       2.17991438       1.87755573
C        3.59309070      -3.01744487       1.14634202
C       -0.63642029      -3.03750017       0.44803686
C        1.83136201       2.72958252      -0.66152457
C        1.93939188      -0.27751293       0.86167847
C        1.15924758      -2.15631978      -1.06066159
C       -3.03650221       0.52398421      -2.55630628
C       -0.27499369       0.26173571      -4.46655617
C        0.66080882       0.69684534      -3.50728334
C        0.26726889       3.26829962       1.13209964
C       -2.86070571       2.87349350      -1.47663201
C        0.00066786       4.40460405      -0.87365708
C        1.63321835       1.97569885      -1.84456305
C       -0.61436534       3.90578070      -2.08953790
C       -2.82531455       3.27666660       2.99562524
C        0.15418905      -2.05711245      -3.51974560
C        3.12752839      -0.20837097       3.07376908
C       -1.55620725       0.85585358      -4.61938977
C       -1.07931019       3.85025431       1.16100161
C       -2.44516597      -0.78721390       0.73999487
C       -2.05372528       3.75878052       2.10177575
