60
Properties=species:S:1:pos:R:3 entry_id=45 rank=105 energy=-489.2558898925781 pbc="F F F"
C        3.55771125      -3.89244523      -2.15165689
C        2.02314712      -0.58667617      -2.10080154
C        1.31577251       1.80833039       3.28194268
C        3.08896029      -2.60845529      -2.46245996
C       -2.41180399       2.42665499       1.97187644
C        1.94093127      -1.51351366       0.21341065
C        1.63956094      -4.91393446      -1.20050818
C        1.48398776       1.24776748       4.57014901
C       -3.24393082       2.00614630      -2.62935873
C       -0.69773272      -2.22509206      -0.65751243
C       -1.41585059       1.43715293       3.79095496
C        0.98620784       2.88874512       0.76518442
C        2.83152869      -5.03348199      -1.95067827
C       -0.79479661       4.16702351       0.00126569
C        0.22925996       2.46637971      -1.48216575
C       -0.48635407      -1.59526275       0.58207796
C        1.20323394       1.45400790      -1.55498809
C       -2.41114484      -0.70609734      -0.41282872
C       -2.26104346       2.64264574      -1.57790113
C        2.17637321      -0.44172712      -0.68403741
C       -3.66480674       0.67910263      -2.15243271
C       -1.78550727      -1.62558303      -2.73438523
C        0.79851210      -0.36969931       2.21824509
C       -2.55707668       2.63893410       0.59682251
C       -0.46036578      -0.34575356       2.92108927
C       -1.63742814      -0.77267266       0.83913214
C       -2.92107267      -1.39197219      -3.48730708
C        2.29044419      -2.81967342      -0.23884875
C       -1.81548769      -1.63893919      -1.29823364
C        1.44529227       0.93471561       2.14463440
C       -0.10211406       0.10036182      -3.12345202
C        1.98292422      -1.82226062      -2.78030179
C       -1.59878819      -0.05795979       2.05517705
C       -2.72457151       1.70957470      -0.43732529
C       -0.60294315       0.34933920       4.14425621
C       -0.40737332      -1.29589307      -3.11410250
C        1.24885816      -3.67396929      -0.70877865
C       -2.11226011       1.17020702       2.56345544
C       -0.93864651       2.77241829       3.67671796
C        0.36170879       2.86568719       3.10387686
C        3.40242191      -2.87698449      -1.11723661
C        2.12112121      -6.16088350      -1.56837228
C        1.58463455       1.59133346       0.85606081
C        0.79812834      -1.30582525       1.11996519
C        0.28225120      -2.89644214      -1.41576785
C       -3.19500702      -0.10369399      -3.27045216
C       -1.10342343       1.14638411      -3.05395411
C        1.14146589       0.44374362      -2.52953240
C        0.40597429       3.52771874       1.86136146
C       -3.12330950       0.44188144      -0.84638049
C        0.29809907       3.33722203      -0.39125041
C        1.81293839       0.94154295      -0.38404191
C       -0.97454010       2.20868223      -2.14547494
C       -1.92584022       3.46426353       2.82534972
C        0.61125657      -2.21717263      -2.63019952
C        0.50591350       0.54339637       4.96096288
C       -2.45572527       1.12135555      -3.47238194
C       -0.62549031       4.42246922       1.41396949
C       -2.06010829       3.61344216      -0.34285061
C       -1.65715541       4.68456640       2.26502767
