60
Properties=species:S:1:pos:R:3 entry_id=11 rank=129 energy=-485.7164611816406 pbc="F F F"
C        2.30365078      -4.01415033      -1.26736450
C        2.06559871      -0.50761835      -2.10461041
C        1.73972428       2.04268240       3.06917705
C        2.70557941      -2.78408726      -1.87867402
C       -1.75514756       1.90395840       2.63048134
C        1.99333947      -1.06623084       0.20532296
C        0.52428865      -3.37467952       0.90125130
C        0.86399063      -1.13942482       3.91224744
C       -3.34220894       1.13298105      -4.36827316
C       -1.02447029      -1.40613684      -0.87875239
C       -0.16068784       1.56817961       4.24402411
C        1.08945478       3.15866926       0.58317365
C        1.11541003      -4.54394871      -1.03549583
C       -1.11645091       3.58729172       0.21193723
C        0.13733998       2.43097298      -1.53935846
C       -0.60259724      -0.60083033       0.20236147
C        1.23723068       1.58325059      -1.68846212
C       -3.14428730      -0.32589861      -1.59745459
C       -2.24674006       2.00564994      -1.18856873
C        2.43411442      -0.12201210      -0.77689398
C       -4.29388253       0.24272150      -3.78518634
C       -1.77474410      -1.51021929      -3.17929620
C        0.49687631      -2.08977355       1.69096884
C       -1.84927936       1.52859320       1.26994748
C       -0.03744365      -1.35917324       2.88146338
C       -1.32235142       0.12623502       1.23583026
C       -2.88323454      -1.65789962      -3.99165660
C        2.58490058      -2.29757954       0.54334786
C       -2.06095718      -1.18095901      -1.81653268
C        2.39187113       1.69328667       1.91514253
C       -0.00205290       0.13062569      -3.25363208
C        1.88553549      -1.84711447      -2.50511848
C       -0.88395217      -0.23368244       2.57689584
C       -3.29905585       1.06750402      -1.42956906
C        1.20999257       1.17267741       4.13106086
C       -0.34108482      -1.24596863      -3.38329272
C        1.73371896      -2.99058723       1.47286778
C       -1.06295999       0.91346731       3.38290678
C       -0.27506771       2.96058602       3.87248727
C        0.80652523       3.15977932       2.99724840
C        3.03932437      -2.98211280      -0.56373448
C        0.34850356      -3.50782126      -0.48165732
C        2.04955082       2.07303649       0.62424729
C        0.69416790      -1.02526242       0.67998327
C       -0.09232486      -2.45973508      -1.30923134
C       -3.98325803      -1.09106429      -4.20044706
C       -1.05990570       1.12700414      -3.21588914
C        1.15641572       0.46936348      -2.55262231
C        0.52166720       3.69768952       1.75673777
C       -4.00178599       0.35946449      -2.40877497
C        0.12255825       3.27787668      -0.43168768
C        2.11487095       1.29415116      -0.60957668
C       -1.11369460       1.97295800      -2.04657646
C       -1.52828158       3.17936727       3.19940635
C        0.47653816      -2.11985570      -2.57322971
C        1.49434155      -0.16222593       4.42319789
C       -2.14528929       1.18843235      -4.03310248
C       -0.80338597       4.18066755       1.47962891
C       -2.00557419       2.46657420       0.16516167
C       -1.72800310       4.31148102       2.47122257
