60
Properties=species:S:1:pos:R:3 entry_id=33 rank=103 energy=-489.38299560546875 pbc="F F F"
C        3.58576787      -5.01369353      -3.73303571
C        1.95008565      -0.64724932      -1.95482518
C        1.21314812       2.11871602       3.29575939
C        2.62614777      -2.73414246      -3.30282208
C       -2.40537976       2.12614606       1.58453835
C        2.01557911      -1.43162468       0.46015159
C        2.15937023      -4.90307257      -1.00388574
C        1.38974064       1.73171029       4.64053614
C       -3.25155819       2.30800584      -3.85595362
C       -0.55506814      -2.61591679      -0.11198945
C       -1.50343977       1.56705187       3.70008199
C        0.96637746       3.02424270       0.72097388
C        3.42349176      -5.97913582      -2.86787944
C       -0.92251558       4.00968040      -0.13015834
C        0.32865773       2.52992658      -1.59687534
C       -0.31117645      -1.86812120       1.08722906
C        1.20304928       1.44899865      -1.52876231
C       -2.45253343      -1.37266120       0.34916744
C       -1.98109602       3.23814314      -2.06045594
C        2.13152847      -0.39685086      -0.54392688
C       -2.56015621       1.17475733      -3.29861129
C       -1.91331503      -1.60287677      -1.89678134
C        0.85147859      -0.19016203       2.44717197
C       -2.60050177       2.19404277       0.12833851
C       -0.35832585      -0.24390578       3.23967244
C       -1.56008864      -1.23920686       1.42096653
C       -3.05927805      -0.73475715      -1.75622242
C        2.25466064      -2.72474667       0.13664898
C       -1.79946405      -2.18278988      -0.61701910
C        1.38668981       1.15270087       2.23819046
C       -0.25024954       0.04612020      -2.88363435
C        1.78874774      -1.88921692      -2.66254119
C       -1.54273811      -0.27449500       2.41054591
C       -3.02286928       1.03221481      -0.65553440
C       -0.61741636       0.65009544       4.30340207
C       -0.66742548      -1.29894835      -2.52728290
C        1.63919550      -3.68821866      -0.56742747
C       -2.10995176       1.02741923       2.50665206
C       -1.14350734       2.88350420       3.38989762
C        0.20350658       3.10392525       3.00209230
C        3.21331360      -3.74384283      -3.77850509
C        2.75525221      -5.74752317      -1.70756463
C        1.53800897       1.71843228       0.90133589
C        0.91182284      -1.23555261       1.44507877
C        0.38325433      -3.03269391      -1.06789332
C       -3.05672360       0.63863404      -2.09045823
C       -1.12823665       1.18883858      -3.07152124
C        1.06033859       0.36908004      -2.41870150
C        0.31305629       3.72400486       1.74822355
C       -3.20409376      -0.39760921      -0.33256199
C        0.29177067       3.37135250      -0.48338966
C        1.76541652       0.98239813      -0.30629810
C       -0.83234884       2.40647260      -2.39701392
C       -2.10687427       3.31224244       2.35771782
C        0.42000477      -2.22741010      -2.22715657
C        0.43241605       1.05165818       5.12073320
C       -2.94935194       3.26957098      -3.06083814
C       -0.82955485       4.42370696       1.22117951
C       -2.10067348       3.35611984      -0.62728543
C       -2.00908046       4.59764561       1.90355309
