60
Properties=species:S:1:pos:R:3 entry_id=93 rank=2 energy=-500.37274169921875 pbc="F F F"
C        2.83775159      -3.31722868      -1.86117394
C        1.80149550       0.82435825      -1.95677392
C        1.01503558       2.38979278       2.43539698
C        3.61217273      -2.37941440      -1.12536409
C       -2.09679514       0.31670398       2.54931191
C        2.33063501       1.66200632       0.44666974
C        0.02015889      -3.93980067      -1.15132093
C        1.16266548      -1.21511800       2.04702043
C       -1.15558973       5.47244155      -1.32452142
C        1.99540021      -1.84039623       1.03553108
C       -0.11168215       0.75173127       3.60814840
C       -0.41329032       4.05137740       0.63953460
C        1.72282070      -2.84957145      -2.54810799
C       -2.57747665       2.46635613       0.37459074
C       -1.43962078       2.39546142      -1.80072758
C        2.78478346      -0.82576951       0.39029337
C       -0.02087832       2.32501035      -1.99090884
C       -2.80126021      -1.72560326      -0.48711718
C       -3.01203899       0.64406557      -1.10260712
C        2.00797852       1.80854860      -0.94435145
C       -1.09825339       6.48674668      -2.06297564
C       -0.48484879      -2.37013893      -2.93603905
C       -0.71198618      -3.18121265       0.62892999
C       -2.61453554       0.02538028       1.25541374
C       -1.15393927      -2.03934490       1.34694894
C       -2.31195485      -1.33371983       0.79484944
C       -1.81831293      -2.23986146      -2.52298050
C        1.86823654      -3.10960023       0.44538312
C       -1.29667063      -3.62247519      -0.60528416
C        1.56019948       2.65282164       1.16504276
C       -0.28382470       0.10652217      -3.12568785
C        2.36837438      -0.50161053      -2.01190756
C       -0.26478167      -1.34417079       2.26863466
C       -3.15438041      -0.71953002      -1.42254979
C        1.12132697       1.07412178       2.98081817
C        0.28187694      -1.18900317      -3.19445904
C        0.60331052      -3.59948583       0.14453242
C       -0.87370852      -0.27706874       2.98661965
C       -0.92041029       1.92952964       3.61187964
C       -0.27802029       2.89253338       2.79409865
C        2.91862273      -3.42189138      -0.45957641
C        0.40959189      -3.35955292      -2.38061994
C        0.76670587       3.39008692       0.23081466
C        2.54068068       0.41008608       1.07287827
C        3.20521460      -1.02373578      -0.95819418
C       -2.18477153      -2.77352717      -1.24846798
C       -1.69743720       0.20114723      -2.96265881
C        0.54301505       1.13550097      -2.59427181
C       -1.04377721       3.56102179       1.82413076
C       -2.44861729      -0.97208669      -2.65082627
C       -1.97485611       3.17342004      -0.72688888
C        0.94683051       2.79812109      -1.04918656
C       -2.19804750       1.24039329      -2.11470880
C       -2.25738984       1.59125968       3.20406117
C        1.63418226      -1.45256271      -2.77349263
C        1.75246090       0.08771440       2.22685444
C       -1.30392538       4.42391989      -0.44233096
C       -2.39820855       3.07208850       1.66397613
C       -2.90683949       1.07146887       0.25447110
C       -3.10642196       2.55288005       2.74430143
