60
Properties=species:S:1:pos:R:3 entry_id=98 rank=6 energy=-499.8426818847656 pbc="F F F"
C        2.62456475      -3.53914594      -1.76681147
C        2.36695972       0.71485799      -1.79244963
C        1.16149046       2.23327917       2.48739211
C        3.47831906      -2.77434182      -0.92467755
C       -2.21940680       0.43859636       2.63068813
C        2.66910342       1.38924669       0.68708704
C       -0.28836306      -3.74736030      -1.29441490
C        0.95870243      -1.34991910       2.09046186
C       -3.51907580       3.49106132      -1.93216933
C        1.77866289      -2.05950277       1.12382160
C       -0.17403328       0.73689455       3.60992463
C       -0.00105603       3.78449215       0.39461860
C        1.66086980      -2.86676570      -2.51303870
C       -3.12479818       2.59181243       1.17353889
C       -0.44394383       2.99997666      -1.90106270
C        2.75420383      -1.14961273       0.58160397
C        0.91731501       2.54076210      -2.00240313
C       -2.84521217      -1.24095060      -0.61452832
C       -3.15743167       1.21204032      -0.89408580
C        2.64011969       1.63135340      -0.72740696
C       -4.20318587       4.50242038      -2.22821579
C       -0.40694517      -1.98243994      -2.96713557
C       -1.05168918      -3.03255109       0.49053532
C       -2.78741931       0.19770799       1.35492405
C       -1.40490723      -1.91125934       1.28210149
C       -2.48552773      -1.08543937       0.75394959
C       -1.69807448      -1.62266512      -2.57731042
C        1.52290692      -3.28272068       0.47745952
C       -1.59265285      -3.29054350      -0.81913529
C        1.90276718       2.45334755       1.31411788
C        0.23080612       0.42206216      -3.05010520
C        2.66272518      -0.68997252      -1.83235761
C       -0.48653373      -1.32917510       2.25356984
C       -2.91632774      -0.06174750      -1.41908617
C        1.10616145       0.92375602       3.04348898
C        0.56207583      -0.95035149      -3.14545162
C        0.22984560      -3.57987331       0.06077735
C       -1.01340918      -0.24379204       3.00923445
C       -0.87258000       1.99632259       3.54603695
C       -0.11582523       2.85772635       2.69512436
C        2.57811745      -3.71551004      -0.36938910
C        0.27269157      -3.14738347      -2.44484224
C        1.34500439       3.27724274       0.30046035
C        2.60940913       0.10129966       1.27023224
C        3.27917284      -1.37866707      -0.72409056
C       -2.28597649      -2.25985318      -1.44392092
C       -1.14739367       0.81064684      -2.86572752
C        1.24315892       1.26222641      -2.52851925
C       -0.71860296       3.59485582       1.65091624
C       -2.06989210      -0.23420871      -2.55232629
C       -0.69976813       3.81081805      -0.80018682
C        1.81302307       2.79410678      -0.94081902
C       -1.49027089       2.11472584      -2.39383667
C       -2.22588557       1.72381184       3.25134983
C        1.82564481      -1.46685808      -2.68104480
C        1.68232715      -0.13000360       2.33637533
C       -2.82503209       2.29977723      -1.81072084
C       -2.13388760       3.51053834       1.62728401
C       -3.19248045       1.32162174       0.53592103
C       -2.88161972       2.74435636       2.55933159
