60
Properties=species:S:1:pos:R:3 entry_id=38 rank=114 energy=-488.83343505859375 pbc="F F F"
C        4.09558150      -4.74335951      -2.16018785
C        1.97598454      -0.52449503      -2.09695992
C        1.35737498       1.76603416       3.35810462
C        2.91345913      -2.64948136      -2.85844634
C       -2.42750773       2.47147300       1.97768641
C        1.92046579      -1.48976709       0.18857986
C        1.37754684      -5.02347827      -0.85916636
C        1.46726758       1.16450575       4.63172875
C       -3.51735033       1.20097564      -3.20476566
C       -0.71620282      -2.05442933      -0.73711764
C       -1.43915749       1.45016858       3.81066604
C        1.11847138       2.92885961       0.85560828
C        3.68029964      -5.74657140      -1.44659004
C       -0.64324926       4.22853680       0.15757838
C        0.33768476       2.60278462      -1.43921676
C       -0.50218632      -1.45520893       0.51874685
C        1.24497839       1.53926918      -1.51270853
C       -2.43605550      -0.50099969      -0.43940292
C       -2.03899025       2.81367938      -1.35837374
C        2.19144280      -0.38102657      -0.69234306
C       -3.97901591       0.35547814      -2.17513054
C       -1.85294193      -1.44449105      -2.76304969
C        0.78749529      -0.34482592       2.22959353
C       -2.60380610       2.74100389       0.60634930
C       -0.48418026      -0.30678405       2.90883943
C       -1.64210000      -0.61183448       0.79290306
C       -3.17976554      -1.57291441      -3.13469413
C        2.00461046      -2.77201936      -0.25738371
C       -1.81656407      -1.40707157      -1.33305671
C        1.49264249       0.92871673       2.19160075
C       -0.09069062       0.28293835      -3.16270799
C        1.90643379      -1.74607973      -2.83094490
C       -1.61291797       0.01085519       2.04913857
C       -2.90845185       1.92639314      -0.61719850
C       -0.63862540       0.34661003       4.15167478
C       -0.50023318      -1.10679240      -3.23122711
C        1.15390530      -3.63412280      -0.87093099
C       -2.15534970       1.20919671       2.58176348
C       -0.90818943       2.75685168       3.68653571
C        0.42082342       2.83942937       3.18272302
C        3.71074979      -3.60509848      -2.68051896
C        2.41722663      -5.73483909      -0.98465770
C        1.66336190       1.60908240       0.91273575
C        0.76582413      -1.22592828       1.09771810
C        0.15172474      -2.78526801      -1.56142099
C       -4.21790818      -0.95731736      -2.72056330
C       -1.05114956       1.37885576      -3.11480788
C        1.12512961       0.53552283      -2.49758623
C        0.54399529       3.55363832       1.97573954
C       -3.28177897       0.56476737      -0.92895676
C        0.43702780       3.41434606      -0.29491289
C        1.86027498       0.98748881      -0.35347311
C       -0.89739813       2.40999177      -2.11801568
C       -1.87145777       3.48545873       2.83792443
C        0.47999646      -2.05219040      -2.73390228
C        0.45818800       0.49141215       4.99438528
C       -2.35025044       1.36505156      -3.62594831
C       -0.47364925       4.47651576       1.55839720
C       -1.87790340       3.67597854      -0.19056570
C       -1.54801824       4.72565162       2.36521872
