60
Properties=species:S:1:pos:R:3 entry_id=73 rank=79 energy=-494.0875549316406 pbc="F F F"
C        2.37705031      -3.18838854      -1.11474983
C        2.71009101       0.90986050      -1.85968467
C        1.57869945       1.75411881       2.50913767
C        3.12241705      -2.34062213      -0.23951817
C       -1.98221066       0.69014130       2.32556311
C        2.97555463       1.18869155       0.57812171
C       -0.45455287      -3.40826411      -1.26782520
C        0.64160771      -1.76693984       1.76657724
C       -5.30330453       0.24899317      -1.31488872
C        0.02437137      -0.47331373      -0.61169382
C        0.02110689       0.38751742       3.41554646
C        0.54495707       3.68899992       0.82054202
C        1.67155896      -2.61651277      -2.17158101
C       -1.64906441       3.01921356       0.55075306
C       -0.13811298       2.91793172      -1.42427304
C        1.04804008       0.08432037      -0.13978074
C        1.21413931       2.65786118      -1.74005463
C       -3.13558385      -1.00903505      -0.81932796
C       -2.33346059       1.76188453      -1.31985178
C        3.05006860       1.72198833      -0.74075637
C       -6.52878297       0.46131293      -1.16767536
C       -0.27856814      -1.66195418      -2.94283800
C       -1.58197235      -2.91077030       0.34154899
C       -2.52261760       0.66251584       0.99009213
C       -1.77768626      -1.73089468       1.06031547
C       -2.61306699      -0.70913703       0.47777284
C       -1.60739471      -1.22719909      -2.70136556
C        0.84364874      -2.86730469       0.88967454
C       -1.81615528      -2.97831849      -1.05332817
C        2.33060047       2.15952986       1.40020602
C        0.55193561       0.67064033      -3.04849758
C        2.86005660      -0.49383795      -1.75627986
C       -0.73839060      -1.39614534       1.96823002
C       -2.92124715       0.70638750      -2.06092479
C        1.29521180       0.38113167       2.78085823
C        0.79279523      -0.71240819      -3.10118153
C       -0.23853106      -3.37493478       0.15941224
C       -1.00915406      -0.25942007       2.72523631
C       -0.43120640       1.72314764       3.61975014
C        0.48632620       2.56517165       2.96276719
C        2.05879053      -3.10509657       0.25175281
C        0.28292259      -2.79957342      -2.27860866
C        1.83331985       3.18887685       0.56349672
C        2.30882708      -0.15893820       0.57143273
C        3.12432192      -0.96060890      -0.41534420
C       -2.35775857      -1.86127395      -1.67693897
C       -0.80209763       1.07867795      -2.91913309
C        1.55887955       1.47513267      -2.46581583
C       -0.05547611       3.52364046       2.10152702
C       -1.87533350       0.14565299      -2.87411837
C       -0.46110674       3.42555587      -0.14658655
C        2.21146403       2.87442887      -0.76322614
C       -1.13214055       2.12981041      -2.02261131
C       -1.78717059       1.84527643       3.15111826
C        1.97845335      -1.27655099      -2.52979034
C        1.65375542      -0.68650167       1.90305713
C       -3.97751247      -0.05255830      -1.49199922
C       -1.49146391       3.42550411       1.91586272
C       -2.38338080       1.85923525       0.11724304
C       -2.36951887       3.05450924       2.89771415
