60
Properties=species:S:1:pos:R:3 entry_id=102 rank=11 energy=-498.9570617675781 pbc="F F F"
C        2.75891839      -3.66818454      -1.33038174
C        1.97724751       0.41929895      -2.31177022
C        1.05201598       2.82157709       1.65027380
C        3.55767443      -2.63878365      -0.76333908
C       -2.10730883       1.05685239       2.02590696
C        2.42817618       1.69679800      -0.09699382
C       -0.10737427      -4.00937275      -0.62106027
C        1.06787986      -0.75373460       2.00214731
C       -0.88989948       3.81583981       4.14486588
C        1.90441521      -1.60497802       1.17453756
C       -0.12971280       1.51450516       3.14325356
C       -2.21800040       4.38534405       1.12559338
C        1.69225944      -3.29521864      -2.14106335
C       -2.73167574       2.62470784      -0.48462896
C       -1.15225062       2.08266608      -2.29433514
C        2.76211628      -0.77456635       0.36977305
C        0.21797963       1.94124510      -2.66120918
C       -2.86562033      -1.60967785      -0.52256716
C       -2.98746667       0.57939348      -1.58709919
C        2.21428178       1.58917340      -1.51641025
C       -0.86592074       4.64537470       5.08062529
C       -0.47411452      -2.80136687      -2.69654428
C       -0.85874585      -2.87056672       0.93621749
C       -2.69945042       0.44142707       0.85730666
C       -1.27385734      -1.58940336       1.38667857
C       -2.40512186      -0.98024591       0.67995850
C       -1.80987706      -2.53250922      -2.37137158
C        1.73048273      -2.95918026       0.84875695
C       -1.42368308      -3.53352256      -0.20368248
C        1.62259279       2.81101192       0.36139555
C       -0.14084110      -0.42132208      -3.34871075
C        2.45665771      -0.92060609      -2.06730238
C       -0.37366856      -0.75309786       2.16365066
C       -3.14895076      -0.80923497      -1.66096081
C        1.10133761       1.66091093       2.46282413
C        0.35813018      -1.73055127      -3.15373693
C        0.44905199      -3.43731794       0.60314400
C       -0.93046331       0.47462014       2.61749789
C       -0.90148251       2.81939174       3.08430119
C       -0.15895271       3.50617917       1.88918358
C        2.78991270      -3.49450045       0.06707234
C        0.35019039      -3.70004792      -1.92380402
C        0.83939042       3.29999899      -0.71870749
C        2.54823774       0.58544413       0.77308391
C        3.22141808      -1.26013145      -0.88994878
C       -2.25231014      -2.79969113      -1.03877785
C       -1.54675668      -0.21242768      -3.21839405
C        0.73684850       0.64833075      -3.02556776
C       -0.83613711       4.13781892       0.85496251
C       -2.37214040      -1.28935753      -2.76985337
C       -1.52380483       2.94986200      -1.19501984
C        1.20703692       2.56800015      -1.86908171
C       -2.00751310       0.97729207      -2.55000780
C       -2.21838694       2.37575472       2.49667856
C        1.68587268      -1.96935267      -2.64574865
C        1.72097507       0.52579550       1.94245894
C       -0.52002186       3.68009169      -0.46985618
C       -3.15037846       3.53010500       0.49442026
C       -3.03436795       1.23162458      -0.32878100
C       -2.93785916       3.38365227       1.87519828
