60
Properties=species:S:1:pos:R:3 entry_id=77 rank=81 energy=-493.65777587890625 pbc="F F F"
C        1.92484167      -3.22086224      -1.30091948
C        2.41906428       0.89406684      -2.06135366
C        2.01349933       1.62840484       2.47668347
C        2.80019153      -2.42300080      -0.49094074
C       -1.48940503       1.17129407       2.28982221
C        3.00310824       1.08539562       0.32109184
C       -1.01423217      -3.01254697      -1.27638392
C        0.56594255      -1.66813714       1.72778237
C       -3.67844061      -1.34632450      -2.53390924
C        0.08505129       1.20329208      -0.29128473
C        0.43374089       0.42770639       3.57342850
C        0.57388134       3.43120771       0.98673324
C        1.19261662      -2.58901285      -2.30835470
C       -1.71419945       3.07513611       0.95005698
C       -0.32823215       2.42515158      -0.98979192
C        0.94322598       0.35655452      -0.07171435
C        0.95123281       2.64893927      -1.74018860
C       -3.36287817      -0.49412737      -0.41127693
C       -2.67998067       1.77774056      -0.98112766
C        2.87344360       1.66516781      -0.97418084
C       -2.99426360      -2.00651627      -3.53265936
C       -0.58514812      -1.58163378      -3.32259525
C       -1.87365176      -2.62124530       0.55127726
C       -2.44554507       0.93061298       1.27622899
C       -1.89248894      -1.44610178       1.33288637
C       -2.70855891      -0.38628018       0.84149870
C       -1.87570884      -1.16390174      -3.64479576
C        0.58239989      -2.77162814       0.80939816
C       -2.36206129      -2.60724284      -0.81351328
C        2.51502087       2.04693446       1.24135041
C        0.19879623       0.74561576      -3.09769720
C        2.52850053      -0.51934610      -1.95830842
C       -0.72345442      -1.12136766       2.10016084
C       -3.44963995       0.61968105      -1.28713736
C        1.61266242       0.29936700       2.73691462
C        0.47383076      -0.62273582      -3.27410062
C       -0.60056568      -3.12085945       0.13233466
C       -0.72615199       0.13058331       2.82092729
C        0.40690751       1.72230792       4.17974711
C        1.07790657       2.47101709       3.16290669
C        1.73289723      -3.12642084       0.09006254
C       -0.23089293      -2.65400937      -2.41186430
C        1.82461939       3.02706831       0.51500336
C        2.19062389      -0.19831086       0.38566632
C        2.84284793      -1.03222397      -0.66196242
C       -3.33546431      -1.67804580      -1.18818602
C       -1.19196439       1.10665251      -2.86037337
C        1.26499838       1.52555943      -2.58280409
C        0.19656374       3.07736813       2.29135822
C       -2.19201604       0.18855558      -3.26220914
C       -0.57210366       3.34681858       0.14824909
C        2.04585620       2.80207931      -0.85795278
C       -1.51287639       1.98807493      -1.78465936
C       -0.78621048       2.29599823       4.60632212
C        1.59675474      -1.27070544      -2.69202445
C        1.70774286      -0.72848097       1.76465776
C       -3.42982386       0.09575351      -2.59792424
C       -1.22303765       2.69565758       2.34635663
C       -2.56013652       2.05812554       0.42323061
C       -1.64270192       2.80832432       3.81512643
