60
Properties=species:S:1:pos:R:3 entry_id=84 rank=82 energy=-493.63592529296875 pbc="F F F"
C        1.98309346      -3.09700849      -1.33991980
C        2.50005687       0.92913632      -2.19347928
C        1.98276088       1.71104419       2.27774915
C        2.78701027      -2.27700348      -0.52744728
C       -2.17301465       0.80680080       3.00181445
C        3.32486784       1.28977969       0.11982699
C       -0.71397704      -3.15597590      -1.44533807
C        0.28983637      -1.62601429       1.65424267
C       -3.77682360      -1.33125086      -2.30856425
C        0.60160388       0.97821788      -0.26759841
C        0.20378679       0.62668042       3.34281283
C        0.82722062       3.64883811       0.86022949
C        1.36790000      -2.60378023      -2.49158503
C       -1.35308034       2.86026362       1.16199024
C       -0.03828062       2.14051002      -0.83913031
C        1.41262890       0.07785120       0.21962657
C        1.02047490       2.62895772      -1.79561127
C       -3.68675428      -0.46860249      -0.15387311
C       -2.43773497       1.56265824      -0.63972211
C        3.01911697       1.77161943      -1.17058330
C       -3.01164195      -2.03470099      -3.22321969
C       -0.53475517      -1.62441889      -3.38932948
C       -2.13157723      -2.62820230       0.45942652
C       -2.75177392       0.82729510       1.67492365
C       -2.13605250      -1.51712924       1.38736894
C       -3.04906383      -0.46201344       1.10838483
C       -1.88353137      -1.22742007      -3.49926640
C        0.37750405      -2.64745016       0.65632817
C       -3.23422250      -2.76893377      -0.36868251
C        2.65401491       2.13595019       1.08829661
C        0.23161832       0.71268042      -3.13088156
C        2.64427526      -0.48200818      -2.13808641
C       -0.97247436      -1.18725472       2.16041725
C       -3.37750979       0.57543442      -1.03774293
C        1.36466784       0.44135792       2.53296996
C        0.50263937      -0.64996723      -3.34644585
C       -0.80539319      -3.00576742      -0.09390259
C       -1.00133428      -0.03153091       3.00313710
C        0.18565689       1.96838153       3.73941292
C        1.19545902       2.65956547       2.99668808
C        1.60642234      -2.84112553      -0.01244286
C       -0.07062436      -2.76019596      -2.56574124
C        2.05189896       3.16358844       0.36621476
C        2.88973571      -0.04053064       0.11529764
C        3.19997445      -0.97311176      -0.90463023
C       -3.86573990      -1.69010677      -0.89596455
C       -1.13063377       1.01055097      -2.71465413
C        1.31580351       1.51463271      -2.66845507
C        0.53344553       3.63841260       2.24469054
C       -2.16697392       0.12170560      -3.08398615
C       -0.29657549       3.11815268       0.23616113
C        2.18708286       2.88518844      -1.02083174
C       -1.31883921       1.72919103      -1.50551225
C       -1.08474002       2.61126914       3.60360764
C        1.68005755      -1.25297535      -2.81445830
C        1.26112058      -0.57445113       1.55587833
C       -3.36342931       0.05556843      -2.34492681
C       -0.87366009       3.33757767       2.40020026
C       -2.33181363       1.86291918       0.78893779
C       -2.23277110       1.91829754       3.81043004
