60
Properties=species:S:1:pos:R:3 entry_id=66 rank=85 energy=-492.093505859375 pbc="F F F"
C        1.83226738      -3.21128630      -1.36830186
C        2.66671222       0.83451058      -1.89727417
C        1.72016298       1.50697575       2.54762852
C        2.65840090      -2.53221541      -0.43749487
C       -1.99347294       0.96885219       2.47351327
C        2.97734715       0.90502804       0.53792234
C       -0.82880430      -3.19226360      -1.47998514
C        0.26319167      -1.77067123       1.57428097
C       -4.02641300      -3.22865146      -1.52726725
C       -0.20033583      -0.28313204      -0.68216841
C        0.00022414       0.29959625       3.39803789
C        0.93701911       3.68939333       1.03272742
C        1.22313756      -2.50974808      -2.40818232
C       -1.33150890       3.36780403       0.80740808
C        0.09284869       3.14304059      -1.22676453
C        0.92042797       0.09222899      -0.26739931
C        1.39311271       2.73868298      -1.61262426
C       -3.21821752      -0.01866578      -0.91956180
C       -2.17966293       2.17156869      -1.05552092
C        3.11901783       1.51941213      -0.73587887
C       -2.96180395      -2.49493039      -1.03534289
C       -0.61414462      -1.29138927      -3.10562933
C       -2.24802693      -2.64890678       0.23104722
C       -2.57340404       1.16759051       1.17641143
C       -2.00052915      -1.26760138       0.74381591
C       -2.92707470      -0.05730537       0.49795688
C       -1.86778535      -0.73502807      -2.82881750
C        0.26842899      -2.82577897       0.63006750
C       -1.36756419      -0.85909148      -0.58897377
C        2.49464912       1.88849638       1.44525021
C        0.47011270       0.93346923      -3.02613969
C        2.65385298      -0.58256187      -1.88223278
C       -1.02258987      -1.20624148       1.82336761
C       -2.79177339       1.08062614      -1.68127964
C        1.24714930       0.16948765       2.72268894
C        0.54868256      -0.46262426      -3.17983427
C       -0.91359722      -3.17514275      -0.12455957
C       -1.13969353      -0.14332937       2.71001920
C       -0.24127207       1.66612968       3.72435331
C        0.76414368       2.42338829       3.09270076
C        1.45694475      -3.13674070      -0.02502241
C       -0.20214308      -2.54336672      -2.47687192
C        2.13421173       3.03574686       0.69762774
C        2.11470600      -0.32753819       0.43897519
C        2.85960404      -1.15813729      -0.57080275
C       -2.47380801      -1.16144246      -1.54816558
C       -0.81671723       1.48496712      -2.81049200
C        1.57695615       1.57335752      -2.42431439
C        0.35379037       3.51753231       2.32505867
C       -1.96277917       0.65881338      -2.77223567
C       -0.11905601       3.63506245       0.08377925
C        2.43545553       2.76751265      -0.66012864
C       -1.00559201       2.48842822      -1.81497166
C       -1.58532112       2.01388332       3.35776132
C        1.66578527      -1.19718457      -2.67548576
C        1.42782116      -0.85762996       1.74747458
C       -5.00730661      -3.79998321      -2.05484303
C       -1.08328627       3.65622623       2.18858757
C       -2.20702404       2.33054240       0.36223548
C       -1.96852443       3.31138246       3.16893712
