60
Properties=species:S:1:pos:R:3 entry_id=136 rank=50 energy=-496.1544189453125 pbc="F F F"
C       -2.56653808      -2.86698455       0.01792343
C        1.17377103      -2.17371158      -1.92426493
C        4.24487108      -0.30604588       1.16333572
C       -1.38694771      -3.48768101       0.51163355
C        2.22002556       2.84146978       1.38248098
C        2.89682867      -2.07550872       0.01954966
C       -2.99785751       0.06369785       0.18384085
C        0.78822762      -0.39438955       2.27631532
C      -20.98859980      -1.92003855       3.62090085
C       -0.13286615      -1.41980022       1.82268438
C        3.13211660       1.12431544       2.59747961
C        4.51152877       0.72909073      -1.41037033
C       -2.44548109      -1.98800109      -1.05316080
C        3.34800882       2.72243152      -1.42903153
C        2.56374667       0.91611901      -2.96663045
C        0.59361659      -2.39375012       1.04860152
C        2.46273643      -0.51108755      -2.97602865
C       -0.84175570       2.85924082      -0.75166328
C        1.12370497       2.80533229      -2.22622441
C        2.49217244      -2.18739805      -1.35751847
C      -21.90576915      -1.19629256       4.18182418
C       -2.23727483       0.02798455      -2.12424342
C       -1.66317698       1.17577114       1.30633856
C        1.42210079       3.07465315       0.22276007
C       -0.36213556       1.73000884       1.41414709
C        0.01595250       2.69992574       0.38121108
C       -2.01230667       1.41129915      -2.13352172
C       -1.53636136      -1.37178221       1.75327520
C       -2.56247997       1.45739992       0.22363850
C        4.02656280      -1.16104025       0.05932751
C       -0.01161754      -0.35762685      -3.17698279
C       -0.04949543      -2.63281632      -1.31382252
C        0.67717582       1.05286988       2.18223851
C       -0.26671670       2.90841404      -2.05074498
C        3.25237846      -0.22711876       2.18214673
C       -1.21438052      -0.84532121      -2.61342451
C       -2.16521707      -0.19660778       1.35745001
C        1.90391351       1.76678456       2.27315822
C        4.17889532       1.86351376       1.96585194
C        4.78974283       1.01788564       0.99782456
C       -2.12428434      -2.59297426       1.32649880
C       -2.90537926      -0.64630239      -1.03560474
C        4.24489648      -0.65042719      -1.25854887
C        1.98352994      -2.04179275       1.10291523
C       -0.09010784      -3.13425794       0.03931002
C       -2.05989819       2.11437604      -0.89017069
C        0.10971437       1.05304588      -3.37801802
C        1.16185107      -1.12036581      -2.91996861
C        4.92477189       1.53364971      -0.29764082
C       -0.90730215       1.91798669      -2.87130408
C        3.58299704       1.50663397      -2.17239865
C        3.31039221      -1.27506985      -2.12464385
C        1.37288950       1.68106322      -3.09423016
C        3.63561260       3.09144871       1.45511386
C       -1.24656017      -2.04130419      -1.80893438
C        2.08846510      -0.97890347       2.05714879
C      -22.89181469      -0.38048194       3.97790150
C        4.41413852       2.87958124      -0.48863263
C        1.99985641       3.10197706      -1.13740180
C        4.32205711       3.80802543       0.51533655
