60
Properties=species:S:1:pos:R:3 entry_id=67 rank=86 energy=-491.9151306152344 pbc="F F F"
C        2.05022012      -3.16302583      -1.13229784
C        2.50727861       0.84798812      -2.05233422
C        1.71985818       1.73213945       2.43141571
C        2.91276169      -2.39206021      -0.32534385
C       -1.81736093       0.86566968       2.67875559
C        2.62814900       1.03355872       0.30536946
C       -0.58880136      -3.23501280      -1.14593419
C        0.55849968      -1.77617921       1.90622420
C       -4.30509401      -0.70197919      -2.85505802
C       -0.46324499      -1.03347431      -0.65304482
C        0.24498148       0.46002307       3.56318610
C        0.68452843       3.75598778       0.82217033
C        1.42723058      -2.64217437      -2.25309590
C       -1.54180858       3.20535048       0.79150543
C       -0.25862297       2.90483829      -1.31899983
C        0.66373919      -0.59984075      -0.35360338
C        1.05298303       2.64695935      -1.77967064
C       -2.96482019      -0.43100884      -0.60539857
C       -2.44889687       1.83194497      -0.93259745
C        2.87550841       1.62245496      -0.93904486
C       -3.95175956      -1.79909057      -2.29711874
C       -0.50005778      -1.64515721      -2.98726039
C       -1.67978617      -2.66567191       0.57822873
C       -2.39272465       0.89674591       1.37206182
C       -1.86677239      -1.55229821       1.41247745
C       -2.54890627      -0.40512649       0.77426265
C       -1.78584783      -1.10447667      -2.76090942
C        0.68196611      -2.89085860       1.02261725
C       -1.54846511      -2.20815077      -0.77901651
C        2.29716828       2.05493851       1.20850417
C        0.27451208       0.66771780      -3.03724254
C        2.66873754      -0.55284567      -1.91847907
C       -0.76583924      -1.32217669       2.25824512
C       -3.26898860       0.73611586      -1.31272299
C        1.40903467       0.37582832       2.74957865
C        0.54671028      -0.71711741      -3.16033642
C       -0.43709394      -3.39011637       0.33439151
C       -0.89290894      -0.15465583       3.02796444
C       -0.10959894       1.83466814       3.77870670
C        0.76164495       2.61911303       2.99262856
C        1.80334525      -3.06107335       0.22654178
C        0.05836898      -2.83227311      -2.32462326
C        1.91522420       3.19345683       0.44761057
C        1.93801851      -0.31746178       0.35797497
C        2.95711318      -1.01385592      -0.56466708
C       -2.60957913      -1.55595836      -1.57329237
C       -1.07294860       1.12490182      -2.83731148
C        1.31906371       1.44776752      -2.52812646
C        0.20852643       3.61824633       2.17095075
C       -2.11926322       0.20057513      -3.12579651
C       -0.41808382       3.50286607      -0.04397630
C        2.16531749       2.87616036      -0.92083745
C       -1.33797201       2.09166830      -1.80597070
C       -1.49874086       2.02141967       3.46306095
C        1.74244912      -1.31734048      -2.64479752
C        1.56474136      -0.71288645       1.82295743
C       -3.47724131       0.44790942      -2.70694981
C       -1.23739575       3.62094109       2.13181026
C       -2.31501492       2.06061024       0.48843770
C       -2.01710836       3.25592889       3.19328762
