60
Properties=species:S:1:pos:R:3 entry_id=2 rank=152 energy=-478.7847595214844 pbc="F F F"
C        1.64384091      -3.56119699      -0.76530744
C        2.28062947      -0.13848973      -2.21146578
C        1.96169628       1.92922826       2.00920198
C        2.66958068      -2.58024017      -1.03300008
C       -2.85237743       1.09038310       2.33764093
C        2.66687540       0.69858950       0.09752990
C       -0.29819446      -3.37504138       1.15627768
C        2.55897958      -1.62352715       2.35348809
C       -3.21414757       0.79638116      -3.43508799
C        0.06779991      -1.44402650       0.07089760
C       -1.13822653       1.62944591       3.74027224
C        1.05458640       3.49860628      -0.20021004
C        0.38339534      -3.25132359      -1.33556696
C       -1.12431522       3.74303023      -0.94053011
C        0.35958322       2.84239221      -2.43154196
C        0.24417234      -0.36780947       1.00788947
C        1.44419244       1.98251933      -2.51078021
C       -3.01105282      -2.80206226      -0.20160630
C       -3.31205661      -1.70419453       0.37920208
C        2.94313864       0.78625161      -1.31887225
C       -3.68555536       1.73229364      -2.39288026
C       -1.67804453      -1.42443164      -1.78521650
C       -0.45055130      -2.76160813       2.47989915
C       -2.22231247       0.32305669       1.30343748
C       -1.11505420      -1.88072658       3.25115492
C       -0.73228157       0.24934527       1.86766282
C       -2.52804406      -0.36000617      -1.25560992
C        2.14806177      -2.72280545       1.66629134
C       -1.78931271      -2.56488694      -0.90347291
C        2.61912774       1.97481629       0.71621072
C       -0.07523208       0.09896660      -3.06324860
C        1.86387275      -1.47287899      -1.74116439
C       -1.34769250      -0.58924729       3.04937745
C       -1.90621411       3.10078304      -1.99273620
C        2.31109879       0.83429860       2.77920523
C       -0.46753475      -1.23418839      -2.58235616
C        0.81114033      -3.18124690       1.91799447
C       -2.11739372       0.63973930       3.54309376
C       -0.35236884       1.55840721       2.61797105
C        0.60710732       2.44297643       1.99241899
C        2.38942077      -3.05856301       0.28555794
C       -0.50187553      -2.77888179      -0.22016366
C        2.27650239       2.84255235      -0.35565328
C        1.49630610      -0.03716664       0.31420868
C        1.16932315      -1.00514485      -0.57924425
C       -3.32103117       0.40911113      -2.07614209
C       -1.03958724       1.11703439      -3.48642443
C        1.24022048       0.60335072      -2.81720360
C        0.19513792       3.26889248       0.91057145
C       -3.26891054       2.94528151      -2.04669478
C        0.23560389       3.69832353      -1.32742294
C        2.50285366       2.12141779      -1.59244897
C       -0.92894052       2.37795770      -2.80546822
C       -2.99945408       2.41684833       1.93084077
C        0.60442110      -2.14603666      -2.26953897
C        2.59052586      -0.42773452       2.83042404
C       -2.17191092       0.79816841      -4.24162118
C       -1.18584152       3.52197990       0.48783148
C       -2.79683327      -0.41123094       0.22969795
C       -2.30992536       3.19339955       1.22742940
