60
Properties=species:S:1:pos:R:3 entry_id=105 rank=12 energy=-498.4892578125 pbc="F F F"
C        2.85856139      -3.53256561      -1.14004504
C        1.91444635       0.43034381      -2.42996701
C        1.11518959       3.19069539       1.33217233
C        3.64991239      -2.43769970      -0.69959834
C       -2.10307422       1.28998756       2.08864564
C        2.43337797       1.92186760      -0.36763929
C        0.03641157      -3.89709758      -0.27812760
C        1.17977886      -0.39111457       1.97156590
C       -1.53010007       0.46366157       4.24871356
C        2.02678792      -1.28433680       1.19370435
C       -0.03125382       1.97227935       2.92711502
C       -2.22537417       4.59399962       0.80423988
C        1.74641467      -3.26064784      -1.92939047
C       -2.74790644       2.66546875      -0.58393557
C       -1.25200820       2.01011425      -2.41655912
C        2.83262730      -0.50421748       0.29545590
C        0.10165200       1.86918817      -2.83086162
C       -2.77775369      -1.56554520      -0.24554409
C       -2.99572267       0.52748705      -1.47884230
C        2.15273205       1.67489826      -1.75552258
C       -2.10380225       0.27909995       5.34491974
C       -0.45681030      -2.87522156      -2.42662302
C       -0.68169708      -2.65020213       1.21208297
C       -2.61465895       0.59348368       0.96513979
C       -1.12738784      -1.35731324       1.60681287
C       -2.29682065      -0.83783304       0.88910579
C       -1.78540624      -2.61420192      -2.06540940
C        1.89743414      -2.66734783       1.00780379
C       -1.27311217      -3.41759666       0.15627282
C        1.62628917       3.06818237       0.02831199
C       -0.22191220      -0.55195907      -3.29061889
C        2.44434575      -0.87048806      -2.09717031
C       -0.22140657      -0.46295704       2.29578343
C       -3.12632332      -0.86452364      -1.43032087
C        1.15203314       2.05534719       2.18493282
C        0.32263422      -1.82565405      -3.00784068
C        0.62554437      -3.20637822       0.86767732
C       -0.88296306       0.72826302       2.95240200
C       -0.81712326       3.09991621       2.55758821
C       -0.12969693       3.86540931       1.57025304
C        2.94479897      -3.23889617       0.23492068
C        0.42781687      -3.68342074      -1.62089199
C        0.77567238       3.42887762      -1.05758558
C        2.58982813       0.87929171       0.58036976
C        3.26844527      -1.08538116      -0.93155053
C       -2.15907507      -2.77982469      -0.69540615
C       -1.62632338      -0.36666901      -3.11751907
C        0.63816943       0.56233423      -3.10025502
C       -0.85470386       4.39990723       0.49015021
C       -2.39812435      -1.42054384      -2.53591928
C       -1.59345282       2.96344917      -1.38272341
C        1.10419393       2.59067049      -2.14485267
C       -2.08699827       0.86573946      -2.53146153
C       -2.14150358       2.68876026       2.31796498
C        1.67777240      -1.98441396      -2.54353186
C        1.77855625       0.89650171       1.75385721
C       -0.58408678       3.79596458      -0.78201163
C       -3.16609231       3.67338701       0.29122120
C       -3.00272706       1.28702210      -0.28202614
C       -2.90904231       3.66358622       1.66562729
