60
Properties=species:S:1:pos:R:3 entry_id=128 rank=59 energy=-496.1542663574219 pbc="F F F"
C       -0.55859110      -4.39345811       0.23550985
C        1.67719430      -1.81380233      -2.32807051
C        4.44387433       1.01407008       0.28253851
C        0.86181176      -4.41251120       0.27791341
C        1.44480805       2.76372004       1.69055618
C        3.70603971      -1.07374043      -0.88020685
C       -2.13652861      -2.05920813       1.16530767
C        1.92218576      -0.82877106       2.13857901
C      -22.60680138       2.92856072       2.30359617
C        1.44362107      -2.12511220       1.69380565
C        3.34370285       1.59636038       2.22851458
C        3.40147074       2.27679386      -1.97316883
C       -1.17779756      -3.47112867      -0.60155932
C        1.55203262       3.45916018      -1.25903045
C        1.18248931       1.64203703      -2.93298419
C        2.23029949      -2.55343042       0.56583841
C        1.71089403       0.35052247      -3.24557443
C       -1.82461795       1.49901233       0.41010168
C       -0.61387782       2.53133853      -1.46089426
C        2.97488697      -1.24202222      -2.10861758
C      -20.62048815       1.96745453       1.18349030
C       -2.21773010      -1.51779208      -1.20219098
C       -1.13367200      -0.54938196       2.16160256
C        0.30169126       2.68940963       0.83982439
C       -0.24172388       0.55019995       2.08115543
C       -0.67139908       1.67111193       1.23818343
C       -2.62854847      -0.20191712      -0.94701657
C        0.21583148      -2.75202103       1.97089796
C       -2.35855824      -0.63838057       1.41872231
C        4.27720291       0.26304541      -0.90297658
C       -0.50716602      -0.68867259      -2.81404469
C        1.03837669      -2.85653680      -1.56509190
C        1.17207053       0.38938726       2.40391797
C       -1.77587848       1.93638265      -0.94111041
C        3.89877507       0.51258949       1.49961317
C       -1.13196202      -1.74315261      -2.10732686
C       -0.94784594      -1.99254920       2.01410084
C        1.92663642       1.59398207       2.35961520
C        3.70575431       2.80232970       1.55267913
C        4.27737096       2.44566551       0.29931525
C        0.11224449      -4.06160028       1.42797889
C       -2.14234415      -2.52516318      -0.16944985
C        3.82123705       0.93196507      -2.08191104
C        3.26801690      -1.58262096       0.36751397
C        1.65209510      -3.43589913      -0.39424636
C       -2.57483531       0.27647692       0.39893126
C       -1.07766395       0.61816214      -2.70709672
C        0.89468637      -0.81229247      -3.02499287
C        3.75597338       3.07701457      -0.83738348
C       -2.14966382       0.83826312      -1.78988485
C        2.03955091       2.57702699      -2.29325300
C        3.02690969       0.01584048      -2.81855179
C       -0.19315186       1.74736086      -2.59477829
C        2.55330278       3.65726272       1.48116029
C       -0.38446968      -2.87227153      -1.61232592
C        3.20283957      -0.69280264       1.48807426
C      -21.51217327       2.80022963       1.62000667
C        2.68289501       4.02336255      -0.58903231
C        0.34335261       3.11521405      -0.57505557
C        2.52229672       4.69605011       0.59383737
