60
Properties=species:S:1:pos:R:3 entry_id=153 rank=126 energy=-487.30657958984375 pbc="F F F"
C        1.98392235      -3.83003747      -1.40514815
C        2.04889644      -0.27694079      -2.12337173
C        1.87832203       2.08167522       3.10659212
C        2.53346906      -2.64728806      -1.95593119
C       -1.70260874       1.95662888       2.81457055
C        2.00604911      -1.00351087       0.09974691
C        0.39686499      -3.47653355       0.87701437
C        0.99049371      -1.15218384       3.55929693
C       -2.30444985      -0.33333786      -4.58182047
C       -1.55407426      -1.44588463      -0.81845702
C        0.00095854       1.48214360       4.25379668
C        1.07949138       3.25343545       0.69645421
C        0.77485795      -4.39926047      -1.28928640
C       -1.14516922       3.69876614       0.40588026
C        0.06805320       2.62102636      -1.43994719
C       -1.90463796      -0.29129537      -0.00745917
C        1.19366178       1.78805957      -1.60965111
C       -3.12074562      -0.19273224      -1.94190006
C       -2.20081226       1.95167386      -0.92156891
C        2.44768294       0.03535040      -0.78357703
C       -3.67132000      -0.74866344      -4.17726982
C       -1.52053536      -1.34672964      -3.98554537
C        0.32833264      -2.07502527       1.40183137
C       -1.96309671       1.67116182       1.46350268
C        0.01334413      -1.28323835       2.58630205
C       -1.60532457       0.26206611       1.26692992
C       -2.49382985      -2.02949372      -3.20347275
C        2.52388126      -2.27452910       0.48585308
C       -2.47405207      -1.41085970      -1.92147284
C        2.49930123       1.79403712       1.92485336
C       -0.08693879       0.39727875      -3.13922693
C        1.77991186      -1.61119071      -2.49111904
C       -0.88049352      -0.18230354       2.45458609
C       -2.65172961       0.59184054      -0.86612025
C        1.36563937       1.10454501       4.07380919
C       -0.33947153      -0.96650613      -3.35779583
C        1.60762575      -2.96365990       1.35269181
C       -0.94459095       0.90315793       3.38261158
C       -0.12739690       2.90785119       4.01921281
C        0.92111220       3.18806287       3.12146430
C        2.84003644      -2.98535588      -0.65778687
C        0.13621111      -3.46602498      -0.52449229
C        2.06784076       2.19791580       0.67345304
C        0.65505296      -1.33478280       0.09651512
C       -0.11698533      -2.01382722      -0.99708861
C       -3.74972927      -2.04088774      -3.82219401
C       -1.17975244       1.28308418      -3.07907726
C        1.13732147       0.72833811      -2.51399235
C        0.56169081       3.75254449       1.90715729
C       -3.51586048       0.32801739      -3.18729449
C        0.07725923       3.40555471      -0.28487077
C        2.09606577       1.44870824      -0.56546631
C       -1.20522760       2.18066827      -1.94174549
C       -1.41419085       3.18782288       3.43809767
C        0.37856156      -1.80123731      -2.42392487
C        1.65029315      -0.26121396       4.17742131
C       -2.32135343       0.84634099      -3.78113517
C       -0.77720245       4.24117966       1.68946964
C       -2.03411415       2.57679046       0.36344874
C       -1.63959157       4.33993647       2.74165344
