60
Properties=species:S:1:pos:R:3 system=runs/20260728-safe-lbfgs-strict-quench-200-production/output-c60-seed42 state_id=intermediate_accepted pbc="F F F"
C       -2.00645144      -2.32772225      -1.32413206
C        2.69377916      -2.35973476      -0.58280217
C        0.46329790      -1.24409495       2.54007419
C       -1.16303143       3.67328874      -0.49230574
C       -3.25945300       2.55147792       0.16681140
C        2.59355032      -2.32810914       1.46641483
C       -2.85037413      -1.92667175      -0.23582048
C       -1.53282074      -3.63578436       0.55988305
C        1.55290247       2.97145049       1.53390129
C       -0.12844646       3.79976438      -1.46448818
C       -1.77309607       1.85046622       2.13034632
C        2.21412934       1.03533247       2.46113614
C       -1.44461009      -1.48555331      -2.36335391
C        0.90929446       3.74012631       0.56577596
C        2.93329879       1.15597309       0.21467069
C       -1.87031185      -1.86414280       1.97422133
C        3.19919107      -0.17322303       0.77517574
C       -1.17638731       2.12299193      -2.86490147
C       -2.27365642       2.07422774      -1.95666399
C        0.13936843      -3.48642854      -0.98154101
C        1.22169463       2.54990463      -2.77855194
C        0.38478470       0.42393015      -3.65545593
C       -4.18482379       1.47531342      -0.04546557
C       -3.48061348      -0.69416049       0.01316329
C       -3.49502451      -0.22369865       1.36047611
C       -2.35734030      -0.54492880       2.15651318
C        1.45797304       1.26318658      -3.22985309
C       -2.45184446      -2.64448932       0.93764333
C       -0.93137382       0.79146389      -3.31416415
C        1.89004779      -1.40039372       2.31496541
C        1.97879564      -0.82469062      -2.49324546
C        0.72448219      -2.68475588      -1.95973554
C       -4.02544299       1.08141355       1.35550528
C        1.15430231       3.68315408      -0.81009177
C       -0.49795824      -2.23650471       2.11541429
C        0.77729819      -0.87068419      -3.29351938
C       -3.67204686       0.40116723      -0.85902481
C       -3.02550064       2.09483073       1.51341340
C       -1.43616057       0.48865671       2.52214706
C       -0.05152889       0.11571577       2.81527485
C       -1.26675026      -3.45412619      -0.83392554
C       -1.84396601      -0.11909879      -2.64396190
C        2.62528461      -0.21405876       2.07762767
C        2.04204496      -3.14387299       0.44993803
C        1.99403018      -2.04126097      -1.74980054
C        2.30715793       0.56287815      -2.28925675
C        0.53826680       2.49404048       2.44419518
C        3.32501622      -1.53783047       0.41028650
C        0.87816218       1.20252289       2.90813099
C       -0.11607635       3.03511261      -2.65786794
C        2.50963397       1.94446627       1.37212953
C        0.72749729      -3.57271639       0.31672648
C        1.93130301       2.73715249      -1.53671590
C       -2.33018568       2.92624767      -0.82068036
C       -0.10750227      -1.84556533      -2.77815947
C       -0.30475746      -3.39689044       1.27858472
C        2.57362758       1.48382030      -1.15594786
C       -0.73903508       2.81078577       1.93594708
C       -2.77539381       0.72756201      -1.89570324
C       -0.52772204       3.65293587       0.78891631
