60
Properties=species:S:1:pos:R:3 system=runs/20260728-safe-lbfgs-strict-quench-200-production/output-c60-seed42 state_id=plateau_accepted pbc="F F F"
C        1.13443414       2.36455680       1.75100097
C       -2.49310198       1.47557313       0.83687075
C       -1.68790839      -0.21693142       2.80657265
C        1.61644302      -1.44654002      -3.02002948
C        3.15584398      -1.49957641      -1.11867175
C       -1.84311201      -1.02713247       1.66380160
C        2.00455385       1.35991745       2.23573830
C        0.48513091       1.79513236       3.92660945
C       -1.61718246      -2.64335071      -2.40641717
C        0.92614101      -0.66756998      -3.98996268
C        1.09016298      -2.56099622      -0.02198381
C       -2.99689504      -2.11903407      -0.59798753
C        0.82347534       2.62264239       0.37514571
C       -0.55452427      -2.26582159      -3.26962603
C       -2.96450410      -0.49692378      -2.24573079
C        0.65593740      -0.39400604       3.18808269
C       -3.40092101       0.04486166      -0.95471878
C        1.69362544       1.37146974      -2.92703946
C        2.58384012       0.60111780      -2.11633151
C       -1.19707325       2.81547313       2.47408924
C       -0.39667684       1.18188831      -4.17727733
C       -0.20689611       2.79086634      -2.33064544
C        3.81420930      -0.75286564      -0.09165473
C        2.72842109       0.41585404       1.49693748
C        2.45418312      -0.94652032       1.77341405
C        1.10046181      -1.27016452       2.12734324
C       -0.95169194       2.21246045      -3.40247627
C        1.38776196       0.81521149       3.39896218
C        1.11695719       2.37813958      -2.09535358
C       -2.33370651       0.30511398       1.67235116
C       -2.28047505       2.13620986      -1.50025490
C       -1.55897049       2.55972437       1.12883202
C        3.23933305      -1.72223062       0.90143703
C       -0.44011661      -1.12547541      -4.08555352
C       -0.65768712      -0.11134998       3.72950435
C       -1.07659621       2.84705832      -1.20191880
C        3.31106130       0.51091975       0.21378673
C        2.47998409      -2.31896766      -0.14343637
C        0.35676955      -2.07097521       1.14488412
C       -1.11178852      -2.05000585       1.02210270
C        0.15738169       2.58696593       2.78770246
C        1.65290268       2.25545571      -0.75612202
C       -3.65699794      -1.01821185      -0.06305135
C       -1.79722746       1.84958074       4.60369036
C       -2.96459244       2.63043505       4.65471614
C       -2.18227380       1.71688062      -2.85038632
C       -1.00478566      -3.09913938      -1.17077335
C       -2.90522291       1.31453816      -0.52838197
C       -1.77279687      -2.67658572      -0.07725484
C        0.94484027       0.75341824      -3.95070929
C       -2.75991784      -1.88651867      -2.03116728
C       -2.11281730       2.68998861       3.52769708
C       -1.26781286       0.02204908      -4.10174643
C        2.60731389      -0.81773344      -2.21703226
C       -0.58177513       2.86129804       0.11445974
C       -0.61442831       1.09416195       4.54956510
C       -2.34216862       0.34305953      -3.20024690
C        0.39469505      -2.90184811      -1.22212003
C        2.69696739       1.22787039      -0.82610964
C        0.69878197      -2.44070114      -2.54982208
