60
Properties=species:S:1:pos:R:3 system=runs/20260728-safe-lbfgs-strict-quench-200-production/output-c60-seed42 state_id=plateau_accepted pbc="F F F"
C        1.12967600       2.36705496       1.75047152
C       -2.49003661       1.47576135       0.83492170
C       -1.68886064      -0.21706185       2.80936280
C        1.61549231      -1.44607563      -3.02175630
C        3.15354732      -1.49739893      -1.11589394
C       -1.84212822      -1.02484252       1.66487162
C        1.99709420       1.36128884       2.23482883
C        0.47474315       1.79052426       3.92437005
C       -1.60652093      -2.62719139      -2.39527044
C        0.92237250      -0.66613820      -3.98908409
C        1.08918276      -2.56035292      -0.02017111
C       -2.99655418      -2.12291635      -0.59874518
C        0.82058764       2.62501280       0.37363572
C       -0.55867063      -2.26318132      -3.26332971
C       -2.96080838      -0.49844556      -2.24635137
C        0.65417582      -0.39503840       3.19166597
C       -3.39462025       0.04130782      -0.95467452
C        1.69239931       1.37279024      -2.92906064
C        2.58207785       0.60172027      -2.11745615
C       -1.20148675       2.81841032       2.47275397
C       -0.40020717       1.18259315      -4.17936775
C       -0.20833051       2.79177932      -2.33402316
C        3.83787443      -0.79853225      -0.06713027
C        2.72071097       0.41880793       1.49497811
C        2.44936563      -0.94311773       1.77432969
C        1.09757177      -1.27119823       2.13151520
C       -0.95470967       2.21372098      -3.40548220
C        1.38369153       0.81589168       3.39874793
C        1.11541317       2.37955496      -2.09757842
C       -2.32894197       0.30856708       1.67402043
C       -2.28064234       2.13641547      -1.50292879
C       -1.56223087       2.56425102       1.12606007
C        3.23714591      -1.71866769       0.90541535
C       -0.44402372      -1.12421690      -4.08269374
C       -0.65886099      -0.10665802       3.73443194
C       -1.07764428       2.84883711      -1.20531753
C        3.30850447       0.51469127       0.21431522
C        2.47857693      -2.31664660      -0.13951084
C        0.35479070      -2.07109378       1.14696868
C       -1.11278479      -2.04907731       1.02286339
C        0.15202088       2.58718221       2.78651658
C        1.65036081       2.25688273      -0.75763688
C       -3.65295495      -1.02110556      -0.06327765
C       -1.78597058       1.83548322       4.59949883
C       -2.93090654       2.61851097       4.65680846
C       -2.18673260       1.71955253      -2.85423912
C       -1.00360428      -3.08709981      -1.17476620
C       -2.90060171       1.31184566      -0.53025771
C       -1.77202243      -2.67727509      -0.07640677
C        0.94156111       0.75493276      -3.95175291
C       -2.74851460      -1.88764764      -2.03156544
C       -2.11237831       2.68791970       3.52845747
C       -1.27242705       0.02314891      -4.10451739
C        2.60643002      -0.81772577      -2.21713134
C       -0.58409671       2.86492230       0.11188166
C       -0.61505227       1.09195706       4.53375959
C       -2.34709431       0.34492641      -3.20413284
C        0.39776872      -2.90140820      -1.22260874
C        2.69495252       1.22978882      -0.82767072
C        0.70129897      -2.44320358      -2.55235730
