60
Lattice="50.0 0.0 0.0 0.0 50.0 0.0 0.0 0.0 50.0" Properties=species:S:1:pos:R:3 geometry_index=54 energy=-62185.74784164229 max_force=0.023553677598882425 converged=T surface=true phase=ssw:2 force_surface_qualified=T eligible_for_archive=T pbc="F F F"
C       25.57658361      23.29394158      21.79750224
C       31.54736884      19.47254813      20.64595543
C       21.44763392      24.01780093      25.94812827
C       21.86622204      25.09240852      23.95541406
C       22.25157680      24.64413619      28.30882166
C       22.08716465      25.98131599      28.84170909
C       27.52601810      22.03542751      22.76593977
C       25.43360901      23.48419845      27.10074903
C       27.70940543      24.78669204      24.64961300
C       28.43078267      24.66664151      23.31164825
C       23.54273052      24.11650830      28.20474902
C       25.85644068      24.39532375      28.05664752
C       26.44030351      26.68905292      25.73289969
C       29.51298183      20.63981366      21.74679232
C       25.18659430      27.41696003      25.90568077
C       24.84421634      22.52029261      25.12144796
C       21.10754868      25.10203153      25.12586996
C       30.55504277      20.01220798      21.18487317
C       24.50430897      26.23526623      28.99680158
C       26.07240722      26.22595764      23.39130546
C       25.09159798      22.03413407      23.78015235
C       23.61303820      22.81265721      25.86383081
C       21.06800338      28.02540904      27.89886422
C       22.85049719      27.15714693      24.77542159
C       23.21150256      26.79907846      28.82488632
C       25.25065334      24.68149594      21.73643297
C       26.78951951      25.99134668      24.58195511
C       20.61380987      25.75831765      27.20292159
C       26.97066710      23.20155960      22.03671342
C       22.16207736      28.01613780      26.99613465
C       24.04570442      23.24941211      27.19948915
C       26.71552042      26.62885551      28.14752436
C       24.29861062      27.36692161      24.77078207
C       20.17400549      27.89097992      28.80923631
C       27.37317940      22.37437589      24.24278970
C       22.47518633      23.26252708      25.24389502
C       23.51787141      23.71894091      22.87285074
C       27.16759489      26.32789727      26.90651076
C       23.70731841      26.14971999      22.86953985
C       21.24405066      24.47383295      27.29054302
C       24.67535250      24.86448328      28.75128967
C       26.93111898      25.29222536      27.88541753
C       23.34543075      27.74298515      27.69216935
C       24.58371124      22.72753981      22.67923869
C       27.45650241      24.46873440      22.27618815
C       28.57676713      21.23014233      22.25112873
C       20.85129745      26.26415732      25.90097751
C       25.91150980      23.12492127      25.79237564
C       26.42917328      21.58079279      23.69432134
C       24.78474155      26.79721275      23.55476001
C       27.11044727      23.46840323      25.05890591
C       20.85068450      26.56666262      28.35778767
C       21.88830700      27.29288289      25.78384652
C       26.34031749      25.38526349      22.25436918
C       29.22250106      24.90734363      24.30649761
C       23.96432104      24.92959214      22.24029963
C       25.43515083      27.11504960      28.35201062
C       22.57481841      26.26585354      23.67079192
C       22.54979465      23.82692743      23.85415228
C       24.73343050      27.67983127      27.25976853
