60
Properties=species:S:1:pos:R:3 trial_index=7 seed_entry_id=6 discovered_entry_id=7 energy=-495.5783386230469 status=accepted pbc="F F F"
C        1.38590237      -3.71147388      -0.62274987
C        2.19941810       0.07572242      -2.18365831
C        1.45184249       2.08139880       2.04398911
C        2.49798335      -2.95571912      -0.17474658
C       -1.73844647       1.20301013       2.91180140
C        2.63923763       0.74204542       0.16562927
C        1.16061023      -4.16968357       0.71455358
C        1.99269797      -1.09043917       1.82577458
C       -3.06943392       1.85639715      -3.20786033
C       -0.90419690      -3.00987372       0.65157574
C        0.22313775       1.45785599       3.88476157
C        0.14829225       3.18243320      -0.17518002
C        0.39153599      -3.08858278      -1.40001633
C       -2.08664418       2.03817120      -0.81625137
C       -0.16067577       2.66186288      -2.50585400
C       -1.64133501      -1.81123221       0.98432118
C        1.14558627       2.08488596      -2.54876025
C       -2.39810421      -1.45949886      -0.18296556
C       -2.87570082      -0.15502620      -0.36890638
C        2.69485025       1.01493066      -1.23875687
C       -3.05589511       1.62825519      -1.81474740
C       -1.63348247      -1.42459132      -2.50270516
C        0.55481759      -2.88963115       2.58019224
C       -1.83442579       0.58629895       1.64440057
C       -0.16488688      -2.14398366       3.44980729
C       -1.31757854      -0.75481145       1.83651630
C       -2.60065584      -0.41538186      -2.78476729
C        1.84739640      -2.46047886       2.07598211
C       -1.85527650      -2.15823853      -1.29622127
C        2.02061850       1.90199189       0.76897142
C        0.05157863       0.09691242      -3.43622635
C        1.98234002      -1.24999255      -1.76398659
C       -0.33270382      -0.75059581       3.01411043
C       -1.72849699       3.35373380      -4.25420391
C        1.26949942       1.06318018       2.99349969
C       -0.25962573      -1.18038223      -2.86233228
C        0.05800647      -3.62363099       1.43026785
C       -0.80380349       0.49746390       3.72146960
C       -0.28506265       2.72102281       3.41574777
C        0.41772610       3.03337365       2.23313956
C        2.32424173      -3.41421916       1.15474813
C       -0.87078168      -3.05709841      -0.78558880
C        1.49197303       2.71747879      -0.27967238
C        2.58769722      -0.63449396       0.57223839
C        2.59107657      -1.60119481      -0.50133726
C       -3.21942401       0.20549058      -1.67176428
C       -0.97662002       0.99475774      -3.89823586
C        1.23288326       0.73434378      -2.99213505
C       -0.30332763       3.55527840       1.11834649
C       -2.91932494       3.06549265      -3.87639421
C       -0.81008862       2.76014936      -1.19472548
C        2.03868077       2.25751121      -1.48543279
C       -0.77748952       2.42769515      -3.76479458
C       -1.68616235       2.59163599       3.16601632
C        0.77355276      -1.92850215      -2.16713168
C        1.13557150      -0.27162477       2.62182733
C       -2.31720648       0.68237022      -3.66265027
C       -1.62262579       3.96185398       1.38038295
C       -2.33501625       0.97293870       0.31771153
C       -2.32733105       3.56358367       2.37795888
