60
Properties=species:S:1:pos:R:3 input=/mnt/d/download/trae-research-code/ssw/runs/20260428-c60-mace-production/prerelaxed_c60.xyz system=c60 pbc="F F F"
C        0.71417170      -3.32807416      -1.35304454
C        2.19001386       0.05790221      -2.65261780
C        2.39320702       2.17367300       1.01390020
C        1.76893649      -2.43968193      -1.74721151
C       -2.51454119       1.49558786       2.18863744
C        3.54812043       1.21009931      -0.89983517
C        1.17992247      -3.29568754       1.36211238
C        3.88178147      -1.36376316       1.59525004
C       -4.43140360       0.95663098      -2.32577416
C        1.46879450      -0.89852678       0.81132671
C       -0.75946691       2.71432893       2.95991632
C        1.09927544       3.73874713      -0.97454300
C       -0.63522878      -3.41266608      -1.32333716
C       -1.09134155       4.06572666      -1.44978231
C        0.07382283       2.98402512      -3.09113609
C        1.53746718       0.16017725       1.74734341
C        1.18233371       2.07672906      -3.23426897
C       -1.48832493      -2.65036983       2.20016180
C       -2.76191939      -2.20081973       1.98600752
C        3.02215705       1.14296652      -2.20658901
C       -3.70587846       1.48295804      -1.30008289
C       -3.75396054      -1.52390619      -0.52232963
C        0.26009870      -4.24562694       1.83213521
C       -2.13268982       0.12394667       2.27228461
C       -0.92871815      -3.97585694       2.22535337
C        0.33511210       0.67274455       2.28255476
C       -3.61896519      -0.48326139       0.41222156
C        3.40437917      -2.44725867       1.15012535
C       -0.47135919      -1.61052386       2.06762909
C        2.97906997       2.35212355      -0.25991276
C       -4.20178426      -1.93865776      -1.77113810
C        2.05902812      -1.05032404      -1.71842880
C       -0.76829598      -0.24147976       2.35073846
C       -2.01505966       3.27643075      -2.23541518
C        2.71947838       0.92817866       1.68061146
C       -3.04684853      -2.55379745      -1.20698947
C        2.45858114      -3.36051664       0.64257515
C       -1.99699153       2.49851535       3.04970074
C        0.30185449       2.10431333       2.31043100
C        1.08148874       2.72698990       1.26233855
C        1.97268547      -3.35467982      -0.69751358
C        0.70273126      -1.96125277       1.36982484
C        2.30534912       3.10459374      -1.26853479
C        3.46486353       0.05730999      -0.11864906
C        2.29514075      -0.69968767      -0.36784587
C       -3.53818063       0.87826549       0.02368559
C       -4.97890341      -1.44366947      -2.77939996
C        1.17730616       0.68382559      -3.43273038
C        0.38819422       3.45596535       0.23837592
C       -2.83832121       2.63718132      -1.27668188
C        0.18438431       3.94437642      -2.02755137
C        2.35687108       2.36219897      -2.46969094
C       -1.30216126       2.72565062      -3.29712532
C       -2.83427654       1.79980414       0.85572664
C       -1.86072610      -3.17142280      -1.31020270
C        3.79617843       0.03183627       1.26349047
C       -4.91611385      -0.11950605      -2.79590696
C       -1.04930834       3.59098731      -0.09248690
C       -3.00896420      -0.88254091       1.67367312
C       -2.25587980       2.79853921       0.01577971
