60
Properties=species:S:1:pos:R:3 input=/mnt/d/download/trae-research-code/ssw/runs/20260428-c60-mace-production/prerelaxed_c60.xyz system=c60 pbc="F F F"
C        7.26500652      -3.48194948       6.12410164
C        1.21494379       1.81630759      -3.10104979
C        1.32505084       1.56205754       1.58763121
C        6.37445989      -2.79888717       5.51386768
C       -3.29513811      -0.45925727       0.92453828
C        2.04112094       1.48647607      -0.76855421
C       -0.90005416      -2.95283485      -0.50757865
C        3.85124105      -0.61930385       3.64021385
C       -3.07097226       2.79323062      -2.73029241
C        0.36287687      -1.30967055      -1.58499397
C       -1.81617368      -0.03035990       2.52676829
C       -0.23561413       3.62343513       0.50757137
C        8.05426985      -4.32216140       6.72751401
C       -2.45008577       4.07960921       0.29655116
C       -1.22838338       4.15834941      -1.66507657
C        0.57498117      -0.70500729      -0.30699143
C       -0.04361446       3.64111898      -2.27738199
C       -2.51930694      -3.46628791      -2.59968346
C       -3.40500151      -3.06492793      -1.66472736
C        1.81634421       2.31734823      -1.90134144
C       -3.76828240       1.92823443      -1.81692806
C       -2.36720607      -1.02240575      -3.06267531
C       -1.29457208      -4.90869590      -1.58223023
C       -2.73368700      -1.57154388       0.25323935
C       -2.00301858      -4.81412548      -2.66529907
C       -0.38874916      -0.86183891       0.75046017
C       -3.19977473      -0.71460340      -1.91344180
C        4.68854795      -1.32138147       4.26952380
C       -1.64964810      -2.31611222      -2.80398247
C        1.74496482       2.25466499       0.40595032
C       -1.84169690       1.12392834      -4.30806691
C        1.25097749       0.45575631      -3.34032377
C       -1.36206179      -1.91250548       0.43204241
C       -3.36715065       3.97694065      -0.76650498
C        2.15486836       0.73311113       2.30059985
C       -2.04422280      -0.11869243      -4.00967951
C       -0.85579697      -4.31770520      -0.50851038
C       -3.03240131      -0.28231554       2.32536988
C       -0.66417826       0.12600157       1.76539636
C       -0.12209912       1.46509153       1.64033901
C        5.56123041      -2.02247038       4.90550168
C       -0.65959812      -2.26345514      -1.79980596
C        1.02545022       3.39849279      -0.03807713
C        1.57008849       0.18442433      -0.90266105
C        1.26553124      -0.35628903      -2.25889817
C       -3.54470707       0.55733253      -1.35014481
C       -1.02091782       2.32407309      -4.11070704
C        0.09677830       2.72161796      -3.37804844
C       -0.91927988       2.57774470       1.20530916
C       -3.97683572       2.71650384      -0.64281130
C       -1.17702173       4.37498538      -0.24414802
C        1.10351031       3.45353953      -1.45024376
C       -2.60411585       3.91268136      -1.97837013
C       -3.52118965       0.63340998       0.09104089
C        9.06054631      -4.82787708       7.32686777
C        2.99353976       0.09632223       2.97036880
C       -2.36172371       2.39934843      -3.85341453
C       -2.35533777       2.80757267       0.98010148
C       -3.35543424      -1.86814619      -1.02919926
C       -3.43487230       2.01374805       0.47043174
