60
Properties=species:S:1:pos:R:3 input=/mnt/d/download/trae-research-code/ssw/runs/20260428-c60-mace-production/prerelaxed_c60.xyz system=c60 pbc="F F F"
C        0.04424498      -4.00404710      -0.00666490
C        2.73337354      -1.71536463      -1.70423579
C        2.46775888       2.08133283       1.24246457
C        1.40220647      -3.60375009      -0.20067421
C       -2.27326669       2.55297714       1.28770408
C        2.87312616       0.08101344       0.07119077
C       -0.83756033      -2.54901035       2.20114968
C        2.09373581      -1.03665423       3.15698084
C       -2.75767798       1.07966966      -3.41384109
C       -0.18207252      -1.21791339       0.56645862
C       -0.31800398       3.62581019       2.73295154
C        1.95086637       2.65369387      -1.51918010
C       -1.13223377      -3.23322889      -0.30322960
C       -0.00112175       3.05751397      -2.65049596
C        1.90110122       1.70296195      -3.74919875
C        0.37292450       0.03420008       1.15813396
C        2.73772614       0.66147212      -3.39933468
C       -3.00002558      -1.47109038       2.19864240
C       -3.99314361      -0.53918598       2.31578041
C        3.19312595      -0.43522787      -1.23481890
C       -2.97990496       1.78588419      -2.17430150
C       -3.11359361      -1.10568771      -0.25941541
C       -1.37378568      -0.45573402       3.28687629
C       -2.55519253       1.33517983       1.95896330
C       -1.74272641      -1.70078999       2.99135682
C       -0.15018780       1.06737077       1.96285067
C       -3.47134903       0.27182600      -0.01250507
C        1.46376307      -2.08079514       2.86128324
C       -2.60966212      -1.72632645       0.89406180
C        3.15137040       1.46579990       0.14919175
C       -3.14266183      -1.23874675      -2.69992020
C        1.78085137      -2.36691530      -0.81972702
C       -1.41683034       0.71904711       2.60254892
C       -1.24230866       2.81322874      -3.31967461
C        2.56475079       1.34330740       2.44209343
C       -2.76877795      -1.83713459      -1.48567778
C        0.55183932      -2.94374404       2.28908845
C       -1.18743574       3.27142395       1.82139442
C        0.16786355       2.48131082       1.79918295
C        1.25156103       2.71074956       0.83760686
C        0.84504491      -3.75263085       1.11619351
C       -1.26292070      -2.25714377       0.84307391
C        3.05891127       1.87936116      -1.21366826
C        1.57992324      -0.27701604       0.43475115
C        1.00954386      -1.42722646      -0.13981995
C       -3.12412649       1.45027830      -0.78265871
C        2.82234954      -0.69813362      -3.91024896
C        2.79592469      -1.71242814      -3.12750959
C        0.99745859       3.01461599      -0.52436018
C       -2.21432377       2.96680055      -2.26558117
C        1.34572382       2.56049140      -2.83982247
C        3.23266975       0.71685672      -2.04379354
C       -1.73665148       1.79273519      -4.13094850
C       -2.44775983       2.52078434      -0.08226007
C       -1.91854743      -2.93926760      -1.34733364
C        2.51275622       0.23133720       3.03095317
C       -3.16177140      -0.25673883      -3.45700276
C       -0.23100006       3.29414281      -1.25293775
C       -3.58938296       0.48589905       1.45126864
C       -1.64099003       3.26118147      -1.01118217
