60
Properties=species:S:1:pos:R:3 input=/mnt/d/download/trae-research-code/ssw/runs/20260428-c60-mace-production/prerelaxed_c60.xyz system=c60 pbc="F F F"
C       -0.70641586      -3.30799059      -1.40453257
C        1.39057847      -0.70147247      -3.48640364
C        2.94560703       0.64285235       0.31183056
C        0.31347596      -2.89930112      -2.33316405
C       -1.18895071       2.38402164       2.76219100
C        3.27948080      -0.55770880      -1.84474962
C       -0.03389651      -3.95136393       1.92664030
C        2.71791961      -2.93614237      -0.25533607
C       -3.89143950       2.12061742      -1.25590175
C        0.58771280      -1.27810995       0.03447305
C        1.01239058       2.46176691       2.90156551
C        2.28059861       2.83464719      -1.35444909
C       -1.55614549      -2.37180703      -0.67814966
C        0.38130612       4.08140922      -1.36101430
C        0.69445652       2.80929536      -3.24061259
C        1.29508332      -0.72570237       1.12190800
C        1.31852851       1.59643826      -3.70346445
C       -2.71708076      -1.80588146       3.48463090
C       -3.16716744      -0.63160273       3.36287004
C        2.67125094      -0.17930515      -3.07353613
C       -2.89115471       2.59260476      -0.49013787
C       -2.80405844      -0.24981510       0.71317311
C       -1.02028510      -3.52025760       2.68325672
C       -1.54438632       1.00517596       2.87426679
C       -1.91900537      -2.81626448       3.20551772
C        0.64556166       0.26503798       1.89534619
C       -3.24608751       0.92893057       1.43360963
C        1.54368043      -3.78095097      -0.12652627
C       -1.46972293      -0.60179298       1.05155104
C        3.33256852       0.62481311      -1.04309969
C       -4.63250241      -0.31746506      -0.87996212
C        0.83210158      -1.59372832      -2.50130539
C       -0.75967380       0.14124120       2.04518417
C       -0.91533326       3.72557334      -1.89809538
C        2.70279104      -0.61859519       0.94555581
C       -3.49049160      -0.96324967      -0.33679957
C        0.86385079      -3.99163994       1.04916627
C       -0.04721664       2.95806468       3.37916210
C        1.41361201       1.48040078       2.02329539
C        2.19680122       1.75627847       0.83112987
C        0.59767492      -3.72399717      -1.19892707
C       -0.80099080      -1.47696316       0.15569562
C        2.97511818       1.73665398      -1.86862491
C        2.68988526      -1.69581358      -1.12433822
C        1.27030524      -1.30256018      -1.19043808
C       -2.75792131       2.15394081       0.90015603
C       -5.77731414       0.14233315      -1.40715398
C        0.70120297       0.39552020      -4.07527051
C        1.77308281       2.81648566      -0.01752862
C       -1.68959042       3.36522508      -0.75696808
C        1.36964638       3.51135984      -2.18934231
C        2.57105350       1.23001344      -3.11381703
C       -0.69038065       3.07636267      -3.11115787
C       -1.59650867       2.74355637       1.46228142
C       -2.87318232      -2.07568962      -0.84205064
C        3.18299611      -1.77843349       0.30077194
C       -4.70669527       1.10410039      -1.25541456
C        0.51993651       3.58005563      -0.02292550
C       -2.93575452       0.62012869       2.83209034
C       -0.84381418       3.32842361       0.39113802
