60
Properties=species:S:1:pos:R:3 input=/mnt/d/download/trae-research-code/ssw/runs/20260428-c60-mace-production/prerelaxed_c60.xyz system=c60 pbc="F F F"
C        3.06219564      -2.48283145       0.11819145
C        2.33618029       0.05074799      -2.75257362
C        1.37141671       3.23447247       0.27963736
C        3.46370962      -1.62253315      -0.96073195
C       -3.61645613       0.64796783       0.52321668
C        2.93794921       2.03663668      -1.31153109
C        2.15052601      -1.73518876       2.76096914
C        3.72032759       0.98761904       0.97346642
C       -3.51815720      -2.87144638      -2.08211417
C        1.08594103       0.22983648       0.40743563
C       -2.27887180       2.76663129       0.25590605
C       -0.18444356       3.62275955      -2.10806235
C        1.67831998      -2.67593651       0.47251142
C       -2.34665751       2.94177099      -2.01296080
C       -0.90623601       1.50034988      -3.09912003
C        0.24668822       0.68418755       1.21929750
C        0.44925793       1.15863576      -3.43173278
C       -0.57387680      -1.40760399       3.15382020
C       -1.70097625      -0.58945084       3.00192522
C        2.57947689       1.46516509      -2.58839848
C       -4.23650241      -2.55302722      -0.95883210
C       -1.11384968      -2.16139736       0.85186509
C        1.58275000      -1.66610699       4.10304456
C       -3.05347291       0.35746259       1.77358305
C        0.33824764      -1.46422753       4.21956942
C       -0.77043435       1.44360884       1.71865543
C       -2.50095151      -1.86518989       1.02689668
C        3.88963969      -0.40415807       1.42704118
C       -0.18713809      -2.04198034       1.93557401
C        1.92837584       3.02554507      -1.02204332
C       -1.26074358      -1.79944874      -1.58038964
C        2.56588633      -0.68643669      -1.54987817
C       -1.82697216       0.73859440       2.41251703
C       -2.73850973       1.62138732      -1.66736831
C        2.20638722       2.87559924       1.33940368
C       -0.53827627      -2.33959497      -0.47225982
C        3.20358401      -0.97862735       2.42291233
C       -3.02824252       1.64885884      -0.25288921
C       -1.05974679       2.66992146       0.98758121
C       -0.06328392       3.46276967       0.30443861
C        3.87433046      -1.42642264       0.42286463
C        1.22199013      -2.25108470       1.74359800
C        1.12624043       3.17425008      -2.18168368
C        3.19331976       1.04277303      -0.33609333
C        2.07271702       0.10969376      -0.47536569
C       -3.57867184      -1.75968293       0.09833949
C       -1.86367363      -0.73205662      -2.21733494
C        1.12391191      -0.06919465      -3.48665080
C       -0.69403023       3.99187654      -0.84912371
C       -5.55875278      -1.96415690      -1.14213914
C       -1.16539309       2.85510982      -2.77270965
C        1.43444948       2.12585932      -3.05140303
C       -1.92024083       0.68955357      -2.43019709
C       -4.25765528      -0.51215408      -0.01964838
C        0.76639094      -2.72898847      -0.52623784
C        3.14397699       2.07815754       1.63661279
C       -2.48528896      -2.02803421      -2.23030853
C       -2.07291068       3.66660647      -0.82974165
C       -2.76073555      -0.98827923       2.13695459
C       -5.49581752      -0.73935066      -0.69115617
