60
Properties=species:S:1:pos:R:3 input=/mnt/d/download/trae-research-code/ssw/runs/20260428-c60-mace-production/prerelaxed_c60.xyz system=c60 pbc="F F F"
C        1.43303252      -3.16718463      -1.16714416
C        2.47469543       0.31813694      -2.65455738
C        2.03675588       1.89649231       1.30625984
C        2.33836063      -2.23125936      -1.77934806
C       -2.92354712       1.41446865       2.09916947
C        3.51696453       1.14292025      -0.53828042
C        0.78762380      -3.12912316       1.58801564
C        3.68344301      -1.28429748       0.94702216
C       -3.68294099       0.54498884      -2.61656334
C        1.03110121      -0.92122500       0.49119598
C       -1.20920208       2.43338946       2.99090985
C        1.08028915       3.74190676      -0.60637017
C        0.08509833      -2.85163189      -0.77921802
C       -1.04596348       4.11693146      -1.30678875
C        0.34517345       3.22267252      -2.89841558
C        1.03860116      -0.14645306       1.66781170
C        1.51120691       2.39167800      -3.04697391
C       -2.20931250      -2.65832774       1.87797741
C       -3.48604114      -2.22580676       2.05894423
C        3.21228826       1.30895408      -1.91225654
C       -3.36617392       1.28995951      -1.54404323
C       -2.29826861      -1.41236363      -0.19008578
C       -0.16487500      -3.84400043       2.33398366
C       -2.66416442       0.01039926       2.19042976
C       -1.42201772      -3.67381820       2.42367037
C       -0.20786360       0.37874148       2.10837473
C       -3.41051610      -0.61313061       0.20192010
C        3.06067626      -2.58032393       0.77865285
C       -1.32000365      -1.61199356       0.96547364
C        2.80550286       2.16469170       0.15801226
C       -3.12568205      -1.95120889      -2.42869161
C        2.12252305      -0.82760614      -1.84978541
C       -1.35305669      -0.41265997       1.89548298
C       -1.83027046       3.31915137      -2.22334345
C        2.20907545       0.62021098       1.92259961
C       -2.13784580      -2.11543830      -1.41825566
C        2.12019368      -3.09282598       1.60879677
C       -2.47112853       2.37220011       3.05267912
C       -0.15898281       1.80578277       2.35795154
C        0.74911991       2.50646980       1.47245834
C        2.60670273      -2.88260100      -0.52485741
C        0.08602939      -2.08918931       0.52498498
C        2.29595438       3.08544390      -0.80726793
C        3.29301064      -0.18543657       0.02621687
C        1.92313914      -0.49873246      -0.48051065
C       -3.44804292       0.75112457      -0.18944730
C       -4.01866300      -2.04223234      -3.43185965
C        1.59165532       1.06458977      -3.48786607
C        0.22463172       3.39030469       0.48454596
C       -2.69126950       2.55930544      -1.39322361
C        0.29696737       4.05895806      -1.73286082
C        2.55141056       2.54740412      -2.07927531
C       -0.98601900       2.90638427      -3.25096358
C       -2.98474011       1.72227907       0.73005788
C       -0.98528582      -2.84355561      -1.57671653
C        3.35109855      -0.11628510       1.55528867
C       -3.77187995      -0.72830183      -2.88479473
C       -1.15284869       3.58557614       0.02509857
C       -3.61040626      -0.92352501       1.62000292
C       -2.32814567       2.74881286      -0.02707140
