60
Properties=species:S:1:pos:R:3 input=/mnt/d/download/trae-research-code/ssw/runs/20260428-c60-mace-production/prerelaxed_c60.xyz system=c60 pbc="F F F"
C       -0.13404947      -3.07063489      -2.38465038
C       -0.71821792       0.29259884      -3.68564711
C        2.28454237       2.90405832      -0.99324738
C        0.01255478      -2.27026819      -3.53757439
C       -0.24850859       0.53450850       3.53220507
C        1.06057844       1.60574982      -2.52139323
C        1.33213972      -2.59924626       0.06819145
C        3.99287757      -0.19829763      -2.02235601
C       -3.27115609       0.56603195       0.36031396
C        1.78949016      -1.54302854      -0.74973831
C        0.15467389       2.46097594       1.97598324
C       -0.44770073       4.07600882      -0.89584493
C       -0.81538800      -3.13484893      -1.15900329
C       -1.78972711       3.68146166       0.95259408
C       -2.56558044       2.77326553      -1.07167220
C        1.69763291      -0.09292613      -0.48249009
C       -2.25179373       2.35853882      -2.40574984
C        0.64770195      -3.20921375       2.19012393
C        0.41525096      -2.93000317       3.50757685
C       -0.15197880       1.53232220      -3.26389323
C       -2.89308933       0.45977115       1.80224442
C       -1.66960640      -2.72521389       1.60563367
C        2.38267616      -1.53192570       1.89805527
C        0.51824983      -0.49210052       2.98574615
C        1.73556782      -2.63271254       1.44138396
C        1.56245552       0.54181295       0.85441816
C       -1.52878986      -1.68158327       2.55854188
C        3.48268534      -1.31464808      -2.31921071
C       -0.44033183      -3.34415224       1.27303802
C        1.29590766       2.88900255      -2.04220560
C       -3.06287300      -1.77246764      -0.42271336
C        0.16083882      -0.83234144      -3.52193696
C        1.58646399      -0.39648621       2.00777353
C       -2.72847589       2.67530285       1.23490885
C        3.41806783       2.10940881      -1.16488113
C       -2.56073628      -2.72345071       0.51239895
C        2.03587095      -1.77781772      -2.22406170
C       -0.44210228       1.86640554       3.08777308
C        1.20788655       1.94079619       1.08282826
C        1.50058694       3.02375662       0.18936879
C        1.18703155      -2.90722172      -2.81383679
C        0.04395372      -3.19283536      -0.03757604
C        0.00309387       3.51496457      -2.08529843
C        1.42668981       0.43718060      -1.84635364
C        1.27231946      -0.63475089      -2.71582883
C       -2.24888047      -0.45851229       2.68989332
C       -2.13027285       0.37680132      -3.75357929
C       -2.82226069       1.29151318      -3.15902867
C        0.39347228       3.92203860       0.23536021
C       -2.71244253       1.77435778       2.29257785
C       -1.77868494       3.81558944      -0.47982998
C       -0.89965680       2.64365634      -2.80209810
C       -3.10692356       2.00293229       0.02834202
C       -1.65978072       0.38402951       3.72663480
C       -2.17114688      -2.86703696      -0.82148307
C        4.00786670       1.08459269      -1.59022225
C       -3.46596280      -0.51385249      -0.44056399
C       -0.42738655       3.59803023       1.35318139
C       -0.20454018      -1.72876915       3.19832949
C       -1.86445145       1.79870267       3.40596160
