60
Properties=species:S:1:pos:R:3 input=/mnt/d/download/trae-research-code/ssw/runs/20260428-c60-mace-production/prerelaxed_c60.xyz system=c60 pbc="F F F"
C        2.04439730      -2.97520766      -1.59006794
C       -1.33785801      -1.46097721      -2.43505766
C        0.63087011       2.82604508      -2.65862467
C        1.24846249      -2.25443480      -2.53109097
C        0.58591253       2.58384609       3.08387844
C        0.01666441       0.54736608      -2.97933497
C        2.33191247      -1.43422030       0.38521230
C        3.31429851       0.46123704      -2.30712293
C       -3.50041724      -1.18205802       1.81292458
C        1.31227773      -0.58736321      -0.08284513
C        0.60344203       3.53411025       0.99894723
C       -2.15891226       2.72127116      -1.92724149
C        1.31902361      -3.31904236      -0.41642446
C       -2.99512617       2.60270402       0.26301661
C       -3.69872079       0.94421730      -1.24186110
C        1.35750680       0.79663937      -0.62975686
C       -3.08599167       0.07283511      -2.16234116
C        1.25003887      -1.99078406       3.05282228
C        1.36343719      -0.97083199       3.76149513
C       -1.11696714      -0.29687442      -3.23454459
C       -3.69810265      -0.12642675       2.71536100
C       -0.45202309      -3.04986400       1.73263293
C        3.86882041       0.20304471       0.64591647
C        0.93066448       1.50831613       3.87777075
C        3.41101797       1.14330523       1.36174741
C        1.78122141       2.01993528      -0.10930369
C       -1.52873525      -2.70667328       2.59473736
C        3.36537069      -0.73728503      -1.68066517
C        0.93280123      -2.75598849       1.94831531
C       -0.31814310       1.91129200      -3.23599585
C       -2.25259599      -2.56607519       0.41212152
C       -0.11744693      -2.05696553      -1.78607784
C        2.34614663       2.02727489       1.22560256
C       -3.64695323       1.55474889       1.03966125
C        1.95521026       2.48044195      -2.83670424
C       -0.93977131      -3.07822572       0.37650480
C        3.52075794      -0.85540179      -0.20305774
C        1.43938485       2.87593913       1.94407857
C        0.99693197       3.19956579      -0.30208936
C        0.14364333       3.35270235      -1.40401983
C        2.54038762      -1.81043320      -2.13619754
C        1.78663540      -2.71172417       0.76496893
C       -1.73301810       1.96533112      -3.03064530
C        0.53086685       0.33264178      -1.69653605
C        0.33998681      -0.88912128      -1.04018999
C       -2.58926076      -2.30238009       1.80797554
C       -2.93185425      -1.67048365      -0.43621992
C       -2.56712643      -1.20620623      -1.73295594
C       -1.22740014       3.34161979      -1.05449750
C       -3.73382698       1.12738295       2.37446884
C       -3.21966641       2.26869903      -1.12350224
C       -2.21390855       0.61192894      -3.12677595
C       -3.94223948       0.50411035       0.08256263
C       -0.72578858       3.09660177       2.75803393
C       -0.05473765      -3.08320122      -0.69257918
C        2.87383342       1.57753417      -2.78164606
C       -3.69971409      -0.82609656       0.43630969
C       -1.71810436       3.29139668       0.31638617
C        1.23344554       0.31589628       4.06346724
C       -0.77400867       3.46541900       1.40398782
