60
Properties=species:S:1:pos:R:3 input=/mnt/d/download/trae-research-code/ssw/runs/20260428-c60-mace-production/prerelaxed_c60.xyz system=c60 pbc="F F F"
C        2.39568172      -2.93930151      -1.18646816
C        1.32171353       0.08219981      -3.44558315
C        1.73433406       3.00233657       0.33045765
C        2.66316081      -1.90395629      -2.14665413
C       -2.04789405       0.69032819       2.81503766
C        1.95387655       1.60239611      -1.55765104
C        1.83811142      -2.10738197       1.74226328
C        3.91234603       0.17018588       0.44319024
C       -3.15679321       0.27916365      -1.85547518
C        0.80052649      -1.09567761       0.02715303
C       -0.57584883       2.38049455       3.10721768
C       -0.56719406       3.65433801      -1.20991752
C        1.10586600      -3.25572545      -0.64988848
C       -2.80576555       3.46524224      -0.89750844
C       -1.97443466       2.43205415      -2.79532654
C        1.00051408       0.21488825       0.59748459
C       -0.82769317       1.99340473      -3.53378512
C       -0.64010864      -3.09852261       2.54584161
C       -1.92112572      -2.90898188       3.05806319
C        1.45069295       1.40209120      -2.89188804
C       -3.54642398       0.30962199      -0.47828291
C       -1.52744761      -2.48769004       0.36415938
C        0.91835545      -1.64031505       2.83234738
C       -1.29033813      -0.51478250       2.90214131
C        0.39816248      -2.78332589       3.41180945
C        0.65103474       0.67832922       1.88335605
C       -2.37450773      -1.55153868       1.05628436
C        3.64726470      -1.17703230       0.31981227
C       -0.45241159      -2.89584083       1.16058049
C        1.69188073       2.91736480      -1.10705741
C       -2.03783050      -1.96076818      -1.95652199
C        1.64096669      -0.97822805      -2.50697434
C        0.12420861      -0.45156376       2.69809523
C       -3.72267285       2.46563118      -1.27980894
C        2.83400307       2.38424353       0.88985327
C       -1.25779385      -2.70285014      -1.06968444
C        3.06843026      -1.76164379       1.43223227
C       -1.63641061       1.85397338       3.53406675
C        0.31472365       2.06961875       2.08038632
C        0.42626123       2.95076526       0.93400584
C        3.30846031      -1.96349288      -0.84604000
C        0.85727719      -2.45963550       0.62426608
C        0.58850822       3.32039065      -1.90079468
C        1.43185092       0.62000724      -0.71287606
C        1.09076218      -0.63942816      -1.25560887
C       -2.92676571      -0.27746342       0.68497729
C       -0.70905073       0.90273832      -4.43979940
C        0.27286585       0.07704730      -4.39542318
C       -0.73499709       3.32774643       0.17583491
C       -3.87925451       1.64993915      -0.15109793
C       -1.80207306       3.51810212      -1.88473390
C        0.44020328       2.39031930      -2.99712878
C       -3.09812228       1.66379009      -2.30406208
C       -2.70086061       0.82151984       1.59132257
C       -0.03831843      -3.31885127      -1.37108745
C        3.64402727       1.37993392       0.78446314
C       -2.63778360      -0.93024684      -2.30557050
C       -2.17831238       3.10337901       0.35761322
C       -2.07064291      -1.65742642       2.48978031
C       -2.98997271       2.04782591       0.89573280
