60
Properties=species:S:1:pos:R:3 input=/mnt/d/download/trae-research-code/ssw/runs/20260428-c60-mace-production/prerelaxed_c60.xyz system=c60 pbc="F F F"
C        1.20464638      -3.05890001      -2.09692412
C        0.91743767      -0.45946065      -3.10543078
C        2.59219663       2.40795293       0.22080340
C        2.48427250      -3.33010446      -1.63931531
C       -1.87820468       1.81599681       2.70194624
C        2.34301070       0.76574389      -1.47747111
C        0.68605615      -3.71875044       1.68394416
C        4.29259292      -0.74838989       0.35187639
C       -3.09255805       1.37615571      -1.98042127
C        0.75300770      -1.53806590       0.45511220
C        0.11386529       2.84860548       2.86086280
C        0.65451063       3.58318264      -1.49992702
C       -0.06970168      -3.58703164      -1.78372116
C       -1.51026351       4.22893147      -1.29207783
C       -1.09975334       2.64187363      -2.91978118
C        1.22919462      -0.17622294       0.85766702
C       -0.16739168       1.63845983      -3.32802850
C       -2.02809707      -2.74597541       2.65937282
C       -2.81941411      -1.72718699       3.13594306
C        1.80772907       0.61027838      -2.79312216
C       -3.38632363       1.61882056      -0.60945073
C       -2.09958456      -1.57513343       0.45924735
C       -0.76894778      -4.75593920       3.18098416
C       -1.57864010       0.42358824       2.92234208
C       -1.76810583      -3.98339167       3.29742488
C        0.73748217       0.68176371       1.93759465
C       -2.73270930      -0.42167137       1.04907324
C        4.02323122      -1.81773474      -0.27180482
C       -1.35300735      -2.39734848       1.39070434
C        2.52619588       2.14103374      -1.18915185
C       -2.15100172      -1.08165295      -1.99050986
C        0.99003978      -1.59529482      -2.22956821
C       -0.30063721       0.10862959       2.64296334
C       -2.74422019       3.62581157      -1.60120137
C        3.49473480       1.57910272       0.90121602
C       -1.88445271      -1.95260267      -0.91458315
C        0.39272852      -4.67634999       2.47911388
C       -1.06668382       2.82624074       3.29921472
C        0.90331360       2.15717045       1.95339730
C        1.32601055       2.83334622       0.75162190
C        3.40137161      -2.73310049      -0.98869230
C        0.05666572      -2.60555841       1.15576167
C        1.65277173       2.81417084      -2.08578867
C        1.68581418       0.01249995      -0.50791229
C        1.02974968      -1.17431199      -0.89820263
C       -2.91247574       0.94062159       0.59021289
C       -1.54754966      -0.36409075      -3.04589881
C       -0.33580530       0.20912245      -3.42794984
C        0.36175390       3.49165824      -0.10354106
C       -3.18982884       3.01691094      -0.41515846
C       -0.55171773       3.76991527      -2.22099985
C        1.20907181       1.86680288      -3.05792082
C       -2.47146811       2.54598662      -2.51098600
C       -2.37725958       1.99677343       1.41980356
C       -1.08952661      -3.05454705      -1.27685873
C        4.14118131       0.48431592       0.79820764
C       -2.69784032       0.12463625      -2.42153539
C       -1.07440548       3.80658745       0.02187435
C       -2.64647480      -0.52983419       2.52864839
C       -2.21939465       3.17575220       0.61411672
