60
Properties=species:S:1:pos:R:3 system=runs/20260728-safe-lbfgs-strict-quench-200-production/output-c60-seed42 state_id=intermediate_accepted pbc="F F F"
C       -1.98968943      -2.32884554      -1.29156061
C        2.77285672      -2.34184121      -0.39178441
C        0.54508214      -1.24484437       2.52026261
C       -1.20461236       3.78575882      -0.54033029
C       -3.32015894       2.63982950       0.20167235
C        2.74490928      -2.48819946       1.65961213
C       -2.92350307      -1.87871556      -0.29382478
C       -1.57346436      -3.64976870       0.60628988
C        1.54137388       2.85738949       1.35326369
C       -0.18975271       3.87361568      -1.57292716
C       -1.67742625       1.89828747       2.04921243
C        2.20249192       0.96909780       2.39389482
C       -1.42709146      -1.49675847      -2.29986149
C        0.92217330       3.70603866       0.43196203
C        2.94415760       0.97161152       0.12485122
C       -1.76967871      -1.73166062       1.76929021
C        3.37464194      -0.30394737       0.84036913
C       -1.23870501       2.08303978      -2.80945277
C       -2.30268232       2.07967961      -1.86083764
C        0.16019110      -3.41889745      -0.83769334
C        1.13675695       2.50479234      -2.84366268
C        0.26535006       0.36152595      -3.67581066
C       -4.32715933       1.59356288       0.03545994
C       -3.65384809      -0.66135007      -0.02718257
C       -3.49205607      -0.17332308       1.30426876
C       -2.27904455      -0.45051180       1.99617865
C        1.34771723       1.21711309      -3.30422999
C       -2.45126490      -2.56969058       0.87891890
C       -1.03919482       0.74675572      -3.26968018
C        1.98962205      -1.46575236       2.37339346
C        1.99308996      -0.83462305      -2.56234267
C        0.73755085      -2.52970317      -1.71981620
C       -3.99548134       1.13683119       1.39078499
C        1.10147736       3.65627789      -0.93815368
C       -0.44122711      -2.16024956       1.99661836
C        0.75523692      -0.94451476      -3.36353770
C       -3.90558914       0.49810811      -0.83902484
C       -2.95148345       2.11023435       1.47137997
C       -1.35542310       0.54433612       2.44741855
C        0.01483099       0.13714207       2.83323657
C       -1.25050515      -3.45829536      -0.77076352
C       -1.91720361      -0.15355246      -2.54727064
C        2.70974335      -0.28504535       2.09626817
C        2.09039113      -3.15863450       0.58541603
C        1.99094923      -1.86648735      -1.51138589
C        2.26211858       0.53923578      -2.42743403
C        0.61318365       2.54908941       2.41833957
C        3.62356196      -1.72902577       0.63302066
C        0.92927443       1.24701267       2.96859510
C       -0.20042299       3.04431161      -2.74164716
C        2.38309255       1.74050051       1.20417142
C        0.76109419      -3.60757630       0.43911246
C        1.84140506       2.64137108      -1.60303111
C       -2.39406808       3.01831936      -0.80563732
C       -0.08190174      -1.85238539      -2.68745576
C       -0.31867421      -3.42621835       1.34409756
C        2.55634042       1.38570547      -1.26298186
C       -0.66259391       2.86785432       1.87505616
C       -2.84168181       0.74404846      -1.74859787
C       -0.49454680       3.70224896       0.71382459
