60
Properties=species:S:1:pos:R:3 entry_id=19 rank=21 energy=-475.3902282714844 pbc="F F F"
C        2.58418332      -5.58266245      -0.37512373
C        1.54723043      -0.41661208      -1.33626382
C        2.35570444       2.93445665       1.80768159
C        0.79460563      -2.67563817      -1.58083612
C       -3.84729624       1.01675458       0.62484331
C        2.85357725       1.05775492       0.35219326
C        1.59550069      -2.78207045       4.67126746
C        1.98756533      -3.43421347       0.98761354
C       -0.54619415       2.18099691      -4.48356765
C        1.92300468      -1.00758720       1.56702549
C       -1.15538461       2.10572860       2.84373212
C        0.88295337       3.72414016      -0.42243926
C        0.39238470      -3.76158486      -2.35096717
C       -1.40117065       4.13585437      -0.68332457
C        0.30061619       2.48826158      -3.37506125
C        1.67484449       0.09879628       2.52502101
C        1.04674973       1.52770241      -2.61576788
C       -3.20724432      -4.27263814      -3.84760646
C       -5.00392395      -1.77429369      -2.25924413
C        2.34120243       0.67493249      -0.91360291
C       -3.36283316       1.41051729      -2.51956402
C       -2.66005040      -1.86833740      -2.90381146
C        1.21001192      -1.79924540       5.33040489
C       -4.08094151       0.47365416      -0.49445526
C        0.75470626      -0.58371587       5.57138481
C        0.88991884       0.91764062       3.40224039
C       -3.79115404      -1.10239573      -2.40301771
C        2.02007444      -3.67349511       2.35198683
C       -2.92426402      -3.11475290      -3.36783670
C        2.71006296       2.47256520       0.49934576
C       -0.55131292      -0.35547149      -2.80863505
C        1.45287000      -1.72075832      -0.76801465
C        0.53819455       0.56525644       4.70122006
C       -2.45998394       3.61736190      -1.37613909
C        3.19397306       2.88568072       2.91101771
C       -1.22512957      -1.52699457      -2.74569601
C        1.87700541      -3.44580237       3.56488653
C        0.13750589       0.60802444       6.01718604
C        0.22374558       2.12551126       2.81875364
C        0.92130478       2.98225831       1.90800503
C        2.21281062      -4.47031245       0.07065933
C       -3.45093005      -5.44431709      -4.33326716
C        2.00363285       2.93693157      -0.66384828
C        2.46875756       0.25846262       1.40487605
C        1.78816559      -2.04523892       0.60500851
C       -3.78182514       0.25064032      -1.82681772
C       -2.74107313       2.01543040      -3.54715559
C        0.65584904       0.12687584      -2.41975472
C        0.23188879       3.67894268       0.85630828
C       -2.89726456       2.72272742      -2.19374191
C       -0.07897579       4.05020888      -1.43110913
C        1.94000560       1.85917848      -1.59268132
C        0.03576632       3.64806791      -2.69896566
C       -3.31635875       1.49852167       1.70126983
C       -0.33250746      -2.58524248      -2.42942888
C        4.06140827       3.06831906       3.80709136
C       -1.81013106       2.06319650      -4.52622029
C       -1.11017513       4.06145719       0.69940475
C       -6.13690303      -2.30240365      -2.13048009
C       -2.33782047       1.86412678       2.45901479
