60
Properties=species:S:1:pos:R:3 entry_id=20 rank=16 energy=-481.298828125 pbc="F F F"
C        4.87866047      -3.69789781      -2.63661468
C        2.24056162      -0.51257191      -2.17137052
C        2.24732707       1.43289215       3.58945140
C        3.14400335      -2.33573425      -3.50321178
C       -6.18396092       5.76860505      -0.15202187
C        2.83330958      -0.01884440       0.05207769
C       -2.43616761      -3.61225901       3.00321284
C        5.69567308      -3.97783929      -1.51660803
C       -0.88074040       0.10492166      -4.96688703
C        3.15609794      -0.65741278       1.28563405
C        3.14278777       0.14593019       7.41263232
C       -0.07359428       1.98762428      -0.76022584
C        4.07111486      -3.36910546      -3.60868092
C       -2.52771980       2.19877582      -1.35224494
C       -1.44456813       0.93392956      -4.11365935
C        2.91967759      -0.66875453       2.56948431
C        0.43840622       0.73581155      -2.61392587
C       -4.42444406      -2.75621585       1.66535628
C       -7.28241745       2.37720838      -0.53807153
C        2.03801049       0.31917257      -1.01419309
C       -6.27689056       1.40028410      -0.50827094
C        1.54039271      -2.92910388      -6.97979194
C       -0.20520442      -3.27282845       4.16357637
C       -7.07991874       4.89212397      -0.37879913
C        0.84632942      -2.61104185       4.58090416
C        2.60845747       0.02161868       3.68818349
C       -6.23439628       0.09339929      -0.04002203
C        3.71102440      -1.11674099       0.04286022
C       -5.19586512      -1.98670294       1.03409025
C        0.97370698       2.28503172       1.44576508
C        2.17758461      -2.02126971      -4.54318692
C        3.13216443      -1.57665691      -2.26033381
C        1.74614813      -1.80508528       4.90799599
C       -3.78879492       2.04678441      -1.13525216
C        2.34495279       2.30365604       4.67227957
C        2.53452306      -3.79738371      -6.57160058
C       -1.30471905      -3.58492753       3.63005082
C        2.82216520      -0.03921673       6.21404362
C        2.47131394      -0.63931775       5.00692290
C       -1.59441931       4.73934024       0.58453068
C        4.85077807      -2.96031144      -1.28152556
C       -3.48491002      -3.33265670       2.34441048
C        0.05448444       2.71330689       0.45716215
C        1.63802845       1.89024436       2.40056962
C        3.94969797      -1.91435332      -1.10670990
C       -5.75023897      -0.95088246       0.43942644
C        1.18170565      -1.00063179      -4.36593706
C        1.27003180      -0.24412782      -3.16147212
C       -0.76478756       3.81036986       0.61490407
C       -5.00989112       1.83541652      -0.87545472
C       -1.25410653       1.99598367      -1.67873248
C        0.88802919       1.12328392      -1.31408198
C       -0.83577649       1.25885610      -2.92166824
C       -5.00303086       6.19334169       0.10406499
C        2.15067381      -2.75863575      -5.71963961
C        2.37717637       3.32300731       5.40377898
C        0.10087313      -0.71155335      -5.21541239
C       -2.59384043       5.58191911       0.50330830
C       -7.40626933       3.63279898      -0.51075002
C       -3.74225988       6.07560569       0.33470138
