60
Properties=species:S:1:pos:R:3 system=runs/20260728-safe-lbfgs-strict-quench-200-production/output-c60-seed42 state_id=plateau_accepted pbc="F F F"
C        1.90536710      -0.50967900       2.36972555
C       -0.89924154      -0.78905555       1.81439589
C       -1.48966639      -2.35139621      -0.63036789
C        0.52323414       2.32065685      -2.92934717
C        2.52541506       0.91907403      -2.70370593
C       -0.29358446       0.79625114      -0.10920130
C        2.31280232      -1.24513481       1.22208120
C        0.71913020      -2.44067205       2.26872071
C       -2.50608022       0.59687311      -3.13318000
C       -0.31344465       3.29511676      -2.32833126
C        0.73293263      -0.87000619      -3.15445338
C       -3.04115867      -1.21998982      -1.87280844
C        1.46384175       0.84872020       2.31117852
C       -1.72202830       1.75322179      -3.25335629
C       -3.17560286       0.73571223      -0.69116090
C        0.78265290      -2.74333149       0.01969326
C       -2.85298421      -0.31923433       0.24419899
C        1.01986831       3.30853666      -0.31579424
C        1.95790724       2.45508417      -0.95829735
C        0.04594101      -1.17660944       4.10343969
C       -1.35528734       3.82060752      -0.39633955
C       -0.35237369       2.95276905       1.64883729
C        3.50185623       0.33819818      -1.83817235
C        2.85917418      -0.85405694      -0.01483894
C        2.57392277      -1.65554842      -1.15740323
C        1.30891357      -2.28907349      -1.21982221
C       -1.47316243       3.38049918       0.91135934
C        1.53700672      -2.41732413       1.15879189
C        0.90286947       2.88556332       1.04130166
C       -0.19412113      -0.17439963       0.69646868
C       -2.03411074       1.34770102       1.84688454
C       -0.42623007      -0.26388271       3.15033752
C        3.07780546      -0.98302551      -2.28999785
C       -1.68982143       2.89365756      -2.45014364
C       -0.59790817      -2.77128891       0.36876145
C       -0.78382016       1.84008874       2.39104589
C        3.20600028       0.43966389      -0.43491089
C        2.06463767      -0.38037516      -3.10660288
C        0.38429045      -1.93095429      -2.24108629
C       -0.99335016      -2.20558773      -1.97989456
C        1.11122900      -1.44669454       3.17125646
C        1.79697771       1.78324991       1.27806756
C       -2.65550683      -1.51918736      -0.52731766
C       -1.40091234      -2.84336101       3.03157378
C       -1.89178730      -3.19371751       4.28313285
C       -2.44846168       2.34467259       0.94925764
C       -1.67501719      -0.50488655      -3.54395265
C       -2.22389231      -0.03408315       1.50729155
C       -2.00705929      -1.61838267      -2.76596687
C       -0.08680952       3.78854494      -1.02597142
C       -3.25688655       0.18116711      -2.00513393
C       -0.89520054      -2.22152870       4.19084187
C       -2.30400474       3.08438839      -1.20143343
C        1.76627661       2.02999971      -2.30227966
C        0.17756893       0.99620402       2.92465162
C       -0.71720973      -2.38017669       1.82882124
C       -2.90030592       2.08138639      -0.36592584
C       -0.32210875      -0.05407968      -3.65655567
C        2.52200837       1.57363968       0.02591859
C       -0.35397880       1.37001222      -3.55258076
