60
Properties=species:S:1:pos:R:3 trial_index=106 seed_entry_id=54 discovered_entry_id=57 energy=-500.9341735839844 status=accepted pbc="F F F"
C        0.89178531      -3.12018255       0.52078990
C        1.96540428      -0.13336078      -2.16490367
C        1.97029555       1.40699341       1.69234199
C        2.27225525      -2.76305147       0.54692508
C       -3.47520871      -0.37328759       1.61091173
C        3.24042765       0.70565968      -0.29323419
C        0.32587159      -2.76792903       1.76504934
C        4.35755649      -1.32096568       2.44283688
C       -3.20750305       2.12136461      -4.09981099
C        1.39909038      -2.18819121       2.52942226
C       -1.70217660       1.25033536       2.19119418
C        0.93422042       3.39308022      -0.08029179
C        0.00869319      -2.77931768      -0.50341029
C       -1.30607303       3.66508902      -0.53505916
C       -0.02221382       2.91656505      -2.31269741
C        1.30459610      -0.76736963       2.70180703
C        1.02077005       1.98369722      -2.54671404
C       -3.56968139      -1.64732706      -0.16965163
C       -3.97580524      -0.33077735      -0.60288258
C        2.82556425       0.85307933      -1.63018348
C       -4.03749452       1.59145647      -2.02006924
C       -1.90746029      -1.45810463      -1.97335270
C       -0.96545271      -2.19271148       1.55791374
C       -3.78375435       0.51476500       0.50509907
C       -3.76071505      -1.70723037       1.23057468
C       -0.02193251      -0.24860582       2.75101135
C       -2.60118046      -0.33794534      -2.55627209
C        5.08224580      -2.32314060       3.09623540
C       -2.30986347      -2.01226138      -0.72411028
C        2.63427050       1.73999340       0.47704794
C       -0.33642162      -0.13126314      -3.04363686
C        1.78828551      -1.36978981      -1.46434387
C       -1.18451774      -1.00983086       2.34495170
C       -2.18915131       3.07866866      -1.48722669
C        2.34346801       0.12997548       2.26206176
C       -0.53155581      -1.37297819      -2.36143075
C        2.58933422      -2.80269574       1.96577779
C       -2.26179337      -0.06801342       2.23927071
C       -0.30628345       1.13286647       2.52487237
C        0.67165812       1.97906773       1.94040008
C        3.84640103      -2.63110936       2.52044417
C       -1.26195610      -2.45609753       0.12448655
C        2.09163617       2.69193087      -0.43884204
C        3.37857748      -0.56871129       0.29934815
C        2.62659994      -1.65445998      -0.29016732
C       -4.20806139       2.07962804      -3.32705569
C       -1.64366081       0.44724719      -3.29297358
C        0.87573410       0.56342839      -2.82700082
C        0.19382185       3.02931379       1.09930179
C       -3.29832986       2.32578323      -1.02799130
C        0.00008599       3.68005326      -1.10385837
C        2.20051439       2.13519889      -1.75414797
C       -1.40764755       2.72105113      -2.64927291
C       -3.21967073       1.80291010       0.32786493
C        0.48895327      -1.99806819      -1.58800120
C        3.58496011      -0.40984971       1.73368369
C       -1.90872819       1.80632102      -3.62656321
C       -1.21408507       3.16733405       0.79130442
C       -3.73464315       0.19249271      -1.89591595
C       -2.16308597       2.20036700       1.23313527
