60
Properties=species:S:1:pos:R:3 trial_index=3 seed_entry_id=2 discovered_entry_id=3 energy=-486.6771240234375 status=accepted pbc="F F F"
C        1.61049170      -3.72391048      -0.67824606
C        2.24959010      -0.22951600      -2.23239031
C        2.18438960       1.84460798       1.95159866
C        2.70881841      -2.85333670      -1.05644912
C       -3.48129833       1.21425364       2.38679183
C        3.19933720       0.63711486      -0.03941746
C       -0.24838636      -3.28567899       1.07018181
C        2.85446971      -1.30321008       1.68211699
C       -3.14421391       1.15038147      -3.79260222
C        0.61287189      -0.71518878       0.29000365
C       -1.41855037       2.00644672       2.97681024
C        0.91198689       3.33824020      -0.08950663
C        0.36710406      -3.24273448      -1.16929568
C       -1.39028416       3.20581661      -0.44754197
C       -0.03675842       2.60191603      -2.25583155
C        0.46131698      -0.15745779       1.40588548
C        1.12360814       1.81550681      -2.49333904
C       -2.21957256      -1.42065880       0.67722916
C       -3.12851170      -0.30646175       0.44823249
C        2.92593154       0.78136930      -1.46208787
C       -3.94486593       1.33120472      -2.65348417
C       -1.70314951      -1.47230507      -1.77660619
C       -0.59774633      -2.46959241       2.13794890
C       -3.80609124       0.30310320       1.45851122
C       -1.65564612      -1.51098904       1.99430616
C       -0.11923705       0.24042038       2.53881895
C       -2.79430463      -0.56724839      -1.98066287
C        2.16948713      -2.59894670       1.59411077
C       -1.63656235      -2.07227017      -0.45255471
C        2.66828726       1.80909609       0.61204654
C       -0.05170803      -0.24246138      -3.31675995
C        1.93805772      -1.59303424      -1.69019612
C       -1.44923058      -0.28667733       2.74644181
C       -2.23986293       2.49538676      -1.43342196
C        2.68454305       0.83680390       2.77649820
C       -0.44919909      -1.40227433      -2.50847739
C        0.78373943      -2.80660557       1.85526721
C       -2.23882672       0.85071285       3.03131357
C       -0.05786933       1.64215919       2.90164010
C        0.87906888       2.44884928       2.18721300
C        2.38218629      -3.18288184       0.31604772
C       -0.64969011      -3.07983197      -0.25273643
C        2.09200441       2.64877307      -0.38235767
C        2.88934980      -0.66895295       0.40271645
C        1.72216560      -1.05728102      -0.35657627
C       -3.52275531      -0.02413859      -3.09752947
C       -0.91425620       0.52983550      -4.01664150
C        1.15737648       0.43128640      -2.88484669
C        0.27353945       3.22889880       1.17841473
C       -3.36702045       1.59960086      -1.35102195
C       -0.10578746       3.33186878      -1.05270805
C        2.24681007       2.01172122      -1.63829137
C       -1.40449316       2.31279275      -2.58537626
C       -3.40144614       2.61099392       2.03018104
C        0.61504175      -2.17853020      -2.04919861
C        2.97691990      -0.38921289       2.72951015
C       -1.75180793       1.52018014      -3.69796011
C       -1.16508464       3.27587475       0.98237110
C       -3.16656438       0.23740250      -0.88405245
C       -2.03079487       2.90989957       2.05095253
