60
Properties=species:S:1:pos:R:3 trial_index=157 seed_entry_id=78 discovered_entry_id=79 energy=-500.4696350097656 status=accepted pbc="F F F"
C       -0.44457908      -2.59247556       0.17192399
C        2.12001655       0.18270629      -2.38223309
C        1.86190376       1.58458874       1.68728065
C        1.97795774      -2.48697920       0.12956638
C       -3.26914535      -0.26910579       1.89437128
C        3.15667043       0.92650063      -0.32002301
C       -0.35304379      -2.21389930       1.56351125
C        4.74882946      -4.58117693       3.66601599
C       -3.33798268       1.87678449      -3.97205627
C        0.92093371      -1.86972919       2.13039601
C       -1.79254074       1.58024433       2.46267219
C        0.78463948       3.56851521      -0.08634561
C        0.85321046      -3.30807279      -1.82223728
C       -1.47316731       3.70053133      -0.53188969
C       -0.16035599       3.02450870      -2.31424781
C        1.06095768      -0.55151155       2.68555664
C        0.96895170       2.21082410      -2.58382548
C       -2.71212068      -1.64648300       0.09587835
C       -3.48929398      -0.54384926      -0.36717375
C        2.84221909       1.17186593      -1.67617563
C       -3.97898097       1.26440779      -1.86583439
C       -1.41924461      -1.53431125      -1.96225050
C       -1.48711714      -1.69551168       2.22355762
C       -3.63191479       0.40000212       0.69965784
C       -2.68567417      -1.52755039       1.50650145
C       -0.11471115       0.11173879       3.09716559
C       -2.30854103      -0.47177426      -2.44015789
C        3.87410317      -3.92767698       2.98470272
C       -1.56637619      -2.10597946      -0.63470903
C        2.51617333       1.93221489       0.46909953
C       -0.17313861       0.00169786      -3.19743590
C        2.06881271      -1.14338631      -1.88818374
C       -1.34162575      -0.58927294       3.09927651
C       -2.32112908       3.00621017      -1.44121088
C        2.16928085       0.24467538       2.19603084
C       -0.18387772      -1.32010216      -2.64168680
C        2.09742606      -2.58703227       1.59613168
C       -2.40246027       0.34541421       2.81830445
C       -0.37540748       1.45761372       2.70728516
C        0.59001243       2.20560701       1.97881203
C        3.01682847      -3.26298558       2.31186110
C        0.76818314      -3.02806041      -0.46002658
C        1.96947456       2.90596970      -0.42770895
C        3.24036465      -0.40544759       0.18923795
C        2.59295546      -1.44203364      -0.59431870
C       -4.29617963       1.67905978      -3.17064268
C       -1.54372652       0.42557956      -3.26198549
C        0.96353343       0.81064683      -2.97826820
C        0.07302596       3.21243603       1.10881439
C       -3.34368002       2.16514071      -0.93326941
C       -0.17439599       3.78713683      -1.10797216
C        2.12641409       2.40624166      -1.75801111
C       -1.53682408       2.70414107      -2.61578888
C       -3.24256255       1.74970437       0.45400174
C        1.00866531      -2.02145029      -2.33177660
C        3.20398391      -0.45864369       1.57852556
C       -1.98837678       1.74456505      -3.57021361
C       -1.34276939       3.28249931       0.81271879
C       -3.42968581      -0.05545212      -1.68864356
C       -2.25792240       2.33125757       1.34243210
