60
Properties=species:S:1:pos:R:3 trial_index=148 seed_entry_id=60 discovered_entry_id=76 energy=-500.1507873535156 status=accepted pbc="F F F"
C       -0.23720962      -2.26317583       0.43512682
C        2.09828622       0.02627085      -2.33288046
C        1.82429724       1.44824119       1.76234108
C        1.25507163      -2.28415626       0.34940075
C       -3.32128230      -0.16952692       1.95509012
C        3.08352813       0.71405648      -0.23463210
C       -0.47222496      -2.16754970       1.85923734
C        5.09823490      -3.54528455       3.00043260
C       -3.26263817       1.85345949      -3.95791856
C        0.75681457      -1.91150022       2.53043189
C       -1.82245770       1.65305073       2.51422728
C        0.87098559       3.48473468      -0.04406620
C        1.07870911      -3.57095850      -2.57325853
C       -1.37772898       3.69396733      -0.52163216
C       -0.07183870       2.94736785      -2.27947224
C        0.96030753      -0.55922765       2.95690756
C        1.02916157       2.09583728      -2.53721183
C       -2.61275948      -1.55714162       0.21059794
C       -3.41939705      -0.49033602      -0.30148901
C        2.83241416       0.98017681      -1.59619717
C       -3.91620823       1.28591062      -1.84100352
C       -1.36360773      -1.53000367      -1.85555157
C       -1.62418759      -1.64227766       2.44435232
C       -3.62819271       0.47478579       0.73569445
C       -2.73793700      -1.44103402       1.62124813
C       -0.21581931       0.16300254       3.28455630
C       -2.24935225      -0.47732193      -2.35858072
C        4.14863833      -2.86127351       2.55422372
C       -1.39296524      -1.95302908      -0.46250270
C        2.51540238       1.76425980       0.55263595
C       -0.14989389      -0.09014619      -3.20070660
C        1.93661096      -1.30572904      -1.85833742
C       -1.47429726      -0.49670557       3.28380700
C       -2.23953613       3.01108160      -1.42915577
C        2.03880914       0.12834715       2.31204955
C       -0.18764698      -1.42892863      -2.66598131
C        1.77003729      -2.43019019       1.69783063
C       -2.48715172       0.45756701       2.90158911
C       -0.41729475       1.48255789       2.78960623
C        0.58692821       2.15272652       2.03662780
C        3.10930335      -2.11830188       2.06946758
C        1.16909081      -4.80283012      -2.78866695
C        2.02865224       2.76180738      -0.36131089
C        2.99121822      -0.60125775       0.24953455
C        2.17661535      -1.54112021      -0.47232789
C       -4.22246501       1.67580776      -3.15438357
C       -1.49958126       0.38001554      -3.22634864
C        0.98835325       0.69600344      -2.94798684
C        0.13030188       3.17581847       1.14866670
C       -3.28894107       2.20564455      -0.91975444
C       -0.06873142       3.72507554      -1.08152815
C        2.17617418       2.24455487      -1.68852251
C       -1.45406730       2.66493419      -2.59117235
C       -3.22140966       1.81738192       0.47588366
C        0.99982873      -2.19156884      -2.50923414
C        2.98057464      -0.73973198       1.66693353
C       -1.91839907       1.70807893      -3.54221877
C       -1.27921719       3.29710602       0.83226305
C       -3.36625769      -0.02869706      -1.62825265
C       -2.23667083       2.39045233       1.36650964
