60
Properties=species:S:1:pos:R:3 trial_index=54 seed_entry_id=28 discovered_entry_id=30 energy=-497.15325927734375 status=accepted pbc="F F F"
C        0.63105313      -3.53349011       0.14595483
C        1.83476897      -0.28218228      -2.18777748
C        2.25556227       2.04510706       1.68227539
C        1.61793189      -2.68914565       0.69301486
C       -3.53939283       0.58959807       2.31314064
C        3.05193108       0.60759339      -0.27279901
C       -0.68810187      -3.59854599       0.72199295
C        3.92536682      -0.82516500       1.55485306
C       -3.46741090       1.88053656      -3.86580267
C        2.51298974      -2.98443215       2.97038420
C       -1.38484782       1.81626120       2.35162212
C        1.05421461       3.54148761      -0.43009951
C        0.05277037      -3.33986198      -1.13706845
C       -1.20431695       3.80009973      -0.78416130
C       -0.05380207       2.81672237      -2.53627252
C        0.10131569      -2.24305343       2.56910758
C        0.96054902       1.83767706      -2.70970562
C       -2.61406177      -1.45805613       0.33281332
C       -3.35719741      -0.27916051      -0.01930055
C        2.67651358       0.69068645      -1.63933770
C       -3.97459134       1.44591217      -1.66275996
C       -1.91627513      -1.63740399      -1.99376017
C       -0.95363052      -2.66416904       1.70560126
C       -3.53526558       0.78688004       0.94067434
C       -1.90979973      -1.63477354       1.57166803
C       -0.35213283      -1.09477453       3.21581317
C       -2.61653092      -0.44750069      -2.34956268
C        4.59859226      -2.01806270       1.97887248
C       -2.15329640      -2.28593244      -0.76821867
C        2.65895222       1.86604475       0.32400654
C       -0.44290226      -0.25805878      -3.12003646
C        1.62998176      -1.51220910      -1.49741105
C       -1.54398818      -0.66378600       2.61204264
C       -2.15581772       3.10018585      -1.56940258
C        2.98940203       1.28552948       2.59622061
C       -0.59712776      -1.54412591      -2.51594772
C        1.45442244      -2.64750604       2.17770130
C       -2.20620219       0.61992671       2.66466815
C       -0.05635660       1.99804312       2.66725026
C        0.90826055       2.60437669       1.88655194
C        3.73444348      -2.73626499       2.61560672
C       -1.27653855      -3.37603760      -0.56181465
C        2.13976811       2.70665892      -0.71147146
C        3.14577895      -0.69184306       0.33982150
C        2.25301633      -1.73133417      -0.18524517
C       -4.35749234       1.78871202      -2.97511106
C       -1.76394339       0.32519892      -3.21419241
C        0.77842253       0.40917047      -2.91203468
C        0.38114080       3.40763684       0.82018250
C       -3.17680089       2.36812951      -0.90979594
C        0.06279302       3.71967676      -1.43238281
C        2.14966160       1.97954991      -1.92501789
C       -1.47494966       2.62495877      -2.75024183
C       -2.98503810       2.05129426       0.47410969
C        0.46243143      -2.23029488      -1.88779416
C        3.65683669       0.23207222       2.41405648
C       -2.09337535       1.65485380      -3.58482105
C       -1.02260341       3.47931937       0.58117890
C       -3.50475998       0.11331460      -1.39987547
C       -1.90331856       2.57512784       1.22306018
