60
Properties=species:S:1:pos:R:3 trial_index=176 seed_entry_id=88 discovered_entry_id=89 energy=-500.89971923828125 status=accepted pbc="F F F"
C       -0.56672565      -2.76940265       0.25057806
C        2.02978521      -0.05791763      -2.33787045
C        1.84723835       1.37704378       1.70445056
C        1.85278918      -2.68684469       0.20998663
C       -3.33188216      -0.27896675       1.86641550
C        3.12866275       0.66864506      -0.28794915
C       -0.48882852      -2.36071968       1.63790673
C        5.22206157      -3.41194418       3.24330098
C       -2.48834677       2.47480344      -4.06734700
C        0.79364432      -2.02299577       2.19225410
C       -1.81703195       1.52678851       2.45876668
C        0.81824113       3.35061435      -0.11445029
C        0.74229162      -3.51924280      -1.72913835
C       -1.44281703       3.71568955      -0.50815098
C        0.04823782       3.00414825      -2.39089824
C        0.96815151      -0.69684174       2.73507670
C        1.00593670       2.04148913      -2.61537639
C       -2.80173492      -1.72419158       0.11029265
C       -3.50039909      -0.56663167      -0.38941350
C        2.80502729       0.89964505      -1.64535094
C       -3.20506089       1.26991983      -1.99881166
C       -1.47377020      -1.79829172      -1.95176317
C       -1.61662326      -1.78263410       2.26662648
C       -3.64439518       0.39501365       0.65708508
C       -2.79060207      -1.56964444       1.51785413
C       -0.19682807       0.00516611       3.13153545
C       -2.34920257      -0.80231288      -2.47146387
C        4.28050737      -2.77836367       2.70827768
C       -1.65999219      -2.27746851      -0.58635261
C        2.53316298       1.70614019       0.49628784
C       -0.25828806      -0.20229720      -3.20399764
C        1.99034666      -1.38781429      -1.84754966
C       -1.44743056      -0.65742709       3.12306071
C       -2.66689746       3.55954231      -1.22163441
C        2.08089217       0.05213587       2.22614279
C       -0.23948413      -1.54945074      -2.63993939
C        1.96515541      -2.58604671       1.62226488
C       -2.46898504       0.31085777       2.80620634
C       -0.40614538       1.35336824       2.71642473
C        0.59165437       2.04546062       1.97695113
C        3.23140697      -2.11210957       2.13969301
C        0.64497586      -3.23837584      -0.36941287
C        2.00076766       2.67468155      -0.42452298
C        3.16364657      -0.64428532       0.21539047
C        2.51421292      -1.67886195      -0.54183467
C       -2.42116266       1.37616157      -3.25464457
C       -1.65500261       0.13804604      -3.29243075
C        0.90418019       0.59677729      -2.95847209
C        0.11047493       3.03459962       1.07176316
C       -3.22213130       2.23187579      -0.95858630
C       -0.15271902       3.61459252      -1.17244445
C        2.15623282       2.15586448      -1.74182532
C       -2.92603271       4.25327810      -2.40821424
C       -3.21548645       1.73603614       0.41231666
C        0.93736329      -2.25913883      -2.30008690
C        3.10837455      -0.76302403       1.64012117
C       -2.80161728       3.61610388      -3.51860029
C       -1.28936798       3.19362524       0.80141298
C       -3.28740342      -0.12412811      -1.68484845
C       -2.24604872       2.29033954       1.32994070
