60
Properties=species:S:1:pos:R:3 trial_index=80 seed_entry_id=36 discovered_entry_id=45 energy=-502.8856506347656 status=accepted pbc="F F F"
C        0.70932428      -3.01457208       0.32402178
C        1.96699582      -0.04633217      -2.20138418
C        2.03675627       1.67175809       1.75782308
C        2.12872563      -2.80170537       0.32879263
C       -2.88832161      -0.46208339       1.69432489
C        3.16634288       0.75432808      -0.24066005
C        0.19574429      -2.62266139       1.62146882
C        3.32756704      -1.62358923       2.61531611
C       -3.33813294       2.05081397      -3.96781908
C        1.97063840      -1.62400741       3.19575925
C       -1.60876316       1.44551629       2.43968449
C        0.90215383       3.49154706      -0.09715881
C        0.04139893      -3.01747484      -0.92429854
C       -1.35954204       3.65305491      -0.50723863
C       -0.08411588       2.95108235      -2.30922266
C        1.49761143      -0.28894149       3.16875810
C        0.99594064       2.06182188      -2.55448490
C       -2.72886009      -1.75588742      -0.18710582
C       -3.46243183      -0.56977061      -0.48986395
C        2.78458042       0.92593110      -1.59034091
C       -3.98446675       1.35456719      -1.85288529
C       -1.79379673      -1.62793235      -2.36522158
C       -1.01168545      -1.86076650       1.92194738
C       -3.44090374       0.29550763       0.63505159
C       -2.25902871      -1.64829097       1.16930198
C        0.14714871       0.09558499       3.16643076
C       -2.52800059      -0.44344422      -2.69703137
C        3.77114207      -2.84502193       2.16309819
C       -2.13176661      -2.48321262      -1.26060090
C        2.63821956       1.87559135       0.48664878
C       -0.28790127      -0.06497403      -3.16621905
C        1.79363858      -1.31339892      -1.56625066
C       -0.96080471      -0.75776060       2.87693176
C       -2.23821603       3.00087857      -1.41384831
C        2.41538394       0.46823941       2.39780575
C       -0.42712156      -1.38613707      -2.62520129
C        1.37501154      -2.64527593       2.44822491
C       -2.08454798       0.12241274       2.66016769
C       -0.20630232       1.43029050       2.75216705
C        0.73047984       2.22783754       2.03050965
C        2.51933786      -3.10201948       1.65010517
C       -1.25015936      -3.51089710      -1.00463288
C        2.07118615       2.79790845      -0.44783691
C        3.23168184      -0.54767983       0.36052680
C        2.56388893      -1.62992629      -0.35436077
C       -4.26826861       1.86560800      -3.13402043
C       -1.62292319       0.45919451      -3.36119168
C        0.88849345       0.65085832      -2.87598351
C        0.19291294       3.16988197       1.11335536
C       -3.26506673       2.16350789      -0.90138597
C       -0.06724895       3.71589274      -1.10387772
C        2.16811660       2.21050505      -1.74551790
C       -1.47666168       2.70278813      -2.60834141
C       -3.10448347       1.66847973       0.45843025
C        0.56740710      -2.01201685      -1.83516924
C        3.32689298      -0.46748999       1.78790091
C       -1.98553261       1.81193859      -3.59485908
C       -1.22224933       3.21413359       0.83044921
C       -3.52940839      -0.00546742      -1.79044752
C       -2.11104615       2.23237986       1.35446374
