60
Properties=species:S:1:pos:R:3 trial_index=112 seed_entry_id=61 discovered_entry_id=62 energy=-503.09332275390625 status=accepted pbc="F F F"
C       -0.57065738      -2.67132212       0.13618560
C        2.12152805       0.07997501      -2.35464190
C        1.85832006       1.38908853       1.74692703
C        1.85326592      -2.61947720       0.11498728
C       -3.33559172      -0.27882518       1.86464607
C        3.15885590       0.74495313      -0.26098468
C       -0.48939951      -2.33157274       1.54209534
C        5.20453004      -3.34685499       3.27772991
C       -3.26246894       1.98427313      -3.96094634
C        0.79380799      -2.02391989       2.11419821
C       -1.80695438       1.50918416       2.48831960
C        0.87096346       3.45642508       0.00991820
C        0.72687998      -3.37577636      -1.85949480
C       -1.37727092       3.67771281      -0.45785805
C       -0.06883912       2.99243977      -2.23894373
C        0.97152613      -0.71815082       2.70427270
C        1.03480376       2.14749150      -2.51435116
C       -2.80157355      -1.63981049       0.04880480
C       -3.53491674      -0.50213962      -0.40191763
C        2.86432968       1.03049573      -1.61493085
C       -3.94659724       1.35152640      -1.86984047
C       -1.47848093      -1.52892755      -1.99244881
C       -1.61304754      -1.78273256       2.19869732
C       -3.66003136       0.42577564       0.67994677
C       -2.79052386      -1.55013609       1.46271731
C       -0.19097952      -0.02714547       3.12442285
C       -2.32705069      -0.42732323      -2.45783765
C        4.25145379      -2.77349834       2.69704256
C       -1.66231745      -2.12361521      -0.67720320
C        2.55221519       1.75363198       0.55277725
C       -0.17080428      -0.01023869      -3.18849287
C        2.02817829      -1.25975570      -1.89897339
C       -1.44179731      -0.68928277       3.09590496
C       -2.23829153       3.03213917      -1.39170975
C        2.08606603       0.04579103       2.22282106
C       -0.23016357      -1.34348938      -2.66029878
C        1.96430164      -2.57435251       1.52968017
C       -2.46313822       0.28833850       2.81145890
C       -0.39760297       1.33316921       2.74951153
C        0.60374490       2.05673370       2.04219235
C        3.22663131      -2.11874257       2.07389054
C        0.63909956      -3.12997313      -0.49305740
C        2.03957179       2.76315474      -0.33093557
C        3.18113604      -0.58671659       0.19581163
C        2.53127490      -1.59409564      -0.59771743
C       -4.23199735       1.80029663      -3.17007830
C       -1.52549854       0.46099035      -3.25432192
C        0.98915568       0.75769552      -2.94305643
C        0.13304393       3.09709278       1.18778535
C       -3.29234375       2.21288945      -0.91308468
C       -0.06903828       3.72926376      -1.01704234
C        2.18796170       2.28629244      -1.67173113
C       -1.45134626       2.72646008      -2.56384473
C       -3.22281001       1.76674411       0.46604132
C        0.93759648      -2.09298549      -2.36509366
C        3.11305353      -0.75276046       1.61439658
C       -1.92337346       1.80008240      -3.54145058
C       -1.27667428       3.22634466       0.87861807
C       -3.44340449       0.01042926      -1.71237960
C       -2.23133140       2.29781894       1.37785670
