60
Properties=species:S:1:pos:R:3 trial_index=120 seed_entry_id=53 discovered_entry_id=67 energy=-500.7867736816406 status=accepted pbc="F F F"
C        0.89221971      -2.79455589       0.46603347
C        1.99668305       0.07012533      -2.30012229
C        2.01844162       1.56383153       1.61730794
C        2.25963270      -2.42584538       0.47142476
C       -2.93938503      -0.46095393       1.74945075
C        3.26034278       0.92573042      -0.41633055
C        0.26729591      -2.35509419       1.67014236
C        3.92703745      -1.61549311       2.06014278
C       -3.40067793       1.98808837      -3.94917271
C        1.36671976      -1.96431156       2.58170198
C       -1.61099268       1.44008385       2.44803544
C        0.85034064       3.51990844      -0.13095447
C        0.21731873      -2.90120975      -0.80409577
C       -1.41994244       3.65016366      -0.50067853
C       -0.16420881       2.99169469      -2.32916054
C        1.42288740      -0.53258921       2.82531415
C        0.93315575       2.13828570      -2.60880692
C       -2.72958715      -1.76975364      -0.13317408
C       -3.48398138      -0.60183040      -0.45001080
C        2.81727435       1.08433373      -1.74880805
C       -4.01672638       1.30366404      -1.82451969
C       -1.73596867      -1.62942401      -2.29119577
C       -1.03092959      -1.79646989       1.93211393
C       -3.48093493       0.27817879       0.67113830
C       -2.29055289      -1.64063477       1.22030069
C        0.14859518       0.04629335       3.06697479
C       -2.51240734      -0.47413358      -2.64202914
C        2.18689377      -3.19915227       2.93461552
C       -2.03550022      -2.46990364      -1.16650254
C        2.63566063       1.93083888       0.38240869
C       -0.29307141      -0.04384042      -3.16174045
C        1.87074410      -1.19068167      -1.63509479
C       -1.01538019      -0.73834094       2.90696746
C       -2.30079467       2.98612764      -1.39951065
C        2.38908541       0.28317756       2.16723373
C       -0.38097914      -1.35783989      -2.58471508
C        2.79291820      -2.40155389       1.81401045
C       -2.13197870       0.14025495       2.71511268
C       -0.18519147       1.37751324       2.68717781
C        0.73695489       2.15166882       1.93698634
C        2.26705103      -4.28614387       3.66944943
C       -1.07118516      -3.39992491      -0.83096948
C        2.02796815       2.86812494      -0.51336736
C        3.39715717      -0.35748842       0.12980412
C        2.66951945      -1.43340980      -0.44785846
C       -4.32280372       1.79648806      -3.10652555
C       -1.64484340       0.44132522      -3.33555529
C        0.86558071       0.72179897      -2.92478115
C        0.17718027       3.14062233       1.07852073
C       -3.30861654       2.13150632      -0.87927347
C       -0.13986209       3.74665659      -1.11797954
C        2.12393885       2.33248436      -1.83673437
C       -1.55161349       2.70172198      -2.60381826
C       -3.13608647       1.64775880       0.48193475
C        0.65549482      -1.92709948      -1.80183410
C        3.50936126      -0.41232420       1.56892281
C       -2.04287784       1.78450346      -3.57784290
C       -1.24549331       3.19183408       0.82653860
C       -3.53579599      -0.04813735      -1.75408020
C       -2.12811753       2.21444525       1.36246784
