60
Properties=species:S:1:pos:R:3 trial_index=179 seed_entry_id=88 discovered_entry_id=91 energy=-501.864990234375 status=accepted pbc="F F F"
C       -0.56246779      -2.78636831       0.20352093
C        1.82035851       0.05609845      -2.40593687
C        1.87301435       1.38686241       1.67336803
C        1.85055531      -2.64872975       0.06798615
C       -3.27753049      -0.31837921       1.91825725
C        3.04301640       0.73714519      -0.40800591
C       -0.43919027      -2.38757968       1.59063766
C        4.99220224      -3.07034986       3.70783267
C       -2.23230357       2.48395204      -3.70418472
C        0.86001238      -2.04194230       2.10258817
C       -1.76450896       1.47895651       2.51495626
C        0.83402737       3.49023403       0.02951540
C        0.69917402      -3.48043845      -1.83455585
C       -1.42887420       3.78523437      -0.34229895
C       -0.21287961       3.18918861      -2.21161996
C        1.03754207      -0.72509424       2.66631448
C        0.72574994       2.15635604      -2.51231291
C       -2.81830170      -1.77376383       0.15460828
C       -3.54400006      -0.62450968      -0.32249551
C        2.60931060       1.00551238      -1.72828924
C       -3.32959435       1.16768647      -1.97141151
C       -1.58768637      -1.85398311      -1.95883194
C       -1.55245744      -1.82861107       2.26429086
C       -3.60985607       0.36216030       0.71507199
C       -2.75276184      -1.61298141       1.55822150
C       -0.11975599      -0.04481843       3.11856764
C       -2.53960010      -0.92831344      -2.47461152
C        4.15854707      -2.60568350       2.89300013
C       -1.70069363      -2.31858308      -0.58421330
C        2.50859394       1.75279995       0.44629645
C       -0.47280629      -0.18672076      -3.20832644
C        1.86247090      -1.29474048      -1.96222314
C       -1.36621612      -0.71357132       3.12910355
C       -2.33625536       3.28251940      -1.29586488
C        2.12628219       0.04665403       2.13867439
C       -0.37944979      -1.53722966      -2.66945833
C        2.01923384      -2.57749211       1.47564484
C       -2.39957458       0.25456976       2.85201638
C       -0.34839626       1.31253862       2.75021626
C        0.62965902       2.04408703       2.02424301
C        3.28124218      -2.08546607       1.98334352
C        0.63412109      -3.22088073      -0.46910587
C        1.94154969       2.76025637      -0.40450485
C        3.12124165      -0.58475344       0.06088424
C        2.45339771      -1.60794845      -0.68913496
C       -2.61340099       1.24494683      -3.22602005
C       -1.88627187       0.03282520      -3.31766972
C        0.62899477       0.70415838      -2.93384362
C        0.13012471       3.09932102       1.21157505
C       -3.11727373       2.14541697      -0.95056682
C       -0.13016436       3.83197609      -0.94416911
C        1.93869349       2.25331490      -1.74264944
C       -1.62920727       3.36049567      -2.60235742
C       -3.14648609       1.69345105       0.44579188
C        0.83374738      -2.20415096      -2.38859944
C        3.13519020      -0.74035688       1.48185913
C       -2.12492975       3.75912085      -4.00064217
C       -1.28697676       3.24495841       0.95698021
C       -3.42986037      -0.22152725      -1.64226147
C       -2.21133930       2.26324894       1.40579903
