60
Properties=species:S:1:pos:R:3 system=runs/20260728-safe-lbfgs-strict-quench-200-production/output-c60-seed42 state_id=plateau_accepted pbc="F F F"
C       -3.11164271       0.75845502      -1.04030065
C       -1.88842667      -1.47910902       0.23906033
C       -0.55842269       0.36480913       3.23940193
C        3.03058514       1.24856508      -1.59104900
C        1.54065085       3.23438999      -1.36078453
C       -1.18195848       0.55115564       0.38174266
C       -2.66744761       1.95617622      -0.39873218
C       -3.72111411       0.76446534       1.17375267
C        3.11579114      -0.67070642       1.34861612
C        3.24671086      -0.01986629      -2.18871673
C        1.63228858       2.49483182       1.06346379
C        1.34027974      -1.02220473       2.92814815
C       -2.37223649       0.01690937      -2.01799141
C        3.54583300      -0.34084386       0.07021531
C        1.90950465      -2.54755129       0.80122651
C       -1.94901846       2.01923856       1.98940887
C       -0.61581212       0.16014479      -0.79760808
C        1.15936822       0.10415057      -3.24381103
C        1.01569458       1.49025264      -2.88859761
C       -4.08419624      -1.18107051       0.03117330
C        1.84693246      -1.88096336      -2.77622775
C       -0.25381795      -1.87403019      -3.17603855
C        0.25126506       3.79434383      -1.55411419
C       -1.61402759       2.80192846      -0.74957825
C       -0.89552344       3.32622949       0.31902976
C       -0.75739565       2.63708864       1.52470620
C        0.83088682      -2.51251427      -2.72289481
C       -2.98255990       1.94190191       0.99613998
C       -0.05628154      -0.56146690      -3.02648245
C       -1.90631715      -0.38305087       1.05842113
C       -0.47135051      -2.44473594      -1.11186108
C       -2.95762841      -1.74893375      -0.66732105
C        0.16459572       4.11317757      -0.13352735
C        3.36212671      -1.00767044      -1.27297504
C       -1.89238444       0.87903024       2.84692090
C       -1.29864864      -2.19805365      -2.23672703
C       -0.79044508       2.88216187      -1.90450994
C        1.42805379       3.44504154       0.03982368
C        0.52838584       2.24438330       1.95564282
C        0.58950147       1.16472616       2.84205537
C       -3.93573548       0.13841189      -0.08789395
C       -0.95677361       0.41045610      -2.25893606
C        0.01561804      -0.93518290       3.41912986
C       -3.75282370      -1.23348861       2.31720073
C       -4.62827219      -2.08995654       2.64983568
C        0.78549980      -2.97136327      -1.41945816
C        2.78807263       0.56305961       1.95882455
C       -0.64138510      -1.24909949      -0.40270518
C        1.72741963       0.34790575       2.83562473
C        2.35501422      -0.61319980      -3.11815796
C        2.16117601      -1.68482002       1.79620157
C       -4.32069323      -1.70613258       1.27418357
C        2.67962033      -2.13866094      -1.51873934
C        2.01930473       2.12090142      -2.08718941
C       -2.47331027      -1.39998144      -1.97613396
C       -2.90036883      -0.06697459       2.11283007
C        1.93627307      -2.73519608      -0.55223283
C        2.72568587       1.58901607       0.98728734
C       -0.37004068       1.75397766      -2.59916826
C        3.28496061       1.05513773      -0.20435345
