60
Properties=species:S:1:pos:R:3 system=runs/20260728-safe-lbfgs-strict-quench-200-production/output-c60-seed42 state_id=plateau_accepted pbc="F F F"
C       -3.08149572       0.68902491      -1.02595625
C       -1.98548967      -1.61067532       0.26843554
C       -0.54268302       0.44205983       3.16976962
C        3.02545401       1.28143094      -1.55826792
C        1.60641792       3.29979759      -1.36500821
C       -1.31510377       0.48799125       0.18867158
C       -2.24321118       1.65619517      -0.25220225
C       -3.68868696       0.80787389       1.19939475
C        3.12522349      -0.61404891       1.35710482
C        3.22473597       0.01414598      -2.17913156
C        1.67195096       2.63265485       1.10507394
C        1.29106669      -0.96332211       2.79423602
C       -2.43861019      -0.10773181      -2.01659881
C        3.57555444      -0.29455020       0.06664678
C        1.84122822      -2.53050116       0.74687397
C       -1.91553923       2.10560580       2.05105540
C       -0.60995495      -0.20117205      -0.83143971
C        1.08816743       0.14906462      -3.27725159
C        0.95745517       1.47480556      -2.78000185
C       -4.20216891      -1.21891054      -0.04784366
C        2.15994347      -1.91828706      -2.76555392
C       -0.32598632      -1.86087567      -3.15919835
C        0.31112498       3.88182638      -1.56956575
C       -1.45476885       2.81702246      -0.63227825
C       -0.86157020       3.52536128       0.40989244
C       -0.75796679       2.85342885       1.65151594
C        0.89510435      -2.52360898      -2.75684234
C       -2.90396162       1.95537675       1.01969076
C       -0.17917200      -0.49398306      -3.18276579
C       -1.91587801      -0.45681974       1.02213652
C       -0.61517281      -2.70940036      -1.17954260
C       -3.05864750      -1.84824543      -0.63052150
C        0.24225815       4.22541250      -0.14435292
C        3.50881681      -0.96723421      -1.16611744
C       -1.84372002       0.90988228       2.79229279
C       -1.39642600      -2.29171904      -2.29825370
C       -0.70938316       2.89433749      -1.79670742
C        1.48591857       3.54554181       0.04549100
C        0.54404215       2.38858572       1.99375296
C        0.59498487       1.26819310       2.85246885
C       -3.95471848       0.16857919      -0.06555052
C       -1.01720961       0.30360398      -2.26592319
C       -0.05034636      -0.90810261       3.18935902
C       -3.73546029      -1.16362264       2.37443805
C       -4.70321707      -2.14297601       2.55425851
C        0.71309586      -3.08108976      -1.48765523
C        2.78557970       0.62694078       1.98213613
C       -0.74461561      -1.54934942      -0.41405160
C        1.71607768       0.41513727       2.82099949
C        2.28697612      -0.54641648      -3.09249198
C        2.14822908      -1.62855120       1.71868294
C       -4.40799473      -1.65869045       1.26787101
C        2.79340768      -2.13159926      -1.49205127
C        1.98604861       2.12193127      -2.03934716
C       -2.57672044      -1.50706256      -1.96350131
C       -2.84533660      -0.04518342       2.10959411
C        1.86683944      -2.79049277      -0.59762448
C        2.73028175       1.67075951       1.01714187
C       -0.39438325       1.71167909      -2.44942018
C        3.31065480       1.11557227      -0.17071173
