60
Properties=species:S:1:pos:R:3 system=runs/20260728-safe-lbfgs-strict-quench-200-production/output-c60-seed42 state_id=intermediate_accepted pbc="F F F"
C        0.34172394      -2.24213281       2.07711332
C        2.04533309      -2.07256252      -2.38375322
C        2.73774438       1.17882477      -0.11407942
C       -3.15479957       2.29187405      -0.05098771
C       -2.46099343       2.19136238       2.31129372
C        3.32957264      -0.49890238      -2.03433214
C        0.56047988      -1.10396503       2.92096868
C        2.62835577      -1.73902592       2.14160718
C       -0.64274176       3.15267026      -2.28069821
C       -3.62090809       1.57752449      -1.19183580
C       -0.29549749       3.08606459       1.26976965
C        1.51026731       2.50398886      -2.34324053
C       -0.80322928      -2.50500487       1.22924369
C       -1.98128790       2.97385776      -1.94154547
C        0.13134341       0.85717459      -3.32456305
C        2.21518399       0.51256223       2.21499993
C        1.51185920       0.37920516      -3.21371827
C       -3.62576361      -0.50316439       0.05244274
C       -3.27280338       0.22111836       1.22857812
C        1.93560070      -2.91366644       0.31636781
C       -3.25643052      -0.32759383      -2.35047638
C       -2.54220465      -2.33377388      -1.14436954
C       -2.06960238       1.38713141       3.43364212
C       -0.31177861      -0.05667787       3.26551516
C        0.23577253       1.25890542       3.32490837
C        1.27435554       1.55728201       2.39548541
C       -2.58059624      -1.53401283      -2.32519876
C        1.94175603      -0.73430763       2.84028377
C       -2.91199771      -1.73925018       0.07833462
C        3.06123593       0.80248043      -1.47886161
C       -0.48941598      -2.41958972      -2.25323635
C        0.87554451      -3.16773286      -0.55057122
C       -0.82847138       2.15771722       3.53230963
C       -2.78249881       1.89326312      -2.32482978
C        2.91950310       0.27176643       0.99542705
C       -1.29221087      -2.96367517      -1.18251496
C       -1.71238252       0.03157748       3.09692104
C       -1.19230958       2.87455844       2.34730500
C        1.01417048       2.44989241       1.30726330
C        1.82399467       2.32389391       0.09492094
C        1.65016613      -2.67448719       1.68049227
C       -2.05649462      -1.77647609       1.25247823
C        2.25386828       1.36378334      -2.49782084
C        3.12105443      -1.76161263      -1.43395382
C        0.86611532      -2.67732060      -1.90025453
C       -1.25014974      -1.36249838      -2.86820625
C        0.04666461       3.61493478      -1.07751370
C        2.27033786      -0.80658745      -3.05658553
C        1.35971671       3.05468090      -1.04608042
C       -3.86239910       0.18096394      -1.16204850
C        0.22317761       2.27247474      -2.96408937
C        2.99885626      -2.04668249      -0.08075473
C       -2.39275805       0.66839035      -2.93487140
C       -3.14265974       1.63694905       1.21297603
C       -0.48117594      -3.17433653      -0.02984637
C        3.24333724      -1.13571317       0.98471300
C       -1.08992140       0.07438582      -3.21266413
C       -0.84482938       3.51319608       0.02874211
C       -2.40256560      -0.58940695       2.03731586
C       -2.13567330       3.18587128      -0.50998632
