60
Properties=species:S:1:pos:R:3 system=runs/20260728-safe-lbfgs-strict-quench-200-production/output-c60-seed42 state_id=intermediate_accepted pbc="F F F"
C       -0.68089746      -2.59013231       0.23122901
C        3.41066904      -0.73198794       1.65160227
C        0.16542572      -0.55330474       5.61704945
C       -1.65824259       2.27180687      -3.13901441
C       -3.58395623       0.86324384      -2.39765710
C        2.40983576       0.25788150       3.22350526
C       -1.90417163      -1.90679214       0.58453550
C       -0.60637623      -2.01822058       2.49978697
C       -0.25979332       3.61615262      -0.38021176
C       -0.29418536       2.20461032      -3.58982064
C       -3.35772538       2.37687370      -0.38003149
C       -0.38230291       2.12222533       1.44698179
C        0.09282866      -2.51933349      -0.98310144
C       -0.33751267       3.64023751      -1.78663021
C        1.52471940       1.75486697       0.00974529
C       -2.27617248      -0.10221143       2.21031583
C        1.70336033       1.13338989       1.27241089
C       -0.21575998      -0.19085421      -3.71237527
C       -1.55966087      -0.17357687      -3.23197850
C        1.42419614      -2.60378378       1.60560529
C        1.75606759       1.12369787      -3.50168713
C        1.87030742      -1.24973732      -2.90502114
C       -4.04827243      -0.42827014      -1.96524221
C       -2.92715237      -1.37495655      -0.22296196
C       -3.71232173      -0.31242775       0.30358634
C       -3.08839733       0.55337902       1.28411126
C        2.49647909       0.03056266      -3.00407314
C       -1.75600542      -1.33905737       1.95088938
C        0.48136969      -1.29425836      -3.11198825
C        1.01441014       0.62659602       3.43517364
C        3.21214512      -0.93278720      -0.98409433
C        2.20056859      -2.44246280       0.45222873
C       -4.53300325       0.20789078      -0.72971016
C        0.51568151       2.89836883      -2.63925422
C        0.34601278      -0.37682383       4.24548871
C        2.37949381      -1.85299634      -1.72214496
C       -2.98526948      -1.35875495      -1.64368731
C       -4.07772156       1.49336630      -1.20070200
C       -2.88870687       1.92655603       0.89304338
C        0.07076550      -0.83778315       6.63611331
C        0.03092853      -2.74508168       1.45985449
C       -0.42759591      -1.95157113      -2.19892136
C        0.58940860       1.25356704       2.16702160
C        2.78848172      -1.10666405       2.93909402
C        3.24423480      -1.44144712       0.41210377
C        2.98982638       0.33466021      -1.64915950
C       -1.57536374       3.67632118       0.18651835
C        2.87514131       0.60389767       1.87239021
C       -1.71829403       2.67835128       1.24133536
C        0.41138049       1.02163919      -4.02403718
C        0.36270230       2.54805345       0.28361090
C        1.65752630      -1.92542851       2.81889012
C        1.67933466       2.08547040      -2.43592242
C       -2.34009608       1.01432286      -3.06312583
C        1.53766630      -2.55062537      -0.82880061
C        0.39695244      -1.53608551       3.38245052
C        2.20578809       1.50409906      -1.24522953
C       -2.47748784       3.37643851      -0.88992758
C       -1.77009286      -1.33093940      -2.40122712
C       -1.72572280       3.31303170      -2.11713737
