60
Properties=species:S:1:pos:R:3 system=runs/20260728-safe-lbfgs-strict-quench-200-production/output-c60-seed42 state_id=intermediate_accepted pbc="F F F"
C       -0.70632985      -2.77829441       0.20485461
C        3.33079528      -0.75236801       1.55195780
C       -0.53657666      -0.07656743       4.99644525
C       -1.67350130       2.23654413      -3.02406783
C       -3.59733793       0.81702384      -2.32425032
C        2.56151609       0.16847320       3.18360728
C       -1.90904516      -2.10550175       0.59163338
C       -0.60633193      -2.22943689       2.49146591
C       -0.14835738       3.71505117      -0.33359142
C       -0.33735579       2.22524151      -3.51430603
C       -3.16714067       2.17070491      -0.23396722
C        0.02627316       2.32148063       1.53109851
C        0.01443367      -2.64459635      -1.05025330
C       -0.33498409       3.65727717      -1.72673867
C        1.94632246       2.17782000       0.10747442
C       -2.36756078      -0.44930410       2.34861231
C        2.18812332       1.50299020       1.36336479
C       -0.30930844      -0.18050765      -3.73391947
C       -1.65120205      -0.20388274      -3.25430577
C        1.40606676      -2.79533253       1.56108832
C        1.67150157       1.19986654      -3.42165917
C        1.75531002      -1.19446215      -2.92208033
C       -4.03609944      -0.48175997      -1.88924290
C       -2.90356707      -1.49497271      -0.18833258
C       -3.66139748      -0.44760399       0.39015745
C       -2.99475898       0.34942494       1.40735063
C        2.35555568       0.10312437      -2.92440720
C       -1.79506031      -1.63055963       1.98077467
C        0.37230796      -1.29404166      -3.15448406
C        1.21208474       0.63387431       3.30443526
C        2.96897558      -0.86584486      -0.96437402
C        2.09613983      -2.50621043       0.38572206
C       -4.47420617       0.11014271      -0.62353253
C        0.50286358       2.98158881      -2.62465926
C        0.30690571      -0.31046981       3.92041055
C        2.23053302      -1.81441579      -1.75773515
C       -2.97833589      -1.41105867      -1.60115955
C       -3.97868246       1.38254884      -1.05829082
C       -2.60996567       1.68630640       0.99538029
C       -1.23528360       0.09528086       6.02234509
C        0.00981133      -2.95510767       1.43242859
C       -0.51563416      -1.98381194      -2.23245100
C        1.02927363       1.52730776       2.19911344
C        2.75279914      -1.18942830       2.79988456
C        2.99440566      -1.38964866       0.35543615
C        2.85309670       0.41137252      -1.59643318
C       -1.43179330       3.53868895       0.27488009
C        3.14542969       0.62895183       1.91781973
C       -1.41345568       2.51728296       1.28955112
C        0.34557764       1.05633849      -3.93648622
C        0.73719749       2.91476667       0.40236843
C        1.65211594      -2.04646836       2.74994292
C        1.69493296       2.24255578      -2.42131859
C       -2.38875155       0.99519267      -3.02681961
C        1.45617352      -2.63960566      -0.90736572
C        0.40440567      -1.60143967       3.27916074
C        2.33003441       1.73870721      -1.22083575
C       -2.37774444       3.22461992      -0.73876161
C       -1.82866410      -1.36180642      -2.41526536
C       -1.70708151       3.23716320      -1.98586990
