60
Properties=species:S:1:pos:R:3 system=runs/20260728-safe-lbfgs-strict-quench-200-production/output-c60-seed42 state_id=intermediate_accepted pbc="F F F"
C       -2.54329432      -1.61451578       0.21489509
C        2.03754327      -2.88972177      -0.42913316
C        1.54179752      -0.45499109       2.79919241
C       -1.06927916       3.31116007      -1.52367613
C       -2.72785858       2.70718352       0.14322735
C        2.88036880      -2.31717774       1.37243283
C       -2.91669411      -0.39984795       2.54839531
C       -1.44820023      -2.33691882       2.47594180
C        2.22142908       2.76632867      -0.38103394
C       -0.46527679       3.06491621      -2.79113778
C       -0.59281721       2.51264694       1.74348839
C        3.11241946       1.17821745       0.96039624
C       -2.42030635      -1.67311708      -1.38101298
C        1.24233859       3.25524274      -1.27177933
C        2.82532081       0.41264937      -1.27214186
C       -0.81419648      -0.54994915       3.71616769
C        3.20993977      -0.69782256      -0.33015468
C       -2.16370558       1.36427226      -3.28702579
C       -2.92615180       1.76987912      -2.10317061
C       -0.52966935      -2.97652141       0.52689624
C        0.24147109       1.27860459      -3.96619267
C       -1.00066911      -0.79201597      -3.68058266
C       -3.63773384       1.72891134       0.70513299
C       -3.20830795      -0.57803786       0.88475343
C       -2.48774306       0.87345716       2.89812811
C       -1.10223570       0.80777429       3.40751814
C        0.22286263      -0.11362674      -3.99008693
C       -1.95648545      -1.27233184       3.18552846
C       -2.16984359      -0.07746464      -3.30201753
C        2.64881284      -1.01925818       1.98874529
C        0.83204004      -1.83874328      -2.56742878
C       -0.30054004      -2.82679751      -0.83729731
C       -2.93131227       1.82581115       1.98729756
C        0.96948700       2.90577830      -2.58985520
C        0.42287881      -1.22449284       3.33276448
C       -0.57271885      -1.87419517      -2.88416448
C       -3.69330912       0.49076243       0.01165842
C       -1.95805495       2.63222952       1.39179518
C       -0.10419679       1.53740032       2.72288639
C        1.25933399       0.98845389       2.60413119
C       -1.70805547      -2.44010017       1.06955255
C       -2.89986568      -0.54959524      -2.13421073
C        3.20337084      -0.18626263       0.99035888
C        1.78802617      -3.13983019       0.99390349
C        1.00127620      -2.59659967      -1.34021418
C        1.30932791      -0.62380515      -3.12828053
C        1.63259575       2.81092307       0.94799801
C        3.16961478      -2.10159211      -0.10254911
C        2.12960804       1.77764830       1.77564872
C       -0.94362130       2.03301273      -3.63978560
C        2.99065655       1.57677647      -0.42950334
C        0.49539706      -3.05404322       1.51532057
C        1.36812775       1.67128661      -3.14340504
C       -2.37537066       2.79082311      -1.23470896
C       -1.26945749      -2.33273808      -1.76411629
C       -0.01096854      -2.45998602       2.71451510
C        2.01338855       0.48638283      -2.52222107
C        0.26724295       3.09126933       0.80705192
C       -3.45038667       0.57340834      -1.43317155
C        0.00219379       3.42916442      -0.56743563
