60
Properties=species:S:1:pos:R:3 system=runs/20260728-safe-lbfgs-strict-quench-200-production/output-c60-seed42 state_id=intermediate_accepted pbc="F F F"
C       -1.74164108      -2.29688796      -1.16324250
C        3.01967016      -1.56844859      -0.86850569
C        1.35202766      -0.95243001       2.54651997
C       -1.97241605       3.23206959      -0.62873218
C       -3.45743249       1.36390531       0.05178194
C        3.40293855      -1.54013464       1.11245454
C       -2.72608949      -3.60381783       3.13839452
C       -0.72182310      -3.55717808       1.20677579
C        1.05162050       3.35019389       1.17488386
C       -1.11706111       3.71147809      -1.66132866
C       -1.67795565       1.22645188       1.94440524
C        2.35409975       1.71725605       2.06443508
C       -1.51053833      -1.55894406      -2.39845586
C        0.10004221       3.85404477       0.26127187
C        2.69809402       1.90509190      -0.26799974
C       -0.77319001      -2.20115049       2.89343149
C        3.36099235       0.68552016       0.27902049
C       -1.97019093       2.01329245      -3.18430093
C       -3.08179381       1.73767099      -2.30552264
C        0.51855292      -2.82853404      -0.65208882
C        0.38518998       2.88532772      -3.10568499
C       -0.07889159       0.62339160      -3.82755130
C       -4.09504438       0.03913572      -0.18149142
C       -3.38090002      -2.64103532       2.56105955
C       -2.94453741      -1.40362753       2.04862941
C       -1.59247536      -1.11201116       2.56849428
C        0.87158858       1.67895216      -3.58891470
C       -1.43497506      -3.40463686       2.46989023
C       -1.46323015       0.73289677      -3.58080495
C        2.69980932      -0.73151138       2.06552438
C        1.81434225      -0.22765188      -2.72091098
C        0.86343917      -2.09136869      -1.78110342
C       -3.48829342      -0.39754266       1.18158957
C        0.21503777       3.94863816      -1.12266727
C        0.62651889      -2.19699571       2.54647062
C        0.54933840      -0.51301419      -3.33800806
C       -4.28552438      -0.31167899      -1.47936537
C       -2.87116800       0.89008333       1.25805008
C       -0.93609252       0.13453619       2.50163359
C        0.50093074       0.22411793       2.71681610
C       -0.87556253      -2.95602209      -0.25543159
C       -2.22888996      -0.33750113      -2.95429523
C        3.03161783       0.58703255       1.65341995
C        2.71786462      -2.44560408       0.24793918
C        2.06394970      -1.33406154      -1.85217244
C        1.94524493       1.19510936      -2.69322593
C        0.29375920       2.61849712       2.18547806
C        3.75198889      -0.65133608      -0.05966811
C        1.07044850       1.53212115       2.65306955
C       -1.02785483       3.05763032      -2.90635629
C        2.25399134       2.61442919       0.92877313
C        1.44974858      -3.03948467       0.38299332
C        1.14290645       3.23075197      -1.92066631
C       -3.01651362       2.26811729      -0.95632592
C       -0.10438914      -1.54490646      -2.66542734
C        0.68024182      -3.21990241       1.55682476
C        2.10650011       2.16177373      -1.59540576
C       -1.04667479       2.47514125       1.73559133
C       -3.42198175       0.29393684      -2.39746485
C       -1.20876890       3.31913298       0.58573637
