60
Properties=species:S:1:pos:R:3 checkpoint_path=runs/20260728-direction-conditioned-checkpoint-shooting/output-v3/cases/intermediate_accepted-seed42-balanced_refinement/macro_checkpoints/step002_checkpoint.xyz pbc="F F F"
C       -2.48308532      -2.09769310       0.63869545
C        2.17446536      -2.87434462       0.05321173
C        1.22680579       0.03673037       2.61781811
C       -0.97343742       3.22845187      -1.96066584
C       -2.79716520       3.06025922      -0.30875870
C        2.78056428      -1.88133980       1.74333116
C       -2.87596892      -1.05657584       1.54390704
C       -1.49259253      -2.45972979       2.73009642
C        2.21105969       2.93013424      -0.64045092
C       -0.32385110       2.64849677      -3.08851594
C       -0.78642987       3.01890543       1.27704135
C        3.00775853       1.54617754       0.93920355
C       -2.24768685      -1.98504809      -0.78865638
C        1.33419995       3.29227762      -1.66121476
C        2.92694514       0.44615853      -1.14936901
C       -1.19931301      -0.21273077       3.06905656
C        3.27194138      -0.49483002      -0.07903767
C       -1.90464457       0.81202728      -3.11244828
C       -2.62938217       1.44386007      -2.06049954
C       -0.43739856      -3.43101402       0.95933204
C        0.40510767       0.65896808      -3.87482820
C       -0.83260812      -1.37104539      -3.29518542
C       -3.81487331       2.25618998       0.30525888
C       -3.29234881       0.26068801       1.28041113
C       -2.81276489       1.28771111       2.14798056
C       -1.49841166       1.11443441       2.67071641
C        0.37968286      -0.70592063      -3.64952678
C       -2.15425046      -1.22276659       2.76978274
C       -1.92484357      -0.59258571      -2.86445209
C        2.47861027      -0.53187397       2.14790810
C        0.96660012      -2.27728583      -2.11464597
C       -0.16299215      -3.33056758      -0.40304633
C       -3.21740303       2.52682608       1.61393036
C        1.09269039       2.55148031      -2.82252811
C        0.10857326      -0.78580316       3.02239746
C       -0.43538747      -2.40519343      -2.43841320
C       -3.68964363       0.84181482       0.05477106
C       -2.15293697       3.23551313       0.96851519
C       -0.43551355       1.95412653       2.20647150
C        0.93567900       1.44782011       2.28124217
C       -1.70365204      -3.00838894       1.42590256
C       -2.61980072      -0.85145119      -1.61473754
C        3.17417600       0.20384011       1.15799015
C        1.85754932      -2.91853446       1.46825957
C        1.14530023      -2.97855208      -0.88645711
C        1.44484394      -1.07098284      -2.73931284
C        1.53461923       3.17717479       0.61126705
C        3.16464508      -1.86097653       0.28512633
C        1.91808587       2.20568816       1.56409367
C       -0.77302130       1.44161108      -3.67997480
C        2.97961718       1.75366711      -0.49469725
C        0.54892592      -3.04418948       1.91679706
C        1.50580615       1.22557113      -3.13461466
C       -2.23402094       2.70946225      -1.54909976
C       -1.16042795      -2.79561012      -1.28913976
C       -0.07950459      -2.21034986       2.88146838
C        2.14675771       0.17796033      -2.34768349
C        0.18698411       3.51167139       0.36155556
C       -3.17793797       0.43534115      -1.19371800
C        0.05587790       3.65463173      -1.06364899
