13
Properties=species:S:1:pos:R:3:tags:I:1 pbc="F F F"
Cu      -0.00000000      -0.00000000      -0.00000000        1
Cu       2.05433395      -0.00000000      -1.26964820        2
Cu       2.05433395      -0.00000000       1.26964820        2
Cu      -2.05433395      -0.00000000      -1.26964820        2
Cu      -2.05433395      -0.00000000       1.26964820        2
Cu      -1.26964820       2.05433395      -0.00000000        2
Cu       1.26964820       2.05433395      -0.00000000        2
Cu      -1.26964820      -2.05433395       0.00000000        2
Cu       1.26964820      -2.05433395      -0.00000000        2
Cu      -0.00000000      -1.26964820       2.05433395        2
Cu      -0.00000000       1.26964820       2.05433395        2
Cu      -0.00000000      -1.26964820      -2.05433395        2
Cu      -0.00000000       1.26964820      -2.05433395        2
13
Properties=species:S:1:pos:R:3:tags:I:1 pbc="F F F"
Cu      -0.00030710      -0.00025857       0.00007498        1
Cu       2.05459569      -0.00137445      -1.26958400        2
Cu       2.05411127       0.00030426       1.27076563        2
Cu      -2.05459115       0.00042354      -1.26966135        2
Cu      -2.05462600       0.00043423       1.27035976        2
Cu      -1.27060753       2.05453724       0.00113428        2
Cu       1.26972280       2.05276181      -0.00002208        2
Cu      -1.26954795      -2.05303381      -0.00045671        2
Cu       1.27159595      -2.05338788      -0.00193830        2
Cu       0.00060103      -1.26922836       2.05305822        2
Cu      -0.00056914       1.27041579       2.05412712        2
Cu       0.00025461      -1.27027090      -2.05444219        2
Cu      -0.00063248       1.26867708      -2.05341538        2
13
Properties=species:S:1:pos:R:3:tags:I:1 pbc="F F F"
Cu       0.00015784      -0.00008828       0.00014720        1
Cu       2.05334919      -0.00034095      -1.26938700        2
Cu       2.05396757      -0.00058550       1.27010725        2
Cu      -2.05356395       0.00127267      -1.27057125        2
Cu      -2.05372379       0.00000687       1.26870701        2
Cu      -1.26929967       2.05460951       0.00102662        2
Cu       1.26850031       2.05363366       0.00002847        2
Cu      -1.26847023      -2.05378682      -0.00110794        2
Cu       1.26960244      -2.05460072       0.00071350        2
Cu       0.00084986      -1.26828347       2.05547250        2
Cu       0.00065503       1.26924951       2.05510513        2
Cu       0.00001909      -1.26961870      -2.05498817        2
Cu      -0.00204369       1.26853223      -2.05525330        2
