60
Properties=species:S:1:pos:R:3 checkpoint_path=runs/20260728-direction-conditioned-checkpoint-shooting/output-v3/cases/intermediate_accepted-seed42-deep_refinement/macro_checkpoints/step001_checkpoint.xyz pbc="F F F"
C       -2.47506618      -2.10052575       0.64411453
C        2.18562684      -2.87120242       0.06047706
C        1.22573414       0.04558292       2.61830395
C       -0.98235009       3.22269539      -1.96790716
C       -2.80576071       3.05325351      -0.31560179
C        2.78534357      -1.87061150       1.74796747
C       -2.87192564      -1.05912969       1.54697262
C       -1.48536436      -2.45706762       2.73691194
C        2.20268890       2.93476258      -0.64687683
C       -0.33108921       2.64224335      -3.09467025
C       -0.79480882       3.02001604       1.27068429
C        3.00178835       1.55529978       0.93504212
C       -2.24024668      -1.99063675      -0.78340630
C        1.32489330       3.29240977      -1.66836063
C        2.92642816       0.45170133      -1.15143622
C       -1.19913783      -0.20847020       3.07264886
C        3.27256024      -0.48738460      -0.07877202
C       -1.90707995       0.80130393      -3.11485423
C       -2.63330115       1.43348269      -2.06384194
C       -0.42646496      -3.42841985       0.96777361
C        0.40385725       0.65310760      -3.87715891
C       -0.82710108      -1.37896527      -3.29121855
C       -3.82096148       2.24782582       0.30074003
C       -3.29252667       0.25630121       1.28047349
C       -2.81640344       1.28612244       2.14644063
C       -1.50176129       1.11717956       2.67058307
C        0.38294218      -0.71145273      -3.64839345
C       -2.15090029      -1.22174615       2.77402604
C       -1.92222307      -0.60287460      -2.86317824
C        2.47763000      -0.52137886       2.14774972
C        0.97521188      -2.27671126      -2.10816702
C       -0.15157964      -3.32999757      -0.39464754
C       -3.22424683       2.52283260       1.60902815
C        1.08599447       2.54988441      -2.82899223
C        0.11034017      -0.77849077       3.02618783
C       -0.42649813      -2.40885350      -2.43104707
C       -3.69075883       0.83346258       0.05328683
C       -2.16170030       3.23200151       0.96125127
C       -0.44116179       1.95823893       2.20320632
C        0.93117514       1.45530685       2.27874829
C       -1.69393448      -3.00798061       1.43330121
C       -2.61592153      -0.86053427      -1.61251364
C        3.17086462       0.21386819       1.15624208
C        1.86738159      -2.91277093       1.47606330
C        1.15603698      -2.97610954      -0.87887427
C        1.44955737      -1.07123008      -2.73746934
C        1.52552387       3.18264870       0.60438894
C        3.17127724      -1.85312687       0.29043300
C        1.91126434       2.21386975       1.55910403
C       -0.77681914       1.43273170      -3.68332672
C        2.97427764       1.76050030      -0.49892931
C        0.55848568      -3.03790248       1.92468818
C        1.50327671       1.22454594      -3.13853652
C       -2.24185542       2.70159199      -1.55544142
C       -1.15047577      -2.79910605      -1.28143095
C       -0.07272197      -2.20375712       2.88795800
C        2.14759008       0.18019213      -2.34944377
C        0.17715122       3.51338451       0.35388099
C       -3.17798387       0.42541568      -1.19428775
C        0.04580208       3.65295867      -1.07168375
