60
Properties=species:S:1:pos:R:3 checkpoint_path=runs/20260728-direction-conditioned-checkpoint-shooting/output-v3/cases/intermediate_accepted-seed42-deep_refinement/macro_checkpoints/step003_checkpoint.xyz pbc="F F F"
C       -2.47737536      -2.09777983       0.64778903
C        2.18083571      -2.87340406       0.05546309
C        1.23080809       0.04315568       2.61595692
C       -0.98176102       3.22399297      -1.96539328
C       -2.80200113       3.05709202      -0.30962627
C        2.78654766      -1.87562853       1.74246410
C       -2.87054593      -1.05605454       1.55157738
C       -1.48372498      -2.45577087       2.73764060
C        2.20599294       2.93120257      -0.65083181
C       -0.33373986       2.64232848      -3.09324037
C       -0.78798839       3.01974327       1.27245013
C        3.00647037       1.55043710       0.92969190
C       -2.24531048      -1.98777810      -0.77980751
C        1.32650760       3.29083978      -1.67046872
C        2.92559204       0.44730512      -1.15741484
C       -1.19379603      -0.20797604       3.07358389
C        3.27241004      -0.49237143      -0.08514284
C       -1.91182678       0.80430671      -3.11131471
C       -2.63533619       1.43755432      -2.05900810
C       -0.42980592      -3.42808712       0.96707324
C        0.39743771       0.65333589      -3.87892609
C       -0.83537131      -1.37687763      -3.29011318
C       -3.81734277       2.25299258       0.30844508
C       -3.28938039       0.26000022       1.28611737
C       -2.81028132       1.28905806       2.15090935
C       -1.49528409       1.11796371       2.67240134
C        0.37486647      -0.71094540      -3.64956902
C       -2.14733084      -1.21980757       2.77679956
C       -1.92838133      -0.59955377      -2.85912123
C        2.48162619      -0.52564459       2.14329145
C        0.96798992      -2.27746910      -2.11126259
C       -0.15744153      -3.32864218      -0.39554304
C       -3.21740203       2.52672150       1.61538277
C        1.08340856       2.54825489      -2.83029586
C        0.11480441      -0.77963932       3.02560229
C       -0.43462001      -2.40801426      -2.43161390
C       -3.68986555       0.83839564       0.06035276
C       -2.15503229       3.23465391       0.96593705
C       -0.43440981       1.95749553       2.20365506
C        0.93748780       1.45322660       2.27701949
C       -1.69567212      -3.00611790       1.43469922
C       -2.62033259      -0.85637149      -1.60720688
C        3.17419810       0.20869823       1.15042922
C        1.86544787      -2.91557623       1.47141017
C        1.14959594      -2.97667440      -0.88205539
C        1.44293306      -1.07246985      -2.74127976
C        1.53146090       3.17932296       0.60179286
C        3.16942804      -1.85798193       0.28395148
C        1.91768787       2.21020342       1.55576838
C       -0.78207925       1.43418220      -3.68258006
C        2.97666498       1.75591056      -0.50441226
C        0.55748430      -3.04014321       1.92279517
C        1.49917275       1.22318253      -3.14226480
C       -2.24114963       2.70481113      -1.55070147
C       -1.15718654      -2.79698471      -1.28047333
C       -0.07077189      -2.20489508       2.88712343
C        2.14409886       0.17771783      -2.35470789
C        0.18305513       3.51183736       0.35418332
C       -3.17978299       0.43031277      -1.18818616
C        0.04888891       3.65270919      -1.07098561
