60
Properties=species:S:1:pos:R:3 checkpoint_path=runs/20260728-direction-conditioned-checkpoint-shooting/output-v3/cases/intermediate_accepted-seed42-deep_refinement/macro_checkpoints/step005_checkpoint.xyz pbc="F F F"
C       -0.37313182      -1.35649931       2.80536849
C       -1.57182147      -3.20984537      -1.40955548
C        2.07840598      -1.59756092      -1.21447925
C       -0.44373373       3.79640609      -0.48563901
C        1.08735711       3.49693854       1.42436444
C        0.33629698      -3.31065421      -2.15761313
C        0.92470293      -0.75739670       2.92399342
C        1.26541509      -2.89444190       2.14607180
C        0.37793758       1.96593969      -3.30470794
C       -1.75484670       3.60327570      -1.00921302
C        2.34439056       2.13245216      -0.34198234
C        1.11978264      -0.14489057      -3.50349618
C       -1.61620413      -0.70621149       2.43601970
C       -0.31208307       2.99515596      -2.66706778
C       -1.22864024      -0.12174418      -3.24998594
C        2.54460239      -1.24736506       1.19621456
C       -0.71336878      -1.49396269      -3.19903889
C       -2.47789795       2.56467727       1.05748730
C       -1.20629415       2.85835481       1.63026693
C       -0.82270369      -3.26033912       1.30958523
C       -3.39155001       2.05023464      -1.14315620
C       -3.68408191       0.47411123       0.70649503
C        1.35256775       2.86847860       2.68682287
C        1.30270365       0.59663156       2.88805603
C        2.49961517       0.92665312       2.18404249
C        2.79767077       0.13823754       1.03487891
C       -3.79231490       0.81083822      -0.67645406
C        1.89590178      -1.66476529       2.39065602
C       -2.87704668       1.28030267       1.53303108
C        1.31666378      -2.25985394      -2.25940616
C       -3.15774594      -1.37190550      -0.62221204
C       -2.01565238      -2.66086053       0.91069955
C        2.59969269       2.33103081       2.13977501
C       -1.66114320       2.96138577      -2.29988672
C        2.15526928      -2.11794214       0.13225843
C       -3.40432697      -0.89802056       0.71968575
C        0.49322339       1.75050578       2.98752304
C        2.26077164       2.87859013       0.86038870
C        2.67862965       0.71664915      -0.26962263
C        2.42334598      -0.17131745      -1.40474221
C       -0.12819377      -2.71378117       2.41351701
C       -1.82558446       0.72826167       2.37050924
C        0.70861993      -1.42203677      -3.22551757
C       -0.30430956      -3.77273667      -0.98312201
C       -2.38448406      -2.56044677      -0.47638600
C       -3.21597888      -0.23139556      -1.49971836
C        1.65421703       1.83270727      -2.64205610
C       -0.98489288      -2.77022749      -2.64379939
C        2.04802348       0.47496612      -2.62761969
C       -2.78619150       2.99028388      -0.25512139
C       -0.06765853       0.67180109      -3.65513085
C        0.13423076      -3.66648200       0.33065529
C       -2.55740636       1.85539799      -2.30385533
C       -0.21653479       3.57275626       0.90221891
C       -2.49946698      -1.50736456       1.61896021
C        1.41060374      -3.19422607       0.74225171
C       -2.36315742       0.42623374      -2.52235878
C        1.67507628       2.64615075      -1.48953878
C       -0.83940423       1.79920854       2.53182873
C        0.47354611       3.43627344      -1.52228516
