60
Properties=species:S:1:pos:R:3 trial_index=10 seed_entry_id=1 discovered_entry_id=4 energy=-481.50457763671875 status=accepted pbc="F F F"
C        4.74490348      -2.38005592      -1.15023239
C        3.08397848       0.19011725      -3.41067727
C        0.69168900       2.19086449       0.19556540
C        4.75462289      -1.26198436      -2.03888525
C       -2.55732826      -1.13657462       0.66039116
C        2.72914071       1.55718895      -1.16709637
C        3.24695200      -2.54158468       1.05268622
C        3.34242488       1.01772632       0.03067715
C        0.15128355      -1.19695159      -3.10103272
C        2.09183184      -2.18426978      -0.95219520
C       -2.02260365       1.05707929       1.89419427
C       -0.50096703       2.60756376      -2.33697619
C        3.88955331      -3.52409796      -1.16705143
C       -2.27661116       1.44440983      -3.08737726
C       -0.24299267       1.07258701      -4.10809365
C        0.98099324      -1.35688664      -0.40195483
C        1.14928727       1.17281461      -4.16432146
C        0.73842302      -4.61660546       0.69737477
C       -0.49307863      -4.27497065       0.59262770
C        2.83971384       1.36427037      -2.61283349
C       -1.74868055      -1.74679175      -1.67710899
C        1.09157278      -4.06043254      -1.61295121
C        1.71066521      -0.77743113       0.86188987
C       -1.58696269      -2.04517611      -0.23830241
C        0.84867525       0.13027035       1.47639586
C       -0.31933452      -1.43832233       0.23782887
C       -0.21129682      -3.43726914      -1.65857563
C        3.93937337      -0.31205061       0.24468477
C        1.65197086      -4.24588995      -0.27796640
C        1.48571126       2.26545170      -0.96660801
C        1.77685807      -3.56311061      -3.90621236
C        3.53025718      -0.95451595      -2.70537552
C       -0.42393373      -0.52190494       1.26128357
C       -2.05821807       0.04734609      -3.24456865
C        1.34768028       1.49722992       1.28876383
C        2.08502088      -4.11955632      -2.67198102
C        3.08791345      -1.15785433       1.00617590
C       -1.77420347      -0.31311997       1.59930495
C       -1.52163434       2.00082610       1.22467971
C       -0.74936186       2.32576652       0.10507388
C        4.71710802      -1.10718977      -0.61154102
C        2.79448684      -3.23584090      -0.17196323
C        0.88697118       2.55718075      -2.20471825
C        1.10099084      -0.88234853      -1.90763665
C        2.42975204      -1.35693316      -1.97717291
C       -0.66790875      -2.30926462      -2.43697006
C        1.57765918      -2.54721970      -4.60954451
C        1.93197096      -0.01153140      -4.27547117
C       -1.33846405       2.34972223      -1.22111710
C       -2.42714179      -0.61025122      -2.07757339
C       -1.07315467       2.08582726      -3.51621941
C        1.70784174       1.99602618      -3.19446433
C       -0.75427373      -0.14512959      -3.68149765
C       -3.35883321      -0.23533880       0.01763960
C        3.42401791      -4.11972412      -2.27700421
C        2.74509942       1.54265514       1.18953456
C        1.21197327      -1.26529525      -4.26882534
C       -2.48966607       1.63282794      -1.67527973
C       -0.96897991      -3.46752842      -0.42185147
C       -2.95150750       0.34428632      -1.14921488
