60
Properties=species:S:1:pos:R:3 trial_index=18 seed_entry_id=8 discovered_entry_id=9 energy=-490.2237548828125 status=accepted pbc="F F F"
C        3.52800503      -0.13921145      -3.14145679
C        1.34899909       2.74439224      -2.62300993
C        4.45613054       5.52272884      -0.39281499
C        2.57302063       0.79105499      -3.60647937
C        3.69360021       3.68959040       3.67269730
C        3.58160744       4.24479300      -2.37156259
C        5.91986766       0.24837552      -1.06716093
C        4.68796138       3.35233087      -2.36579373
C       -0.88205674       2.79694309       0.35160526
C        3.81808804       1.39484125      -1.41718514
C        5.21167462       5.33963817       2.76570900
C        1.76164782       6.39665252      -0.18030090
C        3.58322413      -0.09771989      -1.63297068
C        0.48679920       5.88295932       1.62371265
C       -0.22752191       5.01787347      -0.34623640
C        3.46193046       2.04547577      -0.29425560
C        0.23880548       4.49943635      -1.55600456
C        5.30118185       0.84706669       1.05377012
C        4.94583869       1.70082687       2.09694793
C        2.19024590       3.94100443      -2.71617492
C        1.70322780       2.61459348       2.76598461
C        3.17996900      -0.24054451       1.12689147
C        6.19279192       2.61002286      -0.37234799
C        2.99946931       2.50127715       3.33342336
C        5.90677028       3.58707105       0.63686551
C        3.74845550       2.91609759       0.77913543
C        2.83250807       0.63358172       2.15240743
C        4.35498354       1.98482526      -2.55999092
C        4.45275461      -0.17169624       0.63179884
C        3.56542746       5.37166953      -1.48151536
C        1.04405338       0.58128788       0.63129437
C        1.57631487       1.34952614      -2.79488470
C        4.91888323       3.13746270       1.66051175
C        0.10435153       4.54074964       1.87589540
C        5.50811986       4.57426806      -0.35585548
C        2.08730367      -0.31913959       0.26572551
C        6.05571251       1.24844525      -0.10101809
C        4.78972537       3.99643844       2.84383846
C        4.87220989       6.18815778       1.90428491
C        4.01800314       6.21577960       0.80030108
C        3.94589082       1.19336237      -3.67007156
C        4.73068445      -0.44128463      -0.76857012
C        2.23553376       5.87219624      -1.38787746
C        2.57335770       2.23686674       0.72293269
C        1.28416735       0.56156134      -1.66186293
C        1.73864462       1.51630439       1.65278331
C        0.46524375       1.02037884      -0.59558293
C        0.24478326       3.10370710      -1.76764754
C        2.60443753       6.43180697       0.96877464
C        1.14000192       3.93898665       2.66528580
C        0.43661551       6.11866091       0.23052331
C        1.40553806       5.02575429      -2.15238442
C       -0.59351745       4.07480806       0.69875978
C        2.96126641       4.82952223       4.01752128
C        2.26112240      -0.28764607      -1.11554641
C        5.66006037       3.54683845      -1.35115211
C       -0.25426199       2.23912962      -0.74511750
C        1.79650209       6.10620342       2.11703400
C        3.76658191       1.40133408       2.83644911
C        1.99921418       5.05011100       3.08962124
