60
Properties=species:S:1:pos:R:3 system=runs/20260728-safe-lbfgs-strict-quench-200-production/output-c60-seed42 state_id=plateau_accepted pbc="F F F"
C        1.39495452       2.23672298       1.81758452
C       -2.23240911       1.84937061       1.34411272
C       -1.99996172      -1.29827763       1.37804455
C        1.34606545      -1.34913961      -3.21096604
C        2.99717601      -1.60418600      -1.41248536
C       -2.31341906       0.96047259       2.48212423
C        2.04426951       1.01919705       2.16241988
C        0.43149367       1.42132906       3.77397232
C       -1.86389315      -2.49542179      -2.43823068
C        0.60817886      -0.46674045      -4.05152948
C        0.98844182      -2.77271161      -0.30519540
C       -2.97842680      -2.17230616      -0.48309939
C        1.06047830       2.64570763       0.48384337
C       -0.87419674      -2.06082772      -3.33576694
C       -2.96528428      -0.29305845      -1.81774751
C        0.60765465      -0.77782697       2.95983184
C       -3.04070292       0.14523111      -0.42489961
C        1.55830209       1.45459094      -2.92321080
C        2.45205613       0.58643392      -2.21968300
C       -0.68028066       3.32087464       2.68564063
C       -0.64467875       1.43703884      -3.99249386
C       -0.18778088       2.96683577      -2.12286636
C        3.75380064      -1.00870347      -0.34991918
C        2.73240949       0.10580468       1.34981015
C        2.45453980      -1.27707052       1.54433649
C        1.12022792      -1.63636466       1.91991204
C       -1.07151445       2.43406384      -3.10693313
C        1.31324966       0.43301449       3.22643294
C        1.12170995       2.45936236      -2.00859319
C       -1.79417844      -0.40217994       2.42591094
C       -2.15795866       2.30843000      -1.06109186
C       -1.22890030       2.90021859       1.43985262
C        3.18693277      -1.99282277       0.57685992
C       -0.78112786      -0.85954080      -4.05606399
C       -0.73133945      -0.48408757       3.34469131
C       -0.93975818       3.03663931      -0.91425232
C        3.28472034       0.29148520       0.06121325
C        2.37027144      -2.50601964      -0.47533130
C        0.33247287      -2.38287136       0.94363689
C       -1.12538851      -2.36481754       0.91763464
C        0.47836251       2.54053259       2.90491134
C        1.75329301       2.24070853      -0.72269283
C       -2.98058545      -1.04402400       0.37170958
C       -2.00417079       1.42738014       3.80346746
C       -2.22580034       2.73340905       4.22353181
C       -2.23481204       1.93844422      -2.42586921
C       -1.17680153      -3.20020402      -1.37993409
C       -2.62858040       1.46281947      -0.01022412
C       -1.83089821      -2.96382703      -0.17061412
C        0.69378916       0.94428545      -3.91549322
C       -2.89864449      -1.72524556      -1.84025516
C       -1.55357945       3.69379569       3.73020530
C       -1.55905438       0.30929885      -3.88836185
C        2.40868412      -0.82253512      -2.42266486
C       -0.31459556       3.05470811       0.33542470
C       -0.77925828       0.76938241       4.08083318
C       -2.48485444       0.59493880      -2.82022651
C        0.22122351      -2.98966080      -1.49367744
C        2.68812280       1.12553008      -0.90539319
C        0.43123244      -2.35782894      -2.76725004
