26
Lattice="10.05501513 0.0 0.0 -0.2642428764115569 2.978821976748813 0.0 4.225991415623375 0.4012772477115371 8.518379375203757" Properties=species:S:1:pos:R:3 source_frame_index=3 source_format=dmol-arc source_path=/home/gengjianrui/bin/pam-ssw-research/ga-ssw-20260909/GA-SSW_examples_run/global_exploration/input-templates/TYPE1-AlOH/addition/add.arc pbc="T T T"
O        8.89585234       1.54562450       6.06094051
O        7.76022679       1.43946746       3.57574016
O       10.26741205       3.19529274       4.52888561
Al       9.40472816       1.62049441       4.25156081
H        5.89187867       2.77687663       5.09665849
O        5.91195164       1.28457167       1.84578495
Al       3.64132425       2.65051307       4.27886213
O        5.43361189       2.76112319       4.21279561
H       10.93044622       0.27757122       5.41911865
Al       9.85057317       0.22419837       1.48835600
Al       6.73952365       2.85403434       2.83403531
O        3.44930453       2.59483128       2.44382090
O       10.03434852       1.74433966       2.40591345
O        4.79845480       1.02035465       8.49424970
Al       6.25139091       1.28576411       7.63004382
O       12.59891450       1.86060297       7.39475547
O        7.79898014       2.95854087       1.16443985
O        3.20281251       1.11305831       4.95191831
H       12.64971224       1.47864945       6.46222985
O        7.87458323       1.46423447       8.46626818
H       13.50211966       1.57380821       7.77224686
Al       6.96090216       1.34611199       0.16881766
Al       4.15201662       1.15358710       1.63197806
O       10.11845143       3.15219019       8.00656209
O        6.48264101       2.80873712       6.74744903
Al       8.53925158       3.01048225       7.09156726
