60
Properties=species:S:1:pos:R:3 system=runs/20260728-safe-lbfgs-strict-quench-200-production/output-c60-seed42 state_id=plateau_accepted pbc="F F F"
C        2.01327045      -0.50803799       2.13126397
C       -0.91548855      -1.14626242       1.81358541
C       -0.82138744      -2.45861979      -1.02066042
C       -0.13020482       2.95010273      -2.47526737
C        2.14484593       2.02038091      -2.51422568
C        0.44266340      -0.16594393      -0.13673265
C        2.65169370      -0.86083246       0.88769323
C        1.54239975      -2.69004398       1.62725224
C       -2.68374698       0.62015000      -2.97529706
C       -1.14142916       3.60102680      -1.71653265
C        0.81383994      -0.04328343      -3.28235915
C       -2.66165744      -1.43674071      -1.99000757
C        1.26729405       0.69916280       2.36480642
C       -2.19347234       1.93422174      -2.88399152
C       -3.27581566       0.22370871      -0.53948601
C        1.57474568      -2.47487746      -0.62206818
C       -2.68597196      -0.86215204       0.20748987
C        0.23231296       3.49982074       0.26713188
C        1.31982156       3.01634450      -0.51239870
C        0.46423495      -1.92403693       3.59764440
C       -2.20209337       3.56129018       0.29250116
C       -0.95833502       2.56469516       2.16341915
C        3.27108868       1.54295925      -1.77175566
C        3.04442520      -0.10838707      -0.23001531
C        2.92180072      -0.72236701      -1.51287235
C        1.86806046      -1.64531708      -1.72505762
C       -2.18736909       2.91225382       1.52728300
C        2.27115559      -2.17638968       0.55814917
C        0.25251146       2.80650711       1.50822120
C       -0.09939107      -0.79383652       0.79395284
C       -2.29177804       0.68596869       2.10313666
C       -0.38979712      -0.89421164       3.14914645
C        3.16013875       0.26965534      -2.47913284
C       -2.39426902       2.91504435      -1.90190876
C        0.27708770      -2.99328269      -0.25750456
C       -1.11659421       1.27085316       2.71046690
C        3.03062345       1.29238656      -0.37667587
C        1.98574729       0.74009141      -3.15079759
C        0.79425959      -1.32218865      -2.60806290
C       -0.46460400      -1.93731483      -2.32964056
C        1.53577985      -1.76962474       2.67743389
C        1.35797548       1.87432553       1.53507410
C       -2.15865881      -1.86367112      -0.72190844
C       -0.35815798      -3.84105654       2.23102638
C       -0.86606660      -4.36378885       3.43063710
C       -2.94701408       1.70966176       1.38622684
C       -1.62426474      -0.17392336      -3.55578601
C       -2.22748457      -0.61324212       1.53706472
C       -1.62806163      -1.43486766      -2.95251041
C       -0.97325342       3.89686650      -0.34134273
C       -3.25414862      -0.13810105      -1.92198751
C       -0.15595333      -3.18468394       3.48560396
C       -2.99061166       2.76816483      -0.63304489
C        1.17495670       2.83452266      -1.91331058
C        0.01193100       0.49194892       3.05423410
C        0.40103271      -3.37955110       1.15909687
C       -3.33206620       1.53713789       0.02356077
C       -0.42483504       0.59198753      -3.59118324
C        2.10073644       2.10477193       0.28802088
C       -0.78700125       1.93113185      -3.23880211
