60
Properties=species:S:1:pos:R:3 input=/mnt/d/download/trae-research-code/ssw/runs/20260428-c60-mace-production/prerelaxed_c60.xyz system=c60 pbc="F F F"
C        0.93948687      -3.64459178       2.78021200
C        1.16185618       3.42265493       0.55432643
C       -3.02710611       0.80297924       0.24409855
C        2.18533309       1.25898612       1.45618375
C       -3.71104540      -1.14794296      -1.08957668
C       -0.94981886       2.05374508       1.19419230
C       -0.14514479      -3.12326209       0.11633115
C       -2.52494384      -1.87849562       2.58848714
C        4.51093374       0.75390110      -0.82218247
C       -0.29518252      -1.20385100       2.50910139
C       -4.79977716      -1.28205816      -0.25530033
C       -1.77286213       2.89805359      -1.97602930
C        1.70828296      -3.03586722       1.76961733
C        0.33954704       2.65698646      -2.86650594
C       -0.06328388       4.76340459      -2.06518177
C       -1.11035349      -0.08906777       2.38828519
C       -0.21817619       4.91129025      -0.67543674
C       -0.26935741      -2.59734251      -1.21787785
C        1.00403521      -2.15171046      -1.63086206
C       -0.24125896       3.22326205       0.81485458
C        3.37551878       1.46583605      -2.82186252
C        2.78454879      -1.41964257      -0.40296572
C       -2.52013094      -2.61299156       0.45632287
C       -2.63685819      -2.05978668      -0.83943770
C       -3.39255244      -2.27296953       1.52247377
C       -1.41305058      -1.88257825      -1.57952779
C        2.63217699      -0.53620238      -1.56567402
C       -1.11380907      -2.46863497       2.43753363
C        1.91657857      -2.51167557      -0.61997289
C       -2.14502713       1.97188424       0.36719427
C        2.96353240      -0.99946322       0.94458927
C        2.10556792       2.53305973       0.94933320
C       -4.28847995      -1.16703112       1.20965302
C        1.61854994       3.22994568      -2.67372935
C       -3.37089604      -0.02837433       1.35933036
C        1.04159527      -0.81827044       2.29467444
C       -1.22841475      -2.91207883       0.97911734
C       -5.70106824      -1.20335024       0.69007047
C       -1.18615883      -0.65223526      -2.21478129
C       -2.15365196       0.37124648      -2.03440044
C       -0.25690711      -3.48449729       3.14270597
C        1.24813511      -3.18311426       0.43917132
C       -2.01358069       3.10546074      -0.59158552
C       -0.35262389       1.01474244       1.94339653
C        1.01951797       0.59755931       1.98910820
C        3.58980817       0.47489513      -1.86066337
C        3.31759596       0.37510322       1.17716616
C        1.16711203       4.50351011      -0.46757719
C       -1.56517341       1.56153947      -2.43073409
C        2.75325627       2.52190280      -3.01075908
C       -0.67347502       3.59144699      -2.55575499
C       -1.04899184       3.99080867      -0.01528211
C        1.36896002       4.41882704      -1.89168427
C       -3.18504146       0.19319182      -1.06824837
C        2.09874310      -1.65145886       1.90270529
C       -2.44634858      -0.45254748       2.33490661
C        4.42940306       0.82676177       0.43180292
C       -0.20017263       1.33475389      -2.80453793
C        1.29525554      -0.85269407      -2.16165956
C        0.12273638      -0.07550461      -2.54798736
