115
Lattice="13.75323 0.0 0.0 0.0 13.75323 0.0 0.0 0.0 23.89" Properties=species:S:1:pos:R:3 trial_index=4 seed_entry_id=3 discovered_entry_id=4 energy=-571.002685546875 status=accepted pbc="T T F"
Pd       0.00000000       0.00000000      10.00000000
Pd       2.75064538       0.00000000      10.00000000
Pd       5.50129076       0.00000000      10.00000000
Pd       8.25193614       0.00000000      10.00000000
Pd      11.00258152       0.00000000      10.00000000
Pd       0.00000000       2.75064538      10.00000000
Pd       2.75064538       2.75064538      10.00000000
Pd       5.50129076       2.75064538      10.00000000
Pd       8.25193614       2.75064538      10.00000000
Pd      11.00258152       2.75064538      10.00000000
Pd       0.00000000       5.50129076      10.00000000
Pd       2.75064538       5.50129076      10.00000000
Pd       5.50129076       5.50129076      10.00000000
Pd       8.25193614       5.50129076      10.00000000
Pd      11.00258152       5.50129076      10.00000000
Pd       0.00000000       8.25193614      10.00000000
Pd       2.75064538       8.25193614      10.00000000
Pd       5.50129076       8.25193614      10.00000000
Pd       8.25193614       8.25193614      10.00000000
Pd      11.00258152       8.25193614      10.00000000
Pd       0.00000000      11.00258152      10.00000000
Pd       2.75064538      11.00258152      10.00000000
Pd       5.50129076      11.00258152      10.00000000
Pd       8.25193614      11.00258152      10.00000000
Pd      11.00258152      11.00258152      10.00000000
Pd       1.33305437       1.38035701      12.05221797
Pd       4.08925664       1.38750338      11.98771029
Pd       6.82888190       1.38154444      11.99332965
Pd       9.57512057       1.39592898      11.89594876
Pd      12.38684272       1.37174114      11.92044161
Pd       1.37065655       4.09970544      12.00656864
Pd       4.10125007       4.12393621      12.00820233
Pd       6.82444734       4.12497179      12.00908219
Pd       9.56728621       4.13975942      11.94281254
Pd      12.36578195       4.13265160      11.93417299
Pd       1.37110082       6.89256210      11.94010419
Pd       4.13935064       6.87026939      11.96482277
Pd       6.87097415       6.85831372      11.95140951
Pd       9.64205429       6.82915781      11.94515418
Pd      12.39111484       6.85622887      11.94896407
Pd       1.35216595       9.69735034      11.99083951
Pd       4.11777592       9.66324146      11.95099537
Pd       6.89476706       9.64088005      11.95142944
Pd       9.64982872       9.59779534      11.89439304
Pd      12.42487279       9.60955999      11.94161946
Pd       1.35802606      12.41462245      12.04582394
Pd       4.10624816      12.40887780      12.00662317
Pd       6.86816975      12.39901143      11.97280504
Pd       9.63028672      12.36702810      11.91406436
Pd      12.41879361      12.34804731      11.97632258
Pd      13.69490975      13.72796542      14.15087096
Pd       2.80994373       0.13599011      14.12750509
Pd       5.59445236      13.75257186      14.00021127
Pd       8.32367363      13.74939690      13.99130333
Pd      10.98441557       0.02800550      13.88902422
Pd      13.66207891       2.70654605      14.00415812
Pd       2.72618183       2.88898619      14.05392659
Pd       5.49437744       2.75992635      14.03328476
Pd       8.25578921       2.68038123      13.97912169
Pd      10.93921265       2.69678440      13.89574951
Pd       0.03764958       5.45721258      13.94630591
Pd       2.74190586       5.59762036      14.01179591
Pd       5.46873302       5.52980742      13.99921525
Pd       8.29345006       5.38816012      14.07610119
Pd      11.00711939       5.40482949      14.02711544
Pd       0.03324554       8.20719391      13.98272893
Pd       2.74014909       8.32341580      13.92895223
Pd       5.44025689       8.41355311      13.95373166
Pd       8.32914428       8.24114496      13.96157044
Pd      11.03366050       8.22112983      13.81989523
Pd      13.56096991      10.91113054      14.16993568
Pd       2.78355481      11.10700322      13.96934084
Pd       5.52779241      11.07973763      13.99693665
Pd       8.22102938      10.97522084      13.93009737
Pd      10.89339949      10.99708417      13.86224480
Pd      12.57354646       6.47677042      16.15410099
Pd       8.76933056       9.72421698      16.41976686
Pd       1.13775994      12.48583698      16.70583188
Pd       1.58213603       7.15835869      16.29043675
Pd      12.03334876       9.34039081      16.05817910
Pd       9.16528171       0.94778513      17.11447613
Pd       5.43281662       1.00926819      16.49944573
Pd       5.77705057      10.03531406      16.44998573
Pd       4.23958152      12.30268174      16.06867110
Pd      10.95229298      12.49247583      16.40386063
Pd       1.25991627       4.46114519      16.29005571
Pd       4.09049098       4.39389097      16.25392613
Pd      11.54593854       3.12305367      16.54333646
Pd       2.89198180       9.75164964      16.35131571
Pd       7.46512084       6.98236111      16.79428150
Pd       7.18705545      12.32126735      16.00905639
Pd       9.98838581       7.26131837      16.03589387
Pd       7.66556676       3.35804985      16.60210572
Pd       1.62331527       1.67548852      16.15245730
Pd       4.24609777       7.07960242      15.98033494
O        9.60573763       2.88586896      17.19055249
O       10.51375092      10.58736958      15.89198921
O       12.95139072      12.43847712      15.69584075
O       12.10175042       1.31237176      17.07268551
O       11.12134841       0.45045126      17.48440919
O        4.35986647       8.75670978      17.13412835
O        3.45600358       0.59475046      16.13302081
O        1.27726657       1.18778317      18.09513054
O        8.95987898      12.73311315      17.00162245
O        1.44468696      10.87647805      15.56398220
O        0.83552282      13.70553299      18.22133717
O        2.72451978       5.65261502      16.99905245
O        8.07916708       5.21916815      16.12596136
O        7.23292917       8.87498579      17.28286128
O        5.64144495       3.19245239      16.05546359
O       13.66769946       3.01000716      16.03005901
O       11.24819144       5.03643681      16.05032957
O       13.62235449       8.16936274      16.13010480
O        7.23657578       1.51733949      17.21469916
O        6.74432702       7.10018270      14.83458355
