115
Lattice="13.75323 0.0 0.0 0.0 13.75323 0.0 0.0 0.0 23.89" Properties=species:S:1:pos:R:3 trial_index=10 seed_entry_id=9 discovered_entry_id=10 energy=-571.877197265625 status=accepted pbc="T T F"
Pd       0.00000000       0.00000000      10.00000000
Pd       2.75064538       0.00000000      10.00000000
Pd       5.50129076       0.00000000      10.00000000
Pd       8.25193614       0.00000000      10.00000000
Pd      11.00258152       0.00000000      10.00000000
Pd       0.00000000       2.75064538      10.00000000
Pd       2.75064538       2.75064538      10.00000000
Pd       5.50129076       2.75064538      10.00000000
Pd       8.25193614       2.75064538      10.00000000
Pd      11.00258152       2.75064538      10.00000000
Pd       0.00000000       5.50129076      10.00000000
Pd       2.75064538       5.50129076      10.00000000
Pd       5.50129076       5.50129076      10.00000000
Pd       8.25193614       5.50129076      10.00000000
Pd      11.00258152       5.50129076      10.00000000
Pd       0.00000000       8.25193614      10.00000000
Pd       2.75064538       8.25193614      10.00000000
Pd       5.50129076       8.25193614      10.00000000
Pd       8.25193614       8.25193614      10.00000000
Pd      11.00258152       8.25193614      10.00000000
Pd       0.00000000      11.00258152      10.00000000
Pd       2.75064538      11.00258152      10.00000000
Pd       5.50129076      11.00258152      10.00000000
Pd       8.25193614      11.00258152      10.00000000
Pd      11.00258152      11.00258152      10.00000000
Pd       1.33305437       1.38035701      12.05221797
Pd       4.08925664       1.38750338      11.98771029
Pd       6.82888190       1.38154444      11.99332965
Pd       9.57512057       1.39592898      11.89594876
Pd      12.38684272       1.37174114      11.92044161
Pd       1.37065655       4.09970544      12.00656864
Pd       4.10125007       4.12393621      12.00820233
Pd       6.82444734       4.12497179      12.00908219
Pd       9.56728621       4.13975942      11.94281254
Pd      12.36578195       4.13265160      11.93417299
Pd       1.37110082       6.89256210      11.94010419
Pd       4.13935064       6.87026939      11.96482277
Pd       6.87097415       6.85831372      11.95140951
Pd       9.64205429       6.82915781      11.94515418
Pd      12.39111484       6.85622887      11.94896407
Pd       1.35216595       9.69735034      11.99083951
Pd       4.11777592       9.66324146      11.95099537
Pd       6.89476706       9.64088005      11.95142944
Pd       9.64982872       9.59779534      11.89439304
Pd      12.42487279       9.60955999      11.94161946
Pd       1.35802606      12.41462245      12.04582394
Pd       4.10624816      12.40887780      12.00662317
Pd       6.86816975      12.39901143      11.97280504
Pd       9.63028672      12.36702810      11.91406436
Pd      12.41879361      12.34804731      11.97632258
Pd       0.06986046      13.75168429      14.08511135
Pd       2.85145580       0.02880074      14.03878177
Pd       5.56695634      13.74178297      14.06668248
Pd       8.30091738      13.71403862      13.97248518
Pd      11.09350103       0.11897577      14.00139055
Pd      13.54527067       2.79982770      13.97408269
Pd       2.61175644       2.77329995      13.95082999
Pd       5.32903191       2.67830244      14.05004390
Pd       8.12398745       2.67176696      14.07206847
Pd      10.81580881       2.80428148      13.95262430
Pd      13.73397939       5.57282353      13.90532080
Pd       2.63744326       5.58203708      13.99667638
Pd       5.45072218       5.47938907      13.99286316
Pd       8.30744623       5.41317095      14.03870195
Pd      11.06029859       5.49546014      13.96597288
Pd       0.03601266       8.28073832      13.96313948
Pd       2.75678299       8.30679268      13.99761691
Pd       5.51284555       8.25444936      13.98794169
Pd       8.26441356       8.18674658      13.95359947
Pd      11.03397485       8.18998358      13.97394216
Pd       0.07544496      10.99986240      14.14986704
Pd       2.78780688      11.00341142      13.96024729
Pd       5.54579846      10.97412852      13.90732797
Pd       8.30786270      10.93870296      13.93947299
Pd      11.06489697      11.00061968      13.85557123
Pd      12.01645598       6.70925876      17.50798823
Pd       9.12641262       9.52631913      16.23255791
Pd       1.58688698      12.54321468      16.29152332
Pd       1.28161652       6.99500508      16.02625497
Pd      12.58231389       8.98247076      16.37279088
Pd       8.18644845       1.08720274      16.81453117
Pd       4.48711668       0.99985513      16.77810627
Pd       5.72447963       9.80300122      16.39880549
Pd       4.27338162      11.96724043      15.96088120
Pd       9.65257372      12.37102575      16.27676269
Pd      12.90276021       4.64437022      16.29084600
Pd       2.69829525       3.98044001      16.38133626
Pd      10.25490248       4.16095099      16.20324627
Pd       2.27181651       9.79521005      16.42241430
Pd       6.98536011       7.18594391      16.27741354
Pd       6.92196084      12.16938484      15.86623061
Pd       9.66477352       6.87328691      15.96715295
Pd       6.44582259       3.47437304      16.41365437
Pd       1.11288620       1.73937361      16.09544617
Pd       4.05387195       7.34919768      16.29569568
O        8.44361408       2.99932453      16.18879098
O       10.97066819       9.71404537      15.49019109
O       11.34615577      12.33385844      15.32417235
O       11.01687731       1.27526156      15.81003625
O       10.21814605       0.69284645      16.74413856
O        3.96908986       9.09479448      17.12113297
O        2.63156114       0.53554287      16.08629375
O        2.78001729      12.67794263      18.12425725
O        8.04791091      12.90911440      17.34351109
O        0.56785074      10.80476130      16.16645968
O        4.08005484      12.91888407      17.80573909
O        1.12238538       5.08551960      16.79801345
O        6.78543397       5.31399718      15.57705316
O        7.42677459       8.95431264      17.04088628
O        4.40117931       2.93801647      16.07951002
O       13.24235628       2.72466135      15.98127319
O       10.33402053       5.73029229      17.50858487
O       13.69338385       7.74769769      17.41336533
O        6.30775105       1.69783296      17.31982694
O        3.99740881       5.55178925      15.56599368
