115
Lattice="13.75323 0.0 0.0 0.0 13.75323 0.0 0.0 0.0 23.89" Properties=species:S:1:pos:R:3 trial_index=11 seed_entry_id=9 discovered_entry_id=11 energy=-573.0966796875 status=accepted pbc="T T F"
Pd       0.00000000       0.00000000      10.00000000
Pd       2.75064538       0.00000000      10.00000000
Pd       5.50129076       0.00000000      10.00000000
Pd       8.25193614       0.00000000      10.00000000
Pd      11.00258152       0.00000000      10.00000000
Pd       0.00000000       2.75064538      10.00000000
Pd       2.75064538       2.75064538      10.00000000
Pd       5.50129076       2.75064538      10.00000000
Pd       8.25193614       2.75064538      10.00000000
Pd      11.00258152       2.75064538      10.00000000
Pd       0.00000000       5.50129076      10.00000000
Pd       2.75064538       5.50129076      10.00000000
Pd       5.50129076       5.50129076      10.00000000
Pd       8.25193614       5.50129076      10.00000000
Pd      11.00258152       5.50129076      10.00000000
Pd       0.00000000       8.25193614      10.00000000
Pd       2.75064538       8.25193614      10.00000000
Pd       5.50129076       8.25193614      10.00000000
Pd       8.25193614       8.25193614      10.00000000
Pd      11.00258152       8.25193614      10.00000000
Pd       0.00000000      11.00258152      10.00000000
Pd       2.75064538      11.00258152      10.00000000
Pd       5.50129076      11.00258152      10.00000000
Pd       8.25193614      11.00258152      10.00000000
Pd      11.00258152      11.00258152      10.00000000
Pd       1.33305437       1.38035701      12.05221797
Pd       4.08925664       1.38750338      11.98771029
Pd       6.82888190       1.38154444      11.99332965
Pd       9.57512057       1.39592898      11.89594876
Pd      12.38684272       1.37174114      11.92044161
Pd       1.37065655       4.09970544      12.00656864
Pd       4.10125007       4.12393621      12.00820233
Pd       6.82444734       4.12497179      12.00908219
Pd       9.56728621       4.13975942      11.94281254
Pd      12.36578195       4.13265160      11.93417299
Pd       1.37110082       6.89256210      11.94010419
Pd       4.13935064       6.87026939      11.96482277
Pd       6.87097415       6.85831372      11.95140951
Pd       9.64205429       6.82915781      11.94515418
Pd      12.39111484       6.85622887      11.94896407
Pd       1.35216595       9.69735034      11.99083951
Pd       4.11777592       9.66324146      11.95099537
Pd       6.89476706       9.64088005      11.95142944
Pd       9.64982872       9.59779534      11.89439304
Pd      12.42487279       9.60955999      11.94161946
Pd       1.35802606      12.41462245      12.04582394
Pd       4.10624816      12.40887780      12.00662317
Pd       6.86816975      12.39901143      11.97280504
Pd       9.63028672      12.36702810      11.91406436
Pd      12.41879361      12.34804731      11.97632258
Pd       0.05942148       0.03423469      14.06398990
Pd       2.85955536       0.11862834      14.08192073
Pd       5.59986379      13.72394986      14.05094567
Pd       8.32853377      13.69678441      13.99062901
Pd      11.07966310       0.11909163      14.04043957
Pd      13.59689114       2.82401623      13.97834525
Pd       2.60936481       2.84235445      14.06802661
Pd       5.35353094       2.68661308      14.04746774
Pd       8.25946981       2.65300164      14.08213174
Pd      10.92275216       2.74448471      13.70462063
Pd      13.71319381       5.55217700      14.02511788
Pd       2.61968071       5.59245199      13.98528760
Pd       5.51417562       5.47382824      13.95114884
Pd       8.29868224       5.43715089      13.99124480
Pd      11.00178418       5.42558440      13.99057684
Pd      13.73830593       8.27732025      13.98363579
Pd       2.75243645       8.34973000      13.95462058
Pd       5.52121948       8.27236208      13.98290810
Pd       8.24926082       8.22333438      13.95626046
Pd      11.00945983       8.16669344      13.91073225
Pd       0.03246785      10.97195504      14.14775212
Pd       2.78324193      11.05304493      13.97822525
Pd       5.55471781      10.99301458      13.92132199
Pd       8.28758331      10.94860352      13.92675842
Pd      11.02746212      10.89564863      13.91232560
Pd      12.31376372       6.37672706      16.40962409
Pd       8.65658630       9.46179514      16.41139635
Pd       1.56152001      12.56638137      16.15132011
Pd       1.38296110       7.22102876      16.01228413
Pd      12.02234748       9.08772971      16.28661826
Pd       8.42960945       0.84322026      16.83708748
Pd       4.69025444       0.94039133      16.49566996
Pd       5.64905794       9.91267437      16.38333646
Pd       4.26970280      12.10643711      15.98933950
Pd      10.15658443      12.23965661      16.40755222
Pd       0.50723286       4.46990193      16.59487512
Pd       3.35636653       4.35892713      16.77368013
Pd      10.95528011       3.06717634      16.25807278
Pd       2.32261008       9.90554127      16.48320527
Pd       6.92264755       7.01200586      16.31279271
Pd       7.00467427      12.17946314      15.93039910
Pd       9.63549378       6.94393477      15.95914629
Pd       6.78571849       3.32648034      16.36448344
Pd       0.93612913       1.63719684      16.13984136
Pd       4.10576320       7.46127308      16.27427177
O        8.85376503       2.74270360      16.19911722
O       10.41134904      10.24889325      15.95945841
O       11.75357912      12.34356311      15.22816990
O       11.25918797       1.11403685      16.13653663
O       10.40574502       0.39788054      17.01896878
O        3.97598758       9.14748208      17.22309418
O        2.62865764       0.53920882      16.20573101
O        1.34423581       2.82290895      17.89060709
O        8.36542073      12.63585535      17.34786410
O        0.61375626      10.84840653      16.13087733
O        2.66255548       3.03570389      18.10882090
O        1.89311888       5.66454839      17.29745375
O        6.90322178       5.18284421      15.54810356
O        7.04984490       8.72207616      17.22376272
O        4.77395756       3.08754689      16.15882752
O       13.05927340       2.99758752      16.01168178
O       10.85405048       5.08341968      16.07903856
O       13.42884027       7.87869844      16.95004040
O        6.54749178       1.50063138      17.10611941
O        4.07016889       5.68436499      15.45375366
