60
Properties=species:S:1:pos:R:3 checkpoint_path=runs/20260728-direction-conditioned-checkpoint-shooting/output-v3/cases/plateau_accepted-seed43-deep_refinement/proposal_trajectories/trial0001_proposal001_step002_proposal_relax.xyz pbc="F F F"
C        0.74605511       2.91504957       0.89980143
C       -2.01285419       0.69464914       2.48786701
C        1.08513532      -1.21726056       2.34332078
C        0.04161686      -0.87952968      -3.57656543
C        2.20080448       0.23096334      -3.30307444
C       -0.39514238      -1.18955644       2.68517873
C        2.05766929       2.46610512       0.55086704
C        1.83179771       2.16586380       2.81558801
C       -0.96023462      -3.25103661      -1.24650884
C       -1.34280665      -0.75020677      -3.80440493
C        2.20617462      -1.53980833      -1.36412345
C       -0.86714555      -2.94804519       1.03900665
C       -0.44956559       2.89535973       0.10062828
C       -1.04839989      -2.65792627      -2.52681623
C       -2.75777555      -1.96915283       0.02612971
C        2.84534411       0.44919308       1.68721317
C       -2.53973684      -1.34883326       1.31689674
C       -1.23538034       1.62147597      -3.17207839
C        0.18368916       1.54700815      -3.19807851
C       -0.55220082       2.59856625       3.00328622
C       -3.17797045       0.18698149      -2.88425237
C       -2.79597003       2.07442462      -1.36228802
C        2.91753334       1.38848915      -2.83256505
C        2.61268618       2.04060133      -0.66361328
C        3.39681373       0.85115694      -0.61709698
C        3.07061375      -0.11292961       0.40505448
C       -3.60767974       0.98749619      -1.81590103
C        2.64337031       1.86079271       1.70359345
C       -1.61298645       2.42043822      -2.04685777
C       -1.11585859      -0.10153689       3.31523117
C       -3.41935082       0.76682519       0.47501532
C       -1.58912787       2.05011482       2.19839919
C        3.63876756       0.45892521      -1.94165597
C       -2.03340806      -1.80842951      -3.10155280
C        1.99978898      -0.12894675       2.71612363
C       -2.74997860       1.96787730       0.06224555
C        2.12545612       2.26505968      -1.97208837
C        2.81397560      -0.65055478      -2.32709402
C        2.36842432      -1.31959503       0.07040201
C        1.44530349      -1.93780454       1.07119047
C        0.64948675       2.80922159       2.34288111
C       -0.41220619       2.83346259      -1.34548317
C       -1.33076336      -1.95130118       1.92185624
C        0.71692598       1.08531172       4.55063805
C       -0.58223504       0.59985118       4.39254482
C       -3.85895861       0.11765767      -0.69602725
C        0.42499253      -3.15558942      -0.82044561
C       -2.84864819       0.01275611       1.54888373
C        0.49928984      -2.89339776       0.57292225
C       -1.99529373       0.50118563      -3.59423731
C       -1.76261089      -3.01054968      -0.10741213
C       -0.38111282       1.99842683       4.29062561
C       -3.10504816      -1.19216285      -2.42382501
C        0.83091838       0.31582245      -3.53884556
C       -1.66337251       2.48075314       0.80500103
C        1.71926714       0.98636889       3.59520495
C       -3.39132668      -1.20875220      -1.01278857
C        1.14691972      -2.39214125      -1.77651573
C        0.73510506       2.40750257      -2.20009877
C        0.24670563      -2.08308724      -2.83615293
