60
Properties=species:S:1:pos:R:3 checkpoint_path=runs/20260728-direction-conditioned-checkpoint-shooting/output-v3/cases/plateau_accepted-seed43-deep_refinement/proposal_trajectories/trial0001_proposal001_step007_proposal_relax.xyz pbc="F F F"
C        1.66660412       2.65400679      -0.80726127
C       -1.22971496       2.56305737       1.76757315
C        1.06649615       0.03740295       2.57498503
C       -0.94400124      -2.59783153      -2.45864350
C        1.47759924      -2.20257439      -2.75514645
C       -0.22027690       0.69189530       2.95783750
C        2.73841702       1.70728398      -0.87162203
C        2.84098154       2.73174914       1.19379439
C       -2.02644507      -2.86007481       0.84015944
C       -2.25835551      -2.09255745      -2.63556344
C        1.39988224      -2.58069789      -0.21831372
C       -1.40595069      -1.44074646       2.52300898
C        0.37408582       2.53758281      -1.43225166
C       -2.21138107      -3.04100288      -0.54353931
C       -3.15646336      -0.58518273       1.23376095
C        3.05745602       0.45251346       1.16165263
C       -2.50070117       0.49693687       1.93737576
C       -1.39913452       0.04365943      -3.42029503
C       -0.08472299      -0.50597716      -3.44375330
C        0.72129329       3.89610555       1.14159739
C       -3.56890659      -0.25726403      -2.34622942
C       -2.37761554       1.88920995      -2.15047973
C        2.54070219      -1.27293494      -2.99459605
C        2.86559163       0.51827048      -1.61681486
C        3.31194556      -0.64547731      -0.91680136
C        2.90584176      -0.74950414       0.44215470
C       -3.53034902       1.07330168      -1.90810554
C        3.32823081       1.64160405       0.42540598
C       -1.30140689       1.36566053      -2.88529821
C       -0.46963609       2.10602001       2.89797918
C       -2.90557780       2.02009844       0.09782992
C       -0.52326279       3.33434859       0.77859906
C        3.19440415      -1.75168385      -1.77408487
C       -3.02207670      -2.30377177      -1.43007207
C        2.25705140       0.82342873       2.29178653
C       -2.06348627       2.55818382      -0.92864018
C        2.17863818       0.11146193      -2.77930568
C        2.04772944      -2.56676882      -1.48413501
C        1.85966697      -1.65597521       0.80660192
C        0.99808934      -1.30971373       1.94040403
C        1.81431938       3.36074407       0.44792809
C        0.07910249       1.65190980      -2.54857838
C       -1.43189658      -0.04800314       2.74195411
C        1.76826422       3.12779644       3.24373088
C        0.38385032       3.08542615       3.41859883
C       -3.75810833       1.05734874      -0.48975602
C       -0.60989949      -2.99799440       1.10128526
C       -2.36587594       1.79093881       1.38103690
C       -0.20771034      -2.06095079       2.08470532
C       -2.50754824      -0.78435375      -3.13593501
C       -2.50384434      -1.80192633       1.64927786
C        0.92850021       4.06755454       2.54586385
C       -3.76677018      -1.12384234      -1.19479962
C        0.13875186      -1.87880269      -3.07159946
C       -0.74813196       2.98115517      -0.61515618
C        2.49306356       2.22572347       2.47242736
C       -3.78062823      -0.29985051      -0.01802270
C        0.09026122      -3.13925358      -0.12193537
C        0.85799593       0.51085969      -3.05695094
C       -0.89944179      -3.20493273      -1.16049009
