60
Properties=species:S:1:pos:R:3 trial_index=21 seed_entry_id=16 discovered_entry_id=19 energy=-474.6935729980469 status=accepted pbc="F F F"
C        6.02839100      -3.84635638       3.00172888
C        0.81112530      -1.49767902      -3.76381666
C        3.62091907      -0.53344402      -0.40391146
C        0.79887099      -1.88329891      -2.55507956
C       -6.34873246       1.29375671       1.65240260
C        2.83719996       0.25036078      -1.26431446
C       -3.90311565      -3.50518140       8.29053506
C        7.01361481      -2.12297954       0.20616291
C       -4.60882796       2.70113598      -4.49839973
C        2.81510595      -1.75801297       1.81121416
C       -2.89157524       0.53999423       2.25002364
C        0.47843022       3.28967226       0.62246116
C        4.77400622      -3.65508562       3.34524322
C       -3.11050220       2.18387772       0.35313327
C        0.34603558       2.52153371      -2.32555021
C       -0.05867070      -1.24320389       1.06426971
C        2.13496855       5.10232097      -0.49806650
C        1.20036186      -2.49125772       3.49651221
C        0.63876397      -1.93885449      -1.28216548
C        2.07692223       0.84434171      -2.02513560
C       -6.73877199       3.34519051      -7.08946854
C       -3.37493291       1.85879009      -6.29535058
C       -2.64999450      -1.92046674       5.07977334
C       -1.06711468      -1.42462720       3.29863521
C       -3.01733058      -2.46389560       6.12417567
C       -0.78219830      -0.70924991       2.08806191
C       -4.58014556       2.49393544      -5.89321173
C        7.35171989      -2.92578805       1.13405142
C        0.29522575      -1.63885236      -0.07900759
C        1.59046303       4.09143403       0.31547412
C       -1.01907367       0.89722266      -5.82677379
C        0.51652578      -0.44503435      -4.58912308
C       -2.36578579      -1.20048718       3.91355188
C       -3.79989330       2.55574299      -0.80022973
C        4.96297108      -0.84198896      -0.58126206
C       -2.27085789       1.32933669      -6.27087393
C       -3.32373121      -3.10591616       7.24576173
C       -3.23506805      -0.32440660       3.26227874
C       -1.49108424       0.52202386       1.92399973
C        0.37464734       2.21721715       1.47107332
C        6.97611108      -3.58100630       2.19541489
C        2.48800690      -2.54382160       2.96550278
C        2.90531448       4.52992877       0.49152754
C        3.13451192      -1.14475747       0.78925004
C        3.58185956      -3.27251658       3.40774257
C       -5.64034558       2.88314967      -6.71571003
C       -0.29523383       1.64067518      -4.88184684
C        0.58710224       0.96297101      -4.07093027
C       -0.91776318       1.68104973       1.36498612
C       -4.16444306       2.72772692      -1.96487135
C       -0.76777893       3.29200352      -0.22659167
C        1.10883363       1.46853111      -2.83302369
C       -0.41480679       3.13950355      -1.55245403
C       -5.10247146       1.32917748       1.52528979
C       -0.30456767      -0.31136246      -5.76720619
C        6.05935365      -1.39708993      -0.33476007
C       -4.42879109       2.75325875      -3.27921498
C       -1.71808526       2.45303807       0.47048036
C        0.00612180      -2.20966934       3.73082629
C       -3.72488910       1.39850485       1.41181157
