60
Properties=species:S:1:pos:R:3 trial_index=3 seed_entry_id=1 discovered_entry_id=2 energy=-477.9398498535156 status=accepted pbc="F F F"
C        5.33020549      -3.16626719       1.52383489
C        1.38771835      -0.30639669      -3.00254906
C        2.27648712       1.23220059       1.46668326
C        0.53679007      -1.34223133      -3.39763467
C       -4.74131360       3.47375491       2.04745990
C        1.99319332      -0.68130039      -0.50013195
C       -5.24435291      -4.71390275       5.79151819
C        5.72888608       0.10343127       2.33749064
C       -4.38878017       2.11965663      -3.28076323
C        1.05125118      -1.81090652       0.02626865
C       -2.07096455       1.03391158       2.51315123
C        1.45265656       3.26457407       0.37144921
C        4.09759342      -3.47834648       1.22725110
C       -1.02419062       3.61283315       0.11041021
C        1.15914651       3.21068898      -2.73768050
C        0.79630315      -0.81261654       1.17328882
C        1.79694357       1.98689039      -2.94318349
C        0.50595887      -3.36471051       1.82000796
C       -1.02506409      -3.07541140      -1.09312121
C        2.09197077      -0.02007497      -1.76004145
C       -7.21712466       0.77360587      -5.21943705
C       -3.72898259       0.30731559      -4.62615081
C       -3.71839722      -3.11605639       4.49342816
C       -1.05738174      -1.63191389       2.57954415
C       -3.02309804      -2.30935051       3.87070445
C       -0.26566018      -0.56839712       2.04588375
C       -4.80125247       1.15023083      -4.22124803
C        6.30835411      -1.02478646       2.22398023
C       -0.07343420      -2.36863926      -0.68200417
C        3.08426624       2.24800154      -0.94927106
C       -0.43209044       0.46260078      -5.39582834
C       -0.50785421      -1.45827280      -4.10898736
C       -2.33248905      -1.28481252       3.21811887
C       -2.11358478       3.71413619      -0.74747335
C        3.54936307       1.32947223       1.93811277
C       -2.64915648      -0.25924194      -4.78219205
C       -4.39118230      -4.07180179       5.12330094
C       -2.77104335       0.02661614       3.07070908
C       -0.68072551       0.76864354       2.18854062
C        1.22101670       2.22145445       1.29536730
C        6.16197075      -2.27715893       1.90249050
C        1.56209239      -3.04342319       0.96299826
C        2.77731312       3.23221338      -0.21400427
C        1.86598662       0.01335424       0.77598214
C        2.85507403      -3.41863918       1.05727477
C       -6.11568572       1.01917713      -4.69056762
C        0.57689775       1.06695323      -4.93958881
C        1.32472130       0.92532391      -3.77638283
C       -0.10624099       1.93920697       1.63698159
C       -3.01826226       3.42586214      -1.54308542
C        0.33852121       3.75068593      -0.40082572
C        2.48989054       1.36742802      -1.83054757
C        0.60626796       3.80998648      -1.77613453
C       -3.59935150       2.96826650       1.91779426
C       -1.28667784      -0.54737139      -4.87229811
C        4.69242744       0.88010965       2.22429624
C       -3.78712211       2.81299776      -2.45459652
C       -1.17139338       2.81297528       1.28251407
C       -0.50640450      -2.91424464       2.42742162
C       -2.37308082       2.36284115       1.93648733
