60
Properties=species:S:1:pos:R:3 trial_index=34 seed_entry_id=29 discovered_entry_id=30 energy=-466.1203918457031 status=accepted pbc="F F F"
C        4.69007493      -3.17633015       3.68453877
C        0.88404206       0.94070062      -6.06539381
C        1.79383041       0.78643548       2.03664635
C        1.94633832       1.04632811      -8.25346505
C       -3.19153724       3.38002363       5.76769930
C        1.06383434       1.01375177      -3.45032353
C       -4.04318054      -2.47687785      10.58265744
C        5.04247515      -0.45299964       1.79514034
C       -5.81523819       3.45395323      -7.81141918
C        1.65796183      -2.24498844       1.49537115
C       -1.13274191       0.81736717       4.26425801
C        0.88422616      -0.33101552      -0.16806585
C        4.02485734      -3.55737169       4.88088532
C       -1.92462735       2.42530861       2.59949098
C        0.00152991       1.22455982      -2.63230758
C        0.55142747      -1.58992267       2.11283825
C       -0.04627532       0.76213597      -0.16143489
C        1.40192464      -2.95645495       4.77809491
C        3.03172179       1.19463131      -8.84975049
C        1.02935852       0.97957295      -4.85842270
C       -7.20455189       3.35815170      -7.82793019
C       -3.89439606       1.68206523      -8.43933171
C       -2.35362911      -0.78070170       7.63337607
C        0.37193762      -2.01960283       4.44074222
C       -2.84901294      -1.33858271       8.63738964
C        0.17352233      -1.11253481       3.37910101
C       -5.10847886       2.29605778      -8.21895084
C        5.68660666      -1.42834311       2.41860054
C        0.79993070      -1.33809819       0.79909318
C        2.69705685       0.66155944      -1.47817867
C       -1.57321970       0.50667012      -8.83676681
C       -1.67473240      -1.29331116     -10.80284037
C       -1.91834320      -0.22992526       6.52163785
C       -2.15014034       2.56904600       0.11726304
C        2.74672366       0.52561015       1.10527971
C       -2.79761416       1.15392873      -8.60110949
C       -3.27663841      -1.91914245       9.73626653
C       -1.47651272       0.21184531       5.44695474
C       -0.19375172       0.26415240       3.36611428
C        0.47848213       0.96870800       2.24249864
C        5.72792935      -2.46840677       3.14488300
C        3.31558150      -3.06720174       3.09885601
C        2.20472491       0.26407422      -0.24282909
C        2.80481306      -2.78032084       1.89326020
C        2.70658530      -3.26489633       4.41925343
C       -6.52182780       2.21298543      -8.23208257
C       -0.42701530       0.71937349      -8.12507824
C        0.76106142       0.89406340      -7.48577843
C       -0.38370386       1.27191372       1.10487953
C       -2.69970149       3.04929404      -1.76088667
C       -1.67683652       2.21507365      -1.15981259
C        2.17557669       0.84029341      -2.60926428
C       -0.53755449       1.37785247      -1.40463550
C       -2.56331575       2.71518336       4.92361565
C       -1.54849463      -0.45886681      -9.88243110
C        4.08182614       0.21122851       1.35881845
C       -3.16621034       3.38725364      -0.50998435
C       -1.54772909       2.12191837       1.33437281
C        0.20430914      -2.91186539       5.49396041
C       -1.84636848       2.05586168       3.88962755
