60
Properties=species:S:1:pos:R:3 trial_index=36 seed_entry_id=16 discovered_entry_id=32 energy=-475.2547912597656 status=accepted pbc="F F F"
C        5.55564471      -1.86916507       3.12128161
C        0.05957636      -1.08001009      -3.53879573
C        1.94147714       0.12286641       0.65426161
C        0.51352512      -4.20007427      -2.51670726
C       -5.08788363       2.93648016       3.20533267
C        1.46434639      -0.61610387      -1.58953034
C       -4.70088309      -4.44089111       6.73730590
C        6.60932585       1.38562756       2.61597148
C       -5.39570245       6.76711621      -0.67806930
C        1.80096108      -2.34917862       0.20009124
C       -2.18709946       1.05308625       2.52003462
C        2.54925925       1.37394332       0.85353535
C        4.44361811      -2.39112409       2.66113731
C       -2.25908504       2.97596850       0.92276389
C        0.32965803       1.15587106      -2.76472568
C        1.33213130      -3.26829281      -0.74260221
C        2.53816461       1.60643513      -1.75085961
C        0.95068550      -2.95115574       2.40607364
C        0.99223566      -4.57246788      -1.17196042
C        0.77321083      -1.54822814      -2.47286196
C       -6.43631473       4.01905239      -9.14831336
C       -3.78734242       2.26018267      -7.00361764
C       -2.73859449      -2.12821460       4.45532900
C       -0.84022169      -1.42104961       3.03923670
C       -3.35141691      -2.90636208       5.19294289
C       -0.25634995      -0.39904516       2.35808413
C       -4.67021314       2.83252556      -7.74849935
C        6.83688387       0.26055948       3.16928064
C        0.86614606      -2.89682067      -2.03110243
C        3.42559485       2.14147799      -1.05465995
C       -2.05119478       1.24035031      -5.40289696
C        0.00639320      -4.72340666      -3.66000511
C       -2.17351655      -1.13719244       3.65552224
C       -2.98263904       4.00695821       0.35371293
C        4.85520738       2.27847134       1.03502198
C       -2.93508982       1.76650251      -6.21701608
C       -3.91842496      -3.82491869       5.96444915
C       -2.72797662       0.09919399       3.34625706
C       -0.81141477       0.79104745       2.01926054
C        1.16653957       1.30127848       0.84441680
C        6.40877548      -0.95992465       3.32666439
C        2.07716177      -2.74637345       1.60180429
C        3.71049340       2.07739789       0.32737918
C        1.84986661      -0.98352269      -0.25662415
C        3.33287054      -2.64565697       2.15131241
C       -5.54429679       3.29995187      -8.58156781
C       -1.22828866       0.75956730      -4.61182386
C       -0.29854154       0.23714168      -3.72680804
C       -0.17688515       1.66946861       1.10425346
C       -3.77486344       4.91084219       0.03128616
C       -0.74203881       2.68588236      -1.02620817
C        1.54609144       0.72293766      -2.09949612
C       -0.33508006       2.17576261      -2.10168243
C       -4.02683145       2.64551670       2.60517608
C       -0.45699508      -5.24600488      -4.70458321
C        5.80632512       2.05163326       1.81790233
C       -4.51678481       5.89349009      -0.44784586
C       -1.01083942       2.54244827       0.33774284
C       -0.10910580      -2.64642387       3.00658762
C       -2.81333808       2.26575501       2.04247531
