60
Properties=species:S:1:pos:R:3 trial_index=17 seed_entry_id=8 discovered_entry_id=16 energy=-478.9881896972656 status=accepted pbc="F F F"
C        5.99959278      -2.42215202       2.56959700
C        0.64766112      -0.80569124      -3.25037884
C        2.37665807       0.48041245       1.13772233
C       -0.40859486      -1.76346980      -2.96603552
C       -5.56496361       2.05372074       1.99253156
C        2.14224680      -0.38232343      -0.94697092
C       -4.35203755      -4.12299199       7.65991957
C        5.87294002       0.70024492       1.38216263
C       -4.04426717       3.41876188      -4.11203604
C        1.65713624      -1.86092277       1.13710762
C       -2.39668636       0.41464679       2.16559004
C        1.40337519       2.38628840       0.35141569
C        4.73392856      -2.78609767       2.58846847
C       -2.29369505       2.29415596       0.49026545
C        1.23370363       2.85123796      -2.40631771
C        0.24698177      -1.85873849       0.86552537
C        2.41400205       2.10084443      -2.11028830
C        1.09985794      -3.07570150       3.12227437
C       -0.42847185      -2.17719260      -1.63912249
C        1.53951675      -0.41883176      -2.21762841
C       -5.76156326       4.70053611      -6.77403911
C       -3.37223620       1.96164403      -5.79920316
C       -2.72753748      -2.26526012       4.77812650
C       -1.04095578      -1.95288965       3.04120394
C       -3.21267910      -2.87088967       5.73670021
C       -0.63109668      -1.27233844       1.86962314
C       -4.16708519       3.09785468      -5.47855405
C        6.71289199      -0.19518840       1.81046335
C       -0.16083551      -2.04636057      -0.44640325
C        3.25242925       2.75790889      -1.18871761
C       -1.67395622       0.01035978      -5.46754926
C       -1.43546916      -1.90986540      -3.91578943
C       -2.28599385      -1.52022697       3.68192710
C       -2.94945774       2.97382218      -0.52982783
C        3.46196553       1.42914367       0.84139380
C       -2.60700452       1.00373125      -5.75058224
C       -3.63647627      -3.56797952       6.78410703
C       -2.91117292      -0.41339115       3.12623823
C       -1.06828855       0.05485329       1.70067825
C        1.15424386       1.21911374       1.04775893
C        6.71955969      -1.40428381       2.26416512
C        2.13953632      -2.62799369       2.28026070
C        2.79635398       2.47667036       0.06321547
C        2.33010675      -0.78207319       0.42988501
C        3.49156427      -2.81797854       2.49577725
C       -4.97188118       3.82764158      -6.35610437
C       -0.29101091       0.28798112      -5.28875499
C        0.56983672      -0.03814912      -4.42542329
C       -0.27112902       1.05668966       1.12533061
C       -3.38581652       3.32116963      -1.63162142
C        0.18604364       2.85799322      -0.25360929
C        2.23037770       0.73045092      -1.81235940
C        0.29430584       3.18352165      -1.60502635
C       -4.35890664       1.81497409       1.74650399
C       -1.94954729      -1.25109747      -4.85822525
C        4.79523570       1.24798570       1.02433397
C       -3.75718507       3.43891568      -2.91222765
C       -0.87420388       2.15965596       0.46735309
C       -0.09289166      -2.89354175       3.49654257
C       -3.02203992       1.55183500       1.50364359
