60
Properties=species:S:1:pos:R:3 source_escape=runs/20260728-block-krylov-fixed-starter-escape/output/cases/plateau_accepted-seed43-discrete/escape.xyz pbc="F F F"
C       -1.49976687       0.21953034       2.19699879
C        0.26412440      -1.44263724       0.52721080
C        2.43920184      -0.52545817       2.05560729
C       -0.18955378       2.21810275      -3.05827848
C       -0.10408995       3.78987341      -1.16216262
C       -0.24379720       0.56761904       1.48106906
C       -0.76044394       1.51058804       2.49390670
C        0.07589070      -0.15800382       3.87733707
C        1.94234484      -0.50205456      -2.80536550
C       -0.95661584       1.28489071      -3.81233780
C        1.88311785       2.33783552      -0.52781657
C        2.12782486      -1.75545642      -0.92435968
C       -2.47121806      -0.02708518       1.14924127
C        1.13352582       0.35949454      -3.56078900
C        0.38449541      -2.53157375      -2.31168358
C        1.51853370       1.46717274       3.07705626
C        0.19483163      -3.08994337      -0.98405557
C       -2.72536686       1.37577802      -2.15840962
C       -2.04084280       2.44089586      -1.49963515
C       -0.53685016      -2.04779661       2.41651914
C       -2.31866141      -0.53030292      -3.60782418
C       -3.37479934      -0.86939904      -1.43450855
C       -0.64736620       4.20619554       0.09166511
C       -0.68546572       2.80121490       1.86307738
C        0.63825240       3.26072304       1.76774184
C        1.66443581       2.28307991       1.92325073
C       -2.94915733      -1.38690807      -2.69786096
C        0.19555317       1.22426025       3.51903332
C       -3.22667180       0.50126665      -1.15255108
C        0.68910533      -0.18482560       0.92451975
C       -2.15372358      -2.82124132      -1.07331908
C       -1.02772300      -2.11264464       0.94521384
C        0.68792400       4.15776323       0.68319325
C       -0.15677442       0.10646465      -4.06583101
C        2.11064277       0.20701881       3.18517463
C       -2.91953124      -1.78963430      -0.46235675
C       -1.44642257       3.19691330       0.74093932
C        1.16416336       3.56002945      -0.52631104
C        2.14672294       1.69261853       0.73497014
C        2.18760201       0.15907231       0.73969189
C       -0.86566409      -0.82932359       3.05964756
C       -2.81990430       0.98155363       0.15266401
C        1.09354083      -2.32860588      -0.16342425
C        1.59438653      -1.96294493       3.76189560
C        2.06895904      -1.89226672       2.36834698
C       -2.05421493      -2.49230529      -2.44456059
C        2.51446347       0.28571473      -1.73429776
C       -1.04330472      -3.13035689      -0.27897842
C        2.62183731      -0.47271364      -0.55825336
C       -2.25919049       0.87918940      -3.39637335
C        1.62989470      -1.77958956      -2.28332864
C        0.78616970      -2.40957007       2.69271679
C       -0.98438884      -1.02499246      -3.85627560
C       -0.83692886       2.97134721      -2.03576032
C       -2.31904448      -1.35855091       0.72451657
C        1.36450070      -0.60882677       4.08793029
C       -0.78406100      -2.19465192      -3.03970969
C        1.97819955       1.60061365      -1.75543484
C       -2.21287968       2.31969656      -0.07338452
C        1.11955726       1.66104132      -2.90393834
