60
Properties=species:S:1:pos:R:3 entry_id=24 rank=14 energy=-480.0172424316406 pbc="F F F"
C        3.80616699      -1.95926211       0.49924349
C        1.47058644      -0.18690716      -3.71234826
C        1.28956082       1.86116448       1.99738898
C        0.89587581      -1.38482927      -3.44209485
C       -1.84449171       4.34559248       3.92466402
C        1.73161852       0.41294065       0.24940004
C       -2.82761621      -5.62264153       1.35373714
C        2.63002416      -1.02479498       3.74909916
C       -2.07252179      -0.14722937      -3.24358354
C        0.83877677      -2.57659058      -1.18420729
C        0.27325487       3.00687576       4.03402173
C        0.80087983       3.54578819      -1.20655031
C        3.36529614      -1.65006468      -0.63802431
C       -1.35612594       4.62731594      -0.80162522
C        0.39389957       3.20107352      -2.56570903
C        0.67619270      -2.33954927       0.04006459
C        1.11751404       1.97002138      -2.89185879
C       -2.30516392      -3.35270577      -1.55923846
C       -2.36892979      -0.97617255       0.21785216
C        2.02354364       0.23158300      -1.12821478
C       -2.98108267       1.58958289      -1.75598709
C       -2.12969764      -2.06939581      -1.96612893
C       -2.01298884      -4.92278317       3.57950218
C       -0.65942160      -1.86716769       1.98763493
C       -1.36145241      -3.76507752       3.57988111
C        0.64566635      -1.63956683       1.22226504
C       -2.58765186      -0.91348918      -1.14744565
C        3.41283793      -1.75711631       2.98697746
C       -2.60319814      -4.31017799      -0.80360809
C        1.54975533       1.78913013       0.59927016
C       -0.69419109      -0.52889926      -5.03098546
C        1.47714477      -1.90187438      -2.21612334
C       -0.87220941      -2.75678564       3.00681851
C       -1.85175825       3.89045154      -1.95491325
C        1.33057712       0.50343733       2.51070810
C       -1.55280174      -1.45456879      -3.14937952
C       -2.56727308      -5.59305520       2.62648034
C       -0.80373949       3.65494334       4.33037003
C        0.81817946       3.01064595       2.70620562
C        0.47405408       4.08484115       1.92589041
C        3.80867136      -2.03364045       1.81122982
C       -2.80433438      -5.14163291       0.17985387
C        1.51711178       2.48059729      -0.64797351
C        1.30695548      -0.38093532       1.32184499
C        2.51108798      -1.07637912      -1.56433115
C       -2.69856496       0.25519435      -2.02916024
C       -0.24453496       0.79694889      -4.74758527
C        0.91118634       1.03175379      -3.93941254
C       -0.11487689       4.64680584       0.91363990
C       -2.73461492       2.81157320      -1.78153210
C        0.01119306       4.44619849      -0.51755076
C        1.73975694       1.52094172      -1.70547358
C       -0.84252141       3.64659940      -2.93273285
C       -2.37918081       4.81730515       2.85027369
C       -0.42793621      -1.57550955      -4.00885870
C        1.78106161      -0.04014317       3.70383007
C       -1.58130557       0.48620088      -4.40395762
C       -1.64793152       4.94666523       0.59758071
C       -1.73974920      -1.39241228       1.21427466
C       -2.54363575       5.09032656       1.59159234
