60
Properties=species:S:1:pos:R:3 entry_id=25 rank=36 energy=-470.4655456542969 pbc="F F F"
C        4.82930403      -4.60787616       2.29824174
C        0.42184191       0.56615699      -1.92001616
C        3.40533716       1.66318956       0.44940801
C        5.12354929      -5.77436414       3.03452106
C       -2.57117852       2.44059193       4.03783411
C        0.94918697       1.24822634       0.42111949
C       -1.27033088      -3.80822831      -1.28616850
C        2.93803235      -1.77609472       1.59353056
C       -2.92352432       2.02366957      -3.18978552
C       -1.38600854      -2.57637220      -0.77825149
C       -1.94253916       1.54814949       3.19712524
C        0.38059267       2.88888920      -1.27611625
C        3.96102953      -5.07521682       3.40840711
C       -2.11748952       5.01700336       0.42749972
C        1.09111882       3.15558509      -4.11550190
C        0.11273483      -0.92579291       0.40900208
C        1.70013968       2.07011320      -3.41363893
C       -2.53946475      -1.92649695      -0.20698703
C       -3.28954843      -0.77037130      -0.46389524
C        0.21322419       1.50781389      -0.89512063
C       -2.68035228       3.25843112      -2.65216883
C       -1.34450356      -3.07522307      -4.65362473
C        0.55652169      -2.19118040       3.79830934
C       -1.98889951      -0.45963300       1.81621072
C       -0.55612929      -1.56884442       4.17944863
C       -0.69718609      -0.15673010       1.30690261
C       -3.54447333       0.17279679      -1.42988563
C        2.76302225      -2.77823640       2.48785250
C       -0.97212037      -6.21445460      -2.12350176
C        2.15433847       2.13394754       0.07410443
C       -0.03912881       0.17488328      -4.06873903
C       -0.05406649      -0.78052527      -1.96533451
C       -1.49322359      -0.73722737       4.09216099
C       -2.10838326       4.76464922      -0.78146803
C        3.64170826       0.47367835       0.85005601
C       -0.87774783      -2.21784078      -3.86370003
C        1.60119729      -2.59852666       3.26836914
C       -2.07275495       0.10301317       3.16865605
C       -0.17376137       1.12352129       1.47682093
C       -1.01167074       2.09522046       2.13962100
C        3.66402197      -3.90854500       2.67527795
C       -1.12049483      -5.00034552      -1.72301943
C        1.84328020       2.80892891      -1.18577028
C        1.36924339      -0.21033948       0.48379911
C       -0.35633321      -1.52112458      -0.79923353
C       -3.45842809       1.04545436      -2.30411774
C       -1.16576769       0.81885535      -4.61877448
C        0.83721831       0.95141734      -3.21082705
C       -1.11973722       3.36345658       1.71628649
C       -1.82929764       4.02727002      -1.95368460
C       -0.37854436       3.66297918      -2.20110794
C        2.47674921       2.49234754      -2.34064329
C        0.15798239       3.72680120      -3.46456591
C       -2.67415096       3.71726998       3.79311147
C       -0.30701678      -1.08153120      -3.33848939
C        2.67871683      -0.59813523       0.98207635
C       -2.16693592       1.49751208      -4.29654907
C       -1.90080828       4.48955540       1.73035289
C       -2.82030933      -1.05490924       0.85166933
C       -2.52086906       4.72390363       2.98790156
