60
Properties=species:S:1:pos:R:3 entry_id=26 rank=21 energy=-479.2027893066406 pbc="F F F"
C        3.86984957      -4.40004482       0.53503584
C        1.40912310       0.62009635      -3.50544114
C        1.56254081       2.52530559       1.75316325
C        0.78662389      -2.32061998      -2.30826961
C       -3.28117381       2.12050153       2.92228756
C        2.03718697       0.67471195       0.48935084
C       -1.19786833      -3.81776836       2.26521339
C        5.07832962      -1.77865695       1.00138820
C       -1.80315691      -0.22150477      -3.75899737
C        0.50613996      -2.82995130       0.86677448
C       -1.86368600       1.63324847       4.80214035
C        0.71309814       3.97816972      -0.51899037
C        2.71681285      -3.97593849       0.29802267
C       -1.76211844       4.50019109      -0.96078427
C        0.34422113       4.07066372      -3.32908196
C        0.32374518      -1.40206546       1.15603545
C        1.12843627       2.92835830      -3.19988495
C       -1.93314236      -2.72756086      -1.09751193
C       -3.17354349      -0.17216041      -0.42088774
C        1.96500625       0.96123984      -2.28661037
C       -2.91113835       1.80574914      -2.80330683
C       -2.19525551      -1.72983941      -2.02065019
C       -1.88888488      -2.42520748       4.22136439
C       -2.09194316      -0.45243186       1.93687599
C       -2.19928065      -1.19462708       4.25323226
C       -0.85341398      -0.94899196       1.68597657
C       -2.94839281      -0.50997316      -1.75367773
C        5.62827558      -2.98153904       1.01842896
C       -1.52952550      -3.41559054      -0.15444975
C        1.88361877       2.10697874       0.48289405
C        0.47740828      -0.37849685      -3.87604785
C        1.26686431      -2.88372506      -1.32680907
C       -2.48259440      -0.17872671       3.37585669
C       -1.93259589       4.16699031      -2.37926585
C        2.87215362      -0.45160042       0.74928934
C       -1.38568768      -1.44910714      -3.14809354
C       -1.52373741      -3.40084994       3.39877786
C       -2.75301087       1.18465597       3.78478667
C       -0.67505580       2.10134189       4.66871548
C        0.38554810       2.41446350       4.00244111
C        5.17306398      -4.19572932       0.83924247
C       -0.74764183      -3.60361439       0.98618295
C        1.60307052       2.90488578      -0.69680408
C        1.45239118      -0.52008166       0.86345766
C        1.56405650      -3.29454636      -0.02626785
C       -2.74002672       0.42204378      -2.87444496
C       -0.30428882       1.61897668      -4.78231077
C        0.88101323       1.86326296      -4.11314895
C        1.10945001       2.51155659       2.93073789
C       -2.67320885       3.02104144      -2.66927151
C       -0.40283285       4.53056608      -0.56666646
C        1.70736806       2.32007466      -2.00211009
C       -0.81748175       4.51201816      -3.18684175
C       -3.48686548       2.99649472       2.06978316
C        0.04124546      -1.54907965      -3.18940915
C        4.05760174      -1.04516836       0.87575123
C       -0.67499883       0.32724552      -4.42982480
C       -2.72658565       4.21742453      -0.01444576
C       -2.92163270      -0.18713489       0.79827358
C       -3.26656905       3.76522593       1.00381720
