60
Properties=species:S:1:pos:R:3 entry_id=2 rank=25 energy=-477.5131530761719 pbc="F F F"
C        1.60475434      -5.66719890       0.26720394
C        1.76481924       0.09723396      -2.75429079
C        1.83445427       2.01941684       1.77005621
C        2.14250468      -1.15107410      -3.13995345
C       -2.38508094       2.57464448       2.77302747
C        2.35882485       0.80355478      -0.16850073
C       -0.22869942      -3.35644072       3.43604649
C        2.45582346      -1.10991533       3.64871364
C       -4.02127298       1.75000496      -2.33335899
C        0.51838852      -2.13017350       0.74491931
C       -1.83024944       1.40542825       2.36418755
C       -0.04684113       3.30896572      -0.09191458
C        0.88826125      -4.83771678      -0.62365081
C       -0.44816350       4.80867108      -0.23599623
C        0.10137190       3.48503901      -3.21366525
C        0.86226495      -0.75016338       1.07123327
C        0.71468367       2.26436169      -2.99219828
C       -0.55103614      -3.10471338      -1.38427706
C       -1.61101106       1.24534417      -0.23387222
C        2.03981461       0.87303987      -1.57445394
C       -3.74504499       0.48172449      -2.40817733
C       -1.40055100      -2.43331718      -2.35027941
C       -1.42672303      -2.97766620       3.38503317
C       -1.49506080      -0.00679651       0.46380026
C       -2.34594891      -2.09853423       3.01959544
C       -0.20435553       0.14178214       1.27868921
C       -2.11734039      -1.37664171      -1.67911909
C        1.92765587      -2.24846636       3.51774898
C       -0.51164278      -2.21572448      -0.22474632
C        2.01765766       2.06153256       0.38317593
C       -0.47805781      -1.03654454      -4.34827633
C        1.71903553      -2.16232399      -3.79293802
C       -2.69514919      -0.99062537       2.52136434
C       -1.35783826       2.52409061      -0.50022630
C        2.35699038       0.73059401       2.18879498
C       -0.87020476      -2.20321611      -3.61930367
C        1.05810371      -3.12952039       2.94352742
C       -2.36175955       0.12283449       1.85160274
C       -0.39273235       1.29982981       2.09677651
C        0.50091670       2.41663190       2.15721059
C        1.21163034      -4.46251862       0.77735282
C        1.04453856      -3.27336997       1.43877948
C        1.22213193       2.75990961      -0.54785519
C        2.14197451      -0.09090017       0.95532173
C        0.19389925      -4.21906515      -1.54151758
C       -3.05921435      -0.55837570      -2.22613820
C       -0.14625313       0.23379016      -4.31863255
C        0.77285910       0.88547059      -3.56280509
C        0.01067259       3.49599745       1.36543244
C       -2.44577209       3.19567050      -1.13208648
C       -0.40714779       5.31775375      -1.47793741
C        1.40121745       2.11654666      -1.76819227
C       -0.17428811       4.53550971      -2.53429238
C       -2.29563234       3.84227446       2.65742516
C        0.40047581      -2.24571912      -4.14581394
C        2.66634870       0.15189182       3.37485913
C       -3.46063857       2.79985813      -1.81468674
C       -0.73636008       4.73482498       1.22859831
C       -1.48193290      -1.21628549      -0.39756501
C       -1.80315073       4.92993070       2.09124042
