60
Properties=species:S:1:pos:R:3 entry_id=29 rank=11 energy=-480.882568359375 pbc="F F F"
C        2.20681989      -2.44519715       0.16995165
C        1.70909099       1.30996210      -3.36596421
C        0.03928063       1.29311367       2.32405462
C        1.53964263       0.15358322      -3.99805054
C       -0.77184345       5.26202193       4.84989441
C        0.49715078       0.17611365       0.28332374
C       -2.55532901      -8.29908072       4.64747497
C        0.85231292      -2.09139963       3.43582576
C       -1.17105636       1.65529927      -5.50299375
C        2.01271759      -2.26112473      -3.57058337
C       -0.45433254       2.81800604       4.29313465
C        0.49686376       3.67684361       0.70213389
C        2.03058738      -1.76726796      -0.87627291
C        0.10757454       6.01757031       0.19986651
C        0.45796621       4.32823261      -1.67701889
C        2.25976893      -3.41598235      -3.98780812
C        0.96726938       3.00912591      -2.06839886
C       -3.40067260     -11.70989112       6.14865985
C       -1.35371362      -1.62334425      -1.88442806
C        1.05320019       0.43968318      -1.03202337
C       -2.55484827       3.48471978      -4.92015222
C       -1.21373256      -0.46014304      -4.15337375
C       -2.13609908      -6.07260844       3.44475040
C       -1.24496931      -2.92749172       1.49847358
C       -1.90035906      -5.00059251       2.83328384
C       -0.82108690      -1.92173935       0.66299677
C       -1.38670633      -1.13568795      -3.12673879
C        1.60720718      -2.76475354       2.59504809
C       -2.96521384     -10.56153133       5.80295631
C        0.49541547       1.35055173       1.02662663
C        1.17272402       1.71949805      -5.74287275
C        1.73973315      -0.97830495      -3.13038547
C       -1.58879379      -3.92754085       2.14913711
C       -1.24007997       4.99400637      -3.46588254
C       -0.17287805      -0.16132157       2.51088165
C       -0.62791670       0.39512031      -5.05761510
C       -2.39811306      -7.18374653       4.04397097
C       -0.67344834       3.95097883       4.87345606
C       -0.10172627       2.57673607       2.97552794
C        0.10550382       3.77598819       2.09099672
C        2.06650862      -2.83481250       1.41162117
C       -2.82520171      -9.43211436       5.17267683
C        0.77797302       2.41785470       0.22281644
C       -0.13794313      -0.75632826       1.12361402
C        1.64586339      -0.72476675      -1.71738652
C       -2.39292569       2.26733406      -5.33192445
C        0.97019667       2.84013185      -4.80337571
C        1.20979912       2.55132858      -3.41490592
C       -0.15397933       5.09213156       2.45655466
C       -2.13229006       4.53027863      -4.29398031
C        0.41569209       4.75366637      -0.25446821
C        1.05388327       1.97115673      -1.09651292
C       -0.34588534       4.99288150      -2.56778170
C       -0.52858164       5.83068155       3.62289839
C        0.81094461       0.40682388      -5.21267395
C        0.13009996      -1.02176532       3.54529788
C       -0.02841369       2.50571013      -5.75015609
C       -0.12332978       6.23707486       1.50935005
C       -1.16516198      -1.89290067      -0.69479155
C       -0.46817925       6.94832523       2.70620984
