60
Properties=species:S:1:pos:R:3 entry_id=6 rank=34 energy=-471.1995544433594 pbc="F F F"
C        2.57316922      -4.21607645      -0.09011251
C        1.12667950      -0.18372176      -2.17301968
C        2.09822981       1.69817926       1.06264530
C        1.42536897      -3.83878926      -2.40970350
C       -2.98023705       2.38283538       4.09372492
C        2.52587635       1.70662450      -1.33309148
C       -1.05992720      -2.94680237       1.91909057
C        3.75107397      -1.49087710       1.99881294
C        0.25101660       1.82015354      -6.54902914
C        0.68485466      -1.86546297       0.39396584
C        0.00025542      -0.07199783       3.54959402
C        1.00910224       4.12329117      -0.04894867
C        1.80470115      -3.60572737      -1.08161014
C       -1.18781298       4.81084872       0.27115815
C       -0.89873924       2.69936919      -2.31816857
C        0.78446462      -0.57130789       0.94765521
C       -1.60814157       1.56739333      -2.71650241
C       -1.39709420      -2.73841912      -1.69433656
C       -3.51408554       0.42849992       0.01144113
C        1.72754937       0.59283476      -1.08792032
C       -3.45320662       0.51355798      -1.45449777
C       -1.32904988      -1.98239239      -2.89536491
C       -2.54884155      -2.40612495       3.87228652
C       -2.48214119       0.05059508       2.39951214
C       -3.13026533      -1.35665260       4.28201012
C        0.17117605      -0.31363486       2.20140367
C       -1.93582387      -0.79336695      -2.84658785
C        3.58838273      -2.67937732       1.62595011
C       -1.15076400      -3.01277892      -0.51934011
C        2.58327376       2.50800075      -0.21982670
C        0.12321612      -1.32906632      -4.75702783
C        1.20787331      -1.56572580      -2.01648245
C       -3.18042429      -0.05116773       3.84872947
C       -2.06572291       4.35111841      -0.70856263
C        3.14825942       0.94621833       1.75273795
C       -0.16570103      -2.23783824      -3.81019519
C       -1.75451117      -2.95349829       2.95572670
C       -3.36505589       1.20926665       4.35569410
C       -1.11011400      -0.06266219       2.70173977
C        1.08822569       2.48923576       1.75867902
C        3.18070324      -3.69860641       0.90374909
C       -0.47255598      -2.74533300       0.69336687
C        2.25917553       3.81941085      -0.48945709
C        1.46904707       0.46775203       0.29113688
C        1.39831932      -2.20870098      -0.78389154
C       -2.40814600       0.40064124      -2.45094440
C        0.38053847      -0.00629066      -4.61679451
C        0.61754522       0.55151345      -3.28598068
C        0.49545383       3.55513394       1.20276480
C       -4.65656652       0.71293447      -0.89809938
C       -0.12348399       4.64836119      -0.71973687
C       -0.22685880       1.66464047      -3.01219329
C       -1.01422507       3.89454461      -1.57653275
C       -2.30989355       3.30017894       3.42062052
C        0.92632969      -2.66224355      -2.93571464
C        3.62491027      -0.17058910       2.04605201
C        0.30347198       0.95427998      -5.65683437
C       -0.80342853       4.16300077       1.49180541
C       -2.99862036       0.25853590       1.19265352
C       -1.59989202       3.83742837       2.54680626
