60
Properties=species:S:1:pos:R:3 entry_id=30 rank=18 energy=-479.7069091796875 pbc="F F F"
C        2.09689220      -2.56835778       0.32627478
C        1.16353242       1.35606135      -3.28656778
C        0.08546576       1.38043324       2.05137723
C        1.42048147       0.14406901      -3.90356649
C       -0.40661340       4.84910995       5.23666034
C        0.45610810       0.16778179       0.10078197
C       -2.57191505      -8.20472911       4.70780796
C        0.69662474      -1.87636158       3.48518325
C       -0.97348724       1.45201277      -5.74203295
C        2.50600033      -2.10069084      -3.97240370
C       -0.18201786       2.50915073       4.29538436
C        0.29175560       3.86547752       0.83400672
C        1.93673676      -1.79397175      -0.71194626
C       -0.06312902       6.27291268       0.66647322
C        0.13825354       4.59965363      -1.34662307
C        2.99653048      -3.11978774      -4.50111461
C        0.78816666       2.45316511      -2.51535511
C       -3.36308206     -11.60799949       6.25800024
C       -1.43279809      -1.64076712      -1.86344400
C        1.25050345      -0.40786150      -0.85352274
C       -2.16666472       3.47068251      -5.16127786
C       -1.32545334      -0.51665665      -4.16125617
C       -2.21432726      -5.95363254       3.53487337
C       -1.35243721      -2.81712940       1.56925084
C       -2.00519176      -4.87485299       2.92517898
C       -0.90305583      -1.86233698       0.68648966
C       -1.47036697      -1.16203219      -3.10919854
C        1.42032014      -2.68316880       2.75830448
C       -2.90306080     -10.50627084       5.80816045
C        0.41287986       1.49213445       0.67051096
C        1.29662974       0.93481963      -6.26456909
C        1.97665651      -1.01778763      -3.28261869
C       -1.70603371      -3.80832642       2.22759642
C       -1.17063433       5.00785110      -3.46015202
C       -0.15598973      -0.00945911       2.35840023
C       -0.65101256       0.21483938      -5.10639187
C       -2.45379672      -7.06562104       4.14061087
C       -0.31969838       3.54938278       5.05477871
C        0.01821137       2.51336700       2.91556830
C        0.10401989       3.80402482       2.22904510
C        1.88506859      -2.83998611       1.56106180
C       -2.82358943      -9.33704874       5.24336831
C        0.50403783       2.73589598       0.03007696
C       -0.21147836      -0.67078409       1.06366104
C        1.82328099      -1.05502992      -1.88067455
C       -2.05773928       2.27800312      -5.62204878
C        0.73357622       3.03455609      -5.17342102
C        0.84836979       2.60791377      -3.92441523
C       -0.08631495       5.06092261       2.79957428
C       -1.84676733       4.47603754      -4.42363625
C        0.14076423       5.06718476       0.05675476
C        0.53424685       3.16779667      -1.34581126
C       -0.48632687       5.16389276      -2.40247521
C       -0.31049366       5.60822520       4.09431946
C        0.81397564       0.14959342      -5.22463608
C        0.04503320      -0.74986543       3.52338148
C        0.38909535       1.97135239      -6.01767805
C       -0.15458304       6.31791646       2.01508220
C       -1.25622070      -1.91016286      -0.67104596
C       -0.35194917       6.84555621       3.33482306
