60
Properties=species:S:1:pos:R:3 checkpoint_path=runs/20260728-direction-conditioned-checkpoint-shooting/output-v3/cases/intermediate_accepted-seed43-balanced_refinement/macro_checkpoints/step004_checkpoint.xyz pbc="F F F"
C       -1.08453109      -3.33576422       0.90849689
C        2.60657382      -1.34991149      -1.86545650
C        2.67664822       0.64488663       1.16937436
C       -2.88484271       2.61954121      -0.11971260
C       -3.08243594       1.47304067       2.05884072
C        3.93907393      -0.15641401      -0.94848952
C       -0.73388994      -2.37836029       1.93604856
C        1.55209569      -2.75902892       1.17543890
C        0.28531474       3.82681377      -0.83907180
C       -2.92687906       2.50116296      -1.54080836
C       -0.65455051       2.29837670       2.22574215
C        2.33706828       2.95408980      -0.50376877
C       -1.66558287      -2.79027565      -0.30500834
C       -1.08999875       3.76398352      -1.06129332
C        1.31530462       2.01774144      -2.40606968
C        1.19040483      -0.87108719       2.41811242
C        2.51854831       1.29189652      -2.06829416
C       -3.50636366       0.15355617      -1.37879213
C       -3.58994154       0.29113694       0.04221149
C        0.95908689      -3.54634355       0.14322484
C       -2.19851306       1.13043811      -3.19351041
C       -2.07493350      -1.27209062      -2.75463577
C       -3.16256383       0.23654413       2.78491520
C       -1.55759211      -1.37105961       2.49970608
C       -0.96575008      -0.30777095       3.25229723
C        0.32662010       0.14520261       2.87775789
C       -1.59525105      -0.10102753      -3.40243185
C        0.64761330      -2.12897106       2.03981308
C       -2.95666193      -1.13155821      -1.66097525
C        3.52046890       0.84390003       0.00322486
C        0.27406642      -1.28616299      -2.78282700
C        0.66875084      -2.90300141      -1.11915525
C       -1.97873193       0.62982034       3.54710458
C       -1.72506923       3.07408773      -2.10073987
C        2.38934832      -0.65849613       1.67181536
C       -0.91635999      -2.02666188      -2.51744646
C       -2.82202543      -0.93570480       2.02067392
C       -1.87690159       1.82684443       2.76671213
C        0.53617611       1.46883697       2.36303411
C        1.73487492       1.72656135       1.55673328
C       -0.11072503      -4.32989145       0.66259619
C       -2.70866146      -1.81467290      -0.40669014
C        3.06960529       1.85576878      -0.88616747
C        3.64921932      -1.55736936      -0.83978489
C        1.32003575      -1.89726723      -1.97707488
C       -0.15765479       0.02138901      -3.24944669
C        0.50172723       3.62795596       0.57121265
C        3.05610311      -0.01488888      -2.13494931
C        1.71184556       2.92367925       0.77462159
C       -3.20255743       1.27091047      -2.18650967
C        1.33387545       3.18399343      -1.53071210
C        3.76583884      -2.32319405       0.25671234
C       -1.16434540       2.11506459      -2.99144646
C       -3.36045779       1.54069134       0.67939915
C       -0.72959909      -2.81617570      -1.37596284
C        2.74722393      -1.95785044       1.10068763
C        0.12867261       1.44824337      -2.99131449
C       -0.71554549       3.27313237       1.19054207
C       -3.17891971      -0.94171657       0.65537002
C       -1.74381477       3.42364823       0.19430523
