60
Properties=species:S:1:pos:R:3 checkpoint_path=runs/20260728-direction-conditioned-checkpoint-shooting/output-v3/cases/intermediate_accepted-seed43-balanced_refinement/macro_checkpoints/step001_checkpoint.xyz pbc="F F F"
C       -2.47576687      -2.10252954       0.64301345
C        2.18364551      -2.86904765       0.06007438
C        1.22552027       0.04655245       2.61847509
C       -0.98126431       3.22299622      -1.96710521
C       -2.80552630       3.05232163      -0.31552043
C        2.78483397      -1.86990355       1.74794030
C       -2.87188807      -1.06039805       1.54561585
C       -1.48586538      -2.45759849       2.73553121
C        2.20358801       2.93689070      -0.64574560
C       -0.32989985       2.64263233      -3.09365479
C       -0.79497893       3.02007841       1.27061351
C        3.00192312       1.55655798       0.93613843
C       -2.24123346      -1.99319331      -0.78452616
C        1.32606265       3.29442081      -1.66766554
C        2.92636596       0.45294234      -1.15014883
C       -1.19961468      -0.20864462       3.07124522
C        3.27297032      -0.48584545      -0.07766295
C       -1.90538584       0.80120012      -3.11391626
C       -2.63143000       1.43271331      -2.06289768
C       -0.42737023      -3.43023464       0.96684185
C        0.40456582       0.65355794      -3.87662888
C       -0.82678283      -1.37926507      -3.29169952
C       -3.82091599       2.24662784       0.30017132
C       -3.29237305       0.25512353       1.27997765
C       -2.81665776       1.28536762       2.14585655
C       -1.50203235       1.11702323       2.66967978
C        0.38334113      -0.71109615      -3.64776347
C       -2.15097051      -1.22230154       2.77235265
C       -1.92129565      -0.60309326      -2.86295773
C        2.47785201      -0.52039964       2.14851130
C        0.97421859      -2.27725510      -2.10826340
C       -0.15269470      -3.33235550      -0.39573461
C       -3.22484293       2.52203067       1.60860679
C        1.08698634       2.55048274      -2.82778160
C        0.10990646      -0.77815376       3.02553070
C       -0.42707497      -2.41046254      -2.43237032
C       -3.69043261       0.83227345       0.05302355
C       -2.16215088       3.23188746       0.96143070
C       -0.44139506       1.95842442       2.20291022
C        0.93098857       1.45610748       2.27887744
C       -1.69468250      -3.00960473       1.43234653
C       -2.61571334      -0.86178637      -1.61279112
C        3.17178476       0.21517024       1.15762710
C        1.86599948      -2.91138697       1.47519799
C        1.15469461      -2.97675683      -0.87930202
C        1.44910180      -1.07103012      -2.73618408
C        1.52601268       3.18434369       0.60557607
C        3.17013170      -1.85171551       0.29015017
C        1.91128213       2.21496027       1.55996558
C       -0.77582616       1.43335328      -3.68282050
C        2.97446101       1.76196399      -0.49779767
C        0.55736930      -3.03816163       1.92354366
C        1.50384336       1.22497337      -3.13767886
C       -2.24029899       2.70075251      -1.55466357
C       -1.15159769      -2.80187711      -1.28299908
C       -0.07361504      -2.20359080       2.88628141
C        2.14747132       0.18063000      -2.34811947
C        0.17751365       3.51446956       0.35466218
C       -3.17691522       0.42440172      -1.19410969
C        0.04663129       3.65474247      -1.07105024
