60
Properties=species:S:1:pos:R:3 system=runs/20260728-safe-lbfgs-strict-quench-200-production/output-c60-seed42 state_id=plateau_accepted pbc="F F F"
C        0.50714889       2.46008496       2.94454730
C       -0.63663720      -0.55483425      -2.23048827
C       -1.51994590      -1.84069886       1.24331180
C        2.07650911      -0.28892900      -2.64100354
C        3.57719168      -0.31752079      -0.62173440
C       -1.52636426      -1.92004608      -3.23293041
C        1.23380455       1.24285878       3.12513779
C       -0.99530239       0.87718054       3.73146133
C       -0.27106163      -2.64445930      -3.09076304
C        1.13300088       0.39540995      -3.45630691
C        1.95106354      -2.26923394      -0.20959464
C       -2.09904338      -2.50741995      -0.94464004
C        0.31461597       2.98978028       1.62107987
C        0.80451263      -1.89306395      -3.69348477
C       -3.13628332      -0.62989081      -1.81121488
C        0.09075939      -0.92725574       2.79392916
C       -2.85676220      -0.52739729      -0.39375983
C        1.16271387       2.19090261      -1.85131481
C        2.25630005       1.57956283      -1.16524444
C       -1.80153753       3.01470275       2.75049805
C       -0.91558087       1.75551708      -3.08248957
C       -0.90096579       3.10362873      -0.99862845
C        3.87514029       0.24980329       0.67304620
C        2.32468396       0.72076439       2.36116702
C        2.41228169      -0.71478163       2.19268298
C        1.20498676      -1.43894778       2.05079482
C       -1.55580960       2.49050604      -2.10215534
C        0.27138198       0.27247394       3.51861001
C        0.47100810       2.94107905      -0.86080465
C       -1.04751398      -0.58076539      -3.64970865
C       -2.50823539       1.73500489      -0.25145405
C       -0.77700268       0.09231609      -1.14728892
C        3.48101686      -0.98474414       1.30645564
C        0.33528229      -0.60808423      -4.13755429
C       -1.29077506      -1.07503010       2.45555220
C       -1.71179968       2.91450880       0.15863599
C        3.00179822       1.26181929       1.19653449
C        3.16145414      -1.52559930       0.03470109
C        0.95945383      -2.20348251       0.87180050
C       -0.40924724      -2.47595739       0.58395050
C       -0.83426560       2.27489647       3.53013673
C        1.08896551       2.76305848       0.44420079
C       -2.53745244      -1.78006588       0.19048978
C       -3.34319591       0.45879275       3.16816568
C       -3.66001355       1.72954478       3.11807701
C       -2.70749828       1.78277287      -1.68710680
C        0.16638171      -2.98609843      -1.78421193
C       -1.81460913       0.44713409      -0.27522935
C       -0.77641533      -2.90585580      -0.72245892
C        0.51917978       1.58611822      -2.97595946
C       -2.48664857      -1.87096336      -2.15492383
C       -3.18248769       2.92178793       2.91577474
C       -1.78678757       0.64676469      -3.41041055
C        2.76949338       0.34929109      -1.56972639
C       -1.12868754       3.15638461       1.45770097
C       -2.03619545       0.01568387       3.17651082
C       -2.88937995       0.61436713      -2.51121354
C        1.50457416      -2.49841416      -1.57580728
C        2.27629264       1.97289656       0.22257838
C        1.81788288      -1.68419630      -2.71287646
