60
Properties=species:S:1:pos:R:3 system=runs/20260728-safe-lbfgs-strict-quench-200-production/output-c60-seed42 state_id=intermediate_accepted pbc="F F F"
C        0.04229484      -2.13943378       2.23860873
C        0.76253918      -2.78417498      -2.41990583
C        2.83776862       0.19626392      -0.75439885
C       -2.31089621       3.12345858       0.20010538
C       -1.20135080       2.96159300       2.39710456
C        2.50309228      -1.70298256      -2.52545712
C        0.75807497      -1.07558124       2.88161660
C        2.33741971      -2.38335239       1.84031632
C       -0.17341242       2.98693257      -2.51717376
C       -3.19377268       2.51958195      -0.74128122
C        0.86531867       3.05273689       0.88721227
C        1.62612440       1.69497829      -2.88875181
C       -1.27402754      -2.07894572       1.63122629
C       -1.40815126       3.27714547      -1.94000652
C       -0.35268100       0.50879554      -3.39620380
C        2.63584090      -0.11569981       1.69787681
C        0.81513858      -0.37576305      -3.46053784
C       -3.55215454       0.63193278       0.73497570
C       -2.76385262       1.28125140       1.72900809
C        0.96249849      -3.39084355       0.32770955
C       -3.66119764       0.52537343      -1.69734424
C       -3.33654272      -1.52016572      -0.39294511
C       -0.84426124       2.14999910       3.52533440
C        0.32998634       0.21511935       3.24028493
C        1.24416892       1.29150004       3.03508871
C        2.10857839       1.18360593       1.90717172
C       -3.38525052      -0.82950454      -1.64135863
C        2.13913198      -1.16850530       2.51424211
C       -3.25154424      -0.76144730       0.79100623
C        2.74685946      -0.34923706      -2.09772272
C       -1.67540516      -2.31713641      -1.82698885
C       -0.27986231      -3.33743158      -0.30129271
C        0.56234578       2.49359116       3.30836106
C       -2.55414412       2.48095124      -2.03577570
C        2.96740413      -0.64617197       0.41336326
C       -2.35590358      -2.50496360      -0.56667032
C       -0.98358322       0.73182494       3.30591499
C        0.19189489       3.21022793       2.12464829
C        1.90534401       2.03880602       0.77669344
C        2.36829500       1.58216164      -0.53457161
C        1.05224429      -2.99137499       1.68134293
C       -2.22270745      -0.99253136       1.79099965
C        1.94586969       0.36891064      -3.01870603
C        2.04132818      -2.78172704      -1.73426005
C       -0.41199609      -2.96155134      -1.68385741
C       -2.20637115      -1.12149689      -2.42958796
C        0.83799406       3.26151218      -1.52357643
C        1.20252828      -1.72870028      -3.28780737
C        1.90422839       2.34269479      -1.65732825
C       -3.82582620       1.27568060      -0.49366105
C        0.22867206       1.84323216      -3.24293006
C        2.12905350      -2.93223466      -0.35628804
C       -2.68115352       1.15796507      -2.54598957
C       -2.22685691       2.57920926       1.51334058
C       -1.42540154      -2.87276323       0.43243735
C        2.84902321      -2.08075286       0.52562541
C       -1.70182724       0.16519959      -2.97347889
C        0.22072541       3.54032120      -0.28596672
C       -2.02824844       0.29122067       2.46886248
C       -1.19300310       3.62119767      -0.54051651
