60
Properties=species:S:1:pos:R:3 pbc="F F F"
C       -3.49738775      -1.46331453      -5.60512575
C        3.13480424       0.10010144      -1.28138600
C        1.07422650       2.41962664       2.35366023
C        3.83190258      -1.43091597       0.51334908
C       -3.52431560       0.69934287       0.72349273
C        2.60763237       1.19379736       0.97463560
C        0.43925292      -3.01212854       2.18530758
C        0.97136467      -0.93007275       3.72256034
C       -0.83560787       0.95962657      -3.52413795
C        0.48887845      -1.31929118       0.55409914
C       -2.61924813       2.17992995       2.17496074
C        0.76824195       3.62270973      -0.20761042
C       -2.91581884      -1.69484622      -4.46513608
C       -0.97920471       3.79474211      -1.67654351
C        0.82616605       2.67376854      -2.52255170
C        0.14267097      -0.09185411       1.31816765
C        1.95891704       1.88498760      -2.12276743
C       -2.01081167      -2.48261147       0.85111399
C       -0.34618661      -4.11433648       2.82264631
C        3.24513403       1.21320273      -0.34605818
C       -2.03197294       0.82007813      -2.66160217
C       -1.36949916      -2.28628418      -1.32388719
C       -0.94885796      -2.92661975       2.84988843
C       -3.11357018      -0.54676867       1.17232234
C       -1.78761356      -2.06714523       2.17296398
C       -1.01818644       0.32092916       2.11376087
C       -2.42454502      -1.34909219      -1.06025414
C        2.65617828      -1.95881398       2.46234002
C       -0.95863429      -2.85011681      -0.01908247
C        2.19078430       2.52281720       1.38855283
C        0.19070567      -1.37439734      -3.11667137
C        2.95517722      -1.09717597      -0.49303763
C       -2.05258103      -0.67409335       2.18644894
C       -1.43418609       3.10713375      -2.81481850
C        1.10577088       1.56113162       3.45715903
C       -0.93168813      -2.25691612      -2.72839074
C        1.39273361      -2.02057486       2.95452679
C       -3.71366731       1.70557832       1.72259592
C       -1.29505730       1.71183482       2.23384672
C       -0.22603777       2.57856043       1.75197393
C        3.72708331      -1.77325164       1.77969303
C        0.28378349      -2.67514709       0.72773195
C        2.04606187       3.16958406       0.12313910
C        1.50754696       0.32128453       0.90233791
C        1.68229750      -0.75567771       0.04217954
C       -2.54454029       0.01874336      -1.54026285
C        1.33209940      -0.45675841      -3.07084071
C        2.20925617       0.46197584      -2.35087197
C       -0.40368799       3.24181694       0.52088640
C       -2.35495442       2.17462863      -2.32813259
C        0.43014160       3.67750361      -1.60275006
C        2.64790379       2.34177401      -0.92867659
C       -0.33257244       2.32106926      -3.33036256
C       -2.97790985       1.00009132      -0.54277761
C       -2.01715106      -1.99688293      -3.58086380
C        1.07064733       0.35777410       3.92930146
C        0.04505590      -0.12251432      -3.67740051
C       -1.49836567       3.23559163      -0.45583442
C       -2.91228779      -1.59740035       0.24899369
C       -2.48940325       2.29435028      -0.92172744
