60
Properties=species:S:1:pos:R:3 pbc="F F F"
C       -2.95566939      -3.27223068      -3.06359390
C        3.37414140       0.39161182      -0.00749808
C       -0.05619475       3.53996045       0.64764855
C        3.77202194      -0.38468623       2.57140144
C       -3.62593293       0.23932496      -0.79737923
C        2.00755070       2.33492382       0.81281886
C       -0.27709121      -0.92612635       3.81805796
C        0.18387954       1.70952525       3.84921853
C        0.36660240      -1.19725282      -3.34199544
C        0.49865466      -0.51367376       1.73219835
C       -3.36162512       2.32914157      -0.10047129
C        0.48865463       3.02779692      -2.14959057
C       -1.83999705      -3.79042097      -2.62234093
C       -0.55727691       1.98992898      -3.87601674
C        1.46217207       1.06129513      -3.20796948
C       -0.19127904       0.75832146       1.36217098
C        2.36581147       0.96649477      -2.09164160
C       -2.12670006      -1.88029984       1.70123463
C       -1.24655072      -1.35828558       4.86456254
C        3.03471577       1.79809285      -0.04658987
C       -1.05056570      -1.15833289      -3.06095932
C       -0.68773982      -2.62234104       0.07287939
C       -1.78808881      -0.75157287       3.78310617
C       -3.35063975      -0.39511990       0.43261048
C       -2.42662771      -0.79798614       2.54907138
C       -1.59859122       1.15181903       1.21443967
C       -1.78581093      -1.95503043      -0.55425250
C        1.94782678       0.11356173       4.23615682
C       -0.80967189      -2.35643008       1.57729937
C        1.27632039       3.35893898       0.14194394
C        1.34404195      -2.62418650      -1.44652124
C        3.17282857      -0.20938331       1.33260751
C       -2.64925575       0.22555163       1.55690177
C       -0.49980528       0.68054967      -4.39251703
C       -0.23724755       3.42206808       2.03331982
C        0.13478382      -3.28673146      -0.95957567
C        0.61511960       0.43497716       4.15784061
C       -4.15817797       1.58507414      -0.74124056
C       -2.06206196       2.27932120       0.40925166
C       -1.06678787       3.05484671      -0.27385912
C        3.05694588      -0.20545213       3.68342618
C        0.08750406      -1.59197662       2.49703467
C        1.54758024       3.13761620      -1.23319751
C        1.18942025       1.27645880       1.24904226
C        1.76740654       0.02803503       1.42620109
C       -1.86337397      -1.25612730      -1.82271050
C        2.20887728      -1.44077234      -1.53574807
C        2.79639003      -0.14956238      -1.27569274
C       -0.84511488       2.85342732      -1.69782400
C       -1.55555364      -0.01826165      -3.78047149
C        0.71626274       2.28283951      -3.32807750
C        2.56247599       2.14979448      -1.33804498
C        0.70514076       0.06823336      -3.89994501
C       -2.72963230      -0.09287979      -1.82960164
C       -0.70609286      -3.79056333      -1.95902947
C       -0.04294006       2.77809093       3.14836975
C        1.35158104      -1.85710659      -2.60268619
C       -1.51142380       2.05986513      -2.77720738
C       -2.73423896      -1.65730724       0.42847302
C       -2.24003443       0.81368084      -2.83997637
