60
Properties=species:S:1:pos:R:3 system=runs/20260728-safe-lbfgs-strict-quench-200-production/output-c60-seed42 state_id=intermediate_accepted pbc="F F F"
C       -0.31965630      -1.34218653       2.84284394
C       -1.69797331      -3.19512135      -1.35777843
C        2.04350305      -1.68386929      -1.28109947
C       -0.31775387       3.78000372      -0.46988940
C        1.26580149       3.47226431       1.39058000
C        0.18623276      -3.32966918      -2.14961926
C        1.00037354      -0.78898589       2.91277644
C        1.26155724      -2.94025556       2.11689325
C        0.37268584       1.94368306      -3.33818124
C       -1.64932064       3.64193585      -0.96571658
C        2.42389085       2.03909599      -0.42082465
C        1.09331363      -0.13055645      -3.36563324
C       -1.54048421      -0.64845614       2.48846671
C       -0.27491900       2.96289066      -2.65355823
C       -1.31882394      -0.08224078      -3.20244458
C        2.55940218      -1.33014498       1.12397167
C       -0.66964014      -1.42752731      -3.00488755
C       -2.35178221       2.65540704       1.13015818
C       -1.04997963       2.92068875       1.68964136
C       -0.85876201      -3.23295595       1.32817375
C       -3.38742885       2.17826455      -1.06370155
C       -3.43999794       0.46613804       0.55214882
C        0.73889824       2.74719144       2.29022481
C        1.42304006       0.55655348       2.85717763
C        2.16739107       0.88005577       2.10106602
C        2.86301341       0.04329997       0.95090029
C       -3.44972272       0.80038469      -0.81281194
C        1.91963319      -1.72207908       2.33371020
C       -2.76983763       1.36883458       1.62144578
C        1.19478930      -2.31023174      -2.27914424
C       -3.18750870      -1.27396830      -0.54094072
C       -2.03271943      -2.58606311       0.95952431
C        1.75751973       2.29168814       1.97166917
C       -1.61594848       2.99102560      -2.25351417
C        2.12412124      -2.19405865       0.07109658
C       -3.37017328      -0.79085301       0.80995980
C        0.39570755       1.69183509       2.80286425
C        2.39139866       2.80178237       0.77558044
C        2.74317464       0.61671318      -0.36145553
C        2.43268092      -0.26579997      -1.49174096
C       -0.12834917      -2.72500120       2.44043859
C       -1.70770647       0.79686043       2.43466321
C        0.74146673      -1.33574258      -2.92605131
C       -0.43194144      -3.78840153      -0.96487392
C       -2.45283723      -2.49147894      -0.40960237
C       -3.25873752      -0.12553119      -1.41387827
C        1.67332309       1.76916414      -2.71576102
C       -0.92019213      -2.71071178      -2.45433918
C        2.01834611       0.39845321      -2.69879089
C       -2.69182326       3.09494902      -0.18534473
C       -0.13645865       0.66370613      -3.64824190
C        0.05920335      -3.68313287       0.33686141
C       -2.56619891       1.93728074      -2.24556879
C       -0.05520081       3.59683469       0.92033247
C       -2.46038752      -1.42124720       1.68347554
C        1.35801060      -3.24942973       0.70744381
C       -2.42704639       0.50647435      -2.46451366
C        1.73054527       2.55835099      -1.54653010
C       -0.68555232       1.84620154       2.57807308
C        0.54631180       3.36286483      -1.52719020
