60
Properties=species:S:1:pos:R:3 entry_id=30 rank=0 energy=-481.5939025878906 pbc="F F F"
C        1.79567739      -3.93417837       0.35284157
C        1.55682820      -0.67865378      -1.26409034
C        0.66602208       2.40296295       1.97705310
C        0.68775102      -2.78746267      -1.59054572
C       -2.94197231       3.51400243       2.32603305
C        1.94898430       1.08989264       0.32445592
C        4.96189124      -3.87359162       2.61683904
C        3.08165457      -6.44006163       2.95292720
C       -0.92407012       2.85608535      -5.98427669
C        3.67134166      -1.96682804       1.54064463
C       -4.70845985       5.15786890       1.48005505
C       -0.59715569       3.67115065      -0.43614578
C        1.57417181      -2.86001855      -0.44697433
C       -2.38900336       5.14563522      -0.92175750
C       -0.44966070       3.18827170      -3.43938561
C        2.90468908      -1.06571376       0.83874002
C        0.23351042       2.08363526      -2.82774190
C       -0.93751380      -3.97758037      -2.98789366
C       -2.43901551      -2.86438835       1.53597148
C        1.49653048       0.70644994      -1.01355484
C       -2.77568358       5.93808829      -3.01030208
C       -1.25131187      -3.70049341      -0.56504272
C        6.54189764      -5.59217791       3.63233984
C       -3.14281174      -1.03186104       3.15477967
C       -3.02827294       0.23151343       3.66232460
C       -1.73281913       0.74045926       4.02843175
C       -1.85471191      -3.37619454       0.49250403
C        2.66106009      -5.59941981       2.06843771
C       -1.33024885      -4.38665643      -4.13341798
C        1.10297814       2.23493525       0.73028136
C        0.23333646      -0.01938295      -4.15142296
C        0.84207466      -1.51047981      -2.21606254
C       -3.80926781       1.38573504       3.41196862
C       -1.90891086       5.21337390      -3.68825045
C       -0.54026193       2.51137782       2.62564316
C       -0.50014456      -3.61145509      -1.74178483
C        5.63828945      -4.84165051       3.12772959
C       -3.69394048       2.56053038       2.99307499
C       -0.93505284       1.61270663       3.64699568
C       -1.54582459       3.29815329       1.97572914
C        2.21582762      -4.77824429       1.18701108
C        4.33954490      -2.86719064       2.08638875
C        0.43228396       2.70524193      -0.46632216
C        2.70551189       0.28883788       1.09388587
C        2.10520329      -1.53825317      -0.27442898
C       -1.73008621      -4.80057147      -5.29575715
C       -0.46931191       2.51807076      -4.75385301
C        0.12566512       1.33065139      -4.06939821
C       -1.35086097       3.94562832       0.74391019
C       -3.13964301       5.98673277      -1.73620072
C       -1.27848154       4.37952857      -1.48592688
C        0.72520135       1.81636606      -1.55110757
C       -1.14297737       4.29418630      -2.91051157
C       -3.45996072       4.58493243       1.44766059
C        0.40061692      -1.02730195      -3.42153094
C        3.20463679      -7.41092403       3.77252947
C       -1.28758611       3.05190171      -7.17235497
C       -5.81954655       5.73726665       1.51348775
C       -2.84262620      -2.01738504       2.42479230
C       -2.47493077       4.74893334       0.44317673
60
Properties=species:S:1:pos:R:3 entry_id=35 rank=1 energy=-481.0867919921875 pbc="F F F"
C        2.38148749      -5.58636793       0.47880801
C        1.33762478      -0.42093864      -0.81845115
C        0.66258933       2.66450723       2.11507336
C        1.79155904      -3.10201130      -0.00777342
C       -3.02138267       5.72145975       3.75627249
C        1.61685818       0.69914013       2.78870209
C        1.75999583      -0.29307932       3.83982905
C        3.23848669      -9.32402733       1.05334018
C       -1.82725857       0.28801098      -6.29668703
C        1.84940219      -1.97923437       0.93924822
C       -3.69370204       6.15835040       2.57713043
C       -1.28272058       3.27453568       0.03090753
C        2.11778797      -4.37926960       0.35485230
C       -3.31856343       4.55778185      -0.96825089
C       -1.74863635       1.99501415      -3.08918235
C        2.15794676      -2.18584424       2.28508732
C       -0.65468320       1.28480871      -2.62006617
C       -0.47668267      -3.33058540      -5.82335057
C        0.96127922      -4.88828663      -2.72738685
C        0.96844941       0.66200666      -1.61924524
C       -3.45924093       3.59025347      -3.04922061
C        0.39797968      -2.52626419      -3.51224737
C        0.57110149       0.96244042       5.65376179
C       -2.00226292       4.74669134       3.82146102
C       -0.17989436       2.01268864       5.74869988
C        2.07349889       2.83508243       4.14857979
C        0.91687197      -3.53341439      -2.51990054
C        2.97790641      -8.06011454       0.80014042
C       -0.94665135      -3.68607358      -6.99757860
C        0.55752968       1.79069745       1.01255365
C        0.51828255      -1.22224930      -2.88188686
C        1.33051389      -2.82169755      -1.33142756
C       -0.85869531       3.04438155       5.35296206
C       -3.49972429       2.93593296      -4.27886170
C        1.53555284       2.12496999       3.14464958
C       -0.07500198      -2.87630907      -4.73545164
C        1.29960936       0.07808994       5.10133233
C       -1.53652713       3.99858545       4.87725596
C       -0.19353361       3.72625190       2.20681524
C       -1.35264740       4.38079212       2.58718924
C        2.66724561      -6.85360254       0.68480297
C        2.12748093      -1.56101077       3.37295600
C       -0.27563678       2.22088177      -0.10399316
C        1.27245444       0.53735214       1.40383050
C        1.51520553      -0.61037482       0.55499327
C       -1.23105697      -4.29603340      -8.06513815
C       -2.48917131       1.95876391      -4.35517994
C        0.31002681       0.20536023      -2.90385981
C       -1.24944185       3.97960458       1.25769551
C       -4.00787309       4.54460063      -2.20671650
C       -2.21042749       3.56211507      -1.02076018
C       -0.02538547       1.60360045      -1.33792598
C       -2.33856736       2.98503945      -2.29384765
C       -3.71467929       5.77671522       1.29331727
C        1.13681008      -1.50004705      -1.64892364
C        3.75023602     -10.48362493       0.96538627
C       -2.14091218       1.07854291      -5.37891770
C       -3.93804805       6.73938053       3.85237497
C        0.97009068      -6.11586587      -2.99012435
C       -3.60173785       5.28487264       0.17490275
60
Properties=species:S:1:pos:R:3 entry_id=18 rank=2 energy=-480.4286193847656 pbc="F F F"
C        2.85967093      -3.95066953       0.25580674
C        1.64752727      -0.71549422      -1.00344960
C        1.61909985       3.21781316       1.46951545
C        1.74641284      -2.89288298      -1.73727057
C       -2.66774862       2.68136083       2.92928308
C        2.23436652       1.40011186       0.17512967
C        0.71291055      -2.55573105       3.47484797
C        4.60806521      -6.92411144       1.91738028
C       -2.35019133       2.19345028      -6.78609566
C        1.66622784      -1.42199792       1.45773862
C       -4.12243773       4.52583512       2.16599050
C       -0.33577389       3.46924714      -0.48564212
C        2.26662739      -2.93159522      -0.44243220
C       -2.50212011       4.26926110      -0.39954420
C       -0.84422312       2.67845503      -3.32788213
C        1.45440491      -0.05826265       1.87610244
C        0.11708459       1.73433193      -2.81701579
C       -1.39191068      -3.19295539      -4.00544858
C       -1.36023946      -1.92568091       0.78933219
C        1.66671698       0.70581634      -0.94547843
C       -3.64848441       4.75476047      -2.30581898
C       -1.10911630      -2.80397495      -1.60192238
C       -1.08070445      -1.60099935       4.86861748
C       -0.95663633      -0.13075609       2.60830249
C       -1.82487777      -0.55057252       4.75705954
C        0.29895704       0.52316586       2.46160453
C       -1.28296867      -2.48448944      -0.41251608
C        4.03595272      -5.90884796       1.38641882
C       -1.98752174      -3.81473381      -4.95145267
C        1.85835099       2.75158483       0.15411520
C       -0.01069740      -0.50380591      -3.93827983
C        1.28749557      -1.62789121      -2.08571033
C       -1.83577012       0.36246105       3.72605801
C       -2.82120802       4.26321138      -3.20724684
C        1.96703057       2.11634116       2.32687210
C       -0.74506758      -2.65596009      -2.94656089
C       -0.14151985      -2.38588787       4.44313695
C       -2.37516371       1.62052394       3.49079660
C        0.56442064       1.92808617       2.65474261
C        0.22058765       3.07516996       1.83438771
C        3.43414673      -4.92534938       0.77535616
C        1.36730873      -2.39644908       2.39556552
C        0.89201033       2.89687229      -0.84827244
C        2.33415266       0.97628840       1.50430045
C        1.98742327      -1.59908794       0.08725818
C       -2.58118908      -4.41168799      -5.93260550
C       -1.02495743       1.90465109      -4.55730324
C       -0.15178068       0.81160871      -3.93171799
C       -0.74642753       3.45085186       0.88170610
C       -3.66249178       4.78619354      -0.97644104
C       -1.43672774       3.84932933      -1.28040276
C        0.92617454       1.73114793      -1.69181056
C       -1.64463404       3.65642987      -2.68249314
C       -2.95565764       3.76194721       2.06728855
C        0.25591218      -1.52213560      -3.11422324
C        5.27042676      -7.79452513       2.58991902
C       -1.74042013       2.09474199      -5.69011974
C       -5.15038639       5.15572336       2.49591539
C       -1.28318569      -1.19303338       1.79567943
C       -2.10612469       3.90575939       0.94151867
60
Properties=species:S:1:pos:R:3 entry_id=23 rank=3 energy=-480.42169189453125 pbc="F F F"
C        1.95891270      -4.31370137       0.17319117
C        1.57333656      -0.80838658      -0.85872209
C        1.43761769       3.12464289       1.51850281
C        1.43805094      -2.88977070      -1.83446376
C       -2.66792931       3.44251659       3.45507806
C        2.14088330       1.33395040       0.25245138
C        1.23254670      -2.42567093       3.83737207
C        2.54442662      -7.83573857       1.56196896
C       -2.07027002       2.29091117      -7.09526838
C        1.59558111      -1.54866447       1.56219974
C       -4.35382543       4.58549777       2.10115312
C       -0.61131094       3.11345737      -0.33108618
C        1.76057779      -3.12925649      -0.44618681
C       -2.80044712       3.78383939      -0.26808408
C       -1.05639946       2.14163395      -3.29963730
C        1.44674257      -0.15612102       2.01232074
C       -0.01298327       1.21959236      -2.80047509
C        0.25722983      -2.60098166      -5.28015594
C        0.30539356      -1.08510138       5.74038170
C        1.58181807       0.59470403      -0.82709407
C       -4.07546428       4.00590976      -2.19371032
C        1.12187259      -3.57619963      -3.06976452
C       -0.33663634      -0.01857143       6.03847622
C       -0.82198147      -0.30001495       3.00506362
C       -1.01629057       1.05585470       5.83032682
C        0.33617926       0.40151652       2.73642087
C        1.17851520      -4.85546169      -3.45007896
C        2.34446867      -6.64214757       1.13307167
C       -0.11465350      -2.86245433      -6.47892209
C        1.65503615       2.64936449       0.20414157
C        0.20899582       0.06673444      -3.51809826
C        1.27449125      -1.52278642      -2.02228481
C       -1.65468806       2.00471185       5.29885607
C       -3.17270589       3.46578631      -2.99514358
C        1.88908551       2.06879756       2.38437702
C        0.66657547      -2.44568980      -4.02864995
C        0.84507569      -1.96222693       4.98386292
C       -2.21805249       2.79807679       4.42393492
C        0.53004846       1.83716009       2.81983080
C        0.07293701       2.94775024       1.97953743
C        2.15311552      -5.47831563       0.59803712
C        1.49720117      -2.47531001       2.59103058
C        0.62906273       2.66245296      -0.76480773
C        2.25634829       0.91568532       1.58100450
C        1.76533337      -1.79101951       0.17447888
C       -0.49922319      -3.12694074      -7.67651967
C       -1.37101130       2.06659501      -4.64007713
C       -2.50296295       2.60019363      -8.23849089
C       -0.95433242       3.24980793       1.04839128
C       -3.99358172       4.16739762      -0.87239017
C       -1.75430204       3.28010838      -1.12041497
C        0.74632500       1.49029817      -1.59937588
C       -1.93421253       2.97037834      -2.50346206
C       -3.10412709       3.94753687       2.24058401
C        0.71894007      -1.16282140      -3.28016631
C        2.71729881      -8.92887681       2.20860300
C       -1.74431038       2.22933918      -5.81963159
C       -5.44723449       5.15440398       2.31252396
C       -1.85373127      -1.01484252       3.03466520
C       -2.31601072       3.70818434       1.08849431
60
Properties=species:S:1:pos:R:3 entry_id=10 rank=4 energy=-480.33038330078125 pbc="F F F"
C        2.63437493      -3.77558860      -0.29888524
C        1.36579626      -0.27490176      -3.19020919
C        2.81048597       1.26267620       1.90079880
C        1.81167101      -2.17220049      -2.01990745
C       -2.52154650       2.74742271       3.77647499
C        0.47381825       1.69387536      -0.22546020
C       -0.75918669      -2.49197551       1.69655137
C        2.16484886      -1.02769827       3.25989481
C       -1.08436206      -2.75947991      -8.83897541
C        0.22203865      -1.45944885      -0.05250557
C        0.05360906       0.15465010       3.81346148
C        2.31592136       5.99133971       1.88261906
C        2.39504737      -3.25767919      -1.41369358
C        1.36936417       5.17213509       2.12388566
C       -0.98399410       2.47272546      -3.09624219
C       -0.15319372       0.90551965       0.81690533
C        0.12995353       1.71418333      -2.93320299
C       -0.64526093      -3.91071208      -1.83972522
C       -4.73742943       1.14552895       1.65865615
C        1.10321672      -0.00635205      -1.80277737
C       -4.94296778       2.44934787      -0.48268627
C       -0.72500148      -3.80723929      -3.11126929
C        0.05668666      -2.11959135       2.82802333
C       -2.74332425       0.33594620       3.05748654
C       -0.62781807      -1.00372383       3.44674915
C       -1.45429038      -1.21597092       1.51237926
C       -0.72994546      -3.32143836      -4.31936557
C        2.12793741      -3.18364457       2.06137402
C       -0.51290316      -3.70411884      -0.58743705
C        2.46197734       2.13407864       1.06270927
C       -0.56591807      -1.79610709      -6.45559322
C        1.86571302      -1.55390504      -3.31064037
C       -1.87522923      -0.76651635       2.77726532
C       -3.31548498       3.06718051      -2.29252207
C        2.46941624       0.31375558       2.82491211
C       -0.70442560      -2.73278936      -5.42689552
C        1.48723369      -2.22953998       2.81850003
C       -2.02366273       1.48214122       3.55974857
C       -0.58620042       1.33564448       3.32318894
C       -0.20463510       1.76955388       2.00283742
C        2.53669858      -3.74944409       1.02678073
C       -0.24723589      -2.78045444       0.36243658
C        1.27486857       2.67315266       0.53321286
C       -0.54215346      -0.46418611       0.66708934
C        1.08033004      -1.22089086      -1.12535747
C       -5.10871023       1.83142326       0.60919379
C        0.12610518       0.34999584      -5.12642936
C        0.64193880       0.73662823      -3.90348228
C        0.41033672       3.01327342       1.65860338
C       -4.29582748       2.89766415      -1.50859182
C        3.26416696       6.84369925       1.64711392
C        0.58604341       1.26089390      -1.57882975
C       -2.13022253       2.91216905      -2.80505589
C       -1.75965169       3.80179148       3.61205494
C       -0.18119244      -0.52342383      -5.95852873
C        1.45317132       0.05190559       3.76127600
C       -0.80292136      -2.13188719      -7.79863096
C        0.36864769       4.26575726       2.37965467
C       -3.95849085       0.57731224       2.46271710
C       -0.74131567       4.43866933       3.21334607
60
Properties=species:S:1:pos:R:3 entry_id=15 rank=5 energy=-480.2886962890625 pbc="F F F"
C        3.13347975      -3.81340823       0.18560138
C        1.75366296      -0.68142076      -1.19779960
C        1.49528450       3.11412331       1.53907867
C        2.13996692      -2.86881109      -1.91760141
C       -2.80896859       2.49009905       3.32714873
C        2.14274160       1.35277183       0.16123103
C       -0.05316085      -3.02454100       2.64438109
C        5.08263253      -6.50955657       2.08013287
C       -2.78628156      -0.19442889      -3.50541081
C        1.34897000      -1.49621868       1.17425587
C       -3.34531414       5.15945515       3.13054181
C       -0.30737111       3.62047911      -0.53168056
C        2.51447472      -2.85907346      -0.57619303
C       -2.29729991       4.79558268      -0.51180878
C       -0.96790809       2.71644231      -3.29294688
C        1.10197936      -0.16322487       1.66114964
C        0.14675360       1.89961833      -2.88184488
C       -0.00978303      -4.04516995      -3.60253385
C       -1.84468028      -1.44335323      -0.13411908
C        1.66972248       0.74250714      -1.06187324
C       -3.46740892       5.19923357      -2.41240710
C       -1.53922668      -2.32321596      -2.64287324
C       -2.09998583      -2.38281219       3.79831287
C       -1.36681423      -0.22372572       2.12969242
C       -2.67864370      -1.23795680       3.85810379
C       -0.09456549       0.44723849       2.15011027
C       -1.96587684      -1.70437100      -1.45403349
C        4.40421491      -5.60256748       1.48142098
C        0.07750163      -5.23716340      -3.98653214
C        1.78442374       2.70971313       0.20983516
C        0.16108246      -0.39549176      -3.81052745
C        1.57614524      -1.65551202      -2.30074705
C       -2.34835146      -0.03919883       3.24679224
C       -2.76078291       4.49460020      -3.27342513
C        1.67158323       1.92985338       2.32311135
C       -0.35934422      -2.74007271      -3.31240247
C       -1.11697928      -3.12538738       3.38753348
C       -2.71182782       1.26924643       3.47969844
C        0.23446002       1.82149863       2.48458601
C        0.07047175       3.12132177       1.81223027
C        3.77317700      -4.69998576       0.78395747
C        0.82374373      -2.57972268       1.84814358
C        0.87675161       2.93213632      -0.82621545
C        2.07488132       0.83694988       1.46287640
C        2.01109450      -1.56925774      -0.08643680
C       -2.41587760      -1.21821381      -2.73404894
C       -1.42378000       1.64539015      -4.16983587
C       -0.15515443       0.86731800      -3.85588236
C       -0.74446962       3.72619481       0.82815042
C       -3.39869147       5.40868276      -1.10611996
C       -1.33433894       4.13799290      -1.35802067
C        0.95476808       1.83988449      -1.74989001
C       -1.63047740       3.83316931      -2.71903676
C       -2.93686335       3.80333437       3.08938976
C        0.56627087      -1.56421521      -3.33384136
C        5.67397755      -7.33968028       2.85994314
C       -2.59514211       0.90628129      -4.11642789
C       -1.94216578       4.50536078       0.85718965
C       -1.68809018      -1.02145563       1.03593510
C       -2.66366347       4.71628234       2.02084718
60
Properties=species:S:1:pos:R:3 entry_id=4 rank=6 energy=-479.9053039550781 pbc="F F F"
C        3.27033736      -3.09594761      -0.06295751
C        1.34303782      -0.18173113      -2.61223535
C        2.14716584       1.79527625       1.63935809
C        2.55491759      -2.40786490      -2.49810665
C       -3.17154816       2.23880888       3.73647255
C        2.35212890       0.49824010      -0.25484424
C       -1.04343717      -3.29656123       1.73096526
C        3.54472838      -1.43634803       3.01749809
C       -2.52847317       0.71991874      -3.83745808
C        0.34882432      -2.01060909       0.12315255
C       -0.99849174       1.52943380       3.31518079
C        0.89534921       3.61793641      -0.10440307
C        2.52196447      -2.68207021      -1.13440568
C       -1.26056315       4.44363757      -0.16203167
C       -0.14189349       3.09918337      -3.05749812
C        0.66336553      -0.90865622       1.00225106
C        0.74514712       2.06529758      -2.96756929
C       -1.98567493      -3.01529694      -1.66490032
C       -2.78854433      -0.73652856      -0.46045525
C        1.93071281       0.60129307      -1.60659524
C       -3.21402050       1.74393494      -1.87220210
C       -2.24922991      -1.90661094      -2.49615804
C       -2.33244944      -2.62522957       3.74271209
C       -1.73260631      -0.51339367       1.89271538
C       -2.67444435      -1.40681559       3.95198072
C       -0.29612513      -0.22414076       1.84286660
C       -2.80667870      -0.73364471      -1.85708237
C        3.74336209      -2.50967662       2.34305005
C       -1.39795491      -3.44953548      -0.66859516
C        2.45930003       1.83349976       0.25575869
C       -0.46096167      -1.15003630      -4.38699925
C        1.20796506      -1.66121819      -2.52331306
C       -2.37686815      -0.27368029       3.24313095
C       -1.91966671       3.86876198      -1.30897084
C        2.46835200       0.43903702       2.07769714
C       -1.25415332      -1.88590262      -3.51379277
C       -1.63402152      -3.30101942       2.83555507
C       -2.26472209       1.13264141       3.62768621
C       -0.06291420       1.12673775       2.44552607
C        0.81164014       2.17991438       1.87755573
C        3.59309070      -3.01744487       1.14634202
C       -0.63642029      -3.03750017       0.44803686
C        1.83136201       2.72958252      -0.66152457
C        1.93939188      -0.27751293       0.86167847
C        1.15924758      -2.15631978      -1.06066159
C       -3.03650221       0.52398421      -2.55630628
C       -0.27499369       0.26173571      -4.46655617
C        0.66080882       0.69684534      -3.50728334
C        0.26726889       3.26829962       1.13209964
C       -2.86070571       2.87349350      -1.47663201
C        0.00066786       4.40460405      -0.87365708
C        1.63321835       1.97569885      -1.84456305
C       -0.61436534       3.90578070      -2.08953790
C       -2.82531455       3.27666660       2.99562524
C        0.15418905      -2.05711245      -3.51974560
C        3.12752839      -0.20837097       3.07376908
C       -1.55620725       0.85585358      -4.61938977
C       -1.07931019       3.85025431       1.16100161
C       -2.44516597      -0.78721390       0.73999487
C       -2.05372528       3.75878052       2.10177575
60
Properties=species:S:1:pos:R:3 entry_id=8 rank=7 energy=-479.8551940917969 pbc="F F F"
C        2.89010336      -3.52672237      -0.59539100
C        1.53610024      -0.34594852      -3.12837327
C        2.73479358       1.28805818       1.79579433
C        2.75740036      -2.42962873      -2.84971627
C       -2.49933603       2.81684218       3.95137393
C        0.32780234       1.59181934      -0.20851301
C       -1.01422573      -2.47717085       1.77655791
C        2.07224221      -1.01208576       3.08782115
C       -1.15232831      -2.76866480      -8.73948058
C       -0.16995752      -1.43810502      -0.02890650
C        0.03267714       0.17556474       3.82182355
C        2.33633551       5.88808289       1.80662934
C        2.98071758      -3.17941941      -1.80598092
C        1.36219078       5.10781818       2.06716058
C       -0.88459780       2.39146651      -3.07367835
C       -0.36082644       0.88858214       0.86546395
C        0.19226787       1.58231725      -2.86968094
C       -0.70087760      -3.93324039      -1.75454044
C       -4.74917775       1.23958455       1.82017328
C        1.12093195      -0.20538448      -1.72897008
C       -4.81086813       2.47879958      -0.37213243
C       -0.67707875      -3.79758156      -3.02285229
C       -0.06734859      -2.08380904       2.79712188
C       -2.80533736       0.40604731       3.26421124
C       -0.68137748      -0.97112217       3.48841791
C       -1.72486831      -1.18968814       1.64940207
C       -0.62582087      -3.31602957      -4.23638719
C        1.97325521      -3.00419646       1.69571947
C       -0.71606216      -3.75998986      -0.48421523
C        2.34947583       2.15718531       0.96903940
C       -0.43260224      -1.83211789      -6.40020716
C        2.24733540      -1.45343392      -3.50217129
C       -1.98629078      -0.72017527       2.94412700
C       -3.18310375       3.03435716      -2.20933299
C        2.40785878       0.33213932       2.71242971
C       -0.56927927      -2.74501531      -5.35013205
C        1.35299233      -2.17037297       2.59728428
C       -2.03896849       1.53930026       3.72371432
C       -0.62879465       1.36501069       3.37908771
C       -0.33961245       1.77771029       2.02509124
C        2.52581852      -3.44590031       0.66022645
C       -0.59980399      -2.78002012       0.43074492
C        1.11014608       2.62682013       0.49895289
C       -0.86950398      -0.43853717       0.74744606
C        0.75639210      -1.24589785      -0.97475266
C       -5.03595538       1.90324904       0.73156035
C        0.31446965       0.28461595      -5.07234205
C        0.78633608       0.65652200      -3.82824125
C        0.29003528       2.99551784       1.63748037
C       -4.14905634       2.88868777      -1.40323829
C        3.31462595       6.70029446       1.55378577
C        0.55837534       1.10435129      -1.52493886
C       -2.01232488       2.85443055      -2.74772068
C       -1.73097495       3.85349601       3.72011798
C       -0.00163084      -0.56640136      -5.92170519
C        1.42687315       0.05505723       3.68887546
C       -0.74075498      -2.16756826      -7.72743487
C        0.33593547       4.24617872       2.36613530
C       -4.01459914       0.67543684       2.66898505
C       -0.72322787       4.46001188       3.25328353
60
Properties=species:S:1:pos:R:3 entry_id=34 rank=8 energy=-479.7704162597656 pbc="F F F"
C        2.45573857      -5.25370326       0.10013130
C        1.07215164      -0.67662870      -0.82158097
C        0.95972800       2.71041565       1.98230625
C        1.67016817      -2.80310805      -0.19961299
C       -2.75682738       5.64292624       3.14399530
C        2.19780948       0.87265810       2.48960006
C        0.96748072      -1.12339085       4.50855955
C        3.76488324      -8.85888511       0.56457092
C       -2.51467090       0.84459420      -6.29616420
C        1.77426409      -1.88950648       0.98365908
C       -3.78224095       6.60290406       2.84931459
C       -0.98896092       3.41326167       0.05638051
C        2.02717040      -4.10600368      -0.13454935
C       -2.80150001       4.85962394      -0.60344029
C       -1.82318038       2.32219872      -3.06797511
C        1.75990553      -2.16572766       2.31736243
C       -0.87099421       1.41294859      -2.62536136
C       -0.37007616      -4.15133927      -5.57917481
C        1.64425652      -5.88908587      -2.64293506
C        0.43819861       0.27805031      -1.56661145
C       -3.30116961       4.18100827      -2.73938599
C        0.64061323      -3.56607248      -3.22950637
C       -0.17123022       0.82267009       5.68364068
C       -1.78611312       4.75425917       3.62970579
C       -0.72190349       1.95934873       5.79027673
C        1.19978326       3.02531640       3.85632973
C        1.23528305      -4.66221938      -2.69962293
C        3.35841237      -7.62293547       0.44438126
C       -0.88839143      -4.44737235      -6.76387550
C        0.76820862       1.87451174       0.89402185
C       -0.09245641      -1.21701551      -3.28531669
C        1.14162013      -2.01316860      -1.29491140
C       -1.21253360       3.13464142       5.48042635
C       -3.55994755       3.59820751      -3.97364810
C        1.86823623       2.07725159       3.02661366
C        0.05100320      -3.72523119      -4.49296828
C        0.42329935      -0.23637999       5.23323470
C       -1.62723059       4.15961021       4.87230274
C        0.24525238       3.51616113       2.84626516
C       -0.95295159       4.19369598       2.55264383
C        2.87634378      -6.48307762       0.22397079
C        1.44141567      -1.75637313       3.47297488
C       -0.11601995       2.28999171      -0.14614483
C        1.52400156       0.65293943       1.24201135
C        1.51145515      -0.55405536       0.50798472
C       -1.19488299      -4.99157501      -7.85726798
C       -2.71374431       2.48323034      -4.23517984
C       -0.24711791       0.03988375      -2.84455668
C       -1.38985315       4.22803643       1.19819171
C       -3.64458280       5.09757509      -1.68589397
C       -1.86193039       3.80919495      -0.97019149
C       -0.15834420       1.53542160      -1.33893912
C       -2.18090707       3.38048371      -2.23484753
C       -3.09100019       5.81042003       1.81577950
C        0.57174954      -2.25977347      -2.60306799
C        4.45644873      -9.88987206       0.83601934
C       -2.64530382       1.63533013      -5.33548549
C       -4.68096941       7.52331640       3.16243377
C        2.03427474      -7.12137399      -2.64781015
C       -2.51099663       5.09476834       0.80349520
60
Properties=species:S:1:pos:R:3 entry_id=19 rank=9 energy=-479.6070251464844 pbc="F F F"
C        1.82717529      -4.16845658       0.35132004
C        1.49596954      -0.70492415      -0.83147878
C        1.58689424       3.34779818       1.31850808
C        1.27348389      -2.82684123      -1.69017876
C       -2.49703653       2.96441570       3.27109537
C        2.17028984       1.46518398       0.13854573
C        1.17526859      -2.39943643       3.89983995
C        2.42514863      -7.71239706       1.67743777
C       -2.08348449       2.26152712      -7.17403711
C        1.54300140      -1.31537881       1.63231374
C       -4.17712307       4.47297391       2.27059768
C       -0.52689324       3.26728444      -0.46890849
C        1.62208632      -3.00121932      -0.29829949
C       -2.75103784       3.82888043      -0.31545628
C       -1.07793132       2.18788593      -3.37373534
C        1.45774388       0.10100973       2.01088128
C       -0.04070263       1.26545480      -2.86166342
C        0.17017513      -2.66985709      -5.17078362
C        0.00860015      -1.67079360       5.98538990
C        1.56518662       0.69469599      -0.88909604
C       -4.09700817       3.97562108      -2.18670618
C        0.93072104      -3.56669827      -2.88723510
C       -0.77818083      -0.64971741       6.23119277
C       -0.66348981       0.11443370       3.43938850
C       -1.36541809       0.38942656       5.77010438
C        0.46255766       0.75271914       2.79292546
C        0.91612994      -4.86955177      -3.18187899
C        2.24602851      -6.50716307       1.27380619
C       -0.13261011      -2.94724902      -6.38508297
C        1.74454558       2.79605607       0.02511915
C        0.13319767       0.07370822      -3.52639791
C        1.14712160      -1.46866634      -1.94709324
C       -1.42651056       0.95733911       4.52355377
C       -3.21245412       3.46984342      -3.02991014
C        2.04346387       2.32865507       2.23415757
C        0.52594560      -2.47357159      -3.90887878
C        0.70318881      -2.27509222       5.10892223
C       -2.05124833       2.08400899       4.01398340
C        0.69502480       2.16883560       2.74645587
C        0.23655357       3.20190404       1.82528798
C        2.02265145      -5.33779199       0.76372261
C        1.43641299      -2.21250582       2.67797689
C        0.70187136       2.80453799      -0.93001084
C        2.30583386       1.10986014       1.48187860
C        1.67875945      -1.63410831       0.25479165
C       -0.43112989      -3.21947379      -7.60568738
C       -1.40728131       2.08625715      -4.70805607
C       -2.44188013       2.57988512      -8.33995896
C       -0.82483142       3.40048055       0.91703998
C       -3.98533521       4.15279064      -0.87161408
C       -1.71237787       3.37426457      -1.20790008
C        0.75789585       1.57960614      -1.69861693
C       -1.94283918       3.02398829      -2.57323850
C       -2.95751071       3.78975175       2.22723327
C        0.60453959      -1.15686028      -3.22333514
C        2.74535362      -8.82326082       2.23097888
C       -1.76063657       2.22122210      -5.89673810
C       -5.22840507       5.08153916       2.56578963
C       -1.14903561      -1.09257236       3.11505002
C       -2.21508098       3.74746809       1.02384965
60
Properties=species:S:1:pos:R:3 entry_id=28 rank=10 energy=-479.50421142578125 pbc="F F F"
C        2.22209726      -4.04080708      -0.03060322
C        1.68782216      -0.63673205      -1.23205755
C        1.98949471       3.45525879       1.26868121
C        1.24228633      -2.78008646      -1.99992146
C       -2.03320212       2.69538013       2.84136081
C        2.13504199       1.44509693       0.03624749
C        0.90504698      -1.80236937       3.33558288
C        3.36582539      -7.35219064       1.52119287
C       -2.26723617       2.70760002      -6.94786171
C        1.82743660      -1.43892091       1.23356251
C       -4.31079246       3.77133368       2.43277855
C       -0.47135058       3.51047892      -0.43165081
C        1.89847758      -2.91502994      -0.71625714
C       -2.69313095       4.31831061      -0.42134935
C       -0.90877238       2.91842508      -3.38128645
C        1.57755328      -0.15631955       1.82855645
C        0.08225025       1.96900022      -2.94358689
C       -0.46563640      -4.21069338      -3.23064073
C       -1.38034685      -1.47405576       0.87951099
C        1.64690335       0.79458574      -1.12531884
C       -3.75759075       4.89382236      -2.33141079
C       -0.87467084      -2.94366524      -1.15573333
C       -0.53160308      -1.30566306       5.07129967
C       -0.71542368      -0.00658833       2.86137655
C       -1.28409279      -0.25003082       5.11797724
C        0.68285019      -0.40976047       2.90466691
C       -1.21400590      -2.26749687      -0.17084320
C        2.97891908      -6.22819511       1.04009601
C       -0.85255368      -4.96290233      -4.18437499
C        1.86025566       2.86360366       0.03041167
C        0.50331110       0.01963307      -4.38540172
C        1.33496331      -1.39954382      -2.40102255
C       -1.45718613       0.62556296       4.02409617
C       -2.89423386       4.45290253      -3.22335042
C        1.63963453       2.32089284       2.06081365
C       -0.06416656      -3.43503928      -2.19355044
C        0.31684740      -2.15659602       4.55638195
C       -2.19753724       1.75926664       3.78984160
C        0.41596806       2.32754654       2.66264193
C       -0.72156595       2.85197577       2.15753024
C        2.61760986      -5.12070878       0.47511269
C        1.56082312      -2.39232729       2.23484234
C        0.76322363       2.95292017      -0.85390010
C        1.97424995       1.08634430       1.36924463
C        1.95107474      -1.58548825      -0.18039095
C       -1.21952189      -5.71702361      -5.16902521
C       -0.96953733       2.28757825      -4.72219196
C       -0.01014965       1.27068980      -4.20885005
C       -0.98264516       3.50936170       0.90928657
C       -3.82909760       4.86636910      -1.00758070
C       -1.57002136       3.92496066      -1.25539479
C        0.83843609       1.84885112      -1.78462643
C       -1.73863781       3.81753016      -2.67765062
C       -2.99698824       3.54057374       2.10222510
C        0.93660865      -0.85242125      -3.59104519
C        3.72488170      -8.37993619       2.19879117
C       -1.67039858       2.54624533      -5.85282322
C       -5.49833668       4.00077769       2.75837937
C       -1.33633316      -0.69145925       1.85123883
C       -2.34203220       3.93215529       0.90856529
60
Properties=species:S:1:pos:R:3 entry_id=1 rank=11 energy=-479.45220947265625 pbc="F F F"
C        2.64483599      -3.24264729       0.28909248
C        1.44936576      -0.10307092      -2.68813397
C        2.11013338       1.77417922       1.59695891
C        2.61685548      -2.43540851      -2.29637280
C       -3.14018801       1.91406918       3.57202290
C        2.41386289       0.56529191      -0.33831669
C       -0.45805515      -3.30826040       1.71357735
C        2.18610131      -1.59253524       3.29166321
C       -2.48019374       0.73025177      -3.84430460
C        0.18147941      -1.80323003      -0.06828746
C       -0.89980137       1.41445339       3.47056410
C        0.88815257       3.64470683      -0.13328784
C        2.30686808      -2.76250129      -0.98458116
C       -1.27284537       4.46179307      -0.20727343
C       -0.11480043       3.14948267      -3.09084541
C        0.57680403      -0.73900635       0.79668389
C        0.79461298       2.13436694      -3.01698808
C       -1.99598303      -2.97490842      -1.59692630
C       -2.82713648      -0.68101114      -0.45010781
C        2.03444624       0.69008057      -1.69198656
C       -3.20392479       1.78136195      -1.91205915
C       -2.17480344      -1.86703823      -2.44624546
C       -0.57447322      -2.38665754       3.83604366
C       -1.73008996      -0.57244602       1.88409739
C       -1.45023391      -1.51387425       4.03886042
C       -0.32962115      -0.15254822       1.73369396
C       -2.77966453      -0.69254392      -1.84516308
C        1.67286502      -2.72470779       2.66880111
C       -1.49702333      -3.46987196      -0.57857793
C        2.47317800       1.87922265       0.22462995
C       -0.40860242      -1.10626413      -4.35887851
C        1.32833682      -1.58060149      -2.56751380
C       -2.08156814      -0.49791039       3.33045716
C       -1.92218735       3.91858303      -1.37135736
C        2.37138629       0.39893664       1.97596111
C       -1.15932783      -1.84266704      -3.44992625
C        0.22878206      -2.99132316       2.82984325
C       -2.15577347       0.90264236       3.72037322
C       -0.08585769       1.13834704       2.44096552
C        0.78066582       2.18704329       1.84732019
C        2.26699242      -3.12720283       1.46640721
C       -0.60602439      -2.97525067       0.42961085
C        1.84839508       2.78238193      -0.68819183
C        1.91344119      -0.22600888       0.73179609
C        1.06977761      -2.05835104      -1.15754306
C       -2.99992361       0.54987264      -2.56796948
C       -0.22989629       0.29948741      -4.48730207
C        0.72753434       0.76189139      -3.56195156
C        0.24280465       3.26358672       1.08265414
C       -2.86010189       2.92116367      -1.53956102
C       -0.00221024       4.43797617      -0.89987827
C        1.69632039       2.05793644      -1.90135199
C       -0.60277421       3.95475438      -2.13113038
C       -2.85185230       2.94167572       2.80573321
C        0.25020271      -2.01844028      -3.53433781
C        2.50914626      -0.38352486       3.10368488
C       -1.51935824       0.87890982      -4.63679610
C       -1.12038447       3.80531306       1.08692809
C       -2.51572306      -0.70645909       0.75737160
C       -2.13602661       3.55765142       1.95235498
60
Properties=species:S:1:pos:R:3 entry_id=7 rank=12 energy=-478.7372131347656 pbc="F F F"
C        2.95445817      -3.65550099      -0.11545511
C        1.79004486      -0.23433086      -2.59624697
C        2.89421000       1.25849433       2.51658939
C        2.50025392      -2.56178290      -2.33840477
C       -2.80031902       2.69207217       2.88652184
C        1.53359063       0.10784157       0.95970773
C       -0.67439743      -2.68428982       1.61818986
C        1.89511291      -0.97503078       3.62579133
C       -3.68700767       0.92066815      -4.36050647
C        0.44400551      -1.59413707      -0.02415004
C       -0.30967289       0.13644180       3.80260186
C        1.65386441       5.88665356       0.17981215
C        2.82973037      -3.31163521      -1.32254073
C        0.92067305       4.96508520       0.67243089
C       -0.07603729       2.83095058      -2.40565352
C        0.19111101       0.26253155       1.25964520
C        0.95983270       1.96775799      -2.26888574
C       -0.56991794      -3.93889917      -1.88628291
C       -4.40642631       0.73514072       0.46323674
C        1.90411513       0.15362366      -1.21854491
C       -4.39434429       1.42723731      -1.99670976
C       -0.93883640      -3.66102613      -3.08198502
C       -0.01485871      -2.11905911       2.77614666
C       -2.83124730       0.22572249       2.46607760
C       -0.83816643      -1.05428759       3.28826164
C       -1.54553035      -1.54856016       1.29792641
C       -1.32536814      -2.91696957      -4.08072935
C        2.18707823      -2.96584583       2.15432151
C       -0.25605417      -3.85759790      -0.65001972
C        2.39084051       1.21233504       1.25658929
C       -1.83480211      -0.63129621      -5.15504545
C        2.07921983      -1.52980083      -2.95719016
C       -1.99997534      -0.92965031       2.48197562
C       -2.52582415       2.45414276      -3.00105817
C        2.30416632       0.40117695       3.40070381
C       -1.69452819      -1.96131315      -4.80945756
C        1.39948406      -2.12901411       2.91148159
C       -2.25518800       1.42613257       3.01849760
C       -0.80631685       1.32425395       3.12382386
C       -0.12162787       1.51428918       1.86616023
C        2.73593217      -3.52263074       1.17164266
C        0.01372108      -2.95481925       0.32712662
C        1.66196262       2.09164695       0.31034132
C       -0.53534516      -0.75888833       0.64064192
C        1.64857999      -0.76269420      -0.15427984
C       -4.57281308       1.12777314      -0.80731069
C        0.28575204       0.60453378      -4.31712306
C        1.12039725       0.85748397      -3.24379685
C        0.52190530       2.57914335       1.11498507
C       -3.68228151       1.71287445      -3.16790423
C        2.41121025       6.81365483      -0.31030388
C        1.62950795       1.55236484      -1.03710350
C       -1.33422427       2.80474162      -2.74982863
C       -2.06748824       3.68792146       2.46274213
C       -0.64969375       0.11782914      -4.96964135
C        1.07505278       0.05451619       4.00159374
C       -3.04422916       0.11157226      -5.05292634
C        0.13763437       3.98144281       1.23130955
C       -3.82740232       0.40367734       1.51129483
C       -1.05660930       4.21647959       1.91591248
60
Properties=species:S:1:pos:R:3 entry_id=29 rank=13 energy=-478.68096923828125 pbc="F F F"
C        2.98260518      -3.82743280       0.30084647
C        1.66476457      -0.67390549      -1.10151524
C        1.81806356       3.22316245       1.41724092
C        1.93693028      -2.88256637      -1.75723195
C       -2.45651911       2.27559695       2.68601084
C        2.26473101       1.38851985       0.09347394
C        0.34531061      -2.57769502       3.25682524
C        4.72978379      -6.78817720       1.98546555
C       -2.57769086       1.71779480      -6.48126736
C        1.47132194      -1.34582730       1.34914156
C       -4.10315562       3.94256319       2.04090607
C       -0.06704286       3.70803316      -0.46353075
C        2.36103548      -2.85116270      -0.44106703
C       -2.34434499       4.20084933      -0.45670794
C       -0.61239141       2.91125581      -3.41823940
C        1.39664681      -0.02393352       1.81833938
C        0.30447242       1.87100404      -3.07433634
C       -1.67316117      -3.00273522      -3.70400405
C       -0.78615877      -1.98886435       1.18069602
C        1.67837182       0.76360631      -1.06650183
C       -3.57741849       4.15407647      -2.52458893
C       -1.01640119      -2.66773753      -1.35050648
C       -1.45651172      -1.84059128       4.85318890
C       -1.04691529       0.18115010       2.43139704
C       -2.20609068      -0.77443022       4.79963852
C        0.30058307       0.65551484       2.39827473
C       -0.97331185      -2.41063976      -0.14871632
C        4.12533282      -5.78962514       1.45740596
C       -2.47696818      -3.50835583      -4.56069284
C        2.01008065       2.76016540       0.09251332
C        0.16302014      -0.54787098      -3.88668247
C        1.38591220      -1.66755993      -2.14257574
C       -2.55292475       0.32995302       4.27137794
C       -2.46039024       3.86715418      -3.30433819
C        2.10488556       2.09423583       2.26600700
C       -0.81066238      -2.56953974      -2.75538706
C       -0.49317020      -2.41390313       4.19930192
C       -2.11451091       1.06333422       3.15843232
C        0.69458895       2.00850743       2.62669092
C        0.41872114       3.15481338       1.80813940
C        3.56182115      -4.79275300       0.83296758
C        0.50345344      -2.26175813       1.94041424
C        1.07355726       3.02478004      -0.92150577
C        2.35381176       0.93907462       1.41922883
C        1.96801270      -1.52017772       0.03778349
C       -3.29052746      -3.98784889      -5.44498328
C       -1.83543242       2.94393687      -4.29538788
C        0.25542490       0.69362000      -3.81060193
C       -0.53675408       3.54862020       0.86591313
C       -3.51956034       4.29505606      -1.22430180
C       -1.14747228       4.11589544      -1.24302623
C        1.03068273       1.88059400      -1.82849474
C       -1.19679389       3.90828724      -2.59914614
C       -2.81642068       3.35826025       1.93214373
C        0.28772158      -1.64966633      -3.07876191
C        5.15339114      -7.79754623       2.65647672
C       -2.20329752       2.28964639      -5.42687018
C       -5.22368332       4.44511874       2.25825314
C       -1.39749393      -0.97864567       1.85086417
C       -1.95075814       3.79973750       0.87819788
60
Properties=species:S:1:pos:R:3 entry_id=12 rank=14 energy=-478.0599670410156 pbc="F F F"
C        3.53272647      -2.92019857       0.02009699
C        1.35836612      -0.22050887      -2.52694500
C        2.04404452       1.70568242       1.77650336
C        2.64954989      -2.33051006      -2.36339452
C       -2.77058995       2.06217380       3.57525334
C        2.26605625       0.43769187      -0.14959666
C       -1.04396678      -3.46407410       1.71597390
C        3.83797616      -1.51095417       2.23131956
C       -2.47213907       0.70636566      -3.81366726
C        0.29724158      -2.12628680       0.15137138
C       -2.67185114       4.75512149       3.26914598
C        0.88950520       3.59162550      -0.03159519
C        2.62643352      -2.53629022      -1.00074437
C       -1.23093834       4.49208460      -0.12431635
C       -0.09054113       3.07255601      -3.00238688
C        0.52071101      -1.00798308       1.01350159
C        0.78438437       2.03150828      -2.89481505
C       -2.02066762      -3.07086498      -1.68947930
C       -2.85967702      -0.79893937      -0.46414967
C        1.92186382       0.56115159      -1.51518212
C       -3.12973516       1.71442098      -1.81851730
C       -2.24019450      -1.94121789      -2.50402456
C       -2.18377133      -2.83269878       3.83262295
C       -1.92654181      -0.60530449       1.93864098
C       -2.60854955      -1.64982735       4.01044304
C       -0.47338350      -0.23776775       1.83004620
C       -2.80535851      -0.77062458      -1.85937691
C        3.98452710      -2.48591593       1.33406814
C       -1.44964474      -3.54488174      -0.69994579
C        2.38142626       1.76242380       0.39181147
C       -0.39353708      -1.18575060      -4.33592765
C        1.24697487      -1.70293818      -2.44629052
C       -2.54550612      -0.46453994       3.30419663
C       -1.86331037       3.86263382      -1.26861121
C        2.35010571       0.32529137       2.12201614
C       -1.20221179      -1.91676847      -3.47784248
C       -1.52875914      -3.48601926       2.86548675
C       -2.81492392       0.83451145       3.67056453
C       -0.20550434       1.06584266       2.13096416
C        0.63888202       2.10660797       1.92369028
C        4.47787091      -3.64882113       0.68201908
C       -0.68571463      -3.17394347       0.42523376
C        1.80452019       2.66939678      -0.54930186
C        1.75169700      -0.33015125       0.91435602
C        1.20562191      -2.20300157      -0.96827292
C       -2.98001587       0.50705884      -2.53115568
C       -0.21169562       0.22696785      -4.41872317
C        0.70351563       0.66187808      -3.43951258
C        0.22863126       3.30218880       1.19302529
C       -2.78061687       2.84230417      -1.41660382
C        0.04111308       4.40568269      -0.82884394
C        1.64370202       1.93399009      -1.74896753
C       -0.56395001       3.88462104      -2.03704117
C       -2.55758931       3.34957379       3.27964694
C        0.20932446      -2.09894993      -3.46055969
C        3.35474320      -0.42758630       2.69583011
C       -1.49137724       0.82163879      -4.58744296
C       -1.04311521       3.97532703       1.20665724
C       -2.60332976      -0.82911808       0.75916858
C       -1.89785835       4.13768374       2.29846354
60
Properties=species:S:1:pos:R:3 entry_id=25 rank=15 energy=-477.9761962890625 pbc="F F F"
C        2.00952259      -4.25073621       0.19226875
C        1.16848802      -0.79136545      -0.76775348
C        1.33774963       3.22320421       1.79022749
C        1.32713244      -2.86503431      -1.78763813
C       -2.51601058       3.38940422       3.32769666
C        1.84509408       1.35931001       0.18663587
C        1.27745445      -2.39957265       3.90876557
C        2.87777750      -7.77174187       1.42538907
C       -2.59741307       2.42749184      -8.40938201
C        1.46264045      -1.55845137       1.60944096
C       -3.94184828       4.81711989       1.98786378
C       -0.77599231       2.35881619      -0.59982941
C        1.68162765      -3.08718789      -0.41044666
C       -2.64192083       3.78576840      -0.38873874
C       -1.34289815       2.02585882      -3.42487960
C        1.26689521      -0.17919153       2.02601248
C       -0.43341050       1.09993440      -2.74672867
C        0.34203668      -2.63109074      -5.29488047
C        0.37515405      -1.03382560       5.80403319
C        1.00911740       0.61861641      -0.69328397
C       -3.85090527       4.48717711      -2.24322124
C        1.15819207      -3.55598831      -3.04647270
C       -0.30156892       0.02006595       6.07122031
C       -0.91108089      -0.45905536       3.14567069
C       -1.02257983       1.06098837       5.83460085
C        0.19984447       0.29587351       2.83573078
C        1.35724323      -4.82056110      -3.42841706
C        2.59493287      -6.57633985       1.05277842
C        0.10863546      -2.91856730      -6.52268706
C        2.01854049       2.72549782      -0.03928916
C       -0.04460755       0.00554959      -3.46716996
C        0.98376177      -1.52506656      -1.94728619
C       -1.68228336       1.97876664       5.27377989
C       -3.15035986       3.78319607      -3.11703021
C        1.73247881       2.03002155       2.47950710
C        0.63466970      -2.45895230      -4.01386224
C        0.92385252      -1.91744336       5.05979656
C       -2.19631509       2.75964732       4.35770348
C        0.36948076       1.73019662       2.90824257
C       -0.02266098       2.74505926       1.93932911
C        2.29864205      -5.41365246       0.56472257
C        1.48246360      -2.47703805       2.65123911
C        1.97427138       3.79857930       0.67072718
C        1.97699735       0.95002933       1.53049530
C        1.54924937      -1.76571317       0.22005831
C       -0.12855605      -3.20198181      -7.75341093
C       -1.57022414       1.93618359      -4.77509793
C       -2.18889826       2.14311634      -7.25088285
C       -0.93518437       2.75878389       0.83963716
C       -3.69606091       4.53241991      -0.91906125
C       -1.82055770       3.03230482      -1.27392086
C       -0.03306347       1.37226974      -1.35067595
C       -2.09039174       2.95958424      -2.66029831
C       -2.83921755       3.94005963       2.09933402
C        0.50195059      -1.20280023      -3.23637589
C        3.18387099      -8.87228992       2.00668217
C       -1.91046795       2.09462902      -5.96302398
C       -4.89869741       5.58815689       2.22208151
C       -1.91015227      -1.21841757       3.20511548
C       -2.15508050       3.53613827       0.92204138
60
Properties=species:S:1:pos:R:3 entry_id=21 rank=16 energy=-477.76434326171875 pbc="F F F"
C        3.08543636      -3.55842292       0.29670296
C        2.23485377      -0.15448130      -0.58228218
C        1.77673669       3.63466563       2.05387260
C        1.87883435      -2.20974341      -1.45666562
C       -3.34579213       2.23682975       3.54996508
C        2.36996680       1.98120002       0.58317066
C        1.60126925      -2.08931940       3.41982768
C        4.17664114      -7.06986763       1.36633740
C       -0.51612059       0.86975523      -7.15767646
C        3.08369205      -0.84679733       1.76320829
C       -3.92909983       4.47833842       4.46455747
C       -0.55047135       3.74203359      -0.64613953
C        2.63366311      -2.39106865      -0.25171411
C       -2.28729354       4.60836211      -1.40173963
C       -0.40584953       1.91133783      -3.37782292
C        3.31678554       0.45524431       2.36914629
C        0.40017389       1.25170761      -2.34463096
C       -2.30050367      -3.66488581      -4.76733787
C       -3.54184438      -2.12195998      -0.15365109
C        1.98946617       1.20013738      -0.48574401
C       -3.08923008       4.47408950      -3.51818112
C       -2.82087408      -2.78005155      -2.51010946
C       -0.82099342      -1.61027253       3.95005017
C       -3.48292569      -1.01700822       2.13915407
C       -1.93191219      -1.04169893       3.82916699
C        3.36845991       0.87063349       3.76381859
C       -3.18155832      -2.45567653      -1.35092791
C        3.82137087      -5.87803465       1.05476401
C       -2.55643211      -4.46553997      -5.72819926
C        1.53761734       3.14715668       0.75244316
C       -0.23908717      -1.01667220      -3.19410214
C        1.57307199      -0.87036766      -1.64017651
C       -2.99928372      -0.35654215       3.25641274
C       -2.23142577       3.58967344      -4.00061848
C        2.63300564       2.72641466       2.71572014
C       -2.07758494      -2.83031438      -3.69162315
C        0.40801662      -2.03294202       3.89703743
C       -3.25439855       1.01559539       3.49068082
C        3.01557527       2.14266744       3.96989446
C       -2.24508138       4.40599476       1.22368102
C        3.44469733      -4.71089927       0.62136267
C        2.57210378      -1.77911033       2.65600094
C        0.62368840       3.06052795      -0.37866696
C        2.97834713       1.66498997       1.76133211
C        2.80835039      -1.05856828       0.35739745
C       -2.79273687      -5.27307768      -6.71760809
C       -0.43615298       1.42509903      -4.64388298
C        0.63947057      -0.17373454      -2.49368629
C       -1.70341947       4.48907777      -0.03513862
C       -3.24535691       5.02631108      -2.30193307
C       -1.24533945       3.72507997      -1.87150256
C        0.97001292       1.89673625      -1.20730912
C       -1.23520436       3.08062297      -3.12087657
C       -3.36313210       3.66062672       3.47908885
C       -1.01686733      -1.88770695      -3.58410488
C        4.53073649      -8.18866758       1.88470730
C       -0.48279358       1.13847047      -5.89610166
C       -4.39324259       5.42067920       5.14058352
C       -3.55557887      -1.61040780       1.03395983
C       -2.77335956       4.18674020       2.31869734
60
Properties=species:S:1:pos:R:3 entry_id=2 rank=17 energy=-477.59759521484375 pbc="F F F"
C        1.45465798      -5.63881496       0.14446971
C        1.73014325       0.19427289      -2.74736403
C        1.91248625       2.03329623       1.78460586
C        2.08459643      -1.05737776      -3.14945249
C       -2.28508144       2.57022490       2.98891093
C        2.38933802       0.85894756      -0.17829095
C       -0.27920560      -3.35320535       3.40271662
C        2.44681135      -1.15201732       3.59274855
C       -3.46023107       0.95492149      -2.60189923
C        0.48698688      -2.08431717       0.70369181
C       -1.75775250       1.43566916       2.46226815
C        0.10017579       3.38083858      -0.03092117
C        0.75292723      -4.76786400      -0.71816861
C       -0.57143054       4.80176145      -0.13334198
C       -0.02736289       3.52858959      -3.10346529
C        0.87346878      -0.71453101       1.03904478
C        0.69618827       2.36711035      -2.92605221
C       -0.64228073      -2.97492972      -1.41862428
C       -1.61824079       1.32738695      -0.11357451
C        2.06054687       0.96662446      -1.57754010
C       -4.20875655      -0.13017831      -3.07884145
C       -1.48100649      -2.24931235      -2.35474555
C       -1.46954747      -2.95188558       3.42090977
C       -1.51624325       0.03042424       0.58531099
C       -2.38448096      -2.04135275       3.11424189
C       -0.18245294       0.16934119       1.30806512
C       -2.14487872      -1.18915408      -1.65353904
C        1.88833252      -2.27494572       3.45555948
C       -0.56973291      -2.12693457      -0.24042328
C        2.12724152       2.12526017       0.39884609
C       -0.55683388      -0.86511223      -4.35261618
C        1.62381170      -2.04625079      -3.81210280
C       -2.70178973      -0.92231482       2.62369585
C       -0.98272815       2.47525418      -0.38450714
C        2.40710646       0.72180328       2.16907096
C       -0.96778692      -2.03147201      -3.64003592
C        0.99984653      -3.13849014       2.88233576
C       -2.33389897       0.17402956       1.93072509
C       -0.33040385       1.32184722       2.13989000
C        0.58165680       2.42619481       2.19098891
C        1.10047613      -4.43703540       0.68900284
C        0.97619051      -3.25679434       1.37622072
C        1.38236512       2.90518258      -0.52221778
C        2.15808019      -0.06273238       0.91942370
C        0.06606149      -4.10678144      -1.61252879
C       -3.13767767      -0.42711470      -2.27434634
C       -0.19973187       0.39822803      -4.29964553
C        0.73436329       1.00323672      -3.52040330
C        0.08866501       3.53050350       1.44201392
C       -2.05559331       2.11710087      -1.23082800
C       -0.74302607       5.28469480      -1.37320760
C        1.47395706       2.23676455      -1.74942833
C       -0.43692771       4.54330889      -2.44637804
C       -2.19615680       3.84212340       2.91455105
C        0.30419628      -2.09076255      -4.15995901
C        2.69941562       0.10567610       3.34015357
C       -2.90062486       2.11827121      -2.26926963
C       -0.78274860       4.67830648       1.34403603
C       -1.53042944      -1.09962071      -0.36215055
C       -1.74814050       4.92524826       2.30737102
60
Properties=species:S:1:pos:R:3 entry_id=20 rank=18 energy=-477.49200439453125 pbc="F F F"
C        2.17615695      -4.50139245       0.07319917
C        1.88725450      -0.87165595      -0.37868887
C        0.32360178       2.36887690       2.24927035
C        1.80005484      -2.74548265      -1.69786306
C       -2.49310156       3.48458968       3.55025237
C        1.54138142       1.57424026      -0.57197244
C        1.48463861      -2.62645796       4.18990164
C        2.59675862      -8.18966538       1.01476744
C       -1.53806321       1.35056810      -8.08396638
C        1.73902998      -1.90480069       1.87405847
C       -4.24870656       5.00973488       2.92985732
C       -1.39377678       3.68176917      -0.67808991
C        2.02654649      -3.22611821      -0.35785443
C       -3.36352383       4.72297159       0.07088606
C        0.14088574      -0.45863233      -5.03646668
C        1.44825875      -0.54536099       2.25628504
C       -0.14705060       1.30758741      -3.29889539
C        0.59761353      -1.84830114      -5.05340752
C        0.54906414      -1.12902803       5.98102076
C        1.96183634       0.44768019       0.12678048
C       -4.96730302       5.60579915      -1.36550553
C        1.57412899      -3.31062037      -3.03294945
C       -0.13865704      -0.06207962       6.17215818
C       -0.67473800      -0.79249827       3.42321011
C       -0.85980191       0.97076695       5.87167790
C        0.46986646      -0.05846031       3.17366049
C        1.72741273      -4.54595898      -3.52283121
C        2.43632285      -6.94625451       0.74087375
C        0.50254805      -2.69707340      -6.13623914
C        0.73184512       2.48264889      -0.80657654
C        0.37871585       0.09492348      -3.70789292
C        1.60593690      -1.32966831      -1.69583683
C       -1.50624721       1.89419761       5.30006034
C       -4.24922327       5.24153885      -2.47486443
C        1.62388624       1.74838475       2.25072751
C        1.11108953      -2.11994504      -3.77203618
C        1.11428983      -2.06497014       5.30580488
C       -2.06386751       2.74531769       4.46391169
C        0.64510891       1.37433217       3.26790256
C       -0.52052372       3.09869399       1.60822722
C        2.31683394      -5.70943177       0.36979602
C        1.72573489      -2.80325558       2.94133756
C       -0.43319341       2.97169621      -1.42480670
C        1.93399313       0.55504694       1.52658146
C        1.98042443      -2.02331648       0.47097604
C        0.41081424      -3.43325323      -7.14490571
C       -0.45028363       0.18098368      -6.08265874
C       -1.98261779       2.16323288      -8.94234977
C       -1.41700348       3.66402247       0.78476864
C       -4.58393744       5.37371156      -0.12307096
C       -2.57775329       4.32745781      -1.12600088
C       -0.55773130       2.29501117      -2.65801076
C       -3.08971312       4.61232692      -2.39352369
C       -3.10527122       4.26611450       2.56755007
C        1.07101554      -0.94268910      -2.96292123
C        2.61800301      -9.38820309       1.47013740
C       -0.96608017       0.76908950      -7.05277833
C       -5.16225895       5.59162693       3.55428792
C       -1.68004634      -1.55264093       3.40024797
C       -2.65921206       4.26998937       1.21994198
60
Properties=species:S:1:pos:R:3 entry_id=3 rank=19 energy=-476.8004150390625 pbc="F F F"
C        2.82931698      -3.57846423       0.12744064
C        1.65134957       0.03683031      -2.83410260
C        2.95443844       1.37869203       1.62031642
C        2.31822176      -1.98635722      -1.60644818
C       -2.90674029       2.23892488       3.19340091
C        1.94666278       0.31153222      -0.38776620
C       -0.85652811      -2.48460906       1.60613206
C        1.73113653      -1.57916390       3.08560060
C       -2.79673110       0.87593974      -3.86340957
C        0.74605302      -1.67080825       0.18911450
C        0.14630175       0.21378532       3.23363488
C        1.40958774       3.63028171       0.12652479
C        2.77262743      -3.19595207      -1.12299401
C        0.30603747       5.41798141       0.95147026
C       -0.30971948       3.06752222      -2.75557247
C        0.09349920      -0.58227364       0.73463290
C        0.76617888       2.22982665      -2.83235579
C       -1.47448429      -3.47405971      -1.51273399
C       -3.77820480      -0.31244167      -0.49713759
C        2.10354233       0.77435490      -1.75576220
C       -3.55432133       0.91134020      -2.68047246
C       -2.11633197      -2.61542502      -2.33306050
C       -0.62122082      -2.38477631       3.04123179
C       -3.36298388      -0.13542187       2.05918347
C       -0.94429413      -0.82563448       3.05403144
C       -0.85409387      -1.07176417       1.60574703
C       -2.78212145      -1.35851386      -2.48284757
C        1.97407688      -2.82305167       2.39066721
C       -0.66034549      -3.59760996      -0.56760396
C        2.69021184       1.54359579       0.28104689
C       -0.48160966      -1.21224563      -3.83247859
C        1.70308456      -1.40518024      -2.84234771
C       -2.36308219      -0.30692836       3.00177890
C       -2.77209268       3.17088209      -2.27392221
C        2.47629310       0.65918988       2.53191376
C       -1.72689807      -1.66094005      -3.31194867
C        0.77258474      -2.53595266       3.11157716
C       -3.00213419       0.93337679       3.05326734
C       -0.11148799       1.36068106       2.55517891
C        0.25024301       1.75004320       1.29594863
C        2.58851813      -3.47130272       1.38985448
C       -0.05443323      -2.88462989       0.45002408
C        2.19445531       2.65643053      -0.53769709
C        0.63810692       0.64387677       0.42519916
C        1.88742590      -1.18818334      -0.47585731
C       -3.53210962      -0.30064906      -1.87658328
C       -0.41445172       0.23485462      -4.04155095
C        0.70053459       0.87243330      -3.45745605
C        0.43360116       3.13576836       1.01683640
C       -3.63591636       2.23368166      -2.17474939
C        1.26683063       5.07232488       0.13304566
C        1.84246552       2.13807081      -1.82951210
C       -1.49765476       3.43545792      -2.54871498
C       -2.27812780       3.32094766       2.89603575
C        0.66562833      -1.94541400      -3.53389252
C        1.53813946      -0.18688007       3.09450998
C       -1.64879018       0.83873597      -4.35078550
C       -0.32421980       4.24232641       1.57727435
C       -3.72998330      -0.27577801       0.74997815
C       -1.40912679       4.08186308       2.37216822
60
Properties=species:S:1:pos:R:3 entry_id=32 rank=20 energy=-476.5994873046875 pbc="F F F"
C        3.20241246      -4.69361947      -0.36494093
C        1.94800638      -0.24167814      -1.08922984
C        1.53643604       3.73152339       1.49002479
C        2.34834373      -2.26454556      -0.66569436
C       -2.51574456       2.64072113       2.49777931
C        1.82959762       1.61825663       0.33842681
C        0.06096519      -2.60082213       4.00504061
C        4.34803235      -8.35768127       0.08958682
C       -2.38380167       1.25344368      -6.52182904
C        1.88678039      -0.60922328       1.36732656
C       -4.36597016       4.09201528       1.80905326
C       -0.24503303       3.97219189      -0.60196658
C        2.79086260      -3.51936507      -0.50603190
C       -2.55151774       4.32820026      -0.75482843
C       -0.63078371       2.83655347      -3.52143340
C        1.62949264      -1.57433753       2.29290692
C        0.33453437       1.90838374      -3.04173503
C       -1.15468442      -3.41305068      -3.05110825
C       -0.62508029      -1.76344319       1.70476131
C        1.65971417       1.11536629      -1.00605807
C       -3.68714832       4.01302876      -2.85299281
C       -0.61920644      -2.67990562      -0.75804039
C       -1.95969671      -1.46962099       5.01606543
C       -0.86075331       0.66608662       2.50501323
C       -2.52600610      -0.32803472       4.72888819
C        0.42004599       1.29951365       2.31112777
C       -0.65857721      -2.32446492       0.42300019
C        4.01104123      -7.09713881      -0.03266875
C       -1.84791341      -4.11382304      -3.86506478
C        1.72519998       3.01273945       0.27918215
C        0.33579944      -0.65733679      -3.43962749
C        1.69731768      -1.46949292      -1.75370303
C       -2.66553934       0.75667076       4.09613300
C       -2.52555591       3.69891248      -3.55143386
C        1.90829330       3.26871674       2.77265222
C       -0.38317963      -2.74058724      -2.16063320
C       -0.96956624      -2.22371517       4.65474256
C       -2.07878167       1.49183616       3.05838257
C        0.56459192       2.68571807       2.66495920
C        0.08735222       3.69593765       1.75097113
C        3.58690010      -5.92390741      -0.21043053
C        0.52719982      -2.14873306       2.77266610
C        0.94081250       3.28315331      -0.89021713
C        1.45052040       0.78705071       1.44057375
C        2.33807152      -0.99378442       0.06301045
C       -2.54675366      -4.80233651      -4.71014149
C       -1.82150860       2.72234561      -4.43405697
C        0.33979256       0.58660813      -3.52477341
C       -0.79101762       3.94884788       0.71147795
C       -3.69252225       4.28794407      -1.57436240
C       -1.30781003       4.22027270      -1.47592686
C        1.03404856       2.14355458      -1.80373702
C       -1.29462255       3.86609321      -2.80481586
C       -3.03165239       3.63575977       1.70891884
C        0.60838815      -1.74487249      -2.60473540
C        4.96077795      -9.40971264       0.45956150
C       -2.10939029       1.95041965      -5.51271848
C       -5.52508619       4.52140156       1.96927140
C       -1.10761344      -0.59696287       2.12584126
C       -2.20768110       4.09591016       0.63015572
60
Properties=species:S:1:pos:R:3 entry_id=31 rank=21 energy=-476.1488952636719 pbc="F F F"
C        1.22328530      -4.27019561       0.24989797
C        1.63973163      -0.87959352      -1.04256385
C        0.75532595       2.56641876       2.18060934
C        1.22907081      -2.94122762      -2.03570193
C       -2.64316884       4.10052907       2.02026172
C        1.80442419       0.71668934       0.80582818
C        3.48732688      -5.17688844       2.27321896
C        3.12988075      -7.39439386       1.21688492
C       -1.24549117       2.59007252      -5.65774927
C        2.90298804      -2.66435756       1.95235038
C       -5.56224817       5.99258703       0.52402210
C       -0.08829586       3.56736127      -0.49366097
C        1.53326717      -3.13553473      -0.63873119
C       -2.29765529       4.70740007      -0.20332324
C       -1.53800000       3.65045230      -3.49237139
C        2.34750495      -1.57454150       1.25985802
C        0.68304097       1.57642470      -2.56074770
C        0.58363695      -4.68435369      -3.86696459
C       -1.27721339      -2.39963422       2.61037135
C        1.62584796       0.44054388      -0.61404201
C       -3.68024431       5.87010891      -1.94889581
C        0.28149761      -3.86453450       1.20306899
C        5.16764363      -6.26002645       4.00355476
C       -2.50588545      -0.34715949       3.48294718
C       -2.94367528       0.83401110       3.59467562
C       -0.48553514       3.82435950       5.20921203
C       -0.51383112      -3.21882946       1.91732954
C        2.80049381      -6.01228201       1.24619134
C        0.26795050      -5.60377910      -4.75171822
C        1.19761457       2.04952931       1.03976455
C        0.51394725       0.45940178      -3.55063398
C        1.23879490      -1.49345758      -2.28501711
C       -3.20736469       2.09596095       3.40003804
C       -3.27905963       5.50749408      -3.45611534
C       -0.29733680       3.32677387       2.60927693
C        0.89296875      -3.88064057      -2.96695796
C        4.36323065      -5.79606036       3.16633655
C       -3.25702259       3.26034320       2.90324705
C       -0.50821587       3.56736490       3.99177433
C       -1.26513438       3.84657692       1.68263806
C        1.93805856      -5.41219413       0.39019836
C        3.26893389      -3.80022130       2.23629462
C        0.79579814       2.58293291      -0.28353739
C        2.23450728      -0.24823517       1.64146770
C        1.87866175      -1.88901718      -0.07699616
C       -0.12511824      -6.26176750      -5.75615368
C       -0.94256919       2.70727756      -4.28257226
C       -0.03025904       1.76057863      -3.69115255
C       -1.08211673       4.07394526       0.26709977
C       -4.22492842       6.39982441      -3.10380718
C       -2.65055923       5.02084259      -1.51316054
C        1.13958615       1.58667748      -1.28394061
C       -2.28819333       4.57633139      -2.91593530
C       -4.44582450       5.39962315       0.75077237
C        0.81958939      -0.80254640      -3.38317742
C        3.38469687      -8.61260655       1.15305264
C       -1.44871252       2.39606567      -6.87494672
C       -6.71172165       6.55637217       0.40236031
C       -1.92487542      -1.45184007       3.12042491
C       -3.23798230       4.83804013       0.87815212
60
Properties=species:S:1:pos:R:3 entry_id=17 rank=22 energy=-475.763427734375 pbc="F F F"
C        2.96271190      -4.11654568       0.18653237
C        1.87265882      -0.88508868      -1.15015609
C        1.82955359       3.10885368       1.18778899
C        1.85030228      -3.10048938      -1.83701985
C       -3.20384121       2.30687857       3.37418049
C        2.40064854       1.24925282      -0.02113201
C        0.56954455      -2.92793680       3.06108404
C        4.67343406      -6.94541186       2.12008221
C       -2.74242691       0.08070801      -3.00773996
C        1.75153790      -1.53165810       1.28903062
C       -4.71848851       4.30565105       3.30908656
C       -0.14060681       3.50305305      -0.79738609
C        2.40698916      -3.10611310      -0.54858174
C       -5.61438374       5.15020545       3.50834905
C       -0.86819610       2.84913956      -4.92663403
C        1.54985691      -0.15675849       1.70085288
C        0.38566067       1.16514560      -3.10387721
C       -0.36378117      -3.78335512      -3.75757439
C       -1.64538403      -1.40176843       0.19899277
C        1.84281802       0.52745451      -1.12151278
C       -3.45605109       5.71840925      -4.11807363
C       -1.69234892      -2.18388495      -2.36735441
C       -1.36755249      -2.18826614       4.34106665
C       -0.90101455      -0.16459816       2.37636067
C       -1.99642746      -1.07277907       4.28874344
C        0.39263590       0.46952952       2.27412679
C       -1.93481945      -1.60793559      -1.10331062
C        4.07842119      -5.99849387       1.49470731
C       -0.36561013      -4.88499584      -4.35882471
C        2.00147332       2.58671501      -0.10959540
C        0.18723155      -0.15362944      -3.35709488
C        1.44156507      -1.81720754      -2.17902168
C       -1.89005747       0.05239567       3.50800174
C       -2.62015948       5.14866283      -3.33106427
C        2.12044859       2.02420874       2.10013787
C       -0.61849157      -2.54067171      -3.21712035
C       -0.40508625      -2.94666055       3.92069932
C       -2.60946221       1.24088003       3.52347061
C        0.70224537       1.87995020       2.40981063
C        0.43767344       3.01701253       1.53337952
C        3.52613049      -5.05378103       0.78707657
C        1.32298994      -2.54383780       2.12293831
C        1.02979821       2.71505780      -1.12050939
C        2.46255469       0.85163795       1.31698795
C        2.19289786      -1.74234220      -0.04403930
C       -2.47553527      -1.00486021      -2.27916605
C       -1.74010371       1.97876039      -4.23722162
C       -0.31959249       2.10835725      -3.92932918
C       -0.52611721       3.48127355       0.60066170
C       -4.15937732       6.16842740      -5.08720889
C       -0.98633480       4.09038363      -1.68670026
C        1.11286965       1.49253159      -1.91012933
C       -1.80447738       4.66221548      -2.44342538
C       -3.62502472       3.56284735       2.87540291
C        0.40445413      -1.44567761      -3.12038883
C        5.14678083      -7.81637849       2.93522863
C       -2.59850172       1.09918813      -3.72279674
C       -1.79343089       3.86418632       1.05291549
C       -1.33132520      -0.97712803       1.33736736
C       -2.73694532       3.92283565       1.84779567
60
Properties=species:S:1:pos:R:3 entry_id=26 rank=23 energy=-474.9151611328125 pbc="F F F"
C        2.29025588      -3.53388274       0.22320846
C        2.13700958       0.13447290      -0.13701886
C        3.43132480       3.89592926       2.39772948
C        1.39354193      -1.76417216      -1.32969191
C       -3.78759607       2.55622933       2.79479302
C        2.10129938       2.78940178       0.48535472
C        1.55714939      -2.63263544       3.23958867
C        2.95491445      -7.13977517       1.32306748
C       -2.96553163       0.17963002      -5.71341280
C        3.09296374      -1.18100785       1.85200418
C       -4.65925938       4.50913668       4.36774730
C        0.02313586       3.66332228      -1.19008001
C        2.04581066      -2.25323448      -0.18464635
C       -2.25030200       4.75807698      -1.46079987
C       -0.65329833       1.93239868      -3.36529883
C        3.84978485      -0.02220100       2.17294606
C        0.45048736       1.63346280      -2.54079557
C       -1.36224503      -3.83796167      -4.56657190
C       -2.68621888      -2.10333397      -0.02787565
C        2.57040140       1.39275011       0.48365685
C       -2.96276680       4.73337395      -3.64377908
C       -1.65277556      -2.35905260      -2.35930432
C       -0.94955108      -2.50922605       3.45328124
C       -2.06958614      -1.99632827       3.20471009
C       -2.98196698      -1.27324347       2.43750140
C        4.30603279       1.20644775       2.64397347
C       -2.27168428      -2.36163544      -1.23591410
C        2.75767845      -5.93967874       0.92405245
C       -1.43908175      -4.79821611      -5.41520389
C        2.66946684       3.61954118       1.42886405
C       -0.29845889      -0.36742042      -3.31074904
C        1.37328436      -0.38115422      -1.37324879
C       -3.46190421       0.00400962       2.72878980
C       -2.29042077       3.68602182      -4.09677877
C        4.31751772       3.40146449       3.26460117
C       -1.27204713      -2.84107813      -3.73379068
C        0.31552412      -2.79929871       3.53760430
C       -3.66251743       1.22185339       2.78409218
C        4.79646163       2.20053330       3.46618500
C       -3.01545282       4.30193599       0.97785918
C        2.51102857      -4.71249721       0.56138985
C        2.59763025      -2.11893320       2.72076601
C        1.14943996       3.15192934      -0.48609068
C        3.55110661       1.13154183       1.45342963
C        2.47943167      -1.08059550       0.54140363
C       -1.50868003      -5.79935361      -6.21078790
C       -1.05688987       0.70350530      -3.98333250
C        0.64040177       0.25387829      -2.41823778
C       -2.58830890       4.66935499      -0.12762350
C       -3.05505824       5.33815617      -2.48489494
C       -1.14148073       3.90828497      -1.91586492
C        0.85273748       2.58909683      -1.67208155
C       -1.34745736       3.16932297      -3.20473664
C       -4.14334193       3.80040148       3.37228857
C       -0.77894435      -1.65668468      -3.24243608
C        3.29695564      -8.35229767       1.56470477
C       -2.08821533       0.49024974      -4.87172882
C       -5.19609107       5.13906791       5.32239429
C       -3.00157545      -1.74502786       1.12977382
C       -3.49297767       3.76809100       2.09759453
60
Properties=species:S:1:pos:R:3 entry_id=22 rank=24 energy=-474.8038330078125 pbc="F F F"
C        2.44492104      -3.47060386       0.25900346
C        2.22568448       0.21718346      -0.04636164
C        3.82580430       3.99146986       2.00165007
C        1.58296553      -1.70735809      -1.30153428
C       -4.21294866       2.35043624       3.26905422
C        2.19437187       2.88624489       0.49478665
C        1.34840885      -2.50076542       3.20364949
C        3.11602564      -7.14389218       1.10554796
C       -2.83838054       0.14153491      -5.72650276
C        3.06815277      -1.14214737       1.96223714
C       -4.63537043       4.55281938       4.38900956
C       -0.01117864       3.64110403      -1.09280948
C        2.18807497      -2.18683537      -0.13344742
C       -2.26458085       4.76184101      -1.39243981
C       -0.66526139       1.87481950      -3.26733460
C        3.85938998      -0.02033044       2.31612221
C        0.45466710       1.60886364      -2.45525253
C       -1.17379807      -3.84015176      -4.41909276
C       -3.18316985      -2.22415190      -0.09559241
C        2.66081642       1.47668777       0.61684918
C       -3.06154485       4.60657674      -3.56520960
C       -2.12034645      -2.77770763      -2.36930020
C       -1.18017132      -2.39513640       3.27139042
C       -2.33020118      -1.96194466       3.02940525
C       -3.37611248      -1.32545884       2.35054647
C        4.77273550       0.63988751       3.15913965
C       -2.70003072      -2.53447776      -1.31246642
C        2.91212348      -5.91676646       0.80460709
C       -1.11593342      -4.75504998      -5.30342784
C        2.84406996       3.88276772       1.18620187
C       -0.15433829      -0.42891274      -3.29563967
C        1.51717331      -0.32353400      -1.33409704
C       -3.91061456      -0.13614780       2.76754210
C       -2.37255041       3.55189365      -3.97679233
C        4.70183875       3.28411599       2.69291922
C       -1.22798827      -2.82459295      -3.47888750
C        0.09007963      -2.64592338       3.40229531
C       -4.06502828       1.11153999       2.99807659
C        4.51613227       1.93947004       2.55372577
C       -3.01098960       4.56045821       1.09110501
C        2.66671768      -4.66896291       0.51998002
C        2.46581904      -2.03940950       2.80313739
C        1.14279124       3.14479188      -0.41209381
C        3.60521651       1.22884716       1.64850378
C        2.54322331      -1.01008004       0.62625861
C       -1.06339697      -5.69464193      -6.19861350
C       -0.99720055       0.65801621      -3.92747595
C        0.75809601       0.25841686      -2.38344121
C       -2.53678733       4.81973758      -0.06966058
C       -3.11638424       5.26661421      -2.43856141
C       -1.17048182       3.86894015      -1.83242036
C        0.80202902       2.55222424      -1.55987826
C       -1.39419154       3.09248163      -3.09552704
C       -4.14896220       3.73577667       3.33585543
C       -0.39610376      -1.72478288      -3.44584653
C        3.43456487      -8.38272726       1.21244921
C       -1.99455162       0.45162818      -4.84794093
C       -4.88552842       5.53447139       5.11560435
C       -3.47397992      -1.81905879       1.02839971
C       -3.53268992       4.28284131       2.21516855
60
Properties=species:S:1:pos:R:3 entry_id=0 rank=25 energy=-474.6690673828125 pbc="F F F"
C        1.73472755      -3.37184007      -0.91634070
C        2.04770322       0.15191406      -2.30103929
C        1.91563049       1.86831210       2.12954990
C        2.52752394      -2.20413045      -1.15170192
C       -2.92225307       1.05158568       2.39491659
C        2.47047815       0.67229896       0.13204761
C       -0.04200333      -3.76299371       0.95483436
C        2.54757808      -1.61475012       2.33372900
C       -2.61981616       0.78771998      -3.27565617
C       -0.06758134      -1.52250320       0.07011962
C       -1.20801197       1.61881599       3.80133414
C        1.12481557       3.57767589       0.02867160
C        0.41992735      -3.26620232      -1.41299798
C       -0.98178299       3.98401507      -0.79200442
C        0.59290540       3.46217458      -2.41999899
C        0.13075387      -0.46180070       1.05596274
C        1.59441292       2.43049658      -2.51766985
C       -2.92707810      -2.99426492       0.17358284
C       -3.25095073      -1.87130855       0.68518351
C        2.72932348       0.89535464      -1.26209223
C       -3.00372331       1.85968488      -2.43003662
C       -1.87961460      -1.71880826      -1.63144787
C       -0.05047664      -2.59171378       2.92620311
C       -2.28523838       0.25977472       1.38785100
C       -0.86544373      -1.79317683       3.48696869
C       -0.81769998       0.19279640       1.94167742
C       -2.52474703      -0.54350405      -1.09461750
C        2.06736946      -2.60055459       1.54520241
C       -1.83426935      -2.81563923      -0.70487178
C        2.56933720       1.90564311       0.84569247
C       -1.21487927      -1.06993358      -3.92569615
C        1.56405831      -1.24066893      -1.89692975
C       -1.35616869      -0.55345453       3.18227828
C       -1.67956075       3.77288933      -2.04699796
C        2.27441638       0.79323885       2.90952769
C       -0.89699413      -1.68310750      -2.71161780
C        0.74078791      -3.16535057       1.91230852
C       -2.18673481       0.62053227       3.62303480
C       -0.41484600       1.52311954       2.68442086
C        0.56565956       2.38986835       2.09848359
C        2.35793260      -2.78424321       0.16159620
C       -0.43988624      -2.96538013      -0.22596293
C        2.32763980       2.90081483      -0.14498992
C        1.27823451      -0.03215076       0.29033220
C        0.83804587      -0.87101285      -0.71886826
C       -2.77753439       0.52347678      -1.93682915
C       -1.42390440      -0.70278689      -5.24950307
C        1.46773714       1.14134019      -3.09402414
C        0.19717446       3.27627656       1.06199720
C       -2.92017643       3.15291526      -2.15485996
C        0.38781715       3.94386316      -1.09603552
C        2.49930257       2.28717161      -1.42319529
C       -0.65445480       3.59047206      -3.04071749
C       -2.98931267       2.36850215       1.93404650
C        0.40249408      -2.20456842      -2.38044839
C        2.58021976      -0.45697099       2.88022144
C       -2.02594235       0.05499274      -4.24538860
C       -1.16022618       3.57026109       0.58757444
C       -2.82256642      -0.57700960       0.36650914
C       -2.31320446       3.17296602       1.25168113
60
Properties=species:S:1:pos:R:3 entry_id=13 rank=26 energy=-474.24871826171875 pbc="F F F"
C        4.06052745      -2.71469822       0.10595852
C        1.01604579      -0.48375249      -2.22251888
C        2.47519012       1.84251297       1.71540557
C        3.59406999      -2.81431751      -2.56522664
C       -2.91667953       1.65648637       3.35516995
C        2.35914091       0.20365821      -0.15678048
C       -1.71412975      -3.61823537       1.65673541
C        2.35718818      -0.59491718       2.02814876
C       -2.44296124      -0.34691914      -3.10536853
C        0.27386435      -2.20994241      -0.69161644
C       -2.42001509       3.98622230       2.38197878
C        1.27609339       3.51533099      -0.22459179
C        3.47614758      -2.63136123      -1.13917272
C       -0.35823426       4.29992916       0.76510217
C       -0.53885079       2.70224235      -2.63132625
C        0.58601390      -1.43994971       0.46673910
C        0.52801827       1.76237295      -2.50864286
C       -2.04284386      -1.99386414      -1.30192322
C       -2.48729800      -1.15313837      -0.25785828
C        1.93526778       0.31338697      -1.50775971
C       -4.03112239       2.76671885      -2.58201324
C       -2.10371801      -1.69329370      -2.68689767
C       -2.55969886      -3.48517450       4.20794725
C       -0.49897977      -0.76707489       1.23674591
C       -2.56841289      -2.17308484       3.67936762
C       -0.17481004       0.39041168       1.95782455
C       -3.66283538       0.29998451      -3.01251567
C        4.24417395      -3.38631344       1.32773615
C       -1.00709164      -2.87635578      -0.69310112
C        2.57453310       1.54748229       0.33340153
C       -0.29863680      -3.18217682      -4.23556897
C        1.00133699      -1.97199050      -2.01108158
C       -2.77017864      -0.86204797       3.65802738
C       -2.15240130       4.28970697      -1.85941752
C        2.73333787       0.68928039       2.47250082
C       -1.09854110      -2.34932554      -3.40566141
C       -2.14553879      -3.33456668       2.89528564
C       -2.94382722       0.37641590       3.63056152
C        0.24866687       1.52435152       2.22634232
C        1.20629950       2.51263361       2.00281975
C        5.14206318      -2.42625044       0.95968966
C       -1.33673036      -3.53114998       0.48419875
C        2.06779719       2.45900189      -0.65796504
C        1.90023663      -0.82556424       0.71371056
C        2.41765119      -2.43437121      -1.96768727
C       -4.09288917       1.49533860      -2.85934975
C       -1.30786427       0.55564468      -3.25472440
C        0.07740069       0.41528705      -2.81582256
C        0.87621437       3.60861724       1.14544047
C       -3.25591629       3.75242346      -2.23260969
C        0.01899447       4.11437173      -0.65589615
C        1.69854474       1.69670276      -1.76999149
C       -0.82283878       3.86044207      -1.78465434
C       -2.70566877       2.80932936       2.92386247
C        0.21732073      -2.56103521      -3.11346338
C        2.87990656      -0.40879651       3.29865569
C       -1.49700730       1.95234803      -3.31510056
C       -1.50829311       4.64859676       1.45009281
C       -1.80499726      -0.83856315       0.75687241
C       -2.56808551       5.34456837       1.97886454
60
Properties=species:S:1:pos:R:3 entry_id=11 rank=27 energy=-473.94586181640625 pbc="F F F"
C        3.16661030      -3.17620522      -0.84352048
C        2.55135239      -0.18420314      -4.20542430
C        1.90621498       0.65327295       2.43664688
C        3.30747600      -1.02310313      -2.03323578
C       -2.28826101       4.55072248       4.74317287
C        0.12421011       1.94744934       0.17254523
C       -1.09782482      -2.91434152       1.17504510
C        1.49114456      -1.55376964       3.25124231
C       -2.17323273      -1.77519753      -6.83559218
C        2.38595397      -0.53153295       0.27960135
C       -0.53077047      -0.05915250       3.58500932
C        1.20415040       6.19066233       0.77891280
C        3.68692696      -2.28911496      -1.55894139
C        0.80598170       5.09175884       1.29492346
C       -0.29209993       1.70333696      -2.87864627
C       -0.77469701       0.96650310       0.50660757
C        0.87579156       0.97459384      -2.91157154
C       -1.36950950      -4.07994655      -0.98534562
C       -4.97883274       1.08834294       1.45402819
C        1.63704397       0.87072811      -1.67000952
C       -4.46369041       2.50534387      -0.54079591
C       -1.73443425      -3.94823773      -2.16753621
C       -0.28506837      -1.99378133       1.88113145
C       -3.76240880      -0.86269871       2.46681907
C       -1.12189992      -0.82220807       2.40155439
C       -2.41012772      -2.71968324       1.55072958
C       -1.89065901      -3.47891067      -3.39669133
C        1.94251928      -1.82013282       0.77720628
C       -0.53114206      -3.72753839       0.09572014
C        2.33915942       0.62160230       1.11301131
C       -1.64482585      -1.97159458      -5.49562882
C        3.37597338      -0.64697853      -3.38932547
C       -2.61008083      -1.57235714       2.28956588
C       -2.53290634       2.66285096      -2.14903818
C        1.99587480      -0.27480912       3.50856794
C       -1.83536872      -2.81157138      -4.44366891
C        1.11066070      -1.97386644       1.94968796
C       -0.86804869       2.59213393       3.54680929
C       -0.24556384       1.37206793       3.36843582
C        0.90090645       1.56445344       2.54895034
C        1.97332814      -3.03961701      -0.04455949
C        0.81452047      -3.71903570      -0.08741946
C        2.04544016       1.92668733       0.55236252
C       -1.20376499       0.09497487       1.27066101
C        2.47298419      -0.22581876      -1.18085084
C       -4.94611572       1.92204936       0.49427727
C        0.20680356      -0.12193551      -4.99050213
C        1.19782900       0.23978113      -4.13389469
C        0.93991013       2.52576523       1.42444787
C       -3.58588089       2.73503650      -1.45181624
C        1.60919931       7.29447192       0.25359493
C        1.28274283       1.77981089      -0.63227478
C       -1.38124242       2.27020873      -2.61484377
C       -1.45529855       3.89786790       3.95788542
C       -0.68597074      -0.74954106      -5.70194048
C        0.68863151      -0.65017968       3.97918550
C       -1.37058184      -0.72967740      -7.04544891
C        0.44119888       3.92832137       1.86394239
C       -4.52107926       0.09099364       2.15060815
C       -0.49223033       3.74609365       2.90063053
60
Properties=species:S:1:pos:R:3 entry_id=9 rank=28 energy=-473.8500061035156 pbc="F F F"
C        2.08681736      -2.70682584      -0.63577692
C        0.67927645      -0.27527733      -3.81434136
C        4.04330204       3.32241412       0.96354768
C        2.08925270      -2.12144021      -3.07308066
C       -1.83758881       1.96770437       5.56130599
C        0.07179794       1.92160492      -0.53307782
C       -1.13181581      -2.02545472       1.55465714
C        2.17152631      -2.15556034       4.26567377
C       -0.47439123      -4.89681190      -8.67809074
C       -0.48877552      -1.36154845      -0.51706192
C        0.58508921      -0.15027850       3.98418475
C        0.31745813       6.61703626       2.81353916
C        1.54386152      -2.12979251      -1.76274377
C        0.69098219       5.40313178       2.38771635
C       -1.31700080       2.44894378      -4.64446698
C       -1.04107568       0.97301172      -0.63752764
C       -0.65196208       1.43879944      -4.94976972
C       -0.72563256      -4.23003670      -1.60001767
C       -3.36469337       2.79457275       1.35988886
C        0.28535609      -0.04954920      -2.43599559
C       -3.67331014       3.98217171      -0.85052865
C       -0.62699519      -4.41601414      -2.85909665
C       -0.56642742      -2.08479371       2.80952512
C       -2.08286037       1.24768708       3.03798677
C       -0.52655219      -0.76421920       3.34055176
C       -1.56471330      -0.63258843       1.34123656
C       -0.52280412      -4.23921091      -4.14792891
C        2.50363671      -2.95991894       1.86160181
C       -0.81224327      -3.74350635      -0.41792477
C        2.83402642       3.15812704       1.22354439
C       -0.31457162      -3.30944259      -6.59809202
C        1.61063619      -1.31556074      -3.93967536
C       -1.47456614       0.05161544       2.57381790
C       -2.77674870       3.91609524      -3.19588484
C        2.11624687      -1.73867700       5.62827499
C       -0.42948666      -3.95425749      -5.36526534
C        2.42010815      -2.67436881       3.07037253
C       -1.90949831       1.59131287       4.38296147
C        1.02727462       1.04695570       3.36357837
C        1.24388615       1.96434783       2.57219189
C        2.36735889      -2.94172961       0.54950470
C       -0.78259145      -2.57167565       0.24556594
C        0.76490339       2.56608817       0.32067709
C       -1.18738533      -0.25515305       0.03053003
C        0.40996211      -1.22061074      -1.58215779
C       -3.69899692       3.51320509       0.31805469
C       -0.10847921      -0.76564675      -5.96514340
C        0.00542968       0.24768125      -4.98781194
C        1.42526341       2.97654016       1.54183134
C       -3.36197893       4.16028571      -2.08284205
C        0.26418646       7.80545524       3.20373992
C       -0.26745520       1.09084204      -1.78240361
C       -2.06912633       3.35151885      -4.07774224
C       -1.66526297       2.30707330       6.83193214
C       -0.19782833      -1.89574698      -6.44794748
C        1.42236747      -0.99974044       4.71998484
C       -0.35603652      -4.00341538      -7.81608396
C        0.98135833       4.27520437       1.99513247
C       -2.83504608       2.03247233       2.18558984
C       -1.72054575       2.77808713       7.99478875
60
Properties=species:S:1:pos:R:3 entry_id=27 rank=29 energy=-473.48126220703125 pbc="F F F"
C        1.82159412      -3.67094201       0.12692236
C        1.69184245      -0.02249067       0.24186656
C        4.29600760       4.42590075       3.72868634
C        0.51699309      -1.72349588      -0.91072104
C       -6.08836960       3.47819755       0.59773947
C        3.38191044       2.48981040       2.29793756
C        4.61744376      -3.50072395       1.73374796
C        2.92743253      -8.18611923       2.14898189
C       -3.93759645       0.24787550      -4.35779570
C        3.40520369      -1.22125399       1.46555107
C       -6.30255326       6.02617849       0.92798277
C       -0.67626209       4.00976238      -0.58243369
C        1.57976646      -2.37196489      -0.09725843
C       -0.78523789       5.76107104      -2.34355821
C       -1.72353183       1.85331655      -2.02219110
C        3.75092706       0.09287934       2.05154258
C       -0.60610967       1.73750786      -1.16516357
C       -1.12698743      -4.10623520      -2.39856346
C       -4.75521296      -0.93341129      -0.88889980
C        1.92452663       1.30484750       0.72908028
C       -2.85390413       5.04207634      -4.00076880
C       -2.93421231      -2.53156279      -1.72144462
C        5.69444579      -5.84521831       1.69271161
C        6.51278129      -6.82506868       1.65669529
C       -5.84493912       1.21778208       0.04228071
C        4.73626566       0.19251960       2.96322395
C       -3.88409720      -1.83786673      -1.32013204
C        2.55585725      -5.90788131       1.07848383
C       -0.62283961      -5.15992517      -2.91639723
C        3.86890355       3.44276016       3.00955503
C       -1.14110532      -0.40202705      -1.94873068
C        0.69871160      -0.35276619      -0.63952728
C       -6.61917571       2.41465599      -0.14974451
C       -2.48665884       4.03211225      -3.14961890
C        6.52170677       0.76336936       4.73026821
C       -1.60426241      -2.89636560      -1.98526043
C        5.14383663      -4.68083969       1.73959264
C       -5.61454421       2.22544522       1.02812839
C        5.60560983       0.52993068       3.85202631
C       -3.19009745       4.55543920      -0.31945986
C        2.17635346      -4.80009153       0.56358974
C        4.12846804      -2.34369354       1.74455007
C        0.06143442       2.73641617      -0.39398249
C        3.02675218       1.34239503       1.69663302
C        2.30580278      -1.24185503       0.58027506
C       -0.18089587      -6.21343994      -3.53078392
C       -2.07552657       0.51870837      -2.54522874
C       -0.26352534       0.41214448      -1.22231097
C       -2.11810195       3.86114605      -0.83258501
C       -1.79573936       5.34048734      -3.14252950
C       -0.35290350       5.11115117      -1.32294308
C        1.15220883       2.37256030       0.34576812
C       -2.29154142       3.14219282      -2.10619267
C       -5.63088981       4.86583663       0.58822886
C       -0.72101025      -1.78353032      -1.70577828
C        2.90474338      -7.01330581       1.64590098
C       -3.07927724       0.27928181      -3.44272539
C       -6.59087949       7.22304192       1.13154767
C       -5.37952148       0.04997262      -0.46023381
C       -4.30889897       4.84619729       0.13603867
60
Properties=species:S:1:pos:R:3 entry_id=14 rank=30 energy=-473.458740234375 pbc="F F F"
C        2.71174125      -4.80330761       0.52592296
C        2.99396961      -1.23908237      -2.64913294
C        1.06934988       4.63531151      -0.41585846
C        3.72610359      -3.25073249      -1.20453326
C       -1.64781043       2.83956531       2.89107576
C        1.16406530      -1.69663271       2.49897187
C       -2.34919993      -1.46860688       1.81623569
C        0.85190187      -2.14390914       4.71289834
C       -3.16090794       1.94735824      -4.03236612
C        0.38065416      -2.30861494      -0.17636134
C       -0.24261652      -0.20855986       4.24872277
C        0.89487472       8.34819921      -1.02536319
C        3.40402409      -4.18766743      -0.39880379
C        0.56681179       5.93641749      -0.10260358
C        0.46458431       1.40230803      -2.67478586
C        0.64184941      -0.72890210       1.68606013
C        1.63217821       0.84711556      -2.16987169
C        0.11084320      -3.21083148      -2.59926309
C       -4.05154566       1.30132871       1.02546596
C        2.90426273       0.14327749      -0.20153843
C       -3.87680204       1.80298932      -1.46623899
C       -0.37770502      -2.77123590      -3.67954922
C       -0.32785934      -2.50958790       3.93006093
C       -2.57556614       0.54413878       3.01055644
C       -1.06698071      -1.26797759       3.86035795
C       -1.52162430      -1.50395672       0.86885468
C       -0.95355733      -2.13175193      -4.62971316
C        0.76733903      -4.15059286       2.17809470
C        0.45649274      -3.17253520      -1.32232591
C        1.24877231       3.42231894      -0.34378124
C       -2.30568615      -0.36177953      -5.83721147
C        3.50101083      -1.92559311      -1.48636749
C       -2.18540464      -0.86370250       3.06500482
C       -1.99362187       1.83920010      -3.28523630
C        1.74997895      -1.41532419       3.77844799
C       -1.60979990      -1.30379865      -5.35583173
C        0.38829878      -2.98387706       2.71622482
C       -1.53960872       1.50886565       3.23118324
C       -0.23160151       0.88855081       3.38288249
C        0.52482140       0.69659409       2.12908879
C        1.46648457      -4.34153231       0.98286298
C        0.88621513      -3.54164027      -0.03067133
C        1.37300685       2.06893409       0.07347604
C       -0.18193698      -1.26505823       0.57308903
C        3.46890863      -0.95624945      -0.44159547
C       -4.12817101       1.60307768      -0.25552639
C       -3.57811330       1.77842960      -5.30274209
C        2.31760874      -0.20155539      -2.83503553
C        0.86557058       1.68442456       1.26753079
C       -3.33701932       1.91021968      -2.65988464
C        0.88339291       7.13477676      -0.73505291
C        2.02297672       1.05348041      -0.77369816
C       -0.69841088       1.65430978      -3.03700506
C       -1.35809378       3.97697167       2.48532744
C       -3.92592430       1.67210839      -6.61285824
C        0.98531931      -0.69352486       4.71171815
C       -3.06268585       0.64809418      -6.17201568
C       -0.29948878       5.75167210       0.98817185
C       -3.56173824       0.92489976       2.11422953
C       -0.87701506       5.00432992       1.79531069
60
Properties=species:S:1:pos:R:3 entry_id=16 rank=31 energy=-473.38262939453125 pbc="F F F"
C        3.39404973      -4.39049041      -1.67712845
C        1.97799564      -1.25557698      -0.17779561
C       -0.23298294       3.34340152       3.47621783
C        1.40949744      -2.73149429      -2.03431905
C       -0.07426323       5.56507731       4.18204470
C       -0.29474364       3.35988810       5.73567448
C        1.51400762      -0.51903232       4.42015060
C        6.21353828      -7.01334478      -1.19855591
C       -2.68604064      -1.95702027      -4.61479043
C        2.63321309      -0.65982606       2.19731716
C        0.01108599       7.46375737       2.24756481
C       -3.18383817       2.87007957      -1.51825516
C        2.48815843      -3.54436976      -1.77350465
C       -0.50233115       5.51807954      -0.77264428
C       -2.30166627       1.73448041      -3.86770986
C       -0.89085515      -0.06557078       0.50139584
C       -1.43347078       1.28668064      -2.82297364
C        0.45472676      -4.48852976      -3.46145642
C       -2.12642334      -2.24534053       0.10757540
C       -0.54919431       0.32914316      -0.80680277
C       -1.32844177       4.90127344      -3.12031799
C       -0.61057483      -2.29975064      -3.35205561
C       -0.93030756      -0.89268321       4.82229023
C       -1.51460351      -0.80566930       2.32330906
C       -1.80365425      -1.12272426       3.63424998
C       -0.89403744       0.42562379       1.86328095
C       -2.52582244      -2.97196525      -2.31469242
C        5.25498145      -6.13540534      -1.40610982
C        0.41943909      -5.64589652      -3.93650256
C       -0.15883199       4.25980704       4.54571547
C       -0.47850116      -0.96009126      -2.91910561
C        1.17796307      -1.53725632      -1.25893427
C       -2.38002491      -2.72085783      -1.06805402
C       -1.99715305       4.13017977      -3.84730294
C       -0.45582613       1.99052524       3.89369240
C        0.42229143      -3.18221149      -2.96979682
C        0.35854360      -0.64452330       4.91153752
C       -2.28479981      -1.25186945       4.91450731
C       -0.58294236       1.59282411       2.52511097
C       -0.34859395       3.13560315       2.07559521
C        4.37514275      -5.25305653      -1.51790262
C        2.33939613      -0.52201261       3.41312752
C       -2.24379839       2.27198808      -0.83602686
C       -0.45904859       2.08779673       5.31241893
C        2.43858820      -0.92769816       0.93307439
C       -2.04733705      -2.65244387      -3.56936484
C       -2.11997796       0.38339323      -4.52081308
C       -1.13986048       0.10438250      -3.49996418
C       -0.32343160       3.99082558       1.07257473
C       -0.83593012       5.32087521      -1.95030148
C       -3.74394573       3.18352641      -2.64401605
C       -1.33609211       1.39397184      -1.42037544
C       -2.88773418       3.04782450      -3.80184954
C       -0.05508740       6.23605732       3.05903831
C        0.08799776      -0.68733305      -1.63904950
C        6.93349720      -8.05220009      -1.32544227
C       -2.73834378      -0.75897335      -5.03576941
C       -0.29182057       5.27871168       0.59334086
C       -1.59227346      -1.31453161       0.90586794
C       -0.11458303       6.28750830       1.60189019
60
Properties=species:S:1:pos:R:3 entry_id=24 rank=32 energy=-472.59271240234375 pbc="F F F"
C        1.77714386      -4.21062958       0.38285628
C        1.43847490      -0.80228213      -0.93190351
C        0.91487243       2.86782299       2.18022217
C        1.38309932      -2.98463147      -1.76499021
C       -2.14035609       3.19277135       3.25009927
C        2.77933521       0.90641267       0.12125172
C        1.30924057      -2.49109303       3.82439628
C        2.24607593      -7.65548868       1.99781971
C       -2.42708304       3.14588421      -7.15822258
C        1.55746638      -1.41406188       1.54136249
C       -4.01555145       4.76385810       3.01616939
C       -0.40781270       1.91476673      -0.44806076
C        1.61714113      -3.07239285      -0.32639265
C       -3.91862941       4.49462937       0.33694260
C       -1.46712696       2.18526568      -3.46005814
C        1.40061197       0.02213462       1.88628648
C       -0.62398081       1.07462376      -3.36424828
C        0.99721750      -2.77403317      -5.40262979
C        0.81313995      -2.33113767       5.03834609
C        1.75264068       0.58995648      -0.85354723
C       -3.93226463       4.49890519      -2.02174305
C        1.31641908      -4.07109340      -2.61632458
C       -0.86589792      -0.70964509       5.26182555
C       -0.72804842      -0.44382198       2.92545103
C       -0.91081863       0.68216317       5.47339993
C        0.18518803       0.45919143       2.41479633
C        1.31047216      -5.19817387      -3.17317116
C        2.05904897      -6.50634098       1.46040644
C        1.14923545      -3.68663707      -6.35059799
C        1.89341142       3.85757069       0.08216656
C        0.07177484       0.06752905      -3.40259913
C        1.19186639      -1.61051754      -2.09496299
C       -1.00482414       1.66854165       4.71107137
C       -3.06117732       3.75792843      -2.55422172
C        1.53837553       3.60044456       1.38700199
C        0.85328945      -2.01549303      -4.43511229
C        0.00204096      -1.67545520       5.78214426
C       -1.17202353       2.30682990       3.46485459
C       -0.22254545       1.92808579       2.27155894
C       -0.88578325       2.17027291       0.91561782
C        1.92445721      -5.35238368       0.88326845
C        1.53302871      -2.31151234       2.59426333
C        1.59001204       2.99274383      -0.79787544
C        2.43089486       0.80309772       1.34205641
C        1.61805393      -1.71874249       0.16561719
C        1.36009035      -4.36378867      -7.38731293
C       -1.88351711       2.60020701      -4.71417422
C       -2.53943842       3.21882558      -8.41117290
C       -2.00419243       2.93410926       0.41539937
C       -4.36142160       4.85047619      -0.79799571
C       -1.59684177       2.59697351      -0.97462338
C        0.93465773       1.77592524      -0.98385094
C       -2.02838790       2.85598059      -2.31641672
C       -3.01601413       3.89200404       2.51125678
C        0.73664962      -1.16233513      -3.35500324
C        2.24149494      -8.80689917       2.56086825
C       -2.09893463       2.81543816      -5.91829309
C       -4.87946765       5.52149675       3.49153670
C       -1.32035702      -0.99429370       3.88727052
C       -2.99307453       3.76770112       1.05510114
60
Properties=species:S:1:pos:R:3 entry_id=33 rank=33 energy=-472.41943359375 pbc="F F F"
C        1.22964046      -3.64313368       0.84215184
C        1.21862834      -0.92031010      -1.82047339
C       -0.98206161       2.48182353       2.18491013
C       -0.47845432      -2.79552163      -2.06938205
C       -2.28270297       4.32449715       1.31755199
C        2.08513520       1.29521146       1.11558441
C        5.46041087      -3.45441105       1.76363846
C        3.59083392      -4.62846163       3.77955010
C       -1.36790779       2.61385299      -6.73041116
C        3.80260483      -1.83554908       0.71148424
C       -3.98532044       5.61374373      -0.29933377
C        1.25221307       5.19698169       0.76517812
C        1.30839568      -2.80204043      -0.34377639
C       -1.37450717       5.76670588       0.12097179
C       -0.04560114       3.20997962      -4.51051526
C        2.87360092      -0.98998604       0.14716686
C        0.48799814       1.96139567      -3.89376050
C       -1.56381333      -3.35692112      -2.66630337
C       -2.29420734      -3.40317718       1.86326805
C        1.48573152       0.40662690      -2.18645238
C       -0.45460091       6.04284385      -2.13899263
C       -0.25851590      -3.94643200       0.39096906
C        7.25624019      -5.04433967       2.61693408
C       -3.81916724      -1.77440978       3.22441064
C       -4.92292835      -1.88910250       4.04946831
C       -3.27188408      -0.48127203       2.98064774
C       -1.35698442      -3.90675285       1.12060142
C        2.77032323      -4.32955679       2.79760571
C       -2.58770417      -3.96591277      -3.12733561
C        1.38660444       2.25586481       1.58255410
C       -0.42277108      -0.18138072      -4.67480936
C        0.18740305      -1.60714994      -2.59633832
C       -5.93642776      -1.85657629       4.82936271
C       -0.34141921       5.38532838      -3.21773759
C       -2.14666371       1.78839485       2.38847120
C        0.08535583      -3.26381496      -0.86319455
C        6.26788565      -4.30194974       2.29179398
C       -6.97146041      -1.88304914       5.61325336
C       -2.76184269       0.60224050       2.72795127
C       -2.29391486       3.07702344       1.87842381
C        1.99832830      -4.02176649       1.86489271
C        4.67033516      -2.58627069       1.20898594
C        0.29846190       3.02633203       1.85272456
C        2.64710205       0.28549182       0.58967613
C        1.86578040      -1.59235639      -0.73482981
C       -3.62937752      -4.55841027      -3.61552219
C       -0.65495368       2.33409907      -5.61606519
C       -0.21631743       1.15451570      -4.88100442
C        0.26255614       4.41271058       1.42001409
C       -0.33517687       6.18375289      -0.79244889
C        0.98327166       6.04373637      -0.16624418
C        1.18687046       1.42211322      -2.86089721
C       -0.23137032       4.44939092      -4.09334494
C       -2.78793252       5.29725979       0.25409239
C       -0.25887948      -1.04770231      -3.78303013
C        4.06721634      -4.97830673       4.89648663
C       -2.02901168       2.77065354      -7.78829163
C       -5.09668645       5.87945547      -0.82275200
C       -3.14229578      -2.80003883       2.57003194
C       -1.00500994       4.93703382       1.18505814
60
Properties=species:S:1:pos:R:3 entry_id=6 rank=34 energy=-472.2463073730469 pbc="F F F"
C        2.63168265      -4.27332683      -0.03636193
C        1.36862101      -0.19553276      -2.08198721
C        2.19167779       1.68186617       1.15120447
C        1.42491207      -3.85357734      -2.33644510
C       -3.15927986       2.35673225       3.87729086
C        2.94402470       1.55487378      -1.15931571
C       -1.04349097      -2.97528841       1.88923482
C        3.81415236      -1.53683375       2.05374465
C       -1.53092499       1.66864713      -4.73234547
C        0.79800034      -1.88969459       0.46122159
C       -0.04989288      -0.11702101       3.55312763
C        0.99994308       3.90100119      -0.19035299
C        1.86090697      -3.64584709      -1.01975958
C       -1.21956076       4.58125581       0.06432553
C       -0.85370172       2.62002172      -2.65358146
C        0.88892831      -0.58827063       0.99717767
C       -1.92678654       1.90007246      -3.40345179
C       -1.37173532      -2.44925885      -1.67949202
C       -3.39021263       0.53344136      -0.15496192
C        2.04238853       0.49948066      -0.98528343
C       -3.34111308       0.74192948      -1.60060229
C       -1.23093386      -1.71127233      -2.87797337
C       -2.65516106      -2.43766068       3.73703186
C       -2.45739988       0.03297597       2.25548664
C       -3.25743749      -1.38107534       4.09344038
C        0.20598478      -0.31846140       2.21119859
C       -1.84256180      -0.51353378      -2.99180220
C        3.65659460      -2.72532801       1.67307316
C       -1.11813331      -2.81124508      -0.53156657
C        2.74987906       2.44419238      -0.12298493
C        0.36124695      -1.21510042      -4.65612498
C        1.33788563      -1.57243056      -1.93383757
C       -3.27365097      -0.07923837       3.64830682
C       -2.11208857       4.17733168      -0.93613548
C        3.21960369       0.90810426       1.85063353
C       -0.04855579      -2.09265396      -3.72052797
C       -1.80182827      -2.99406801       2.88070259
C       -3.53730194       1.17783088       4.12892208
C       -1.10771085      -0.09795392       2.63981703
C        1.14766286       2.47771713       1.78860828
C        3.24720676      -3.74498044       0.95056728
C       -0.42445229      -2.70950182       0.69289061
C        2.29240436       3.66826396      -0.53535163
C        1.62909308       0.42834453       0.36103106
C        1.51842938      -2.23818908      -0.70748858
C       -2.41398854       0.66824297      -2.71187075
C        0.27782841       0.12161360      -4.38237133
C        0.67981834       0.63818550      -3.05748759
C        0.49395268       3.43779176       1.11735704
C       -4.55077548       0.88662679      -1.02142685
C       -0.12813160       4.38649952      -0.89407062
C        0.27648315       1.87448087      -2.63210100
C       -1.04183067       3.75556668      -1.79096658
C       -2.44537656       3.25114836       3.21891671
C        0.97325741      -2.64875474      -2.84508866
C        3.69155311      -0.21676851       2.12872224
C       -0.57731684       0.96159046      -5.13311991
C       -0.84259774       4.01224985       1.32574134
C       -2.90197871       0.30951403       1.03285976
C       -1.67129178       3.73640733       2.36860721
60
Properties=species:S:1:pos:R:3 entry_id=5 rank=35 energy=-470.73126220703125 pbc="F F F"
C        2.70868947      -3.47356727      -0.06784348
C        1.33608472       0.13358220      -2.36082737
C        3.07140298       0.52822659       3.81526976
C        2.31463143      -2.27537192      -2.33078575
C       -3.05272989       2.19179059       2.76599216
C        2.46652000       0.64666750       0.06272553
C       -0.94108358      -3.15783510       1.83052107
C        3.23005760      -2.11599438       3.16831173
C       -3.00721029       0.65602972      -3.35025535
C        0.44248056      -1.45523180       0.46495494
C       -1.07431024       2.47425499       3.09718931
C        1.54088369       3.97068651      -0.27407998
C        2.12600934      -2.79563775      -1.08871661
C       -0.52902259       4.57786546      -0.94433827
C        0.03883070       3.70562219      -2.94799972
C        0.60085857      -0.27922916       1.23083388
C        0.86626803       2.50265775      -2.96127672
C       -1.56976672      -2.97867229      -1.45959726
C       -2.92401563      -0.79264484      -0.39653388
C        2.14583100       0.57468084      -1.32366751
C       -5.21701884       0.08142427      -2.38160504
C       -2.17261600      -2.04616973      -2.28482322
C       -2.05006090      -4.26664481       3.84977948
C       -1.87191195       0.09551554       1.83894849
C       -2.49182125      -5.00691185       4.77554011
C       -0.46048167       0.41493955       1.90992151
C       -3.07940774      -1.06861382      -1.74684646
C        3.21433527      -3.06395299       2.34523238
C       -0.48125438      -2.85068313      -0.73512389
C        2.55243856       1.76999912      -0.75618376
C       -0.63379564      -0.73732241      -4.03583022
C        1.10536485      -1.33844632      -2.34423567
C       -2.66831236       0.81146458       2.78274328
C       -1.00745597       4.00569417      -2.10313033
C        2.61977375       0.26644871       2.54979711
C       -1.27474387      -1.77633377      -3.35591633
C       -1.45183446      -3.74399851       2.80974466
C       -2.05129080       1.64146306       3.77818879
C       -0.09866278       1.74606489       2.35047909
C        0.82260461       2.46525927       1.60542766
C        3.02778744      -3.55485432       1.13922965
C       -0.36183803      -2.61220568       0.73188559
C        2.32547243       3.09450288      -1.04931964
C        1.97711115       0.23876181       1.30991987
C        0.75584011      -1.95482805      -0.93883673
C       -3.85966971      -0.14613071      -2.60342180
C       -0.57160048       0.67068975      -3.83261818
C        0.58982618       1.10133331      -3.10474071
C        0.62895537       3.51031468       0.75375182
C       -6.44822125       0.24569253      -2.25464281
C        0.85322297       4.83896755      -1.14751294
C        1.94180244       3.28118608      -2.41316103
C        1.18427321       4.52296544      -2.50234016
C       -2.04388538       3.11279787       2.21639316
C        0.12800957      -1.69882348      -3.39046577
C        3.08716375      -0.82616446       3.42001279
C       -1.88880097       1.09137836      -3.71276532
C       -0.71120019       4.05533368       0.40709083
C       -2.46863887      -0.47185424       0.71215485
C       -1.84294013       3.82498861       1.11238869
