60
Properties=species:S:1:pos:R:3 pbc="F F F"
C        1.75723308      -3.36200070      -1.80660873
C        2.06178827      -0.00973037      -3.03095354
C        2.03055610       2.52441128       0.99548749
C        2.82690744      -2.46445381      -2.05705892
C       -2.32119388       0.75149877       2.70924369
C        2.50221722       1.41836247      -1.05947927
C        1.11944129      -3.17582323       0.82826381
C        2.17423100      -1.11840133       2.19362629
C       -3.11394493       1.27541383      -2.11222671
C        0.74042091      -1.22289241      -0.23650065
C       -0.72081295       2.17337375       3.31293317
C        0.17377913       3.86402569      -0.75120517
C        0.40942906      -3.07838770      -1.60806224
C       -2.08165608       4.13478556      -0.64798912
C       -1.26486628       3.06615962      -2.54366568
C        0.78234302       0.08338549       0.48812787
C       -0.17473376       2.39194578      -3.05305237
C       -1.03578984      -2.98135553       1.67195191
C       -2.20509626      -2.80541782       2.35346154
C        2.08381914       1.33064077      -2.44615662
C       -3.48398130       1.16418860      -0.72640126
C       -2.04595154      -1.99049298      -0.39311431
C        0.76037755      -1.56741455       2.47697837
C       -1.69408658      -0.53225969       2.64109626
C        0.38786575      -2.82662335       2.01243176
C        0.22505033       0.55933616       1.74332961
C       -2.73111166      -1.09496951       0.52658628
C        2.91263505      -1.97304712       1.42686765
C       -1.08847741      -2.74756862       0.28617939
C        2.23223583       2.64962935      -0.42334049
C       -2.51270703      -1.00653972      -2.60740609
C        2.52488491      -1.08014864      -2.13894088
C       -0.25329932      -0.54161363       2.51318219
C       -3.14261857       3.40295997      -1.20750029
C        2.64351045       1.46101852       1.77112231
C       -1.77260656      -1.86070653      -1.82554728
C        2.49995013      -2.95376003       0.58191017
C       -1.84973130       1.71348206       3.64865548
C        0.13755446       1.88716552       2.26623468
C        0.71269245       2.85133456       1.39319100
C        2.76086135      -3.21976536      -0.82173297
C        0.25354766      -2.69393409      -0.21854143
C        1.28874529       3.23836939      -1.29939648
C        1.88909917       0.39209799      -0.35342317
C        1.81764808      -0.83902117      -0.98854323
C       -3.07732968       0.29636363       0.36380339
C        0.10175432      -1.49350688      -3.38553699
C        0.96649282      -0.61919739      -3.66910231
C       -0.22104110       3.53525773       0.56931009
C       -3.54337411       2.48729582      -0.22165108
C       -0.98589683       4.05676468      -1.53352121
C        1.08378631       2.41057186      -2.51122686
C       -2.64390686       2.63508253      -2.30301314
C       -2.76437936       1.19553900       1.45532702
C       -0.47802133      -2.30725083      -2.41119805
C        2.57443788       0.28978191       2.22035409
C       -2.98519047       0.11921916      -2.86709803
C       -1.68121541       3.52510608       0.60174350
C       -2.46118509      -1.50838951       1.91790958
C       -2.70386009       2.54986149       0.92698260
