60
Properties=species:S:1:pos:R:3 trial_index=6 seed_entry_id=5 discovered_entry_id=6 energy=-491.1293029785156 status=accepted pbc="F F F"
C        2.17241362       2.51338836      -0.97179777
C       -0.09758285       3.35791696       1.08191117
C        2.04119066      -0.56253213       1.05151090
C        3.06215799       4.18759647      -0.96235452
C       -1.22824646      -3.20344224      -1.52148618
C        1.80002303       1.73337772       1.40948762
C        2.16668903       1.80680998      -4.11156976
C        3.45417528       0.62441085      -2.27823649
C       -3.24418933       1.78160623       0.88299957
C        0.19764774       0.67947820      -3.19502201
C       -0.10340595      -3.61848688       0.17709734
C        0.25652562      -0.85001668       3.25189551
C        1.03618296       2.37944366      -1.93968261
C       -1.64097223      -2.15441433       3.26240173
C       -1.98357882       0.14772687       3.28035204
C        1.64757068      -1.07390537      -2.05684911
C       -1.45434639       1.35899299       2.74837228
C       -1.57854999      -0.78120162      -3.23517071
C       -2.79895923      -1.27803141      -2.90176382
C        0.63742134       2.43369962       1.87067599
C       -3.40694549      -0.56119066       1.35388662
C       -1.86703072       1.12620136      -1.70644167
C        0.74692844      -0.62894478      -3.08452937
C       -2.23751891      -2.41252387      -0.85549698
C       -0.36356439      -1.52371646      -3.18442840
C        0.94325546      -2.15135583      -1.37953171
C       -2.70696034       0.18101454      -0.94327697
C        4.03891210       1.94090583      -2.28148827
C       -1.18266761       0.55224577      -2.82113081
C        1.84883427       0.44843783       2.03796462
C       -2.20648709       3.10802032      -0.22509997
C        0.44644779       3.76908970      -0.17948605
C       -0.19920802      -2.46304763      -2.17170649
C       -2.95960574      -1.93415530       2.81830421
C        2.50356554       0.14977465      -0.12815888
C       -1.41951943       2.42410394      -1.21287191
C        3.22287031       1.42031595      -3.40446184
C       -0.64843625      -4.32054660      -0.89548929
C        0.89837947      -2.57755733      -0.00804424
C        1.26998758      -1.77610229       1.14122768
C        3.44008432       2.95516656      -1.54235996
C        1.08314738       1.79335446      -3.21376935
C        0.80807711       0.39594056       2.97805699
C        2.29525450       1.53219349       0.11272839
C        1.84805530       3.92387760      -0.36790258
C       -3.21573490       0.43778329       0.37475680
C       -3.55707504       2.80760350      -0.03885389
C       -1.48946047       3.13548379       1.03707243
C        0.48865038      -1.93770379       2.34003110
C       -3.13195145      -1.96086581       1.39121930
C       -1.10325485      -0.89869728       3.64705262
C       -0.03295908       1.53839594       2.77826511
C       -3.16670186      -0.47086944       2.77383483
C       -2.27161770      -2.67271455       0.53759452
C       -0.07790215       2.91199650      -1.24811849
C        2.69028273      -0.26150616      -1.49258931
C       -2.15745550       2.15090314       1.79382719
C       -0.70864563      -2.72167201       2.35966329
C       -2.75931987      -1.20819952      -1.49669630
C       -1.11875441      -3.24062125       1.12469978
