60
Properties=species:S:1:pos:R:3 trial_index=9 seed_entry_id=5 discovered_entry_id=8 energy=-490.6903076171875 status=accepted pbc="F F F"
C        1.76947571      -0.83834823      -4.09545523
C       -0.88279819       1.83774465      -2.56245308
C        2.12545550       3.83289705       0.60310168
C        2.33696246       0.40860442      -3.75981486
C        0.27558764      -1.66556855       2.65569216
C        0.96088636       3.21854494      -1.63210032
C        2.09541149      -3.38197988      -3.28622357
C        3.98918613      -1.84991247      -1.79857458
C       -3.72699208       0.62013866      -0.98035849
C        0.48321702      -2.96575753      -1.47161464
C        0.84921072       0.53526838       3.60043597
C       -0.62918894       3.73511360       1.62925627
C        0.68962976      -1.44364185      -3.40903606
C       -2.13208394       2.76736122       3.12163145
C       -2.92379742       2.98343535       0.96206772
C        2.57926017      -2.75089248       0.14970338
C       -2.48308915       2.84321859      -0.37630381
C       -0.89916365      -3.33081830       0.38894455
C       -1.94954760      -3.26373163       1.25857680
C       -0.44909650       2.93917590      -1.81495166
C       -3.43663806       0.60417106       1.40913506
C       -1.68704904      -1.61624540      -1.12454570
C        1.30235202      -3.24675957      -0.33629028
C       -1.09343566      -1.22936023       2.37216414
C        0.44763012      -3.36227695       0.78708509
C        2.38123586      -2.49551285       1.54068744
C       -2.38029558      -1.17413701       0.08261369
C        3.86338002      -1.83364974      -3.18148275
C       -0.82623898      -2.71965283      -0.92612294
C        1.06324047       3.82819520      -0.29101677
C       -2.62925529       0.06650445      -2.60245808
C        0.08218444       0.89244436      -3.00416169
C        1.01998506      -2.65161461       1.86821229
C       -3.19869915       1.86315535       3.00934488
C        2.31975071       3.44678204       1.78956235
C       -1.55766801      -0.83314972      -2.33659598
C        3.28978249      -3.12179626      -3.57958045
C        1.06364898      -0.81753656       3.39397194
C        1.77179288       1.56598850       3.41388648
C        1.50807875       2.73174264       2.72551673
C        3.11285718      -0.78076096      -3.77371641
C        0.97887373      -2.68757352      -2.78662136
C       -0.26217859       3.85243819       0.26690239
C        1.81588677       2.51025954      -2.41464056
C        1.47737532       1.35388594      -3.08745599
C       -3.25280392      -0.06556259       0.18804735
C       -3.93632041      -0.15748005      -2.14421162
C       -2.20771864       1.41675490      -2.36855630
C        0.10700692       3.07343627       2.67222063
C       -2.79221985       0.51978706       2.68194579
C       -2.01560300       3.49095084       1.91468789
C       -1.20025217       3.38599195      -0.70616955
C       -3.72621424       1.99636300       1.63020746
C       -1.50859509      -0.00154912       2.97161411
C       -0.28182134      -0.49255863      -2.97704647
C        3.55294932      -2.26249238      -0.71342665
C       -2.97678217       1.84462414      -1.26292558
C       -0.84310049       2.29185630       3.41918514
C       -1.93521963      -1.86462937       1.34978534
C       -0.56224998       0.91129193       3.50883448
