60
Properties=species:S:1:pos:R:3 trial_index=3 seed_entry_id=2 discovered_entry_id=3 energy=-486.8657531738281 status=accepted pbc="F F F"
C        1.15490272       2.01937303      -3.85519786
C        1.92584800       2.32786812       0.22600652
C        2.22420962      -1.80250626       0.30301912
C        2.27608132       1.39794466      -3.24044844
C       -2.63455757      -2.19784224      -0.37223478
C        3.26342778       0.29239754       0.11038723
C       -0.83055734       0.29146686      -4.00548430
C        2.08867377      -1.41515768      -3.62605947
C       -2.64361459       3.29590152       1.69082636
C        0.56308236       0.23362848      -2.00477518
C       -1.33714803      -3.02723289       0.89558916
C        1.60936669      -0.91691401       2.96431693
C        0.05546567       2.34072628      -2.97286543
C       -0.54788580      -0.77346247       3.73049940
C        0.47779704       1.27401150       3.40590530
C        0.61386002      -1.03304866      -1.47597560
C        1.32711885       1.86555607       2.42233125
C       -2.72155598       0.02759204      -2.19981820
C       -3.91178468       0.01489164      -1.50342702
C        2.91696455       1.48733714       0.77604476
C       -3.42116177       1.06601650       2.35983013
C       -1.85905064       1.90281407      -0.83795095
C       -1.26076351      -1.04324518      -3.81555442
C       -3.03301793      -1.07983828       0.46742226
C       -2.03963920      -1.19720258      -2.63742552
C       -0.36772678      -1.96475005      -1.00373537
C       -2.84456956       1.44526523       0.11580562
C        1.38554015      -0.61363306      -4.52237326
C       -1.78972360       1.08139163      -1.98252132
C        2.97785980      -0.81024886       0.98041034
C       -0.30413587       3.14218108       0.75064620
C        1.55544393       2.21379177      -1.12187105
C       -1.70788979      -1.90913211      -1.47069292
C       -1.55631061       0.21659012       3.56766856
C        2.10867420      -1.36313425      -1.14696046
C       -0.69152590       2.76234038      -0.60291536
C       -0.02654765      -0.70659971      -4.47033224
C       -2.44477666      -3.47228582       0.18435727
C       -0.11179286      -2.62971347       0.22849095
C        1.07458886      -2.31764435       0.98053415
C        1.66707749       0.76492559      -4.30361078
C       -0.54003011       1.03471579      -2.75152727
C        2.60048064      -0.26637110       2.23513054
C        2.72625254       0.00373302      -1.13190864
C        1.90439841       0.94887764      -1.86221497
C       -3.15316750       2.00043518       1.40369602
C       -1.33834560       3.73002734       1.49359539
C        0.96001556       2.64843062       1.22450997
C        0.85549872      -1.96932291       2.34512349
C       -2.69612469      -0.04493565       2.70469653
C        0.71538829      -0.12029312       3.71897200
C        2.51365232       1.14983719       2.09456920
C       -0.91121422       1.46564987       3.57501378
C       -2.55645597      -1.16971779       1.80041354
C        0.35354350       2.76880476      -1.61816602
C        2.47649946      -1.86433476      -2.53110633
C       -2.28890434       4.56884771       2.11089026
C       -0.48205161      -1.88440068       2.86726087
C       -3.44339412       0.13361401      -0.19737414
C       -1.56939767      -2.16504798       2.02757296
