60
Properties=species:S:1:pos:R:3 trial_index=2 seed_entry_id=1 discovered_entry_id=2 energy=-484.88922119140625 status=accepted pbc="F F F"
C        1.31485597       1.14472444      -4.19771468
C        1.98299062       2.42396097      -0.31502946
C        2.31162875      -1.96132051       0.99326729
C        2.40483785       0.81671270      -3.34360593
C       -2.59313821      -2.09292216       0.02509903
C        2.89984913       0.16938871       0.09685119
C       -0.65199854      -0.60805661      -4.02277697
C        2.22831031      -2.19439685      -2.73631541
C       -3.09983128       3.02998031       1.83491071
C        0.41835216       0.07605658      -2.04099175
C       -1.40486994      -2.60069932       1.50642602
C        1.47712495      -0.13662833       3.15986435
C        0.15189941       1.74999356      -3.55960407
C       -0.70528216       0.23753422       3.78076862
C        0.37425797       2.08300617       2.93492485
C        0.63457937      -0.82933204      -1.01295480
C        1.28441205       2.39452324       1.89873216
C       -3.01913587       0.18792043      -2.66860940
C       -3.80624380      -0.18416876      -1.73289655
C        2.84714915       1.55958849       0.42598050
C       -3.58034174       1.70427149       2.01970247
C       -1.83820315       1.87581868      -1.41069958
C       -0.99365361      -1.92410766      -3.48207005
C       -3.05822150      -0.80620595       0.55083156
C       -1.59129004      -2.22408967      -2.36142346
C       -0.22877461      -1.83761746      -0.41397271
C       -2.84889624       1.55684064      -0.39229444
C        1.68482870      -1.55974289      -3.82726017
C       -1.85515307       0.93245861      -2.48815784
C        2.87108501      -0.64256396       1.24734607
C       -0.27876007       3.28746269       0.01728587
C        1.58235834       2.12711314      -1.62969047
C       -1.53512321      -2.04078641      -1.03991787
C       -1.69759523       1.14122813       3.32271845
C        2.54110227      -2.55658977      -0.24655175
C       -0.66261503       2.71799936      -1.31253743
C        0.28639817      -1.58500580      -4.08575157
C       -2.46440907      -3.21369507       0.83950743
C       -0.10287062      -2.36827854       0.88736709
C        1.03634751      -2.07308232       1.68370270
C        1.93219922      -0.16201243      -4.20503824
C       -0.55959632       0.55016911      -3.07611278
C        2.50473727       0.24822027       2.30847880
C        2.00472708      -0.19912972      -0.90202585
C        1.78687350       0.70679787      -2.00007458
C       -3.38520510       2.21485730       0.71596511
C       -1.11523926       3.70759222       0.98290672
C        1.00846201       2.91258915       0.57157764
C        0.73106885      -1.31026840       2.84397244
C       -2.80593489       0.66487754       2.58631410
C        0.57114242       0.85012255       3.63675184
C        2.46326713       1.58541575       1.79434477
C       -1.04258259       2.35240787       2.94624955
C       -2.65224789      -0.58519187       1.90840068
C        0.39130378       2.52800432      -2.29154637
C        2.55778788      -2.62446361      -1.54921949
C       -1.68938277       3.32215637       2.12485402
C       -0.63419087      -1.05493711       3.21808625
C       -3.39725238       0.18376979      -0.41997113
C       -1.67899369      -1.50931630       2.39860921
