60
Properties=species:S:1:pos:R:3 pbc="F F F"
C        1.44411410      -3.43635485       0.77274739
C        0.96726989      -1.97413987      -2.23262764
C        1.39213006       2.46865803      -2.60843842
C        2.29508127      -3.05688806      -0.24743117
C       -2.12829975       2.78573030       1.71206663
C        2.01300031       0.20004166      -2.97794606
C        1.71361423      -0.70248710       1.44147154
C        3.87754743       0.44358728       2.68968649
C       -4.36125082      -0.77989741      -0.96885796
C        2.41421815      -0.24206499       0.18185832
C        0.02919019       3.52233736       0.60599756
C       -1.05160387       1.65664686      -3.30065582
C        0.23113662      -2.73551406       0.98996056
C       -3.17572368       1.91166053      -2.77412084
C       -2.47529744      -0.32621260      -2.90409159
C        2.44759968       1.03945580      -0.48109565
C       -1.20298219      -1.08965760      -2.93152480
C        0.01971315       0.47922705       2.59426160
C       -0.96535458       1.21655889       3.32011872
C        1.14136896      -0.91511773      -3.14603136
C       -4.29537201       0.38647304      -0.07520740
C       -1.91053410      -1.04594452       1.83846297
C        2.66149026       1.26860388       2.29390461
C       -1.96729667       2.16634218       2.99976090
C        1.43021123       0.47030281       2.29198876
C        2.15859599       2.32997673       0.14315727
C       -2.86892073      -0.01458289       2.14406239
C        3.86604291      -0.92807914       2.52251056
C       -0.55387188      -0.68435586       2.00594199
C        1.33959792       1.38962275      -3.44172286
C       -3.45195913      -2.40997605       0.49331247
C        2.06965077      -2.18430566      -1.34031958
C        2.79311906       2.34609005       1.44718532
C       -4.20284521       1.12496042      -2.24460755
C        6.04528441       1.88065939       3.23696071
C       -2.19851837      -2.21010851       1.04670151
C        2.93473371      -1.62306317       1.83656554
C       -1.05165841       3.49219773       1.22015693
C        0.94190055       3.04611999      -0.31477953
C        0.42088106       2.80055863      -1.68690629
C        2.74108528      -2.86754957       1.10237669
C        0.45300591      -1.45830540       1.43412889
C        0.01808493       0.94268471      -3.79797975
C        2.63801395       0.27399613      -1.73944557
C        2.66802330      -0.96196096      -0.98821709
C       -3.49855837       0.74404835       1.08739885
C       -1.06425278      -2.79255366      -1.00604596
C       -0.52175929      -2.15169880      -2.06491876
C       -0.99563143       2.49891193      -2.14633035
C       -4.30729473       1.53281387      -0.90911364
C       -2.30535507       1.02024008      -3.40489546
C       -0.11179739      -0.44711575      -3.58897078
C       -3.79648706      -0.26977536      -2.22483574
C       -2.96932119       2.07967023       0.83310801
C       -1.06276966      -2.85092581       0.34861317
C        5.01874246       1.21634317       2.99620592
C       -4.30204324      -2.03650542      -0.35028135
C       -2.42153649       2.59091963      -1.72082206
C       -2.33999443       0.83663280       3.17103104
C       -3.22897319       2.39287649      -0.54638703
