48
Lattice="10.7943 0.0 0.0 -1.8055431112859115e-05 5.172499999968488 0.0 -5.160518831295406 8.170974220333357e-07 9.475013563676034" Properties=species:S:1:pos:R:3 source_doi=10.1039/c7sc01459g source_section="SI section 7" source_name=brookite reported_vasp_energy_rounded=-429.98 role=reported_phase pbc="T T T"
O       -2.87584173       3.60250963       5.34808407
O        3.15879642       3.18297440       6.41911225
O       -4.21507423       4.35323687       7.81553778
O       -0.82992159       1.01609820       8.78813438
O        7.75075229       5.01830890       0.70847793
O        7.14724430       1.01612163       4.05037575
O        0.34924491       2.43221248       6.41586211
O       -2.54235853       1.01620518       6.59994084
O        3.76179001       4.35321751       3.07821084
O        4.26356262       3.18273635       8.96850493
O        1.44615832       3.18268109       4.23136567
O        5.02717027       5.01864055       5.53223974
O        2.20997931       5.01856539       0.79504301
O        4.33819743       1.76673119       4.04723661
O        2.21747248       0.59663728       5.52875163
O        5.43486894       1.01637584       1.86231920
O       -1.77114361       3.60226890       7.89762630
O        8.32675646       2.43223532       1.67802681
O        5.60315295       2.43216500       6.50162392
O        5.10157208       3.60266335       0.61067298
O       -3.63886657       1.76674350       8.78494819
O       10.19492818       0.59672794       0.79088741
O        9.01483231       4.35312760       3.16299224
O        3.92998989       0.59654548       7.71660852
O        1.03785284       4.35301456       7.90073095
O        1.61422330       1.76706339       8.86999034
O       -1.20307510       1.76712654       4.13268868
O       -0.22697303       5.01823787       5.44625424
O        0.34161908       3.18301151       1.68190372
O        2.78573098       2.43212451       1.76447885
O        1.11232121       0.59647237       2.97940804
O        6.20598452       3.60232260       3.15989567
Ti       9.43014261       4.11480332       1.36463044
Ti       4.56387855       2.67084012       2.25966912
Ti      -2.53573768       0.08436540       8.47187775
Ti       5.44147963       0.08450118       3.73372834
Ti       3.39233200       1.52834828       9.36531741
Ti       1.98373234       4.11458394       2.58266397
Ti      -0.06529444       2.67073903       8.21426132
Ti       1.10627437       1.52859500       1.10829009
Ti       1.45299633       4.11468428       6.10230974
Ti       7.91184167       2.67065014       3.47623553
Ti       0.57465533       1.52821645       4.62851194
Ti       4.80156710       4.11452124       7.31946816
Ti      -2.00517945       0.08438818       4.95089770
Ti      -3.41290106       2.67058007       6.99711855
Ti       3.92326166       1.52850196       5.84569051
Ti       5.97258525       0.08460500       0.21335131
