60
Properties=species:S:1:pos:R:3 source_escape=runs/20260728-block-krylov-fixed-starter-escape/output/cases/bootstrap_quenched-seed44-balanced_refinement/escape.xyz pbc="F F F"
C        3.98701395       0.26638899       0.17504154
C        1.38837615       2.27756742      -1.82791385
C       -1.26987114       2.54063896       2.10845241
C        3.45701488       1.56727597      -0.14800243
C       -2.62544745      -2.14103254       1.45665888
C        0.48984127       2.74326322       0.47074230
C        2.70712231      -1.66102594       1.69406184
C        2.02265267       1.58861167       3.11466445
C       -1.08273529       0.01398727      -3.19277619
C        1.34976219      -0.50179912       0.30278671
C       -2.66800024      -0.59611178       3.16004461
C       -2.69122529       2.78009762      -0.34231790
C        3.47002933      -0.79445642      -0.57871576
C       -3.86579060       1.13576040      -1.47566061
C       -2.11014511       2.15255557      -2.59486938
C        0.27980621       0.05913873       1.09043097
C       -0.83147608       2.69722485      -2.42529603
C        1.25760512      -3.76352717      -0.14173445
C        0.01408571      -3.49727911      -0.02143032
C        0.74737189       3.18345641      -0.88302242
C       -2.49945120      -1.83465288      -2.70525217
C        1.18370092      -1.91342330      -1.77381570
C        1.76623937      -1.65816269       2.80579787
C       -1.49495779      -1.73834344       0.65754116
C        0.52731854      -2.00156289       3.21172554
C       -0.89675056      -0.61035212       1.59506044
C       -0.23900591      -1.90281321      -1.71125162
C        2.91241704       0.80273027       2.46342428
C        1.82687095      -2.56476559      -0.65186883
C       -0.75628726       3.24931049       0.95660747
C        1.40138070      -0.26787421      -3.58659512
C        2.38016673       1.25120726      -1.24524771
C       -0.66198215      -1.66739507       2.72772823
C       -3.44782020       0.24637465      -2.49778662
C       -0.35118947       2.32807538       3.10430439
C        1.94334171      -0.92257083      -2.47933604
C        2.75409809      -0.62198958       2.56802684
C       -2.16330530      -1.87604010       2.84202842
C       -2.04314235       0.23772527       2.26795653
C       -2.30263301       1.57674057       1.78434336
C        3.52759821       1.06122021       1.19329790
C        2.42336290      -1.51898206       0.22015938
C       -1.50355495       3.51242173      -0.21699617
C        0.61292991       1.35924764       0.55033010
C        1.43260633       0.69170193      -0.33464909
C       -1.15763760      -1.33843626      -2.67946719
C        1.06178845       0.30847101      -4.71063515
C        0.34509232       1.95424512      -2.74802796
C       -3.05163138       1.77021317       0.59363401
C       -3.57438727      -1.14880351      -2.62906784
C       -3.11891623       2.35701399      -1.61984309
C       -0.57564036       3.51178161      -1.31756090
C       -2.22683857       0.80519414      -3.00763117
C       -3.80288599      -1.58431124       0.95576736
C        2.86473797      -0.15965114      -1.73044395
C        0.87492331       2.07296564       3.40306765
C        0.18491845       0.70012282      -3.49334068
C       -3.86383129       0.76630150      -0.07746587
C       -0.79265414      -2.41971581      -0.40426115
C       -4.12812570      -0.50278769       0.41370995
