54
Lattice="21.66 0.0 0.0 0.0 5.10531 0.0 0.0 0.0 22.55266" Properties=species:S:1:pos:R:3 trial_index=15 seed_entry_id=13 discovered_entry_id=14 energy=-201.0985870361328 status=accepted pbc="T T F"
Cu       0.00000000       0.00000000      10.00000000
Cu       3.61000000       0.00000000      10.00000000
Cu       7.22000000       0.00000000      10.00000000
Cu      10.83000000       0.00000000      10.00000000
Cu      14.44000000       0.00000000      10.00000000
Cu      18.05000000       0.00000000      10.00000000
Cu       0.00000000       2.55265548      10.00000000
Cu       3.61000000       2.55265548      10.00000000
Cu       7.22000000       2.55265548      10.00000000
Cu      10.83000000       2.55265548      10.00000000
Cu      14.44000000       2.55265548      10.00000000
Cu      18.05000000       2.55265548      10.00000000
Cu       1.80500000       1.27632774      11.27632774
Cu       5.41500000       1.27632774      11.27632774
Cu       9.02500000       1.27632774      11.27632774
Cu      12.63500000       1.27632774      11.27632774
Cu      16.24500000       1.27632774      11.27632774
Cu      19.85500000       1.27632774      11.27632774
Cu       1.80500000       3.82898322      11.27632774
Cu       5.41500000       3.82898322      11.27632774
Cu       9.02500000       3.82898322      11.27632774
Cu      12.63500000       3.82898322      11.27632774
Cu      16.24500000       3.82898322      11.27632774
Cu      19.85500000       3.82898322      11.27632774
Cu       0.06135057       0.02994306      12.43759309
Cu       3.67145307       5.06051289      12.54632062
Cu       6.48387011       0.00028125      13.05220249
Cu      10.85476719       0.01444483      12.47512764
Cu      12.51487356       3.76978944      14.07710028
Cu      14.40557461       5.09302999      12.51659881
Cu       0.04501894       2.60375450      12.47786554
Cu       4.59080194       3.64720592      14.62973291
Cu       6.96086873       2.38794915      12.76171546
Cu      10.84427913       2.51380303      12.53779757
Cu      12.53180142       1.18385619      14.10414211
Cu      18.02605259       2.58785583      12.54751300
Cu       4.65134390       1.03910870      14.66336347
Cu       9.58177633       3.89312132      14.24834071
Cu      20.24522322       1.49063385      14.15684788
Cu       7.15800977       3.58191198      15.46703650
Cu       7.19498195       1.05751775      15.32711128
Cu       3.58232308       2.52283095      12.55168827
Cu       1.69449522       1.22565368      13.96100822
Cu       9.90721882       1.32066677      14.73242276
Cu      20.28909687       4.02303598      14.12140367
Cu      14.54680426       2.54378142      12.57889396
O        5.78086004       4.87499842      15.60235841
O       21.63140245       0.26178585      14.42932915
O       18.92952200       2.76855766      14.19382143
O       11.20316811       5.00783363      14.76987982
O        8.55719134       2.33357458      15.54589379
O        8.05563128       3.95240462      13.02983532
O       13.82610354       2.48345864      14.32883258
O        3.23879685       2.27776729      14.55066168
