54
Lattice="21.66 0.0 0.0 0.0 5.10531 0.0 0.0 0.0 22.55266" Properties=species:S:1:pos:R:3 trial_index=35 seed_entry_id=31 discovered_entry_id=32 energy=-201.23191833496094 status=accepted pbc="T T F"
Cu       0.00000000       0.00000000      10.00000000
Cu       3.61000000       0.00000000      10.00000000
Cu       7.22000000       0.00000000      10.00000000
Cu      10.83000000       0.00000000      10.00000000
Cu      14.44000000       0.00000000      10.00000000
Cu      18.05000000       0.00000000      10.00000000
Cu       0.00000000       2.55265548      10.00000000
Cu       3.61000000       2.55265548      10.00000000
Cu       7.22000000       2.55265548      10.00000000
Cu      10.83000000       2.55265548      10.00000000
Cu      14.44000000       2.55265548      10.00000000
Cu      18.05000000       2.55265548      10.00000000
Cu       1.80500000       1.27632774      11.27632774
Cu       5.41500000       1.27632774      11.27632774
Cu       9.02500000       1.27632774      11.27632774
Cu      12.63500000       1.27632774      11.27632774
Cu      16.24500000       1.27632774      11.27632774
Cu      19.85500000       1.27632774      11.27632774
Cu       1.80500000       3.82898322      11.27632774
Cu       5.41500000       3.82898322      11.27632774
Cu       9.02500000       3.82898322      11.27632774
Cu      12.63500000       3.82898322      11.27632774
Cu      16.24500000       3.82898322      11.27632774
Cu      19.85500000       3.82898322      11.27632774
Cu       3.55728056       0.01863161      12.54082577
Cu       5.43012908       3.87971047      13.88129627
Cu       7.19111298       0.01204220      12.46276475
Cu      10.86015651       5.01632691      12.64747060
Cu      12.86360394       1.20601078      14.12826008
Cu      14.54934714       5.09484297      12.49729403
Cu       0.01304479       2.55624159      12.36999658
Cu       7.22384262       2.59243578      12.60561899
Cu       3.63323470       2.59113282      12.62312070
Cu      10.80898254       2.48258990      12.54988233
Cu      12.87460147       3.78643694      14.12409959
Cu      18.01470177       2.55143449      12.51536121
Cu       5.36587590       1.32777832      13.79755366
Cu       9.94829321       2.85050592      15.27709355
Cu      20.29404628       1.27113324      13.94418645
Cu       7.78610459       4.35202981      14.81402730
Cu       7.16916802       1.63574463      15.51908663
Cu       1.43617066       3.87878921      13.93513130
Cu       1.43700889       1.25188727      13.93833111
Cu       8.93200612       1.19858510      13.73673327
Cu      20.29732603       3.85700165      13.93909457
Cu      14.48040712       2.53828468      12.51110094
O        6.03187260       0.15521184      15.21248212
O        0.01418379       0.01254364      14.29753776
O       18.99046296       2.56535708      14.12312754
O       11.58164336       2.50185543      14.42883119
O        8.30280959       2.93202416      16.09563999
O        9.74342157       4.63722587      14.25952663
O       14.17968961       5.05111191      14.34325591
O        2.67181782       2.56649774      14.32827827
