54
Lattice="21.66 0.0 0.0 0.0 5.10531 0.0 0.0 0.0 22.55266" Properties=species:S:1:pos:R:3 trial_index=38 seed_entry_id=34 discovered_entry_id=35 energy=-201.38934326171875 status=accepted pbc="T T F"
Cu       0.00000000       0.00000000      10.00000000
Cu       3.61000000       0.00000000      10.00000000
Cu       7.22000000       0.00000000      10.00000000
Cu      10.83000000       0.00000000      10.00000000
Cu      14.44000000       0.00000000      10.00000000
Cu      18.05000000       0.00000000      10.00000000
Cu       0.00000000       2.55265548      10.00000000
Cu       3.61000000       2.55265548      10.00000000
Cu       7.22000000       2.55265548      10.00000000
Cu      10.83000000       2.55265548      10.00000000
Cu      14.44000000       2.55265548      10.00000000
Cu      18.05000000       2.55265548      10.00000000
Cu       1.80500000       1.27632774      11.27632774
Cu       5.41500000       1.27632774      11.27632774
Cu       9.02500000       1.27632774      11.27632774
Cu      12.63500000       1.27632774      11.27632774
Cu      16.24500000       1.27632774      11.27632774
Cu      19.85500000       1.27632774      11.27632774
Cu       1.80500000       3.82898322      11.27632774
Cu       5.41500000       3.82898322      11.27632774
Cu       9.02500000       3.82898322      11.27632774
Cu      12.63500000       3.82898322      11.27632774
Cu      16.24500000       3.82898322      11.27632774
Cu      19.85500000       3.82898322      11.27632774
Cu       3.58641486       0.02079572      12.53877902
Cu       5.56983915       3.88718170      13.96661749
Cu       7.19148139       5.10025615      12.48575754
Cu      10.91060114       5.07793786      12.59897276
Cu      12.97800362       1.17314927      14.21711085
Cu      14.55651416       5.08595062      12.51022768
Cu      21.62608300       2.53775373      12.48128477
Cu       7.17879712       2.57334638      12.51669906
Cu       3.69586289       2.60624594      12.58050088
Cu      10.82285264       2.53939239      12.61857611
Cu      12.94126409       3.74668829      14.20201484
Cu      18.01631809       2.56559292      12.58024469
Cu       5.37171412       1.35182110      13.81211998
Cu      10.11204565       2.46493591      15.49033731
Cu      20.36053063       0.59766117      13.66306119
Cu       8.23804531       3.77244871      14.46175507
Cu       7.15901818       1.37780762      15.58282710
Cu       1.63030342       3.83454315      13.90233632
Cu       1.63460747       1.26253988      13.95657223
Cu       8.85695140       1.28781226      13.74522026
Cu      17.95783451       5.02613413      12.55976311
Cu      14.46416107       2.52825720      12.51291015
O        5.80250861       0.18143033      15.24535169
O        0.33529058       5.08839712      14.18266478
O       18.64621830       1.21396124      13.75185929
O       11.66901985       2.43661553      14.48490387
O        8.39095476       2.62421418      16.08933907
O        9.84027622       4.83302067      14.16252359
O       14.26959299       4.99309001      14.37303522
O        2.88148982       2.55651631      14.33862126
