54
Lattice="21.66 0.0 0.0 0.0 5.10531 0.0 0.0 0.0 22.55266" Properties=species:S:1:pos:R:3 trial_index=20 seed_entry_id=18 discovered_entry_id=19 energy=-200.83352661132812 status=accepted pbc="T T F"
Cu       0.00000000       0.00000000      10.00000000
Cu       3.61000000       0.00000000      10.00000000
Cu       7.22000000       0.00000000      10.00000000
Cu      10.83000000       0.00000000      10.00000000
Cu      14.44000000       0.00000000      10.00000000
Cu      18.05000000       0.00000000      10.00000000
Cu       0.00000000       2.55265548      10.00000000
Cu       3.61000000       2.55265548      10.00000000
Cu       7.22000000       2.55265548      10.00000000
Cu      10.83000000       2.55265548      10.00000000
Cu      14.44000000       2.55265548      10.00000000
Cu      18.05000000       2.55265548      10.00000000
Cu       1.80500000       1.27632774      11.27632774
Cu       5.41500000       1.27632774      11.27632774
Cu       9.02500000       1.27632774      11.27632774
Cu      12.63500000       1.27632774      11.27632774
Cu      16.24500000       1.27632774      11.27632774
Cu      19.85500000       1.27632774      11.27632774
Cu       1.80500000       3.82898322      11.27632774
Cu       5.41500000       3.82898322      11.27632774
Cu       9.02500000       3.82898322      11.27632774
Cu      12.63500000       3.82898322      11.27632774
Cu      16.24500000       3.82898322      11.27632774
Cu      19.85500000       3.82898322      11.27632774
Cu       0.08700616       4.99794303      12.65704738
Cu       3.76472112       5.08175281      12.54590088
Cu       6.41998056       5.03465972      13.13897719
Cu      10.86074538       0.00223660      12.49905915
Cu      12.51749021       3.89678429      14.05162645
Cu      17.95671748       5.05435717      12.58888998
Cu       0.04783380       2.53451443      12.60254314
Cu       4.75287070       2.77592411      13.39436358
Cu       7.06974064       2.48881137      12.57844546
Cu      10.83417300       2.56294142      12.55902114
Cu      12.54249993       1.37345407      14.11431909
Cu      17.90175307       2.56609727      12.63199221
Cu       4.41435122       0.77839328      14.92593515
Cu       8.85159271       3.60267303      13.87915218
Cu      19.82169998       1.21654354      14.03201647
Cu       6.76125442       3.49075146      15.21116120
Cu       7.07755024       1.01570686      15.41755797
Cu       2.18323628       3.57118305      13.69090798
Cu       1.94495244       0.95692719      13.87029648
Cu       9.79350856       1.29567951      14.62798140
Cu      19.81442627       3.77551271      13.72607236
Cu      14.50730570       2.57388988      12.47694462
O        5.72502972       4.90875003      15.79424920
O       21.65399216       1.28362208      14.18015908
O       17.99306536       1.23365090      14.00765910
O       11.24678910       0.09447045      14.54211037
O        8.38861754       2.36335549      15.31410093
O        8.47097225       0.05745448      12.83383716
O       13.85642945       2.64473302      14.21165470
O        3.24799814       2.21769434      14.58714152
