60
Properties=species:S:1:pos:R:3 system=runs/20260728-safe-lbfgs-strict-quench-200-production/output-c60-seed42 state_id=plateau_accepted pbc="F F F"
C       -1.79121917       1.80219175       1.98237271
C       -0.94890685      -1.88950351       2.07381805
C        2.64024808      -1.06426600       1.90146738
C        0.07888082       1.29380117      -3.80091353
C        0.45566390       3.35840813      -2.48384053
C        1.56770448      -2.12290630       1.88562581
C       -0.58494702       2.54678525       1.76109000
C       -0.24946024       1.33725830       3.63866023
C        1.87914092      -1.43013401      -2.44355719
C       -0.87390494       0.30103048      -4.37557188
C        2.51026075       2.03691325      -1.51811210
C        2.24748618      -2.41138382      -0.40744337
C       -2.54228451       1.11891361       0.97281006
C        1.09848763      -0.75917929      -3.44250174
C        0.19307791      -2.96723475      -1.36360724
C        1.67790260       1.52817598       2.07266946
C        0.08796478      -3.04484569       0.09869427
C       -2.49367559       1.12088857      -2.68000215
C       -1.68090472       2.26699077      -2.43063326
C       -2.08007684      -0.17046540       3.55681001
C       -2.33633193      -1.18664942      -3.30555348
C       -3.38646240      -0.62787582      -1.15901242
C        0.02966161       4.21201627      -1.40488276
C       -0.17500117       3.31541644       0.67029256
C        1.21462224       3.45482055       0.46561462
C        2.10809360       2.36245918       0.88330026
C       -3.00955689      -1.60431784      -2.14009306
C        0.43933542       2.00814615       2.60035016
C       -3.09116121       0.73446483      -1.43133816
C        0.41271820      -1.69237858       2.64624017
C       -2.20668544      -2.33617518      -0.05882897
C       -2.03235586      -0.94186473       2.36090450
C        1.35952341       4.09729351      -0.80200254
C       -0.17402160      -0.99894202      -4.02248664
C        1.94210979       0.12613138       2.47076202
C       -2.98303958      -1.15602482       0.13006987
C       -0.90939027       3.59812236      -0.50343602
C        1.74804322       3.20740689      -1.86186970
C        2.88735111       1.95401156      -0.17535869
C        3.81833190      -1.19604056       1.12356761
C       -1.58464997       1.13557882       3.23462518
C       -2.65851174       1.61787084      -0.38203651
C        1.38763555      -2.78094362       0.65629932
C        0.32008902       0.26182137       4.35335893
C       -0.53175313      -0.31893418       5.37239624
C       -2.18512494      -2.58060021      -1.47069943
C        2.70747887      -0.51476416      -1.68165610
C       -1.07661876      -2.59862794       0.79112259
C        3.15451618      -1.30033701      -0.31147245
C       -2.15546430       0.18400638      -3.68502187
C        1.52415863      -2.52930944      -1.64337122
C       -1.68157436      -0.59312590       4.84883341
C       -1.07965623      -1.87157967      -3.37411518
C       -0.42446008       2.42088191      -3.08109524
C       -2.69167766      -0.31018751       1.21441554
C        0.92148067      -0.49666206       3.32494302
C       -0.94811951      -2.69791923      -2.17542629
C        2.32205740       0.82296252      -2.25096205
C       -1.85894319       2.68294875      -1.04379243
C        1.29735838       0.63902324      -3.29522210
