60
Properties=species:S:1:pos:R:3 source_escape=runs/20260728-block-krylov-fixed-starter-escape/output/cases/plateau_accepted-seed42-deep_refinement/escape.xyz pbc="F F F"
C        1.90254885       2.44287751       0.67906072
C       -1.75643861       2.29825857       1.40171795
C       -1.29127588      -0.57520815       2.16959857
C        0.17796237      -2.08245367      -3.10626707
C        2.36678828      -2.05064218      -2.00095774
C       -0.72914035       0.54950753       2.86968962
C        2.78108550       1.36420844       0.96684773
C        2.03581305       2.16441518       3.01019472
C       -2.53678588      -2.74727972      -1.00543302
C       -0.81368924      -1.36102629      -3.82817036
C        0.89111764      -2.74962550      -0.01520490
C       -2.87232338      -1.84945071       1.06229375
C        1.13392595       2.59681947      -0.53682172
C       -1.93935519      -2.62009323      -2.27329475
C       -3.42267836      -0.39719717      -0.64702222
C        1.70824472      -0.07083190       2.56809548
C       -3.03830556       0.37198303       0.52139077
C        0.45434992       0.69205168      -3.57850994
C        1.54653350      -0.06034036      -3.04901848
C        0.13541343       3.39337282       2.12145427
C       -1.97579001       0.59709329      -3.81769699
C       -0.91830172       2.47348103      -2.62048603
C        3.45394425      -1.29439034      -1.45232287
C        3.12618049       0.25403770       0.18283365
C        2.93443170      -1.02331542       0.77919052
C        1.81067990      -1.16007088       1.65148314
C       -2.08149330       1.80765933      -3.12303167
C        2.59059607       1.03456035       2.34071966
C        0.35055265       1.89658893      -2.81762980
C       -1.35943592       1.82668637       2.71774237
C       -2.45832932       2.27343079      -0.89176457
C       -0.70377177       3.18695154       0.99647727
C        3.26731853      -1.99836962      -0.17955738
C       -2.11286811      -1.63285141      -3.25858290
C        0.61885926       0.49589961       3.33156660
C       -1.22428592       2.89723258      -1.29311802
C        3.15596714       0.09926636      -1.22015809
C        2.12098717      -2.65922294      -0.71663981
C        0.72271557      -2.00729954       1.23159477
C       -0.63778718      -1.81173921       1.71633923
C        1.43810614       2.94026707       1.96970876
C        1.38195814       1.91028936      -1.79451908
C       -2.58849850      -0.54080433       1.53278170
C        0.23638569       2.55182110       4.47368177
C       -0.65243118       3.48863921       4.72136725
C       -2.96612572       1.58353939      -2.01369546
C       -1.50682519      -3.21521549      -0.10571392
C       -2.58238177       1.71364969       0.41154790
C       -1.67682508      -2.61462690       1.14583226
C       -0.69165046       0.03346008      -4.07471667
C       -3.30989930      -1.78486863      -0.30461997
C       -0.63983369       2.97923135       3.29900190
C       -2.79298154      -0.39968314      -3.14162598
C        1.44713058      -1.47244052      -2.89182412
C       -0.20852235       3.10810575      -0.33411010
C        1.15494426       1.65495349       4.00263410
C       -3.31749546       0.19949249      -1.94158142
C       -0.25062552      -3.17391420      -0.76015668
C        2.22202510       0.73466982      -2.05707148
C       -0.51475152      -2.88334362      -2.14082831
