60
Properties=species:S:1:pos:R:3 entry_id=0 rank=0 energy=-474.66912841796875 pbc="F F F"
C        1.73459720      -3.37211598      -0.91629595
C        2.04874191       0.15114359      -2.30084106
C        1.91526167       1.86826902       2.12943305
C        2.52815275      -2.20505321      -1.15186366
C       -2.92232908       1.05201213       2.39555009
C        2.47087925       0.67224066       0.13204145
C       -0.04139304      -3.76378450       0.95454506
C        2.54728287      -1.61449757       2.33326720
C       -2.62056615       0.78797707      -3.27631580
C       -0.06668926      -1.52286780       0.07063890
C       -1.20749859       1.61909872       3.80200117
C        1.12454856       3.57830803       0.02867444
C        0.41991032      -3.26616169      -1.41315480
C       -0.98215508       3.98381160      -0.79217310
C        0.59212965       3.46070334      -2.42010361
C        0.13076958      -0.46118623       1.05575412
C        1.59415312       2.42947898      -2.51770720
C       -2.92794109      -2.99347255       0.17254420
C       -3.25120112      -1.87063570       0.68504944
C        2.73004907       0.89512017      -1.26200987
C       -3.00420172       1.85974987      -2.43013323
C       -1.87865434      -1.71810616      -1.63132880
C       -0.05095635      -2.59187159       2.92549480
C       -2.28527186       0.26032754       1.38825525
C       -0.86618248      -1.79376616       3.48501695
C       -0.81747990       0.19346214       1.94181770
C       -2.52395074      -0.54294513      -1.09467319
C        2.06771353      -2.60080514       1.54521972
C       -1.83413789      -2.81528493      -0.70497069
C        2.56897205       1.90556040       0.84563712
C       -1.21491997      -1.06893437      -3.92591512
C        1.56464456      -1.24114647      -1.89675493
C       -1.35634092      -0.55329428       3.18188824
C       -1.68047220       3.77133674      -2.04654976
C        2.27305397       0.79309107       2.90953132
C       -0.89669774      -1.68260519      -2.71201272
C        0.74123919      -3.16569870       1.91206304
C       -2.18614616       0.62070757       3.62342015
C       -0.41481707       1.52399541       2.68472242
C        0.56561022       2.39078179       2.09859363
C        2.35865090      -2.78525230       0.16167599
C       -0.43971255      -2.96536669      -0.22575707
C        2.32690638       2.90052744      -0.14506039
C        1.27877802      -0.03238439       0.29043166
C        0.83912315      -0.87168983      -0.71846468
C       -2.77691069       0.52370014      -1.93694300
C       -1.42312893      -0.70179973      -5.24975675
C        1.46894884       1.14021576      -3.09421107
C        0.19697228       3.27769316       1.06242446
C       -2.92212462       3.15286904      -2.15381235
C        0.38747539       3.94350906      -1.09635236
C        2.49905359       2.28688159      -1.42320361
C       -0.65573959       3.58742531      -3.04011983
C       -2.98846801       2.36894627       1.93507199
C        0.40264354      -2.20422981      -2.38041747
C        2.57912982      -0.45715179       2.88071524
C       -2.02687949       0.05516312      -4.24604910
C       -1.16055045       3.57151435       0.58777345
C       -2.82168802      -0.57662802       0.36663090
C       -2.31326560       3.17425046       1.25206933
