60
Properties=species:S:1:pos:R:3 source_escape=runs/20260728-block-krylov-fixed-starter-escape/output/cases/plateau_accepted-seed43-variational_breadth/escape.xyz pbc="F F F"
C       -0.66985760       2.69248229       2.04619402
C       -1.51250462      -0.81396265       2.67243450
C        1.69549324      -1.43384661       1.30909218
C        0.17866701       0.40001645      -3.70038590
C        1.52466814       2.22383749      -2.78437961
C        0.37418887       0.73406296      -0.36561934
C        0.72876969       2.84551111       1.67800380
C        0.53603120       1.27825919       3.33900558
C        0.87510642      -2.74859784      -2.37502783
C       -1.11468684      -0.17072634      -3.85050726
C        2.77435747       0.22010432      -1.75262919
C        1.27285720      -3.12789912      -0.16404830
C       -1.45077731       1.95492202       0.99130207
C        0.28316281      -1.89892087      -3.32264707
C       -0.95025271      -2.79190117      -0.62254380
C        2.17185998       0.87633932       1.81599728
C       -0.70618596      -2.35203611       0.75258216
C       -2.06556445       1.55947992      -2.46292896
C       -0.82780947       2.25641996      -2.47319539
C       -1.74407578       1.25437539       3.86711495
C       -3.00215436      -0.68092660      -2.69610289
C       -3.42027051       0.65760302      -0.67047111
C        1.60865700       3.29242427      -1.84597990
C        1.25994094       3.06482208       0.39253183
C        2.49520190       2.41254338       0.06765515
C        2.75398804       1.11953125       0.55945573
C       -3.55827673      -0.54206757      -1.42575830
C        1.43080333       1.89175027       2.42472669
C       -2.65441972       1.72233703      -1.18426425
C       -0.46424472       0.96995105       0.53841363
C       -2.79390669      -1.11532545       0.66855771
C       -2.17743933       0.44390321       2.78561517
C        2.78169658       2.66411701      -1.27872164
C       -1.06284356      -1.57419493      -3.53490935
C        1.61468168      -0.36623740       2.21096952
C       -3.18392501       0.25319244       0.67345796
C        0.59787418       3.37884289      -0.83727849
C        2.64808508       1.56088517      -2.17608768
C        2.92897891       0.00169028      -0.33281807
C        2.59017852      -1.28633212       0.18969547
C       -0.66973027       1.98363488       3.32163834
C       -1.78995528       2.54476800      -0.37581066
C        0.72452994      -2.44948909       0.97149458
C       -0.45599858      -0.91839062       3.66288908
C       -0.92448517      -0.57871069       4.96971963
C       -3.06072046      -1.61085534      -0.62316533
C        2.13512217      -2.14267540      -2.01731161
C       -1.68479892      -1.54897809       1.44613273
C        2.37976461      -2.38653392      -0.66699181
C       -2.25374141       0.39941193      -3.23859601
C        0.28422675      -3.24284154      -1.18378067
C       -1.54046308       0.52850266       5.05071677
C       -2.15933645      -1.86504360      -2.69809819
C        0.28373929       1.71288090      -3.16644740
C       -2.56534150       1.10724950       1.58853610
C        0.65217285      -0.12529410       3.25236749
C       -2.09550376      -2.35340634      -1.34551186
C        2.19952535      -0.81836487      -2.54238197
C       -0.69053103       2.97086731      -1.23576156
C        1.07089779      -0.67954589      -3.41107188
