60
Properties=species:S:1:pos:R:3 entry_id=18 rank=0 energy=-498.50433349609375 pbc="F F F"
C        0.70094948      -2.65813729      -0.45632719
C        1.37786458      -0.22176004      -3.25414016
C        1.49966394       1.88276992       1.17096954
C       -0.62537295      -3.16907194      -0.46647962
C       -0.87435130       1.73354863       2.13551749
C        2.07075448       0.69226385      -1.04953445
C       -0.54778402      -3.24830906       2.00609366
C        2.03537287      -1.18081969       0.75200377
C       -0.94945190      -0.91102669      -4.15106462
C       -1.18302955      -2.38262417       2.96373840
C        1.47301000       2.51059825       3.93499771
C        0.17390985       3.71960503      -0.44287744
C       -2.35422426      -2.26048242       0.99254828
C       -1.97815137       2.78806952      -1.01836783
C        0.66116222       1.70476789      -4.11510429
C       -0.17232424      -1.69308332       3.65162331
C       -0.17484994       3.20646800      -2.64054327
C       -3.04038005      -0.10257133       0.02038967
C       -2.62854887       0.52914188       1.21549096
C        1.96697191       0.80441580      -2.47157337
C        0.75150866       0.32351369      -4.43022000
C       -2.48802010      -0.64944940      -2.16960650
C        1.08811729      -2.15621071       3.17717218
C       -0.94395208       0.48162511       2.87131831
C        1.95755902      -1.05327534       3.18344905
C       -0.09420568      -0.26627354       3.75161532
C       -0.26289483      -1.99764389      -3.38374152
C        1.35980756      -2.43567705       0.80215970
C       -2.85262765       0.43070962      -1.29223540
C        1.79565724       1.88938838      -0.23858640
C       -1.45160294      -2.89732905      -1.64252304
C        0.86815585      -1.40154139      -2.70560785
C        1.31106592       0.00284457       3.95099835
C       -0.56537149       2.15131909      -3.51750538
C        2.04353779       0.97046011       2.09342909
C       -2.41250337      -1.84544249      -1.41756996
C        0.84200456      -2.93066666       2.00523804
C        1.80256926       1.22822286       3.48962720
C        0.79267327       3.21697044       3.13838982
C        0.31367508       2.71956991       1.81435400
C       -1.28678303      -3.19071752       0.79697435
C       -2.16712071      -1.63402459       2.27616280
C        1.35061201       3.05958958      -0.93167352
C        1.94462503      -0.67190522      -0.58598621
C        1.23764066      -1.67463269      -1.36853481
C       -0.19736253      -0.34486774      -5.15732055
C       -0.92403643      -3.07612970      -2.89907139
C       -1.58206139       1.28979097      -3.03962747
C       -0.25866303       3.75405898       0.89256899
C       -2.28887340       1.63222058      -1.79248465
C       -0.83661807       3.51303624      -1.43509224
C        1.20678459       3.05521853      -2.34270815
C        1.69572976       2.02072938      -3.13812866
C       -2.01492091       1.81610657       1.27237259
C       -2.83889026      -1.52360790      -0.09124013
C        2.25455623      -0.44554255       1.92956860
C       -1.75611403      -0.12458855      -3.27644427
C       -1.61156071       4.10015634       1.01101596
C       -2.07262355      -0.23335173       2.28643259
C       -2.19294225       2.94122004       0.40729426
60
Properties=species:S:1:pos:R:3 entry_id=19 rank=1 energy=-496.0777587890625 pbc="F F F"
C        0.97568910      -2.39899857      -0.64873322
C        1.16437493       0.06718336      -3.53688626
C        1.18133241       2.51591105       0.64908343
C       -0.16545684      -3.23601963      -0.60452856
C       -1.45443068       1.13418214       2.90283384
C        1.81964574       1.11752492      -1.42727163
C        0.03874116      -3.34036030       1.89512226
C        1.68820430      -0.52847439       0.51661232
C       -1.08750463      -0.95094203      -4.23192581
C       -0.77605143      -2.78882749       2.96334937
C        1.39899997       2.93718211       4.03108307
C        0.33286411       4.08126738      -0.54272369
C       -1.96218243      -2.77571534       0.97793635
C       -1.43409250       2.19735016      -0.58175597
C        0.21399735       1.91481897      -4.30383351
C        0.02441411      -1.88024412       3.70481721
C       -0.44918597       3.15918478      -2.51225149
C       -2.87468144      -0.67281102       0.17159872
C       -2.69912120      -0.15056350       1.46328135
C        1.72512037       1.16408812      -2.83827505
C        0.38859497       0.53954196      -4.64318106
C       -2.36439378      -0.95543048      -2.06261286
C        1.20608319      -1.69439102       2.96015567
C       -1.55005730      -0.13819567       3.50508105
C        1.41297675      -0.28909030       2.87383739
C       -0.38758386      -0.58476747       4.15758051
C       -0.18927074      -1.95153565      -3.56563304
C        1.50490666      -1.94248929       0.60452018
C       -2.68308914       0.02109705      -1.06250066
C        1.72509239       2.31940724      -0.66804427
C       -1.07958497      -3.10295179      -1.74915387
C        0.85700320      -1.16671759      -2.94540182
C        0.77350890       0.31812405       4.01060298
C       -0.87163886       2.12256752      -3.39261579
C       -0.22399361       1.78328741       2.80653623
C       -2.16082991      -2.20674074      -1.42736549
C        1.19896737      -2.53915877       1.82434347
C        0.68817077       1.75061782       3.88467554
C        1.26807931       3.89632831       3.15036387
C        0.94044405       4.49444039       2.04336505
C       -0.73745677      -3.43268381       0.70089538
C       -1.95237621      -2.30026507       2.34403841
C        1.41736472       3.53547096      -1.36395741
C        1.73472013      -0.19662840      -0.86669841
C        1.27100795      -1.34451029      -1.60406530
C       -0.54390752      -0.23456095      -5.27110426
C       -0.61095723      -3.12488427      -3.03940438
C       -1.66894510       1.10036739      -2.84639451
C        0.76372586       3.88625685       0.82348713
C       -2.11614698       1.26812450      -1.46332240
C       -0.77946074       3.32009664      -1.14990781
C        0.92527858       3.36516977      -2.67293004
C        1.37845575       2.35368294      -3.53393747
C       -2.04683803       1.09443433       1.61340299
C       -2.55941188      -2.03785116      -0.05692066
C        1.28244727       0.29302945       1.60001449
C       -1.82211276      -0.29094501      -3.20390397
C        0.35895640       1.55817999       1.40927399
C       -2.31063284      -0.96405747       2.58930869
C       -1.15005055       1.69952693       0.71163091
60
Properties=species:S:1:pos:R:3 entry_id=21 rank=2 energy=-494.5900573730469 pbc="F F F"
C        0.69757099      -2.72163937      -0.46308579
C        2.11072296      -0.60092867      -3.23225443
C        4.50118207       0.32531869       0.78355664
C       -0.70048416      -3.00104684      -0.58383595
C       -2.52505531       2.17981636       2.27529801
C        3.51776479      -0.43513427      -1.22228477
C       -0.91815537      -2.84615151       1.89400906
C        2.30843193      -1.51755149       0.73684291
C       -0.35429449      -0.80245973      -4.15883990
C       -1.68760341      -1.91622854       2.68869611
C        0.08777570       3.57313155       3.74178402
C       -0.18349159       3.01385401       0.92078416
C       -2.65479686      -2.08068721       0.60304562
C       -1.69542690       2.59574115      -0.92695014
C        1.42547866       1.48952213      -3.45349172
C       -0.77875879      -0.98754665       3.24497958
C        0.66933459       2.46250805      -1.50201206
C       -3.32145861      -0.00000634      -0.53243207
C       -3.33649271       0.68459920       0.70312926
C        2.96898790       0.15622332      -2.40472381
C        1.45294416       0.26954321      -4.18018140
C       -2.33486677      -0.55697174      -2.55953201
C        0.52556863      -1.35957338       2.85205353
C       -2.22280270       0.86235735       2.72031918
C        1.28446480      -0.22045609       2.51723934
C       -0.90793274       0.41549174       3.03592458
C        0.15492524      -2.01673761      -3.45975703
C        1.23105052      -2.44965125       0.83915476
C       -2.84707924       0.52904535      -1.75819849
C        4.56017254       0.12372540      -0.49216801
C       -1.38757145      -2.77976413      -1.85917840
C        1.38381652      -1.69970940      -2.75328678
C        0.35605046       0.91812634       2.50446438
C        0.25649925       1.88123961      -2.78171506
C        3.68081644       0.22582775       1.78688241
C       -2.40666546      -1.74915993      -1.80196528
C        0.44886268      -2.48507376       1.99275396
C        1.08415271       3.13323352       3.04263908
C       -1.21090223       3.66119427       3.87673540
C       -1.80930129       3.33752183       2.66612832
C       -1.49702733      -2.92110592       0.59824777
C       -2.73024412      -1.41393239       1.86789864
C        0.58139323       2.30495580       1.98960257
C        2.63662061      -1.41443877      -0.64495032
C        1.60744512      -2.09555482      -1.40772039
C        0.48403722      -0.15025292      -5.04856545
C       -0.69654238      -2.97995416      -3.02641978
C       -1.00768119       1.28521903      -2.91361220
C       -1.27637408       3.82228088       1.38868208
C       -2.00511444       1.65179629      -1.94015006
C       -0.33849564       2.77511129      -0.51891037
C        2.05630646       2.29639449      -1.38100341
C        2.48463168       1.50584884      -2.44853914
C       -3.06769944       2.07131987       0.96238835
C       -3.03618292      -1.41174115      -0.56420504
C        2.49898392      -0.47795917       1.74879175
C       -1.28172275      -0.05032822      -3.37674603
C       -2.26650417       4.33779067       0.54491761
C       -2.98410783      -0.03604260       1.88772897
C       -2.63743245       3.07668692       0.05363177
60
Properties=species:S:1:pos:R:3 entry_id=16 rank=3 energy=-494.26727294921875 pbc="F F F"
C        0.53165543      -2.44475574      -0.71468654
C       -0.17216223       0.72349301      -2.42350297
C        2.11946026       2.20674375       0.88509344
C       -0.71142885      -3.15543043      -0.63239304
C       -1.39833872       1.48655330       3.07359642
C        1.89631357       0.94236529      -1.34421867
C       -0.25148355      -3.37913877       1.80639749
C        2.10179276      -1.04267597       0.34499968
C       -0.37024455      -1.61490123      -4.92310581
C       -0.82658819      -2.66610504       2.92357440
C        1.92107216       2.54176093       3.69892091
C        0.28954617       3.81817983      -0.43609417
C       -2.28336971      -2.54382163       1.15208285
C       -1.83121085       2.61712401      -0.54449612
C        0.04861917       2.11696330      -4.35867959
C        0.18773259      -1.91318914       3.53608254
C       -0.48664924       3.46041008      -2.51100222
C       -2.96438272      -0.32302985       0.33040145
C       -2.56923527       0.23054870       1.56550595
C        1.14677393       1.18674034      -2.55828065
C       -0.07353876       0.92049713      -5.02940075
C       -2.66235113      -0.88459880      -1.83365622
C        1.39962360      -2.17220434       2.82085921
C       -1.13317808       0.14796079       3.42795763
C        2.10773537      -0.97153498       2.76340361
C        0.09404986      -0.51349781       3.82140177
C       -1.51540769      -1.16458581      -2.57745286
C        1.41946900      -2.31728251       0.41650719
C       -2.79053957       0.25935166      -0.98498095
C        2.01842796       2.14710826      -0.56024702
C       -1.74067228      -3.02945731      -1.63570129
C       -0.28390627      -0.62237554      -2.18617213
C        1.44620258      -0.00845624       3.60704182
C       -1.05564956       2.57794965      -3.45921916
C        2.30795686       1.09367171       1.76533419
C       -2.78560905      -2.12119595      -1.14637579
C        1.08644351      -2.91189713       1.64463685
C        1.92448205       1.25649809       3.16434052
C        1.80258840       3.55639559       2.92950982
C        1.57400603       3.39770194       1.55149998
C       -1.16595478      -3.32579084       0.72018121
C       -1.98303413      -2.00556347       2.44684202
C        1.37512307       3.29069016      -1.16987612
C        1.76030890      -0.41979523      -0.89651938
C        0.74544807      -1.26850291      -1.49112741
C       -0.16905611      -0.33427042      -5.20687400
C       -1.35812611      -2.53936229      -2.96716012
C       -1.35524943       1.48536051      -2.60172607
C        0.32010119       3.84298411       0.97510233
C       -2.20905439       1.50965161      -1.38980502
C       -0.89462770       3.52402948      -1.14790145
C        0.91896517       3.30310253      -2.52305792
C        1.22801207       2.28016560      -3.45402876
C       -2.11771893       1.57498491       1.86527117
C       -2.95167036      -1.76393202       0.20670503
C        2.42344573      -0.33541139       1.52442088
C       -0.74857862      -2.63237717      -4.21267683
C       -0.89573608       3.52334070       1.51354905
C       -2.06028716      -0.61864754       2.60464096
C       -1.81728884       2.65748537       0.92616537
60
Properties=species:S:1:pos:R:3 entry_id=30 rank=4 energy=-493.9657897949219 pbc="F F F"
C       -0.25937946      -2.16974503      -1.62287074
C        1.58690164       0.86965764      -2.71361550
C        4.49262891      -2.04643130      -0.21210021
C       -1.63319028      -1.88854903      -1.39319721
C       -0.73492683       1.30557151       3.59856912
C        2.98643771      -0.54680450      -1.27723050
C       -1.37150485      -3.07957893       0.81424690
C        1.81406633      -2.79985943      -0.76171242
C       -0.81940046       1.84734766      -3.24068583
C       -1.54985004      -2.53268427       2.13859432
C       -2.44102792      -1.95056002      -5.57234573
C        1.01111209       3.66926187       2.68648343
C       -2.84734760      -1.28752489       0.63452651
C       -1.01450891       3.65553258       1.38654584
C        1.57571991       2.86612705      -1.77955882
C       -0.66626996      -2.42664894       3.22878244
C        1.13791681       3.50638502       0.32952928
C       -2.99742296       1.16129979       0.87479999
C       -2.58251610       1.04169540       2.21400677
C        2.51963027       0.77823380      -1.63688932
C        1.26249900       2.23886614      -3.00872201
C       -2.43641820       1.61376951      -1.32607840
C        0.72719360      -4.54251390       1.08807478
C       -1.06302474      -0.11908214       3.58039196
C        1.99844527      -4.50319526       0.91759060
C       -0.43012547      -1.33531111       3.89406159
C       -0.68653173       0.39993393      -3.35895462
C        0.41841217      -3.06723871      -0.74592130
C       -2.54390702       2.17740517      -0.00520855
C        4.20170998      -0.88188026      -0.71074469
C       -2.25980234      -0.79286289      -2.08703999
C        0.56200684      -0.07976341      -2.87121961
C        2.22322554       1.79731504       1.66767881
C        0.59070211       3.49636301      -0.99045917
C        4.05134767      -3.20209004       0.16368479
C       -2.79264559       0.24007783      -1.27272542
C       -0.18001627      -3.71315620       0.37273893
C       -2.13467388      -1.27850685      -4.52900526
C       -2.73920250      -2.65502178      -6.60655951
C        0.45663861       2.06396162       3.75553238
C       -2.11697089      -2.25804596      -0.10214734
C       -2.44453808      -1.40631874       1.99450612
C        1.51776100       2.30014418       2.73127904
C        1.99145380      -1.58473542      -1.50388859
C        0.73412118      -1.30312552      -2.17074720
C        0.21512603       2.60312106      -3.80995872
C       -1.80438919      -0.53504728      -3.45819396
C       -0.79355482       3.21249208      -1.08819716
C        0.13759383       3.50515042       3.80786396
C       -1.55457543       3.17437482       0.14859473
C        0.37275039       3.90240632       1.44282167
C        2.11066279       2.43176537       0.44535540
C        2.39555314       2.03107637      -0.93959408
C       -1.77431456       1.98991844       2.91228606
C       -3.15408480      -0.03546999       0.08684540
C        2.70771314      -3.55672652       0.10372953
C       -1.41365447       2.30221289      -2.02894998
C       -1.09316730       4.04580827       3.79600218
C       -2.20738013      -0.23741976       2.71950644
C       -1.58840206       3.37321463       2.67039209
60
Properties=species:S:1:pos:R:3 entry_id=14 rank=5 energy=-493.5940856933594 pbc="F F F"
C        0.68129417      -2.40182105      -1.07548467
C        1.19281918       0.90408871      -2.76076044
C        2.15063818       1.70126140       1.46188283
C       -0.60696745      -2.98698865      -1.26097295
C       -0.46543580       0.67355411       3.08997567
C        2.60968974       0.71995898      -0.88556603
C       -0.59964141      -3.64481080       1.15339682
C        2.09990524      -1.37219398       0.48216454
C       -2.84148832      -0.90845274      -4.87899491
C       -1.26370637      -3.09906508       2.31963143
C        1.33255992       1.84195128       4.15569160
C        1.25028400       3.79885882      -0.18807232
C       -2.26146123      -2.28476973       0.41039073
C       -1.03031747       3.42190673      -1.36926363
C       -3.50882185       2.47948502      -3.49721688
C       -0.26619456      -2.73516677       3.25176988
C        1.02244587       3.16845951      -2.33951568
C       -2.14643389       0.16762343      -0.03866921
C       -1.97108580       0.37473284       1.37079192
C        2.40448461       1.33586671      -2.15514293
C       -3.60097338       1.41046095      -4.19907846
C       -1.58912203      -0.22971145      -2.27269867
C        0.98804352      -2.83608691       2.59128819
C       -1.12377463      -0.53822405       3.32708715
C        1.72372862      -1.67074172       2.87976643
C       -0.28028071      -1.48414805       3.91749836
C       -0.57230400      -0.68615104      -3.17584354
C        1.31944229      -2.53506410       0.21545157
C       -1.59369524       0.81653175      -1.30349515
C        2.55139911       1.76352492       0.08957203
C       -1.48449486      -2.50727261      -2.28925002
C        0.75943769      -0.44149622      -2.73992087
C        1.04271801      -0.90465364       3.87058333
C       -2.22088520       3.90783621      -1.85221274
C        1.91351084       0.51328226       2.18213211
C       -2.20259373      -1.38307647      -1.76354164
C        0.76526474      -3.28227716       1.25963145
C        1.02030295       0.54698637       3.45134123
C        1.53950352       2.86379955       3.44117140
C        1.70365692       2.93930698       2.04712425
C       -1.29502256      -3.24434477      -0.01687734
C       -2.15798625      -2.10630169       1.82301498
C        2.33617004       2.98349730      -0.58070775
C        2.17152323      -0.61866555      -0.72839996
C        1.27875755      -1.23763046      -1.68963441
C       -3.39433877       0.25497427      -4.70881450
C       -1.10186951      -2.00690983      -3.61023833
C        0.29103947       1.95674744      -2.51746184
C        0.90259650       3.78029101       1.18501735
C       -0.82837712       1.96975380      -1.65204976
C        0.35581712       3.90848601      -1.29992929
C        2.33109286       2.76140965      -1.97613575
C       -3.05400632       3.36603061      -2.67336548
C       -1.20676087       1.41769418       2.10882583
C       -2.49409240      -1.17425851      -0.40974104
C        2.14013473      -0.83899272       1.80487955
C       -2.03754317      -1.87749618      -4.62702252
C       -0.45364870       3.77652907       1.58124124
C       -2.00157394      -0.78280082       2.25322730
C       -1.14485139       2.77218201       1.87975975
60
Properties=species:S:1:pos:R:3 entry_id=17 rank=6 energy=-493.30670166015625 pbc="F F F"
C        0.79698636      -2.57321583      -0.42930563
C        1.07398945      -0.21498856      -3.23471249
C        2.04278995       2.22065247       0.94880411
C       -0.34561697      -3.41131096      -0.34672361
C       -1.62035527       1.45997707       3.00071832
C        2.03787692       0.81960709      -1.26928877
C       -0.09121475      -3.41323157       2.11416296
C        2.16147625      -0.99492421       0.62584299
C       -2.40988343       0.50291343      -5.27856058
C       -0.78976757      -2.65365251       3.12598970
C        1.69075734       2.74829001       3.73120613
C        0.21317453       3.68378613      -0.49672514
C       -2.08401790      -2.71197729       1.22635516
C       -1.86986146       2.36872059      -0.69142758
C        0.14684743       1.84435847      -4.31105190
C        0.13626835      -1.80277458       3.75398877
C       -0.43566714       3.15233130      -2.53746063
C       -2.74571510      -0.56194549       0.18079771
C       -2.55315492       0.06271373       1.43437569
C        1.71409228       0.86496817      -2.70618494
C       -0.10711802       1.23046386      -5.52099340
C       -2.02773735      -1.26258302      -1.92264649
C        1.40715720      -2.03154896       3.13931207
C       -1.28859620       0.15916723       3.42221295
C        2.04965816      -0.79757182       3.04252223
C       -0.05383950      -0.39611364       3.93520277
C       -0.91327075      -1.75228570      -2.76584429
C        1.55973986      -2.28853566       0.75191078
C       -2.44981110      -0.06744994      -1.17372211
C        2.00191286       2.05331676      -0.50182394
C       -1.27618573      -3.36654899      -1.43821897
C        0.42053570      -1.19947859      -2.58112387
C        1.28261351       0.17656541       3.77761320
C       -0.95441370       2.22963575      -3.43546659
C        2.21376352       1.19752935       1.92129718
C       -2.28032415      -2.38812183      -1.12538928
C        1.21246083      -2.84912712       1.99110945
C        1.73710038       1.43272712       3.28219197
C        1.61777781       3.71453785       2.89508435
C        1.43721214       3.43592985       1.52821371
C       -0.91727592      -3.50079610       0.96514580
C       -1.92564313      -2.08622299       2.50265456
C        1.36437533       3.15087346      -1.17004222
C        1.91173408      -0.50998881      -0.70924510
C        1.08190862      -1.51274967      -1.35121392
C       -1.23442078       0.72958294      -5.89503673
C       -0.87965879      -3.17194825      -2.76685996
C       -2.09365272       1.46331758      -3.04066179
C        0.17183970       3.75827737       0.90308208
C       -2.29195672       1.29647923      -1.58457979
C       -0.93485159       3.29239280      -1.24134498
C        0.97630416       3.07682081      -2.53113053
C        1.34998660       2.06179867      -3.43208896
C       -2.24569276       1.43930093       1.73768344
C       -2.64765632      -1.99512072       0.16568763
C        2.39662652      -0.22440146       1.77878377
C       -2.72686387       0.74365355      -4.05274411
C       -1.05294065       3.38500882       1.38902972
C       -2.09462256      -0.70199403       2.56505565
C       -1.91745523       2.47254727       0.77718339
60
Properties=species:S:1:pos:R:3 entry_id=33 rank=7 energy=-491.8943786621094 pbc="F F F"
C       -1.42532884      -2.47054302      -2.10379219
C        1.41396344       1.10637607      -2.84028589
C        1.42267024      -2.84309921       1.25104917
C       -2.47906342      -1.87583531      -1.39942745
C       -0.06531718       1.19506107       3.39700440
C        1.66806222      -0.32255777      -0.74904108
C       -1.70897836      -3.17863451       0.51571738
C        0.90094641      -2.89855943      -1.36812625
C       -1.03159962       2.13898987      -3.06793802
C       -1.07154475      -2.41431457       1.55782090
C        0.08667487      -2.01964272      -4.05062664
C        1.62653308       3.42806776       2.63693591
C       -2.92830692      -1.18597072       0.84508268
C       -0.56989190       3.64189949       1.68650557
C        1.60177833       3.09285970      -1.84684921
C        0.33914594      -2.09757307       1.60679176
C        1.40621979       3.59859419       0.34128284
C       -2.79247071       1.26991862       1.26253807
C       -2.17714723       1.01873027       2.50863199
C        2.01098726       0.82353505      -1.58177324
C        1.16287520       2.51163863      -3.05414004
C       -2.39791935       1.82066671      -0.95743844
C       -0.12836565      -5.16273442      -0.16911058
C       -0.14551445      -0.06249793       2.73783802
C        1.09543927      -5.19469600      -0.53984787
C        0.72478302      -0.69407436       1.77579118
C       -0.90710164       0.70561232      -3.32019375
C       -0.46635291      -3.24317972      -1.42595860
C       -2.31120377       2.28754755       0.39589207
C        1.55907684       0.02020817       0.78060062
C       -2.62339107      -0.52717397      -1.89277935
C        0.42471402       0.25276474      -3.25581645
C        1.97765055       1.37089794       1.21155728
C        0.70884421       3.71587382      -0.92426302
C        2.27430037      -3.41252872       0.51117497
C       -2.91726181       0.49281431      -0.95421322
C       -0.93347542      -4.03651164      -0.31997342
C       -1.03663655      -1.63960866      -3.16320913
C        0.52262369      -2.65748725      -5.11656860
C        1.12505331       1.84979986       3.66142301
C       -2.68243782      -2.25690061      -0.06909601
C       -1.98963704      -1.36823573       1.88563451
C        1.91439190       2.01402447       2.49574971
C        1.17825620      -1.47889201      -1.63083823
C        0.57572937      -1.12382449      -2.90203119
C       -0.00759284       2.90626172      -3.64676425
C       -1.77491814      -0.39322082      -3.04417983
C       -0.65860236       3.34078209      -0.83556454
C        0.93393198       3.28240240       3.89489159
C       -1.25202358       3.22528688       0.49205362
C        0.80892415       3.89261574       1.57703002
C        2.16444167       2.39648394       0.25819474
C        2.31802533       2.10284828      -1.09032246
C       -1.24283475       1.91704255       3.15180755
C       -3.17827969       0.14637193       0.42137703
C        1.69217030      -3.89942014      -0.68334530
C       -1.42384799       2.50929167      -1.74522063
C       -0.26933593       3.83320167       4.07915390
C       -1.54421439      -0.27063380       2.58664958
C       -1.00695074       3.31408473       3.01286830
60
Properties=species:S:1:pos:R:3 entry_id=23 rank=8 energy=-491.8216552734375 pbc="F F F"
C        0.82033243      -3.04050419      -0.43375539
C        2.19209242      -0.45541799      -2.67185123
C        5.02563900      -0.98115551       1.12634393
C       -0.60331393      -3.07640932      -0.50141566
C       -2.55979102       2.55562355       1.83422866
C        3.45870659      -0.59530256      -0.58487694
C       -0.49633727      -2.60213004       1.92199298
C        2.76485775      -2.62423803       0.80350852
C       -0.17131425      -0.64600842      -3.93654484
C       -0.76248537      -1.20354218       2.29350380
C       -0.78831324       4.38463244       3.28867341
C       -1.04579987       3.96832434       0.43943822
C       -2.35535049      -1.88366477       0.72362208
C       -2.42470747       2.83230366      -1.24904421
C        1.24663653       1.53219205      -2.67755629
C        0.07807762      -0.12731329       2.25859766
C       -0.02358902       2.67395748      -1.27631392
C       -3.40329031      -0.02629030      -0.55322113
C       -3.35941551       0.78637460       0.60113714
C        2.69552919       0.21776812      -1.50511897
C        1.58596073       0.49185416      -3.57254875
C       -2.29969743      -0.59274625      -2.51346250
C        1.61254526      -3.32653817       3.21163503
C       -1.68006575       1.44485586       2.06302320
C        2.87038575      -3.09173832       3.14006217
C       -0.21501538       1.18352596       1.87709455
C        0.30353826      -1.88674617      -3.28109110
C        1.46257164      -3.19024885       0.83398549
C       -3.00535982       0.45860615      -1.82193073
C        4.59777843      -0.26684668       0.12917812
C       -1.27454369      -2.76572009      -1.75864826
C        1.50279735      -1.66594686      -2.49611523
C        0.55527834       2.18254708       1.00909954
C       -0.04004251       2.06753392      -2.56793098
C        4.80400283      -1.91922668       1.98574049
C       -2.29203824      -1.74447574      -1.69112194
C        0.77164477      -3.21071662       2.07054859
C        0.21613382       4.06236144       2.56504080
C       -2.08740197       4.45082206       3.47353283
C       -2.49742629       3.93135883       2.23768593
C       -1.27301585      -2.82314123       0.72827931
C       -2.08541200      -0.96009847       1.75232756
C        0.03190324       3.52848864       1.30157986
C        2.84314196      -1.89411856      -0.41742485
C        1.73403324      -2.31694192      -1.25732691
C        0.77900463       0.11819159      -4.61572384
C       -0.57132684      -2.87928240      -2.94045170
C       -1.23403080       1.40604484      -2.93148196
C       -2.27857010       4.52604974       0.93140901
C       -2.40324079       1.69955193      -2.11984208
C       -1.18277260       3.28089131      -0.77538896
C        0.94785880       2.09527155      -0.42327073
C        1.86007002       1.39139691      -1.38295642
C       -3.39878132       2.21185464       0.72997870
C       -2.92921361      -1.39473933      -0.46388488
C        3.57775326      -2.58258784       2.00721202
C       -1.26773887       0.00438958      -3.30096199
C       -3.39823084       4.52988904       0.10327387
C       -2.51752908       0.34751028       1.65356573
C       -3.46538829       3.19730484      -0.30243996
60
Properties=species:S:1:pos:R:3 entry_id=28 rank=9 energy=-491.78228759765625 pbc="F F F"
C       -0.03731403      -2.43472012      -1.64404686
C        1.80124133       0.61609432      -2.52799646
C        4.67443699      -2.36973988      -0.19625046
C       -1.39612518      -2.09229717      -1.36782464
C       -1.15567720       1.69941641       3.68319637
C        3.13521923      -0.84129389      -1.10357780
C       -0.91854648      -3.01565373       0.87262488
C        2.04361361      -3.13340551      -0.82745299
C       -0.57079243       1.62248108      -3.19707112
C       -0.70905854      -2.00809354       1.92295399
C       -3.26540335      -0.74229509      -5.50121919
C        0.58921870       3.77329912       2.75947754
C       -2.57738005      -1.40485647       0.67018039
C       -1.32682426       3.65045127       1.27790080
C        1.56345658       2.51200947      -1.44501187
C        0.40515211      -1.24804089       2.17119571
C        0.89295192       3.19264561       0.54102729
C       -3.06356518       1.02621007       0.76673361
C       -2.73026340       1.05801581       2.13843631
C        2.55519345       0.46556283      -1.31816051
C        1.47593409       1.99438375      -2.75621853
C       -2.38419464       1.38023251      -1.42807871
C        0.94892831      -4.76943477       1.11412766
C       -0.83255475       0.39561287       3.24559957
C        2.20983035      -4.78736758       0.88444102
C        0.42338881       0.09532415       2.57554063
C       -0.43531193       0.17750412      -3.32565514
C        0.64130793      -3.36509520      -0.79574354
C       -2.63657267       2.01212082      -0.15486958
C        4.37275198      -1.16514495      -0.57444821
C       -2.04192817      -1.02490244      -2.07394495
C        0.79501627      -0.32354975      -2.81794903
C        1.18165361       1.36871898       2.16986061
C        0.54337612       3.25406563      -0.84610461
C        4.28717544      -3.56896450       0.08901962
C       -2.65768471      -0.00663390      -1.29995382
C        0.09089645      -3.88509753       0.40205772
C       -2.47726825      -0.66234450      -4.49748658
C       -4.06839898      -0.79515800      -6.50449856
C       -0.10719300       2.52204473       4.05962918
C       -1.83428442      -2.39450133      -0.04585131
C       -1.97691411      -1.28515561       1.94101167
C        0.93403997       2.42723787       3.09064929
C        2.21538824      -1.88773966      -1.49872124
C        0.96260401      -1.57920162      -2.17310055
C        0.51603325       2.39298551      -3.64727679
C       -1.64508144      -0.63502334      -3.44095555
C       -0.83057999       3.05363194      -1.12231559
C       -0.39466901       3.92502598       3.80905144
C       -1.72918003       3.07542869       0.01976358
C        0.04970999       3.81987644       1.46855871
C        1.56989433       1.95948462       0.83717398
C        2.14735941       1.59347297      -0.50182201
C       -2.20625468       2.18781132       2.89365823
C       -3.05328799      -0.23646001       0.05697235
C        2.93318425      -3.89792791       0.03088002
C       -1.32461047       2.07896281      -2.07551973
C       -1.62119980       4.38176999       3.54823761
C       -2.02032040      -0.08502710       2.62491900
C       -2.04896549       3.54853348       2.51642704
60
Properties=species:S:1:pos:R:3 entry_id=15 rank=10 energy=-491.6622619628906 pbc="F F F"
C        0.09990755      -1.88410869      -1.56219907
C       -1.15845145       1.56470922      -2.45669010
C        1.71493205       2.25104556       0.91230263
C       -0.91931989      -2.84085229      -1.25094326
C        0.48839761       0.34515806       3.19871321
C        1.06643690       1.65161193      -1.51864981
C        0.40668576      -3.65489357       0.68610545
C        1.80291810      -0.59356542      -0.60069163
C       -0.96764602      -1.77908004      -5.03162070
C        0.27867153      -3.42192642       2.10851339
C        2.33458263       1.87691408       3.63441876
C       -0.26603669       4.17546518       0.40797686
C       -1.68258255      -2.81480605       1.05151480
C       -2.34860900       2.93640183       0.35461489
C        0.73222500       1.35882834      -4.81198065
C        1.49074322      -2.84935360       2.55204103
C       -1.49131427       4.01163207      -1.56965663
C       -2.37016811      -0.41715308       1.08707384
C       -1.55419285      -0.25008603       2.26747962
C        0.14691094       2.37052656      -2.54084306
C        0.44595630       0.22901061      -5.42762583
C       -2.93376647      -0.48551492      -1.17157629
C        2.24905045      -2.51073036       1.39863431
C        0.30805841      -1.01811401       3.43269675
C        2.75061016      -1.20930275       1.57571896
C        1.51683429      -1.71938702       3.40410177
C       -2.35876050      -0.52539116      -2.47399678
C        1.28949478      -1.90964810      -0.74017185
C       -2.71354448       0.43403370      -0.10218847
C        1.31275833       2.52536476      -0.43360740
C       -2.25648593      -2.60787827      -1.68861673
C       -1.11386412       0.16660963      -2.59188189
C        2.49372737      -0.77595810       2.90860094
C       -2.52535570       3.51727558      -2.32546775
C        2.11082159       0.98499278       1.37119760
C       -2.92189671      -1.81170691      -0.70715369
C        1.51369436      -2.88589134       0.24335345
C        1.96042518       0.63500346       2.87582537
C        1.99249474       2.99549116       3.15966902
C        1.41728297       3.26066849       1.90099255
C       -0.84105295      -3.40586719       0.06665694
C       -0.94544090      -2.70290218       2.26782907
C        0.54897801       3.69960942      -0.63382996
C        1.10118613       0.24843809      -1.52440222
C        0.04128558      -0.54434463      -2.13093574
C       -0.15410652      -0.86970069      -5.49756809
C       -2.31739649      -1.90619501      -2.94474916
C       -2.26691577       2.20900338      -1.85134745
C        0.14299386       3.91793936       1.73584716
C       -2.57438967       1.84002370      -0.44029528
C       -1.59539478       3.98831165      -0.09353648
C       -0.13320279       3.67512320      -1.85142807
C        0.68298177       2.19735835      -3.88777112
C       -0.77480091       0.91136970       2.80514465
C       -2.54265482      -1.78395371       0.64544645
C        2.38851579      -0.19899434       0.64111069
C       -1.73067611      -2.22413386      -4.12935895
C       -0.82440239       3.43662112       2.64346058
C       -0.89437528      -1.42099599       2.82114515
C       -1.08972563       2.24389782       2.92419954
60
Properties=species:S:1:pos:R:3 entry_id=32 rank=11 energy=-490.5788879394531 pbc="F F F"
C       -1.47569485      -2.49314278      -2.17973141
C        1.44498738       1.01786931      -2.70813245
C        1.59677553      -2.48420508       0.83027595
C       -2.48179182      -1.87502062      -1.42026396
C        0.06701615       1.36980690       3.17514116
C        1.72352386      -0.65522512      -0.89610038
C       -1.70241072      -3.20692534       0.46494380
C        0.84426582      -3.04891207      -1.55131817
C       -0.98006916       2.12115836      -2.99271331
C       -1.02428657      -2.49814595       1.53069021
C       -0.03447727      -2.01188353      -4.19845841
C        1.44674123       3.86108077       2.83031711
C       -2.85520852      -1.19762619       0.85298065
C       -0.73316597       3.75020628       1.72006005
C        1.57027221       2.93575332      -1.63294225
C        0.37372091      -2.19981558       1.58800467
C        1.30673832       3.57890571       0.48891586
C       -2.82553261       1.25414578       1.28499046
C       -2.11217898       0.99692621       2.47739511
C        1.99998630       0.68707585      -1.44000436
C        1.21553560       2.42375566      -2.88743893
C       -2.45187533       1.82647659      -0.93483239
C       -0.23337380      -5.24420491      -0.18674565
C        0.00258881       0.04701047       2.56871817
C        0.99944581      -5.29088358      -0.51526868
C        0.80740199      -0.82623986       1.77467071
C       -0.86535961       0.69872128      -3.28369651
C       -0.53722047      -3.33570875      -1.54845064
C       -2.40574458       2.30624220       0.42141419
C        1.64752982      -1.02816562       0.52915540
C       -2.61212514      -0.51891347      -1.88562950
C        0.46358430       0.20741549      -3.24835850
C        2.81337155       2.08199225       1.69571419
C        0.66020307       3.61135677      -0.78736787
C        2.30757543      -3.47908977       0.26452064
C       -2.92039719       0.48381097      -0.93366133
C       -1.00004941      -4.09215262      -0.40474670
C       -1.09666810      -1.64715488      -3.23533164
C        0.31235122      -2.63195328      -5.30812896
C        1.11410299       2.17366707       3.64746559
C       -2.65370634      -2.25618887      -0.08454917
C       -1.87100450      -1.38085732       1.85835186
C        2.19459149       2.59206621       2.78243153
C        1.21779151      -1.66671460      -1.86456099
C        0.57418067      -1.19957054      -3.06064800
C        0.08525032       2.87375268      -3.52591787
C       -1.76965847      -0.37638651      -3.04145108
C       -0.72877728       3.34683233      -0.77389113
C        0.63877946       3.52444325       3.96654988
C       -1.37630762       3.27590204       0.52696841
C        0.65473666       3.98352874       1.66001386
C        2.29588917       2.52252089       0.50914783
C        2.27276613       1.97217536      -0.83105932
C       -1.21412005       1.93888034       3.07034930
C       -3.16548289       0.12327436       0.44122683
C        1.61937016      -4.01507685      -0.78744358
C       -1.45776567       2.50572165      -1.70305417
C       -0.61967534       3.93846392       4.16287601
C       -1.38640126      -0.24293812       2.48940375
C       -1.18987598       3.36636534       3.02952397
60
Properties=species:S:1:pos:R:3 entry_id=29 rank=12 energy=-490.3189392089844 pbc="F F F"
C        0.33273325      -2.59761433      -0.57422201
C        1.46514345      -0.29607329      -3.38361313
C        1.46416274       1.81204373       1.07952052
C       -1.03308035      -3.00958335      -0.72936704
C       -1.67621837       1.75284333       2.18152400
C        2.12429530       0.57669153      -1.15339326
C       -0.43809047      -3.48489653       2.30836924
C        1.85754257      -1.26172491       0.58988499
C       -0.82907282      -0.81603379      -4.46759971
C       -1.44716524      -3.70639605       1.57868807
C        0.25272363       2.01501853       3.71611120
C        0.40105687       3.70990510      -0.67988936
C       -2.95644134      -2.09163641       0.49892635
C       -1.78968488       2.88779862      -1.34309782
C        0.96673557       1.66839055      -4.30496775
C        2.88788241      -1.65574271       7.66750684
C        0.14102873       3.20683503      -2.86463623
C       -3.31535253       0.14293646      -0.55085576
C       -3.15426284       0.74032790       0.71359304
C        2.09326043       0.68951508      -2.57711600
C        0.97459976       0.28108985      -4.60825988
C       -2.53724360      -0.42857793      -2.65795934
C        3.95585707      -1.37612778       7.03839184
C       -2.00804240       0.46023257       2.74924426
C        1.00155496      -1.36615036       2.70837440
C       -1.13063771      -0.32455030       3.42656853
C       -0.29614821      -1.93807408      -3.63377624
C        0.98821972      -2.39237847       0.68024116
C       -2.91408194       0.67250232      -1.81513690
C        1.90393039       1.78580251      -0.33036182
C       -1.68161447      -2.71757437      -2.01275540
C        0.81201696      -1.42015187      -2.86329520
C        0.21913385      -0.42430901       3.46896187
C       -0.26037071       2.19576342      -3.77901588
C        1.64048397       0.78090081       2.05923342
C       -2.60132094      -1.62098412      -1.90360880
C        0.57282063      -2.55970243       2.03058884
C        0.89046489       0.88194869       3.30614856
C       -0.42993021       2.35187062       2.54972422
C        0.45247423       2.76098959       1.46603027
C       -1.93022319      -3.12939052       0.39721880
C       -3.23145349      -1.47500998       1.70873784
C        1.56817646       2.97498706      -1.06885173
C        1.86944267      -0.77960257      -0.72817940
C        1.06103475      -1.71395866      -1.50638470
C        0.04409967      -0.32212433      -5.41175389
C       -1.05270565      -2.97690415      -3.20724510
C       -1.38167293       1.42405033      -3.39407118
C       -0.08324737       3.76129950       0.63472771
C       -2.16573113       1.81160890      -2.20168847
C       -0.57803682       3.54194522      -1.69898909
C        1.49641156       2.97575848      -2.49104017
C        1.96211189       1.91602162      -3.26573171
C       -2.41891407       1.94703596       0.96277447
C       -3.16399718      -1.27763939      -0.64729409
C        1.82648279      -0.59381786       1.82168398
C       -1.65230885       0.03519224      -3.67170192
C       -1.45305502       4.08538703       0.74800056
C       -3.04297299      -0.13272162       1.86312411
C       -2.13934213       3.04025589       0.07312099
60
Properties=species:S:1:pos:R:3 entry_id=35 rank=13 energy=-490.3120422363281 pbc="F F F"
C        0.29523967      -2.64151568      -0.67086250
C        1.43839366      -0.28072448      -3.42588767
C        1.48915590       1.71498362       1.09227763
C       -1.07518027      -3.03649829      -0.82775165
C       -1.64139913       1.67194187       2.21731032
C        2.12238386       0.52624000      -1.17665846
C       -0.46578706      -3.59922072       2.19143788
C        1.83963441      -1.35152396       0.51908741
C       -0.87238852      -0.74058266      -4.50773592
C       -1.48000423      -3.79744930       1.46183920
C        0.30187050       1.86608793       3.74231346
C        0.44321139       3.67037949      -0.61063446
C       -2.96817955      -2.12122143       0.44445200
C       -1.76238783       2.89293859      -1.27904099
C        0.95886944       1.71393184      -4.28987895
C        3.14089172      -0.08563240       8.09710225
C        0.16327371       3.22416381      -2.80453701
C       -3.31026034       0.14491953      -0.54555032
C       -3.13542533       0.71006541       0.73125747
C        2.08505067       0.67503497      -2.59708691
C        0.94688974       0.33558536      -4.63083530
C       -2.55960922      -0.38095239      -2.67407504
C        3.75210326      -0.99579932       7.45577222
C       -1.98433390       0.36903203       2.75423181
C        0.99544909      -1.50065754       2.64079812
C       -1.11410026      -0.44398373       3.40733709
C       -0.34836308      -1.89126655      -3.70745072
C        0.95834044      -2.47439167       0.58524967
C       -2.91515686       0.70228450      -1.79945851
C        1.92082199       1.71689828      -0.32040209
C       -1.72991005      -2.69932693      -2.09689394
C        0.77196011      -1.40853374      -2.93099103
C        0.23320623      -0.56839119       3.43655455
C       -0.25768792       2.24338008      -3.74233219
C        1.65646023       0.65591865       2.04295715
C       -2.63174409      -1.59223906      -1.94984670
C        0.54770929      -2.67079041       1.93316919
C        0.91952021       0.73432386       3.29970855
C       -0.38475068       2.24518472       2.59126339
C        0.49487948       2.66917285       1.51087126
C       -1.96454562      -3.17693821       0.30249274
C       -3.22032686      -1.53101902       1.67147212
C        1.59768131       2.92900987      -1.02532253
C        1.85110980      -0.83694282      -0.78666044
C        1.02620398      -1.74061335      -1.58403106
C        0.00194959      -0.23250616      -5.44309736
C       -1.11246243      -2.93328858      -3.30232931
C       -1.38758763       1.47737927      -3.37069772
C       -0.03276359       3.69654181       0.70808784
C       -2.15738042       1.84315386      -2.16212433
C       -0.54432926       3.53983833      -1.62665952
C        1.51757024       2.96584538      -2.44634489
C        1.96448651       1.92088681      -3.25179943
C       -2.38766664       1.90407735       1.00714397
C       -3.17546326      -1.27444775      -0.67865641
C        1.82027120      -0.71413182       1.76682969
C       -1.67839988       0.09979607      -3.68308071
C       -1.39742963       4.03663571       0.83855106
C       -3.02551524      -0.19338361       1.85716952
C       -2.10060944       3.01583770       0.14313589
60
Properties=species:S:1:pos:R:3 entry_id=31 rank=14 energy=-490.1811828613281 pbc="F F F"
C       -0.26092036      -2.51225046      -1.84815817
C        1.59731116       0.66873890      -2.28741063
C        2.13670412      -2.26176224       1.61055312
C       -1.61107275      -2.18933272      -1.52778404
C       -0.22313244       1.57356668       3.13129781
C        2.20481903      -0.60386164      -0.24248899
C       -1.10344035      -3.38030761       0.57637552
C        1.67235605      -3.13035667      -0.71792191
C       -0.63434063       1.66708355      -3.25160049
C       -0.61172871      -2.51857077       1.63684943
C       -3.39245461      -0.67195770      -5.51972531
C        0.90320524       4.18275459       2.62068409
C       -2.46357023      -1.49587040       0.63275210
C       -1.08352327       3.69430110       1.28578019
C        1.70105708       2.77741524      -1.66349812
C        0.71253155      -2.06222647       1.94984548
C        1.10904860       3.65013269       0.32195551
C       -2.81151995       0.95548955       0.88229157
C       -2.21447311       0.88113125       2.16019584
C        2.23995657       0.64319660      -1.00467183
C        1.44260029       1.99480040      -2.80279604
C       -2.29726240       1.39230278      -1.34838664
C        0.50720877      -5.37984265       0.40431600
C       -0.06053473       0.19012831       2.69363574
C        1.77740247      -5.24817586       0.46244669
C        0.96244581      -0.65207311       2.17696090
C       -0.53917788       0.21283772      -3.33444033
C        0.38420644      -3.53599901      -1.08023760
C       -2.43990066       1.97996683      -0.03633082
C        2.11131946      -0.82135917       1.22393934
C       -2.17094405      -1.00993837      -2.12017854
C        0.61769634      -0.26535407      -2.66815980
C        2.60678163       2.50364888       1.87388088
C        0.63431281       3.44580850      -1.01165772
C        2.95373574      -3.27491773       1.27128343
C       -2.62353934       0.00878647      -1.25239429
C       -0.28664907      -4.32213375      -0.09922698
C       -2.57693520      -0.59656057      -4.53822260
C       -4.23273702      -0.71955316      -6.49210228
C        0.66258031       2.55629350       3.59898507
C       -2.00127557      -2.55285151      -0.20558297
C       -1.61473185      -1.48582795       1.76760367
C        1.78783163       3.02275868       2.81457420
C        1.78028050      -1.73106621      -1.04749998
C        0.73704922      -1.51824745      -2.04336305
C        0.49365909       2.33816502      -3.72965388
C       -1.75871124      -0.57436783      -3.47137570
C       -0.72389453       3.07044560      -1.13859828
C       -0.00165950       3.86241961       3.68662977
C       -1.52284891       3.05319585       0.08066036
C        0.26766029       4.08608134       1.35675690
C        2.21162435       2.75413897       0.58691431
C        2.41085808       2.03154092      -0.65129881
C       -1.52538100       1.97136175       2.77659378
C       -2.91832178      -0.26879420       0.11919943
C        2.37720412      -3.96268425       0.23139982
C       -1.28932332       2.11069506      -2.06294022
C       -1.31402718       4.13474409       3.69038007
C       -1.37146905      -0.26218482       2.38284162
C       -1.65333322       3.37909639       2.57062159
60
Properties=species:S:1:pos:R:3 entry_id=36 rank=15 energy=-489.3578796386719 pbc="F F F"
C        0.42986344      -2.75301339      -0.61667123
C        1.53905602      -0.36115702      -3.36231713
C        1.05128078       1.58760706       1.06491717
C       -0.98773876      -2.92937500      -0.65891923
C       -1.75074370       0.98186844       4.32589674
C        2.05004632       0.49354372      -1.08826021
C       -0.35954124      -3.83150492       2.22244044
C        1.89222757      -1.42750615       0.59727556
C       -0.73554962      -0.90491713      -4.51593875
C       -1.43865658      -3.55685033       1.61531274
C       -0.76574815       1.40997239       3.40448156
C        0.15797410       3.58761136      -0.64390884
C       -2.38387805      -1.41861817       0.65666508
C       -2.02351016       2.85688718      -1.63890679
C        1.03089450       1.61584232      -4.27871861
C        4.41216217      -0.55156367       7.76964476
C        0.07662725       3.13616486      -2.87767769
C       -3.12331568       0.44806497      -0.75242510
C       -2.78241406       1.42341243       0.20458727
C        2.10112685       0.63079298      -2.51179900
C        1.07707321       0.22885579      -4.59373950
C       -2.56488048      -0.46037825      -2.80856270
C        5.59521941      -1.01190636       7.78675801
C       -2.23238053      -0.17788509       4.14814709
C        0.79811648      -1.67333710       2.56672900
C       -1.68364732      -0.91445201       3.05581507
C       -0.24063196      -2.00161428      -3.63276778
C        1.16127126      -2.67286978       0.60958311
C       -3.01315518       0.71929382      -2.12793116
C        1.67273407       1.66216608      -0.26582633
C       -1.64908221      -2.63974720      -1.91924642
C        0.88892110      -1.50577404      -2.87720623
C       -0.22410955      -0.89833174       3.16419306
C       -0.23233643       2.14648750      -3.86160990
C        1.18593098       0.54395514       2.02282733
C       -2.49338112      -1.49359784      -1.83495622
C        0.68604529      -2.92946303       1.92403553
C        0.23279112       0.45712898       3.10240175
C       -1.18100353       1.81420457       2.11991502
C       -0.08725088       2.43991981       1.34682508
C       -1.78314963      -2.72907899       0.56155522
C       -2.19073775      -0.48317037       1.75334498
C        1.35616045       2.85657177      -0.98942346
C        1.87161203      -0.88523861      -0.70046420
C        1.13192407      -1.82414610      -1.52266397
C        0.17979702      -0.39538823      -5.41695710
C       -1.05954488      -2.96014478      -3.12604431
C       -1.40364946       1.38412831      -3.63658980
C       -0.31720098       3.64080340       0.66872690
C       -2.30222511       1.83186593      -2.58800506
C       -0.74535866       3.47361341      -1.76099712
C        1.39225340       2.89060630      -2.40399611
C        1.94592246       1.86889601      -3.17408470
C       -2.67641604       2.76173273      -0.33324993
C       -2.82666250      -0.91519083      -0.57256374
C        1.63653182      -0.78066731       1.80942255
C       -1.63036635      -0.04184687      -3.81642433
C       -1.50517616       4.39359239       0.96788309
C       -2.17019002       0.96509400       1.44465133
C       -2.55650606       3.87551598       0.49598757
60
Properties=species:S:1:pos:R:3 entry_id=34 rank=16 energy=-489.080810546875 pbc="F F F"
C       -1.35472072      -2.56249898      -2.26096972
C        1.51000109       0.57993021      -3.52014004
C        1.38881058      -1.15129162       0.78025345
C       -2.30976829      -1.92103399      -1.41485992
C       -0.54064936       1.54365301       3.86440212
C        2.62514961      -1.52943718      -3.25824733
C       -1.17976031      -2.82655731       0.51972118
C        1.07141404      -2.76341995      -2.07377879
C       -0.81216727       1.89524644      -2.99127024
C       -0.76821996      -2.05001089       1.65728508
C       -0.80328268      -2.14546964      -4.84210503
C        1.21517366       3.66540405       3.05549697
C       -2.78359834      -1.17418365       0.86953889
C       -0.70258338       3.49661057       1.65026707
C        1.60255019       1.47749852      -1.42307915
C        0.55341616      -1.41882656       1.80866726
C        1.46586728       2.65321409       0.84703958
C       -2.94170563       1.26993030       1.19909200
C       -2.36213914       1.13567425       2.48786354
C        2.37249919      -0.27695812      -2.75690196
C        1.36195515       1.80605719      -2.81086588
C       -2.51494738       1.75334178      -1.04355348
C        0.92905995      -4.03170952       0.28083266
C       -0.46579147       0.17533790       3.44056654
C        2.05917525      -3.54369733      -0.03212907
C        0.72487568      -0.50121557       2.99074400
C       -0.90403121       0.56538199      -3.52018271
C       -0.22148298      -3.15257983      -1.64240478
C       -2.48208688       2.27254293       0.30637247
C        1.91364244       0.15146432       3.04402292
C       -2.55492321      -0.59198438      -1.90574322
C        0.32384583      -0.01567971      -3.95400888
C        2.30560137       1.42253969       2.74836786
C        0.93400259       2.35826055      -0.47873009
C        1.94838457      -1.08845202      -0.46833004
C       -2.97127728       0.41001449      -0.99116273
C       -0.28720248      -3.56326285      -0.26668950
C       -1.24679626      -1.76918380      -3.45471051
C       -1.10532720      -2.68903577      -5.99489303
C        0.49342589       2.38158576       4.31123225
C       -2.32881916      -2.17707914      -0.04287634
C       -1.87703742      -1.20713938       1.97454840
C        1.71277322       2.43798663       3.58372017
C        1.33715753      -2.10323369      -3.29321041
C        0.24388100      -1.46031132      -3.99852859
C        0.36384826       2.63673463      -3.26357134
C       -1.80358985      -0.45934786      -3.11983402
C       -0.44069419       2.66828279      -0.66408213
C        0.18758993       3.80881064       4.07424708
C       -1.26365197       2.97356981       0.46769712
C        0.68434083       3.48653391       1.75703186
C        2.40673045       1.83785915       1.40796527
C        2.10445767       0.07963568      -1.38590110
C       -1.66615055       2.14478466       3.25096057
C       -3.20481591       0.08872275       0.39824921
C        2.00235728      -2.47381261      -0.98818139
C       -1.31857042       2.17683769      -1.69857352
C       -1.01505613       4.36748931       3.90642093
C       -1.69498986      -0.08681904       2.77009750
C       -1.42547206       3.50750453       2.89711044
60
Properties=species:S:1:pos:R:3 entry_id=27 rank=17 energy=-487.6313781738281 pbc="F F F"
C        0.34613569      -2.73616504      -1.47405319
C        2.20988431       0.26062299      -2.50785755
C        4.84943854      -2.32862757       0.48790817
C       -1.05230141      -2.46551108      -1.41003623
C       -1.51025455       1.83392275       3.18486436
C        3.39981019      -0.97581548      -0.77279277
C       -0.82639324      -3.13389631       0.95078491
C        2.33720959      -3.26049203      -0.35440994
C       -0.10681019       1.09079233      -3.52437739
C       -0.76563213      -2.00990158       1.89336143
C       -5.08076997       2.19544432      -2.68909245
C        0.27781556       3.87785080       2.25944596
C       -2.49763101      -1.62420761       0.38611337
C       -1.44517637       3.52356525       0.59707211
C        1.76704723       2.24119588      -1.65760469
C        0.29284655      -1.18554294       2.17818960
C        0.85782185       3.09415919       0.16061613
C       -3.05866324       0.78849279       0.17124915
C       -2.88647973       0.97432176       1.56047113
C        2.81711746       0.27392265      -1.20664364
C        1.85300565       1.59336278      -2.90965995
C       -2.10164471       0.93351188      -1.93813292
C        1.06763721      -4.75727122       1.59083070
C       -1.10217056       0.50723307       2.92475910
C        2.34741216      -4.73486371       1.52232661
C        0.23022256       0.19187925       2.43621754
C        0.07226276      -0.38033667      -3.49864961
C        0.94986698      -3.54581254      -0.46305971
C       -2.52321213       1.68525620      -0.78360036
C        4.57121435      -1.18825012      -0.06642203
C       -1.64340784      -1.50631277      -2.33507089
C        1.28819597      -0.75319982      -2.80419749
C        0.99675581       1.44900051       1.98840651
C        0.66567266       2.99889296      -1.25603013
C        4.46355731      -3.50269072       0.86362034
C       -2.38465115      -0.43328029      -1.71635902
C        0.27153084      -3.98792719       0.69778894
C       -5.41326074       1.06228418      -2.16296611
C       -4.52167121       3.27495679      -3.10901878
C       -0.53666667       2.73120950       3.58938078
C       -1.64557956      -2.65423677      -0.13266343
C       -2.04496759      -1.34214233       1.69061822
C        0.61326061       2.58234364       2.76116854
C        2.55500939      -2.09168973      -1.13956120
C        1.38537698      -1.90544115      -1.98492588
C        0.98464689       1.85563310      -3.94041420
C       -0.99606125      -1.23036752      -3.52222543
C       -0.65952007       2.70272070      -1.65348107
C       -0.83122436       4.08945926       3.16423476
C       -1.67923392       2.80043004      -0.62476007
C       -0.10583585       3.77699458       0.91652573
C        1.52622796       1.92215286       0.65674472
C        2.26659752       1.45073507      -0.56536206
C       -2.47908222       2.19744358       2.23910568
C       -2.93357392      -0.54249907      -0.40165977
C        3.13889411      -3.89612298       0.67815453
C       -0.99578597       1.60693692      -2.54023394
C       -2.03174718       4.47222550       2.72313913
C       -2.19870240      -0.08207898       2.23495952
C       -2.30633719       3.51817724       1.74451650
60
Properties=species:S:1:pos:R:3 entry_id=26 rank=18 energy=-487.55303955078125 pbc="F F F"
C        0.38703590      -3.02239627      -1.21176277
C        1.87869883      -0.01048524      -2.70151077
C        4.97329124      -2.02089789       0.29961595
C       -1.02186313      -2.86432599      -1.05981287
C       -1.54354617       1.86623890       3.09034464
C        3.30518735      -0.94050465      -0.95584414
C       -0.55943083      -3.24029773       1.33083718
C        2.49684221      -3.24718534      -0.21569369
C       -0.58013902       0.49936893      -3.60654759
C       -0.53450052      -2.01700521       2.14160635
C       -2.83737029       5.39387183      -2.20875366
C       -0.04101652       3.93032267       1.80439445
C       -2.40261571      -1.95169476       0.75106040
C       -1.84415631       3.25343713       0.32818565
C        1.30972962       2.00393622      -2.02910697
C        0.46085079      -1.07986933       2.25407889
C        0.45377993       2.97040182      -0.24139115
C       -3.20173927       0.36299741       0.33208542
C       -2.94134945       0.71806714       1.67256222
C        2.57582037       0.19990953      -1.46330512
C        1.37020743       1.23283837      -3.21027834
C       -2.43208124       0.35140956      -1.85653816
C        1.52154297      -4.60432370       1.98472196
C       -1.03082584       0.56006355       2.93459476
C        2.78482057      -4.48275948       1.80510158
C        0.28659836       0.30744594       2.37388803
C       -0.25815568      -0.93734329      -3.43753035
C        1.13783138      -3.65985266      -0.17573946
C       -2.84222783       1.19014451      -0.75957142
C        4.54374650      -0.97546366      -0.33914918
C       -1.76796577      -2.06874877      -2.02606705
C        1.03532645      -1.12454566      -2.81188107
C        0.89396371       1.56597229       1.73515483
C        0.17072182       2.70151091      -1.61860970
C        4.72514941      -3.17311954       0.82857570
C       -2.55885211      -1.00071574      -1.46560597
C        0.59262119      -4.01974501       1.07996342
C       -1.81624681       5.47195854      -2.98798554
C       -3.82131874       5.25390256      -1.39172024
C       -0.63156828       2.88391695       3.31843134
C       -1.49870774      -2.95840225       0.27570914
C       -1.88125527      -1.48703438       1.97483586
C        0.46283056       2.74125939       2.41502392
C        2.54425456      -2.15855139      -1.13318913
C        1.30226508      -2.16735575      -1.89060541
C        0.40878993       1.29302683      -4.18708021
C       -1.24318540      -1.87162905      -3.28733401
C       -1.14659643       2.26167622      -1.88018073
C       -1.08582369       4.15548476       2.77690147
C       -2.10030451       2.39064509      -0.79217450
C       -0.51327485       3.64292631       0.51691286
C        1.27247908       1.92855292       0.31861595
C        1.96338470       1.38924970      -0.90492622
C       -2.60833089       2.03648677       2.19343755
C       -2.99490176      -1.00795465      -0.10543827
C        3.43020687      -3.69014228       0.80662278
C       -1.44217984       1.04607773      -2.61575590
C       -2.34665427       4.37212187       2.39421356
C       -2.11232350      -0.19231398       2.39622512
C       -2.60938197       3.30184872       1.54463768
60
Properties=species:S:1:pos:R:3 entry_id=24 rank=19 energy=-487.2784118652344 pbc="F F F"
C        0.98693047      -3.22148268      -0.73615956
C        2.26550388      -0.31296862      -2.58833509
C        4.95091247      -1.07303109       1.25994180
C       -0.42938549      -3.32076646      -0.86763431
C       -2.55455435       1.91358676       1.94839930
C        3.42756719      -0.59527964      -0.46408872
C       -0.42805224      -3.13511812       1.59070594
C        2.85043261      -2.83015995       0.62981349
C        0.00218852      -0.48330486      -3.99259961
C       -0.77225955      -1.80182666       2.09988919
C       -1.22409195       8.41629538       3.47503798
C       -1.15433117       3.95784760       0.51155533
C       -2.28842814      -2.37498434       0.42566947
C       -2.47502104       2.66204212      -1.05497152
C        1.25984814       1.64073667      -2.49372374
C        0.01557050      -0.68064158       2.16961663
C       -0.09377123       2.73759749      -1.14330988
C       -3.33674287      -0.38863366      -0.63869147
C       -3.42540638       0.26081648       0.61125774
C        2.64787281       0.26314884      -1.32866162
C        1.68429865       0.68516274      -3.44309081
C       -2.13274308      -0.66455027      -2.60239424
C        1.66159886      -3.89964029       2.88193165
C       -1.82290686       0.72922103       2.18578682
C        2.89985023      -3.56954694       2.89605501
C       -0.39309805       0.64139582       1.93650562
C        0.50501524      -1.76927907      -3.45372720
C        1.59397614      -3.48626463       0.53051043
C       -2.89044070       0.27058238      -1.80895431
C        4.50641326      -0.27182843       0.34055878
C       -1.07141887      -2.88924241      -2.10330968
C        1.65130272      -1.57341654      -2.58854291
C        0.13278711       1.85293468       1.14385206
C       -0.03541772       2.16003436      -2.45236981
C        4.77942980      -2.12733525       1.98765580
C       -2.12261864      -1.91403320      -1.94278900
C        0.86167934      -3.69795707       1.72319505
C       -2.19805474       7.97651520       4.21032068
C       -0.39985854       9.39639862       3.28576924
C       -1.88443003       3.11689455       2.09316188
C       -1.15560201      -3.25195079       0.35275713
C       -2.11984277      -1.59231354       1.58606196
C       -0.61277397       3.02746976       1.45274006
C        2.91800618      -1.95012494      -0.48780322
C        1.87893625      -2.34846109      -1.42442076
C        0.94704926       0.37395000      -4.55849426
C       -0.32951170      -2.83447861      -3.26625190
C       -1.18231220       1.42106789      -2.82593247
C       -2.41023859       4.13865854       1.20444505
C       -2.35002585       1.56111670      -1.97417061
C       -1.29240697       3.34061156      -0.73762581
C        0.74258422       2.00711784      -0.23038428
C        1.75312465       1.39287970      -1.16419348
C       -3.41899946       1.69531051       0.86677992
C       -2.82731367      -1.74801564      -0.71136506
C        3.60976541      -2.87734854       1.86763683
C       -1.12506686       0.05669332      -3.31271511
C       -3.58391907       4.04035447       0.57671221
C       -2.63554089      -0.31255614       1.65549402
C       -3.48037869       2.79185205      -0.03613640
60
Properties=species:S:1:pos:R:3 entry_id=25 rank=20 energy=-487.24578857421875 pbc="F F F"
C        0.56414209      -3.40700196      -0.89102643
C        2.17391500      -0.71145774      -2.80499550
C        5.09756285      -2.20856890       0.62978995
C       -0.84826775      -3.22081416      -0.84341851
C       -1.53051274       2.16348539       2.37465788
C        3.50247599      -1.33629786      -0.85967875
C       -0.51737635      -3.17643302       1.60002561
C        2.61927002      -3.46965763       0.23242483
C       -0.22858415      -0.35623143      -3.91328277
C       -0.52678412      -1.83268521       2.19192080
C       -5.91189803       9.78038345       2.19849927
C        0.07542599       3.96783962       0.83724972
C       -2.31210050      -2.00330049       0.70349250
C       -1.65527576       3.04688074      -0.58855967
C        1.59943823       1.39198617      -2.52096757
C        0.47304397      -0.89300132       2.19614779
C        0.66448537       2.65582770      -0.97612000
C       -3.05716583       0.20438173      -0.15945197
C       -2.86806481       0.78816760       1.11112699
C        2.81315985      -0.29306953      -1.58743189
C        1.70765847       0.42743845      -3.54665295
C       -2.17480357      -0.19207305      -2.26800798
C        1.52015908      -4.40547744       2.58557892
C       -1.02969187       0.84771004       2.48344295
C        2.79272807      -4.33226704       2.44827079
C        0.31414725       0.49380613       2.05430445
C        0.06388294      -1.74326801      -3.48068323
C        1.25261193      -3.85560317       0.27830441
C       -2.62847661       0.82773001      -1.35564820
C        4.71708186      -1.28275735      -0.19800248
C       -1.53192231      -2.60552074      -1.97441532
C        1.32126129      -1.82399002      -2.76445917
C        0.97540438       1.61835729       1.23527702
C        0.45004705       2.15303528      -2.29958125
C        4.80413206      -3.24580420       1.34198735
C       -2.33811048      -1.45365757      -1.65302891
C        0.64162218      -3.98511702       1.54850865
C       -6.13501693       8.67054057       1.56927196
C       -5.26526527      10.35852408       3.16138299
C       -0.61787304       3.20046622       2.47033172
C       -1.39539792      -3.07967145       0.46144045
C       -1.85554088      -1.33474359       1.85792500
C        0.52346652       2.89752527       1.67145353
C        2.72861417      -2.55966997      -0.85756160
C        1.52499075      -2.69163754      -1.66312060
C        0.79607169       0.32874597      -4.56828089
C       -0.93918739      -2.63400784      -3.22096822
C       -0.85830209       1.67604636      -2.54713853
C       -1.02251603       4.36032010       1.69344599
C       -1.86394530       1.99481719      -1.54932083
C       -0.33066073       3.46025742      -0.40279402
C        1.43799653       1.72489455      -0.20004063
C        2.18666877       0.97761817      -1.27363346
C       -2.54335777       2.17821590       1.40570269
C       -2.84392632      -1.22182767      -0.33741585
C        3.49904449      -3.73864145       1.35695814
C       -1.13479860       0.35612659      -3.07909427
C       -2.25740453       4.51757798       1.21192267
C       -2.09198683       0.01543113       2.03008748
C       -2.48824051       3.31252515       0.55107679
60
Properties=species:S:1:pos:R:3 entry_id=10 rank=21 energy=-486.9215087890625 pbc="F F F"
C        1.15836698      -2.64978916      -1.11227830
C        0.97207845       0.94155328      -2.22188201
C        1.90952604       2.09286812       1.96692291
C        2.17549405      -3.46139437      -0.58960153
C       -2.16880960       1.48506905       2.70308205
C        2.28508524       0.75618523      -0.16905858
C        0.53551109      -3.64290885       1.43283266
C        1.93439192      -1.11822621       1.46630398
C       -1.12019358      -0.52622780      -4.15013152
C       -0.66993407      -2.93841057       1.09201196
C       -0.27606534       2.31396625       4.03735949
C        1.52673504       4.03213520       0.01042732
C       -0.03750373      -3.48686071      -1.27180465
C       -0.56152212       4.11024829      -0.88610809
C       -3.05742102       3.62894866      -0.03835707
C       -0.98337405      -2.05278214       2.21950726
C        1.32500382       3.24055206      -2.13236333
C       -3.04430347      -1.65381835      -0.40354398
C       -3.70274526      -0.98557325       0.43934471
C        2.16292601       1.22786976      -1.49872468
C       -1.63606579       1.89399279      -3.71251548
C       -1.46781852      -2.02770892      -2.34821453
C        0.11391497      -2.17072689       3.12700992
C       -2.65550279       0.13582680       2.24800051
C        0.53408977      -0.87614356       3.49784491
C       -1.58681765      -0.78470763       2.59041171
C       -0.68091752      -0.92937103      -2.78889330
C        2.00735869      -2.49128524       1.74731107
C       -1.96690354      -2.22907224      -0.98946340
C        2.45239391       1.91817993       0.64939503
C       -1.30775874      -2.95075679      -4.55352823
C        0.41846229      -0.38746161      -2.02679010
C       -0.68381970      -0.11835586       3.46682605
C       -1.48980604       3.56166117      -1.81012021
C        1.79137706       0.99398314       2.72456965
C       -1.16612825      -3.20226165      -3.17430170
C        1.06384054      -3.06672588       2.65460237
C       -1.03931493       1.24050692       3.61619139
C        0.41130087       3.20786097       3.48325514
C        1.07324097       3.26515155       2.25133168
C        1.75017790      -3.43075131       0.69068269
C       -0.99124925      -2.98472175      -0.28164318
C        2.52659410       3.06182569      -0.18102412
C        1.84254238      -0.57776180       0.11766046
C        1.12152392      -1.21302264      -1.01162029
C       -1.51703582       0.78059866      -4.27403957
C       -1.50752391      -2.68325535      -5.89835063
C        0.42317198       2.23793351      -2.57545758
C        0.61159127       3.95504982       1.09737471
C       -0.95309306       2.64171957      -2.77147308
C        0.80567805       4.15283669      -1.20009282
C        2.44741526       2.61426131      -1.53337125
C       -2.81761625       3.58903086      -1.29611930
C       -2.23178847       2.62530715       2.01400251
C       -0.45428555      -4.10116495      -2.44584016
C        1.61283000      -0.33529534       2.66525189
C       -1.34365712      -1.61598856      -5.00798352
C       -0.72962791       3.99878274       0.52503452
C       -3.70364468      -0.16504245       1.44430381
C       -2.04343396       3.51480510       1.01083518
60
Properties=species:S:1:pos:R:3 entry_id=12 rank=22 energy=-486.53680419921875 pbc="F F F"
C        0.84684073      -2.37765138      -1.94602050
C        0.93150374       1.21867848      -2.55113142
C        1.27698394       1.99290437       1.82017262
C        0.94936979      -3.41453104      -1.09058484
C       -1.08106491       0.37468562       3.21931139
C        2.02681652       1.05619595      -0.47273095
C        0.86739214      -3.89711844       1.48998102
C        2.03255882      -1.07587677       0.89453143
C       -1.92094721      -0.66744662      -5.72144174
C       -0.29800462      -3.35904609       2.17482348
C        0.26905921       1.97928193       4.42739462
C        0.34835011       4.05978787       0.12395379
C       -1.87539047      -3.05035923       0.23039694
C       -1.62774449       4.63145033      -1.52093392
C       -2.86460774       2.75469396      -4.47983172
C        0.19283098      -2.81398480       3.38063071
C        0.34946061       3.37181981      -2.04042655
C       -2.10064024      -0.05485690      -0.11147864
C       -2.10704698      -0.21079626       1.21028524
C        1.94063022       1.72969892      -1.73160861
C       -2.76423213       1.66935198      -5.16447071
C       -1.53711350      -0.74062075      -2.36733893
C        1.59295672      -2.63517172       3.28923092
C       -1.30498382      -1.00382388       3.23687117
C        1.77222814      -1.24548584       3.39096226
C       -0.34107793      -1.66330683       3.98682582
C       -0.39107378      -0.67915881      -3.24482203
C        2.14123040      -2.48056315       0.94510299
C       -1.80583782       0.31938286      -1.40374349
C        1.76345074       2.08567900       0.49309465
C       -0.31561562      -2.41071901      -2.92140808
C        0.78881125      -0.15166130      -2.62862424
C        0.72026527      -0.72140701       4.22377598
C       -2.32645036       4.32349440      -2.55537020
C        1.23651813       0.78723787       2.52195507
C       -1.54877216      -2.14400426      -2.12314296
C        2.02726081      -3.27270418       2.13574608
C        0.31891544       0.64925591       3.74892966
C        0.33684414       3.02919285       3.73103099
C        0.62459890       3.15152679       2.36381013
C        1.29847771      -3.41024729       0.18257437
C       -1.41752273      -2.72245948       1.50866553
C        1.52164142       3.31367180      -0.15960499
C        1.84770525      -0.38844522      -0.39998142
C        1.29755830      -1.00939230      -1.62961181
C       -2.44901943       0.50369408      -5.60037082
C       -0.48212893      -1.76984608      -4.20895598
C       -0.22978930       2.08789418      -2.37735010
C       -0.20533010       3.86876980       1.41073068
C       -1.36023953       1.58641360      -1.82713560
C       -0.38003661       4.21457907      -1.12189826
C        1.65861251       3.11099359      -1.54676461
C       -2.73897831       3.67102418      -3.59699780
C       -1.81585955       0.96001263       2.16402934
C       -1.95921043      -2.78625549      -0.97816622
C        1.83407755      -0.46604457       2.19679108
C       -1.18736467      -1.68606701      -5.35956427
C       -1.53536875       3.42769990       1.57490657
C       -1.79607440      -1.42966904       2.00102699
C       -1.96690372       2.28715103       1.87220539
60
Properties=species:S:1:pos:R:3 entry_id=4 rank=23 energy=-486.4212341308594 pbc="F F F"
C        1.18627481      -2.64959984      -1.12669406
C        0.97611949       0.95488088      -2.16688865
C        1.96436055       2.05851265       2.01198077
C        2.20898492      -3.46932704      -0.62806663
C       -2.23597418       1.33610296       2.77524120
C        2.31902795       0.74958976      -0.14336638
C        0.58364329      -3.69753923       1.40193640
C        1.97808807      -1.15493750       1.46402589
C       -1.14578216      -0.46447431      -4.09132608
C       -0.63484873      -3.00638132       1.08041009
C       -0.28767858       2.22310357       4.00654298
C        1.57713529       4.03741496       0.09241034
C       -0.00960001      -3.48331801      -1.30143288
C       -0.57305399       4.14769179      -0.74881035
C       -4.01899491       4.39737675      -1.91131797
C       -0.95998138      -2.14777987       2.22486482
C        1.31126595       3.25501611      -2.03450998
C       -3.04175572      -1.72882528      -0.34569497
C       -3.72588802      -1.11704765       0.52172940
C        2.18173484       1.23796417      -1.46477245
C       -1.65279604       1.95392762      -3.60659598
C       -1.47148003      -2.00844056      -2.32219706
C        0.15628840      -2.24842321       3.11472006
C       -2.69566429       0.00550590       2.32325924
C        0.55711037      -0.94642095       3.48236503
C       -1.58766950      -0.89851315       2.61763760
C       -0.68668178      -0.90064125      -2.74527008
C        2.04977721      -2.53174954       1.72306976
C       -1.95681633      -2.25490262      -0.96482031
C        2.49483369       1.90439111       0.68808213
C       -1.33796843      -2.87790556      -4.55284912
C        0.42657153      -0.37591639      -1.99088183
C       -0.67195623      -0.21346074       3.46426428
C       -1.47703364       3.69076582      -1.76879638
C        1.81639285       0.94321863       2.74177624
C       -1.17091487      -3.16048421      -3.18253449
C        1.11396614      -3.12694333       2.62541790
C       -1.05733494       1.14354715       3.61001762
C        0.43136162       3.12976768       3.52578774
C        1.15784855       3.24155858       2.32800600
C        1.79122931      -3.45897810       0.65561300
C       -0.96161613      -3.01749718      -0.29200416
C        2.56702769       3.06017497      -0.12813059
C        1.88580842      -0.59286906       0.12392757
C        1.14943579      -1.21548858      -1.00283201
C       -1.53785235       0.84463750      -4.18077267
C       -1.56966613      -2.57765209      -5.88568372
C        0.41251765       2.25179018      -2.46933411
C        0.71177682       3.98338979       1.20349044
C       -0.95060800       2.67217358      -2.64915910
C        0.79728624       4.14728363      -1.07966921
C        2.46017254       2.62978369      -1.48458014
C       -2.82137347       4.03605255      -1.84395505
C       -2.29922244       2.52210515       2.06235322
C       -0.43364055      -4.06570807      -2.48875646
C        1.63814696      -0.38505275       2.66824505
C       -1.38488601      -1.53238586      -4.97317353
C       -0.66921021       4.02292016       0.71277058
C       -3.76620976      -0.32535103       1.55039047
C       -1.71308831       3.41449897       1.40952799
60
Properties=species:S:1:pos:R:3 entry_id=13 rank=24 energy=-486.3948669433594 pbc="F F F"
C        1.74901993      -1.95338465      -2.36024359
C        0.47947323       1.41890227      -2.71888371
C        1.51845717       2.20445843       1.50309939
C        0.80531011      -2.83191615      -1.87194472
C       -0.46586201       0.34755930       3.26937315
C        2.03272927       1.51199055      -0.92908107
C        0.96396915      -3.58039697       0.83972263
C        2.35843627      -0.72198406       0.25278331
C       -2.56842832      -1.23002108      -4.89894891
C        0.07388512      -3.26142150       1.94902630
C        1.00021164       1.96630935       4.24542284
C       -0.01274648       4.14235344       0.11894831
C       -1.99978954      -3.11720949       0.64790847
C       -2.37477177       4.28676074      -1.03546495
C       -3.88036564       2.05127343      -3.57885326
C        0.87754299      -2.77932257       3.00864273
C       -0.35679206       3.43808969      -2.01793587
C       -2.09078866      -0.20389817       0.28884986
C       -1.95722507      -0.28130200       1.60727780
C        1.53388285       2.13107212      -2.11853991
C       -3.70708587       0.94921289      -4.22863542
C       -1.46528281      -0.96341242      -1.96657256
C        2.19524499      -2.52916860       2.54327647
C       -0.66735626      -1.03091827       3.38038082
C        2.39197143      -1.14456895       2.72249833
C        0.49067477      -1.67928450       3.79999502
C       -0.54253962      -0.77324447      -3.03166149
C        2.19692347      -2.13530626       0.15174894
C       -1.86530780       0.09892285      -1.04367431
C        1.76027288       2.44497889       0.12435133
C       -0.47980263      -2.92105969      -2.55421985
C        0.59870237       0.03796020      -2.83383522
C        1.54242827      -0.69738463       3.78193379
C       -3.22994441       3.81146943      -1.86792166
C        1.69999389       0.95579089       2.12206131
C       -1.53427042      -2.37044788      -1.70643946
C        2.27058502      -3.04455616       1.25145152
C        1.01032736       0.67570590       3.47799504
C        0.83089785       3.04494244       3.61216847
C        0.83396227       3.24715070       2.22234927
C        1.11578757      -2.90343640      -0.46078106
C       -1.25134801      -2.74670581       1.76888654
C        1.18598439       3.61210001      -0.42374774
C        2.16384478       0.09121263      -0.91891728
C        1.71732014      -0.59662845      -2.14588626
C       -3.28306561      -0.16085090      -4.69825946
C       -0.62345532      -2.07494039      -3.73990449
C       -0.75095985       2.06569320      -2.27883783
C       -0.23753656       3.89973786       1.49201502
C       -1.63719633       1.38442734      -1.53104779
C       -1.01110733       4.13527317      -0.93516952
C        1.05112235       3.43131386      -1.81799931
C       -3.74215549       3.03205864      -2.77286369
C       -1.47658864       0.91340107       2.45559373
C       -2.06467345      -2.96129842      -0.57796631
C        2.30472738      -0.24043105       1.62163862
C       -1.62246305      -2.07881723      -4.69262070
C       -1.48336186       3.40746831       1.94308324
C       -1.50946280      -1.47837403       2.35717815
C       -1.78344280       2.23160584       2.26542868
60
Properties=species:S:1:pos:R:3 entry_id=20 rank=25 energy=-486.33782958984375 pbc="F F F"
C        1.66413691      -3.27715290      -0.48232465
C        2.25636904      -0.04126496      -1.94917723
C        1.37580795       1.87943233       1.98459285
C        1.40315552      -4.13846684       0.52080190
C       -1.48982421       0.69813707       2.53525028
C        2.68373674       0.35317016       0.37326263
C        0.33996427      -3.92446421       2.89307520
C        1.96984681      -1.35872059       2.14416853
C       -5.19440984       3.52001610      -7.63107452
C       -0.92339892      -3.19861290       2.87398103
C       -0.61966263       2.52701546       3.89252218
C        1.45255502       3.51379327      -0.25909562
C       -1.60818299      -3.43578822       0.44966876
C       -0.51974584       3.37838578      -1.49942413
C       -2.93654633       3.59606714      -4.55539593
C       -0.87312947      -2.34247257       3.99277883
C        1.70090055       2.20428898      -2.10651427
C       -1.36483888      -0.73855444      -0.75917573
C       -1.77738461      -0.43230475       0.47693216
C        3.00731443       0.65139446      -0.98903971
C       -3.68036826       3.58997830      -5.56808178
C       -0.19182138      -2.00510904      -2.46036371
C        0.45848587      -2.22409717       4.45172846
C       -1.90093782      -0.60396758       2.78682189
C        0.76416717      -0.86314655       4.29693317
C       -1.44628650      -1.05972571       4.01999443
C        1.22135487      -2.21412654      -2.51937184
C        1.87658748      -2.70537707       2.56174616
C       -0.70288420      -0.71899634      -1.95874733
C        2.32546500       1.62110622       0.95258641
C        1.01250720      -3.44123334      -1.77422289
C        2.04295593      -1.38740694      -1.71473744
C       -0.45510894      -0.11758038       4.46650863
C       -1.38566833       3.47520697      -2.53573340
C        0.91478021       0.89401966       2.86314170
C       -0.41861455      -3.26493230      -1.77833578
C        1.23094326      -3.15039193       3.76775945
C       -0.44196112       1.08668366       3.57123620
C       -0.15274825       3.37910012       3.08827632
C        0.65979951       3.13005102       1.97537287
C        1.28836763      -3.81305862       1.79788376
C       -1.59975076      -2.75361379       1.66671094
C        2.53047228       2.64958891      -0.01040531
C        2.32430926      -1.00611262       0.74577512
C        2.13261103      -1.90389228      -0.39540949
C       -4.48729440       3.61358985      -6.58516940
C       -6.56321513       3.24055820      -9.75672686
C        1.20873301       0.86812201      -2.43113703
C        0.41936233       3.62490496       0.67305332
C       -0.06822727       0.43117058      -2.44690783
C        0.90932708       3.22679699      -1.54348869
C        2.83675033       2.03057052      -1.24508175
C       -2.14099150       3.55140618      -3.52677204
C       -1.61669759       1.00328581       1.13813359
C       -1.27351682      -3.53246534      -0.74283686
C        1.39934874      -0.42555136       3.09581384
C       -6.02386037       3.53657168      -8.64215091
C       -0.80035485       3.19875579      -0.02583898
C       -1.94330475      -1.35717532       1.61137099
C       -1.45202136       2.15409391       0.48239219
60
Properties=species:S:1:pos:R:3 entry_id=6 rank=26 energy=-486.3137512207031 pbc="F F F"
C        0.69759811      -2.42608685      -1.87797214
C        0.67690576       1.19589061      -2.60050518
C        1.46880995       1.97210588       1.67802196
C        1.03628206      -3.42366455      -1.02552640
C       -1.09506682       0.74312471       3.20969773
C        1.97475340       0.90064790      -0.58215252
C        1.14468260      -4.06657815       1.50286362
C        1.99807539      -1.13842880       0.87017858
C       -1.42079665      -0.08851730      -4.31970965
C       -0.17695759      -3.66265403       2.04428656
C        0.63685386       2.07950631       4.31703692
C        0.72197087       4.05273277      -0.06589279
C       -1.74809867      -3.84508807       0.07276892
C       -1.24428732       4.65185418      -1.68835612
C       -3.20909249       3.28275438      -4.42118582
C        0.09452092      -2.71905999       3.10308101
C        0.75353091       3.45855359      -2.28064049
C       -3.39356973      -0.95316839       0.00011068
C       -3.31118713      -0.97122145       1.32563987
C        1.83239496       1.51229971      -1.85681758
C       -2.17122108       2.24623265      -4.29550361
C       -2.06131923      -1.31555625      -2.17167778
C        1.49586771      -2.58174151       3.21866602
C       -1.55138847      -0.64329913       3.14843271
C        1.76036473      -1.21849652       3.35842143
C       -0.47525762      -1.48607538       3.59168962
C       -1.20760683      -0.35723208      -2.86869368
C        2.24040806      -2.52021608       0.97538179
C       -2.96696050      -1.00095482      -1.16952061
C        1.94323924       1.98032632       0.35216880
C       -0.28210836      -2.76423276      -2.93405130
C        0.09750369      -0.07731312      -2.36300743
C        0.61578887      -0.66255537       4.01670163
C       -1.84018678       4.03278889      -2.75937849
C        1.31928601       0.79346291       2.40143029
C       -1.54255025      -2.67354608      -2.17798059
C        2.14124986      -3.26597784       2.19497892
C        0.39610620       0.75348430       3.63386035
C        0.76391119       3.11048129       3.59794502
C        0.96485664       3.19344036       2.21027025
C        1.51751757      -3.51868060       0.19572332
C       -1.26183241      -3.84870233       1.26540743
C        1.82359087       3.20662427      -0.34148669
C        1.66669382      -0.48784384      -0.42238532
C        0.86417128      -1.02317699      -1.53994190
C       -1.98725122       1.01910377      -4.83310237
C       -0.35828592      -2.27647746      -4.21157890
C        0.01922795       2.43423077      -2.93894046
C        0.19778464       4.00436417       1.26475828
C       -1.27647362       2.80041986      -3.31556589
C        0.01742416       4.26531221      -1.32365738
C        1.92342015       2.92707943      -1.72584156
C       -3.03400878       4.24651270      -3.56507205
C       -1.72383125       1.84019463       2.75703904
C       -1.87769939      -3.50093301      -1.14565511
C        1.89512643      -0.47062680       2.13558834
C       -0.86975929      -1.30290360      -4.83295785
C       -1.15119094       3.99812335       1.62172863
C       -2.66082911      -0.95525143       2.39320810
C       -1.72258553       3.02212656       2.26590404
60
Properties=species:S:1:pos:R:3 entry_id=3 rank=27 energy=-485.5605773925781 pbc="F F F"
C        1.21160341      -2.62485281      -1.16691091
C        0.99467465       1.01389983      -2.18874850
C        2.19936853       2.00501298       1.99812820
C        2.15929437      -3.50959638      -0.63273959
C       -2.44221166       1.30547633       2.86421848
C        2.45432758       0.77667519      -0.24468041
C        0.52135687      -3.57074535       1.38692175
C        2.37357367      -1.17268671       1.30329623
C       -1.07970360      -0.38711745      -4.14523774
C       -0.69534757      -2.89535285       1.01451956
C       -0.43897129       2.01637983       4.11053038
C        1.51684731       3.97950184       0.17189885
C       -0.00995407      -3.41785196      -1.35273039
C       -0.64489836       4.08430447      -0.62884991
C       -4.12080625       4.24906170      -1.70756000
C       -1.05597115      -2.03833413       2.15195371
C        1.24309239       3.32281889      -1.99482066
C       -3.05232712      -1.63064532      -0.50520618
C       -3.76156159      -1.00603861       0.33000278
C        2.21804042       1.32083624      -1.53277542
C       -1.69376983       1.98363225      -3.57119001
C       -1.42734097      -1.94661241      -2.41626855
C        0.03216747      -2.13372441       3.12699732
C       -2.86057775       0.02180877       2.26665070
C       -0.04087386      -1.18175012       4.12595671
C       -1.82448850      -0.92368159       2.62916192
C       -0.61849018      -0.84465041      -2.80227197
C        2.10597597      -2.52693959       1.69418760
C       -1.95899926      -2.18124953      -1.07734389
C        2.60301593       1.91529563       0.62953681
C       -1.23751624      -2.79664083      -4.64571926
C        0.48791938      -0.33669718      -2.02842998
C       -1.08992371      -0.36082557       3.76243310
C       -1.55075383       3.63846977      -1.65153072
C        2.58087168       0.88807596       2.75398449
C       -1.11247061      -3.09447000      -3.27350874
C        1.05292208      -2.94531951       2.58502127
C       -1.39115423       1.03827321       3.82725073
C        0.41217024       2.69907937       3.50328716
C        1.16245062       2.95571521       2.35115556
C        1.74806888      -3.46854964       0.65637316
C       -0.98191077      -2.93176105      -0.37032985
C        2.57020036       3.10175698      -0.14080490
C        2.07622521      -0.59287738      -0.00946295
C        1.23936449      -1.19008019      -1.06983667
C       -1.53312158       0.90378872      -4.19258391
C       -1.43138511      -2.47835836      -5.98104861
C        0.37453438       2.29695736      -2.43959415
C        0.67170543       3.77293882       1.28158556
C       -1.00584975       2.67601910      -2.58400489
C        0.71875271       4.14521050      -0.98235814
C        2.43480174       2.72309688      -1.50848322
C       -2.90905347       3.93296217      -1.68524422
C       -2.42243165       2.50987000       2.18420890
C       -0.41145444      -4.00558803      -2.55047712
C        2.68008156      -0.29489450       2.33409268
C       -1.28394610      -1.44515302      -5.04892647
C       -0.71444111       3.89313983       0.82478596
C       -3.85061748      -0.24019224       1.37006675
C       -1.79414950       3.36431654       1.52646185
60
Properties=species:S:1:pos:R:3 entry_id=8 rank=28 energy=-485.415283203125 pbc="F F F"
C        0.77887273      -2.31711568      -2.06952830
C        0.92144313       1.27326104      -2.59319006
C        1.42622833       1.90470818       1.84795709
C        0.88082096      -3.42185202      -1.31649536
C       -1.05676697       0.62701146       3.17821603
C        2.03626315       1.01601872      -0.49713598
C        0.63087112      -3.94401480       1.25214192
C        1.96577689      -1.17129002       0.81953303
C       -1.04815030      -0.42558697      -4.73408143
C       -0.52637177      -3.31545556       1.88725031
C        0.63318297       1.85579084       4.52113118
C        0.40987743       3.95092118       0.27183580
C       -2.05865091      -3.00230402      -0.03598459
C       -1.81885100       3.92166111      -1.06404709
C       -3.12156313       2.71373627      -4.19399637
C       -0.05806549      -2.77778509       3.08479416
C        0.33141634       3.33908382      -1.92614390
C       -2.28937580       0.33137319      -0.47459521
C       -2.25879436      -0.33696925       0.58147301
C        1.92902105       1.73451126      -1.72618820
C       -2.15924734       1.65597470      -4.08621579
C       -1.54114224      -0.60498784      -2.48239238
C        1.35178352      -2.76887091       3.12074606
C       -1.36568767      -0.74853611       2.85163805
C        1.68322124      -1.41638460       3.31066186
C       -0.51855098      -1.56654351       3.61110725
C       -0.34666020      -0.65519166      -3.41573397
C        1.99483316      -2.58042082       0.81644183
C       -1.95544105       0.55830215      -1.81994727
C        1.85893453       2.02385699       0.50914212
C       -0.28946051      -2.19766028      -3.14806758
C        0.76489910      -0.09286432      -2.70034685
C        0.61090784      -0.83092706       4.08726679
C       -2.32520270       3.17437135      -2.09686612
C        1.33791360       0.68022761       2.51147366
C       -1.60228737      -1.98602903      -2.27828284
C        1.79762351      -3.40860879       1.97290350
C        0.42454946       0.59577886       3.74389660
C        0.72556327       2.92577919       3.85738033
C        0.86638742       3.06914387       2.47081244
C        1.15488429      -3.44656640      -0.01884293
C       -1.59018197      -2.62116941       1.21952032
C        1.60254536       3.27909307      -0.09478813
C        1.81435051      -0.42258037      -0.45446610
C        1.24069098      -0.97804896      -1.69272804
C       -1.76705519       0.69716297      -4.94183293
C       -0.57673214      -2.72074896      -4.50223974
C       -0.14580095       2.19933292      -2.59464300
C        0.02859954       3.90864189       1.63668124
C       -1.60473128       1.85393541      -2.56966356
C       -0.46150455       3.92792059      -0.87761468
C        1.66295760       3.11038173      -1.49231483
C       -3.23778075       3.47306670      -3.14346184
C       -1.74252358       1.74754020       2.95867791
C       -2.10115171      -2.72939470      -1.25055517
C        1.83513903      -0.59668007       2.14278141
C       -1.00546607      -1.75550998      -5.25102163
C       -1.29634813       4.01077748       2.08899577
C       -1.88199051      -1.22376531       1.60862027
C       -1.86950537       2.98201211       2.64856736
60
Properties=species:S:1:pos:R:3 entry_id=9 rank=29 energy=-485.2635192871094 pbc="F F F"
C        0.76271564      -2.31271622      -2.01387902
C        0.95884069       1.26565333      -2.59989410
C        1.37934003       1.96551025       1.82480364
C        0.86194175      -3.40836855      -1.24810537
C       -1.07856161       0.48867895       3.08995825
C        2.05214041       1.03846395      -0.49289335
C        0.65545532      -3.88912947       1.32628348
C        1.96393514      -1.12631230       0.84130259
C       -1.07428376      -0.45094251      -4.67896245
C       -0.50008555      -3.27891722       1.97228498
C        0.35748445       1.93576641       4.43524495
C        0.47315026       4.02231004       0.18491041
C       -2.05238459      -2.90921924       0.03467417
C       -1.73279434       3.98620720      -1.11362358
C       -3.19432219       2.62421315      -4.07951831
C       -0.02458191      -2.79153554       3.20314054
C        0.40611863       3.35856231      -1.99032899
C       -2.06890403       0.40125709      -0.32538802
C       -2.04684831       0.08296627       0.98991153
C        1.97209435       1.72987019      -1.73879001
C       -2.18166655       1.60891757      -3.98501677
C       -1.53677359      -0.60255581      -2.40999383
C        1.38461372      -2.70685146       3.17755886
C       -1.36780648      -0.87022105       3.01064916
C        1.64801985      -1.33482166       3.32643280
C       -0.51116182      -1.62077178       3.80389856
C       -0.36212437      -0.65686699      -3.36460271
C        2.01343351      -2.53466192       0.85500823
C       -1.86612698       0.56334512      -1.65623547
C        1.86364569       2.06310253       0.49640479
C       -0.31052014      -2.20496511      -3.08880259
C        0.77401874      -0.09895501      -2.68501664
C        0.59710585      -0.76834262       4.13607110
C       -2.28095506       3.18178583      -2.07228475
C        1.26498275       0.74656770       2.49611412
C       -1.62267121      -1.98080008      -2.22832828
C        1.82471911      -3.34343067       2.02596646
C        0.30976023       0.64055901       3.69924360
C        0.50501145       3.00232738       3.77889066
C        0.78335962       3.13819071       2.40942170
C        1.16334450      -3.41394002       0.04286384
C       -1.54251360      -2.54739604       1.27231563
C        1.65547555       3.31289352      -0.13595194
C        1.81938655      -0.39865328      -0.43804398
C        1.24507248      -0.97281623      -1.66638530
C       -1.80578957       0.66547429      -4.86855128
C       -0.59938429      -2.74006484      -4.43597416
C       -0.10059231       2.20097986      -2.60185833
C       -0.01985559       3.92002562       1.49918670
C       -1.55771636       1.86520334      -2.51594645
C       -0.36978890       4.00280477      -0.97240539
C        1.72944035       3.11379080      -1.53226373
C       -3.27864495       3.42394593      -3.05785419
C       -1.75758248       1.15956558       2.04487489
C       -2.13933789      -2.69389712      -1.18642841
C        1.78224564      -0.53522636       2.15235104
C       -1.03130758      -1.78028521      -5.19057140
C       -1.39519432       3.63828810       1.68937350
C       -1.80991831      -1.20652316       1.73171915
C       -1.90813525       2.50947769       1.89127197
60
Properties=species:S:1:pos:R:3 entry_id=11 rank=30 energy=-485.22467041015625 pbc="F F F"
C        1.65338423      -2.63049723      -1.03960710
C        1.40899866       0.96339350      -2.06494092
C        1.75418605       2.11422190       2.17301996
C        2.55061898      -3.58863278      -0.53763152
C       -2.36761640       1.44653443       2.63697987
C        2.52464197       0.87582192       0.08117187
C        0.48211175      -3.49132885       1.11399501
C        2.02698497      -1.11400350       1.62238200
C       -2.02652499      -1.05558341      -3.85162315
C       -0.60038146      -2.63852554       0.67431285
C       -0.59570334       2.20260669       4.15715386
C        1.36104984       4.07311582       0.23109391
C        0.36508488      -3.15572784      -1.54555639
C       -0.67137042       3.96099454      -0.77290897
C       -3.20710623       3.51134208      -0.03568097
C       -1.04639444      -1.94514536       1.87939492
C        1.32756360       3.23219879      -1.91237130
C       -2.45041014      -0.65256340      -1.59314562
C       -3.16410980      -0.26371510      -0.49201216
C        2.47548991       1.37852850      -1.25121442
C       -1.72661132       1.22767241      -2.94799311
C       -0.93317439      -1.69621006      -3.08141233
C       -0.08129444      -2.19439328       2.90338222
C       -2.67040958       0.18655033       1.90816796
C        0.31828120      -0.95269230       3.45106560
C       -1.69394546      -0.75070153       2.34113650
C        0.26713426      -0.98155670      -2.88185874
C        1.98858759      -2.51032270       1.77071233
C       -1.48952321      -1.68912807      -1.63766524
C        2.43969690       2.03910068       0.91320007
C       -1.76542726      -3.31565981      -4.50503809
C        1.10143238      -0.45138978      -1.99791161
C       -0.90127390      -0.18418899       3.38086567
C       -1.50188018       3.25063080      -1.67106928
C        1.60528181       0.96340028       2.84389084
C       -0.81801567      -3.15432583      -3.49765953
C        0.87209968      -3.08788428       2.45085288
C       -1.32264976       1.14129259       3.63545410
C        0.10943823       3.09621019       3.62326457
C        0.83447304       3.23918438       2.43892724
C        1.83136772      -3.36694727       0.61467918
C       -0.72682226      -2.48628376      -0.74902990
C        2.45589511       3.20242789       0.10506398
C        2.18064908      -0.52127818       0.30324626
C        1.73295163      -1.20599237      -0.88758991
C       -2.36857162       0.06880357      -2.96071216
C       -2.72943294      -3.14028557      -5.46065867
C        0.58907035       2.09838116      -2.37301683
C        0.40396962       3.94798284       1.27704571
C       -0.88863350       2.19405676      -2.47367886
C        0.69627874       4.10363820      -1.01909711
C        2.52514821       2.79155225      -1.25917836
C       -2.85244200       3.30388484      -1.24979371
C       -2.43185493       2.66267914       2.09289357
C        0.05454143      -3.82138834      -2.71012435
C        1.48954805      -0.37393639       2.76799198
C       -2.54430901      -1.98554262      -4.69188246
C       -0.90822778       3.94638022       0.62969601
C       -3.30547419       0.03938450       0.70451904
C       -2.23943436       3.50499427       1.06149551
60
Properties=species:S:1:pos:R:3 entry_id=7 rank=31 energy=-484.4376525878906 pbc="F F F"
C        0.71286052      -2.33107610      -1.95395613
C        0.92946303       1.24738142      -2.56728825
C        1.44931614       1.90098820       1.85398949
C        0.90465034      -3.44204682      -1.22885485
C       -1.06167734       0.74052464       3.22804087
C        2.05059796       0.99661507      -0.47386458
C        0.94331313      -4.15647454       1.27517920
C        1.99743655      -1.18356122       0.85331578
C       -1.08503799      -0.47136842      -4.66719114
C       -0.37154939      -3.70568587       1.79382074
C        0.68915703       1.83559792       4.52897587
C        0.45760498       3.95431575       0.26656548
C       -2.07135163      -3.36393585      -0.07364462
C       -1.75390316       3.99581672      -1.14032113
C       -3.02869947       2.78232612      -4.29497719
C       -0.08234786      -2.80727054       2.86974665
C        0.39113481       3.33670977      -1.93473174
C       -2.54337867       0.58165132      -0.59578977
C       -2.60661968      -0.00715859       0.54420908
C        1.95079390       1.70120367      -1.71178262
C       -2.10519287       1.69245672      -4.14458600
C       -1.59606271      -0.55648707      -2.41976959
C        1.31416067      -2.75941185       3.06722072
C       -1.51009685      -0.58466756       2.75759288
C        1.64377317      -1.42521495       3.32196802
C       -0.61201058      -1.55921396       3.33386054
C       -0.40435519      -0.67540369      -3.32526037
C        2.09882176      -2.59072380       0.85422717
C       -2.02266912       0.67029933      -1.85460572
C        1.88932728       2.01559520       0.51973035
C       -0.35649653      -2.19729246      -3.01791627
C        0.72454007      -0.11438045      -2.63222895
C        0.48244916      -0.86473465       3.95590020
C       -2.25595495       3.26634405      -2.19088920
C        1.33704776       0.67413279       2.50695532
C       -1.71242197      -1.92625166      -2.10621191
C        1.95615799      -3.41520245       2.02439434
C        0.37998262       0.59256970       3.72268914
C        0.78925331       2.91008666       3.86621425
C        0.91012962       3.07106356       2.47732190
C        1.36450131      -3.53919339       0.01730785
C       -1.45735555      -3.68460879       0.98962411
C        1.64503581       3.26815242      -0.09433736
C        1.81701910      -0.43639186      -0.41212704
C        1.20273638      -0.99241277      -1.61904253
C       -1.74706221       0.67200290      -4.94374596
C       -0.67415615      -2.76950429      -4.33499046
C       -0.10352029       2.20949347      -2.61186597
C        0.09075657       3.93292088       1.64124694
C       -1.56979654       1.92569985      -2.64178914
C       -0.40443125       3.94824003      -0.90010508
C        1.71250385       3.08472391      -1.48999955
C       -3.14013919       3.56941921      -3.26279913
C       -1.70274510       1.89770504       3.04802845
C       -2.23011846      -2.69311029      -1.16105016
C        1.87286952      -0.59255229       2.16434403
C       -1.08042908      -1.82485281      -5.12595031
C       -1.21171207       4.12005518       2.12791739
C       -2.31143172      -0.57648352       1.65896910
C       -1.81615698       3.13009579       2.73055144
60
Properties=species:S:1:pos:R:3 entry_id=5 rank=32 energy=-482.1860046386719 pbc="F F F"
C        1.01982683      -2.69984318      -1.20496795
C        0.84639587       0.89279736      -2.38774855
C        1.72083556       1.99281786       1.97680269
C        2.07886623      -3.51624245      -0.78888576
C       -1.66931077       1.34760388       3.93263602
C        2.06570527       0.79832004      -0.25298982
C        0.68989862      -3.59743643       1.41535204
C        2.04774788      -1.16320801       1.33903824
C       -1.12473043      -0.90252962      -4.33119000
C       -0.45243503      -2.72954725       1.24410212
C        0.40615397       2.12126836       4.71203572
C        0.41764457       3.62879482       0.08317101
C       -0.24043154      -3.46820625      -1.09218203
C       -1.39458009       4.12384033      -1.77509205
C       -3.82731720       4.35358741      -4.50630890
C       -0.52586414      -1.87592887       2.39353823
C        0.74068267       3.16488000      -2.11907302
C       -1.93100939      -0.47630533      -0.19452143
C       -1.94629157       0.62387383       0.37575572
C        1.89868266       1.33173955      -1.55153205
C       -1.44866357       1.57559803      -4.51309372
C       -1.55925440      -1.89295889      -2.17658612
C        0.56793209      -2.24096537       3.23787965
C       -1.67599695       0.63917658       2.69416179
C        1.15058762      -1.05427256       3.73165347
C       -0.94279122      -0.59190544       2.91726299
C       -0.71575314      -1.04006677      -2.91193186
C        2.20848416      -2.54429513       1.57027913
C       -1.67444335      -1.70945474      -0.74574444
C        2.05828457       1.93280344       0.60791685
C       -1.92236064      -3.22643028      -4.15113716
C        0.40915380      -0.45536864      -2.19622633
C       -0.04661635      -0.26864359       3.98174647
C       -1.78977396       3.58126839      -2.99105419
C        1.91008736       0.87868463       2.67019664
C       -1.63561970      -3.23186659      -2.77425430
C        1.40260528      -3.14547536       2.59591134
C       -0.42696534       0.99066632       4.54992806
C        0.59440061       2.94113929       3.76861531
C        0.77407802       3.02903650       2.40293034
C        1.81358348      -3.45209047       0.53013201
C       -0.96377658      -2.72057647      -0.05584678
C        1.69964627       3.07440679      -0.13342839
C        1.77443457      -0.59522688       0.00739678
C        1.07731821      -1.24370946      -1.13201505
C       -1.30852671       0.36689501      -4.81268692
C       -2.21689003      -3.20451342      -5.50633955
C        0.17587330       2.09552798      -2.83687012
C       -0.17741704       3.41541074       1.36149761
C       -1.04855438       2.40870308      -3.48886233
C       -0.18114002       3.83691648      -1.23061437
C        1.91305838       2.75631017      -1.48983717
C       -2.88603941       3.97928426      -3.77938798
C       -2.26792234       2.62142388       3.94499811
C       -0.95232357      -4.15778458      -2.04761247
C        1.92982479      -0.45046484       2.61040665
C       -1.66031622      -2.07191187      -4.89957273
C       -1.50222641       2.87853095       1.67042732
C       -1.78618493       1.41419908       1.50397743
C       -2.09332272       3.29285213       2.88283141
60
Properties=species:S:1:pos:R:3 entry_id=22 rank=33 energy=-482.1572265625 pbc="F F F"
C        1.71693880      -1.97618087      -1.87476344
C        1.53409232       0.75350408      -1.82456810
C        1.78785258       2.19386141       2.36743229
C        2.73222927      -2.41658247      -1.06109194
C       -2.32955546       0.87822283       1.74968376
C        2.49245490       0.92859332       0.36438477
C        1.47041244      -3.16441445       0.77307646
C        2.38612003      -0.85134760       1.91368472
C       -3.34791792      -0.45263966      -2.41115918
C        0.33962955      -2.28926056       0.30745634
C       -1.00151129       2.01319843       3.54687104
C        1.57569789       4.07891548       0.25959304
C        0.43640951      -2.72085728      -2.10907867
C       -0.38497355       4.19962737      -0.94340798
C       -3.40136544       4.55955091      -2.92788345
C       -0.41853202      -2.16647858       1.58486039
C        1.60269829       3.10130664      -1.80048049
C       -2.43070768      -3.63262480       0.25498304
C       -3.11926265      -2.63123908       0.62753541
C        2.58091318       1.24564633      -0.99837100
C       -1.60601831       1.40326215      -2.65450254
C       -2.23341135      -2.48042998      -1.82346319
C        0.49960861      -2.26302570       2.63931323
C       -2.37162528      -0.48945016       1.17738318
C        0.48670878      -1.00893037       3.29822059
C       -1.35847095      -1.16779700       1.90520087
C       -2.96915607      -1.37728093      -1.33581112
C        2.76176382      -2.19526089       1.67624499
C       -1.59398110      -3.31303326      -0.85834211
C        2.54170140       2.09678186       1.13700400
C       -2.64177014      -2.07907551      -4.12365978
C        1.18377338      -0.62858837      -1.48107817
C       -0.79237114      -0.41775843       2.95965899
C       -1.09333097       3.62538014      -2.04484590
C        1.67167264       1.09211121       3.15371459
C       -1.69773720      -2.54144187      -3.17559095
C        1.65160492      -2.93114506       2.17198790
C       -1.43329156       0.84926249       2.94208689
C       -0.26267409       3.00474115       3.34112956
C        0.76729526       3.24527167       2.40835797
C        2.72258921      -2.71642379       0.24117516
C       -0.24399256      -2.94253756      -0.86912384
C        2.65749293       3.18929913       0.24471967
C        1.84566074      -0.27759730       0.76400024
C        0.97111845      -0.94486514      -0.09364398
C       -2.61583122       0.69852399      -2.53481921
C       -3.69015200      -1.65030639      -4.93020360
C        0.80154222       1.99620036      -2.19878097
C        0.53387352       3.95537617       1.20022015
C       -0.58519033       2.30918584      -2.42688965
C        1.01380558       4.12627318      -1.04068875
C        2.73894034       2.64885785      -1.08296490
C       -2.33660949       4.07011607      -2.47954009
C       -2.40866679       2.11460991       1.13712750
C       -0.35420303      -2.75081199      -3.23505564
C        1.72263257      -0.26912090       3.08483858
C       -3.53552098      -1.09236888      -3.66947932
C       -0.72542691       3.95699486       0.45927312
C       -3.04004015      -1.29340342       0.14906537
C       -1.80699578       3.15873823       0.80399276
60
Properties=species:S:1:pos:R:3 entry_id=2 rank=34 energy=-481.0809326171875 pbc="F F F"
C        1.85744871      -1.93547906      -1.76085797
C        1.89671957       0.83451227      -1.86262082
C        1.95801255       2.13432077       2.48049179
C        2.70983998      -2.47206758      -0.83381586
C       -2.83935323       1.08586669       1.71329785
C        2.71392532       0.93331034       0.44762239
C        0.92318743      -3.39691870       0.53731860
C        2.32635014      -1.02016342       1.90261505
C       -3.05025508      -0.46889766      -2.67127984
C       -0.03029714      -1.56478378       0.06277943
C       -1.31408654       1.91452920       3.52050349
C        1.64692295       4.01168139       0.41734742
C        0.63432632      -2.75792834      -1.90429414
C       -0.25066491       4.11103304      -0.87430511
C       -3.23568784       4.40506152      -2.87010471
C       -0.71813163      -1.57647479       1.28884628
C        1.83763006       3.17327355      -1.69769803
C       -2.47806926      -3.41756297       0.30749179
C       -3.30268061      -2.45944349       0.48466415
C        2.84226529       1.31563492      -0.90853852
C       -1.23720813       1.34760650      -2.80899740
C       -2.04845951      -2.46508755      -1.76124273
C       -0.11651857      -2.11645693       2.43154207
C       -2.81899683      -0.20957613       0.97753097
C       -0.60982924      -1.37288188       3.54328979
C       -1.82831985      -0.84971970       1.70298122
C       -2.88021146      -1.34032227      -1.49166718
C        2.21189636      -2.43538744       1.70081976
C       -1.49616602      -3.21968132      -0.67709920
C        2.71458021       2.09102892       1.26068888
C       -2.28765283      -2.28054055      -4.13349675
C        1.47436096      -0.51849799      -1.56354438
C       -1.58114027      -0.46817658       3.04173836
C       -0.88338921       3.54668033      -2.02390440
C        2.17867986       0.99872451       3.27564259
C       -1.44256794      -2.66659941      -3.06743343
C        0.92527707      -2.98526072       1.94123437
C       -2.09154915       0.88550330       3.00833812
C       -0.31386993       2.62557568       3.28633640
C        0.76969275       2.96949478       2.46584604
C        2.27386336      -2.96254486       0.33058155
C       -0.02593266      -2.93241819      -0.54795941
C        2.79755910       3.21291080       0.40331096
C        1.99585276      -0.26555008       0.75481073
C        1.01997517      -0.67123719      -0.19841633
C       -2.25921647       0.64604981      -2.77696175
C       -3.24031436      -1.90571245      -5.07461193
C        1.12058432       2.05881168      -2.20987666
C        0.56685766       3.76478894       1.29050557
C       -0.27679884       2.29246429      -2.47550902
C        1.15133105       4.10879316      -0.90536761
C        2.94778726       2.72388662      -0.93553683
C       -2.14840935       3.94329176      -2.44738532
C       -2.65154645       2.33252619       1.14542718
C       -0.10618649      -2.89836373      -3.02315992
C        2.42096692      -0.22615984       3.04867502
C       -3.15302201      -1.20435071      -3.88050435
C       -0.66208581       3.86482632       0.50818506
C       -3.27734396      -1.15115391      -0.08548961
C       -1.86299337       3.24434360       0.82620377
60
Properties=species:S:1:pos:R:3 entry_id=1 rank=35 energy=-479.5989990234375 pbc="F F F"
C        1.84818970      -2.80330462      -2.06422865
C        2.16871402       0.74804144      -1.71780321
C        1.93113925       2.29660189       2.58676864
C        2.38164532      -1.96373878      -1.12002360
C       -2.85640219       1.14542555       1.66815408
C        2.65200224       1.05683167       0.60840930
C        0.98590702      -3.27739589       0.45909854
C        2.24051617      -0.82217639       1.97640081
C       -3.01996923      -0.49602688      -2.66085701
C       -0.11803674      -1.51088490      -0.03516572
C       -1.36002010       2.02845466       3.48277957
C        1.66505824       4.05350632       0.41019174
C        0.50406676      -3.09823226      -1.94666051
C       -0.18434552       3.99329033      -0.94582565
C       -3.09073036       4.12591143      -3.01440750
C       -0.77107742      -1.54825874       1.21261906
C        1.96450271       3.08700993      -1.64247128
C       -2.55654600      -3.38652862       0.39719826
C       -3.38228273      -2.42379445       0.54497216
C        2.99311500       1.33841070      -0.72487709
C       -1.00930380       1.11554581      -2.80529583
C       -2.16299058      -2.53641792      -1.70864937
C       -0.08013474      -2.02631910       2.33868132
C       -2.85766750      -0.16487053       0.95766727
C       -0.51145825      -1.22945623       3.43762840
C       -1.85012520      -0.79699088       1.66431586
C       -2.94115110      -1.36448615      -1.46327533
C        2.23107412      -2.20057416       1.59391948
C       -1.57889650      -3.24181577      -0.59779590
C        2.71241076       2.22121723       1.38752151
C       -2.47632884      -2.40966560      -4.08320904
C        1.81295075      -0.60661757      -1.26988769
C       -1.53438686      -0.36464084       2.97015427
C       -0.74909828       3.33416393      -2.07733007
C        2.13249437       1.15478265       3.38016712
C       -1.63912319      -2.84767178      -3.02688536
C        0.99831904      -2.84984635       1.85437985
C       -2.08311676       0.97157049       2.94948931
C       -0.37418944       2.76799762       3.27945937
C        0.73362902       3.10959456       2.48977038
C        2.22214012      -2.63727432       0.18892838
C       -0.08842227      -2.93936218      -0.55783838
C        2.84661045       3.30380663       0.48667117
C        1.79657249      -0.06055973       0.88733419
C        0.93803149      -0.58312025      -0.14650561
C       -2.09123041       0.50643566      -2.78379285
C       -3.37845616      -1.94861338      -5.03624191
C        1.32302329       1.91587110      -2.13724553
C        0.56018001       3.84054012       1.26660824
C       -0.07562281       2.08777588      -2.46208229
C        1.21411859       4.03017546      -0.92764964
C        3.07130719       2.74575481      -0.82243554
C       -2.00878971       3.68384879      -2.55629433
C       -2.66824008       2.38200917       1.07629923
C       -0.34658411      -3.23740628      -3.01828319
C        2.37401379      -0.07629442       3.15571962
C       -3.21619411      -1.24391763      -3.85101471
C       -0.64472739       3.86825611       0.43859470
C       -3.33933145      -1.13340696      -0.07012378
C       -1.85981641       3.27797257       0.75924141
60
Properties=species:S:1:pos:R:3 entry_id=0 rank=36 energy=-474.66888427734375 pbc="F F F"
C        1.73506661      -3.37243622      -0.91680943
C        2.04783484       0.15216992      -2.30149870
C        1.91564026       1.86853374       2.12970897
C        2.52751695      -2.20386583      -1.15131436
C       -2.92225124       1.05187086       2.39471627
C        2.47050690       0.67257230       0.13212055
C       -0.04220601      -3.76374183       0.95453406
C        2.54726254      -1.61543701       2.33395786
C       -2.62007781       0.78749621      -3.27561880
C       -0.06738597      -1.52277860       0.07011060
C       -1.20797623       1.61866330       3.80119027
C        1.12467620       3.57731067       0.02850498
C        0.42024954      -3.26647819      -1.41330440
C       -0.98169549       3.98382750      -0.79222242
C        0.59310568       3.46240401      -2.41997115
C        0.13072888      -0.46196131       1.05596864
C        1.59453615       2.43093722      -2.51737869
C       -2.92659385      -2.99345765       0.17339536
C       -3.25137493      -1.87080639       0.68604724
C        2.72888874       0.89557612      -1.26219744
C       -3.00415967       1.85938872      -2.43018662
C       -1.88015274      -1.71890415      -1.63104586
C       -0.05088093      -2.59199733       2.92564865
C       -2.28482482       0.26035853       1.38739914
C       -0.86541469      -1.79350837       3.48680932
C       -0.81796377       0.19284501       1.94127405
C       -2.52555096      -0.54371666      -1.09451576
C        2.06768600      -2.60081013       1.54508878
C       -1.83374150      -2.81524329      -0.70424534
C        2.56946622       1.90591853       0.84581128
C       -1.21414614      -1.06992329      -3.92519031
C        1.56444118      -1.24046587      -1.89667928
C       -1.35635716      -0.55369267       3.18185400
C       -1.67931228       3.77273084      -2.04751980
C        2.27444526       0.79316157       2.90962409
C       -0.89749894      -1.68362263      -2.71120179
C        0.74073381      -3.16556046       1.91159480
C       -2.18677145       0.62045775       3.62296291
C       -0.41466378       1.52280051       2.68444233
C        0.56555772       2.38984134       2.09845064
C        2.35744379      -2.78416165       0.16159290
C       -0.43937703      -2.96610938      -0.22630682
C        2.32767528       2.90083615      -0.14495585
C        1.27826237      -0.03192037       0.29075307
C        0.83823355      -0.87074899      -0.71872325
C       -2.77735270       0.52330323      -1.93683602
C       -1.42403640      -0.70244176      -5.24907428
C        1.46738510       1.14201305      -3.09397478
C        0.19717154       3.27631530       1.06200511
C       -2.91981178       3.15241290      -2.15465291
C        0.38786819       3.94377205      -1.09607603
C        2.49951817       2.28738807      -1.42313226
C       -0.65397302       3.59092294      -3.04132352
C       -2.98959536       2.36899326       1.93425325
C        0.40236180      -2.20492234      -2.38033248
C        2.58036361      -0.45657788       2.88031117
C       -2.02642247       0.05445783      -4.24475879
C       -1.16028207       3.57032098       0.58754704
C       -2.82224872      -0.57687695       0.36667210
C       -2.31360283       3.17370088       1.25169691
