115
Lattice="13.75323 0.0 0.0 0.0 13.75323 0.0 0.0 0.0 23.89" Properties=species:S:1:pos:R:3 trial_index=23 seed_entry_id=20 discovered_entry_id=21 energy=-574.6265258789062 status=accepted pbc="T T F"
Pd       0.00000000       0.00000000      10.00000000
Pd       2.75064538       0.00000000      10.00000000
Pd       5.50129076       0.00000000      10.00000000
Pd       8.25193614       0.00000000      10.00000000
Pd      11.00258152       0.00000000      10.00000000
Pd       0.00000000       2.75064538      10.00000000
Pd       2.75064538       2.75064538      10.00000000
Pd       5.50129076       2.75064538      10.00000000
Pd       8.25193614       2.75064538      10.00000000
Pd      11.00258152       2.75064538      10.00000000
Pd       0.00000000       5.50129076      10.00000000
Pd       2.75064538       5.50129076      10.00000000
Pd       5.50129076       5.50129076      10.00000000
Pd       8.25193614       5.50129076      10.00000000
Pd      11.00258152       5.50129076      10.00000000
Pd       0.00000000       8.25193614      10.00000000
Pd       2.75064538       8.25193614      10.00000000
Pd       5.50129076       8.25193614      10.00000000
Pd       8.25193614       8.25193614      10.00000000
Pd      11.00258152       8.25193614      10.00000000
Pd       0.00000000      11.00258152      10.00000000
Pd       2.75064538      11.00258152      10.00000000
Pd       5.50129076      11.00258152      10.00000000
Pd       8.25193614      11.00258152      10.00000000
Pd      11.00258152      11.00258152      10.00000000
Pd       1.33305437       1.38035701      12.05221797
Pd       4.08925664       1.38750338      11.98771029
Pd       6.82888190       1.38154444      11.99332965
Pd       9.57512057       1.39592898      11.89594876
Pd      12.38684272       1.37174114      11.92044161
Pd       1.37065655       4.09970544      12.00656864
Pd       4.10125007       4.12393621      12.00820233
Pd       6.82444734       4.12497179      12.00908219
Pd       9.56728621       4.13975942      11.94281254
Pd      12.36578195       4.13265160      11.93417299
Pd       1.37110082       6.89256210      11.94010419
Pd       4.13935064       6.87026939      11.96482277
Pd       6.87097415       6.85831372      11.95140951
Pd       9.64205429       6.82915781      11.94515418
Pd      12.39111484       6.85622887      11.94896407
Pd       1.35216595       9.69735034      11.99083951
Pd       4.11777592       9.66324146      11.95099537
Pd       6.89476706       9.64088005      11.95142944
Pd       9.64982872       9.59779534      11.89439304
Pd      12.42487279       9.60955999      11.94161946
Pd       1.35802606      12.41462245      12.04582394
Pd       4.10624816      12.40887780      12.00662317
Pd       6.86816975      12.39901143      11.97280504
Pd       9.63028672      12.36702810      11.91406436
Pd      12.41879361      12.34804731      11.97632258
Pd      13.66755013      13.71653604      14.04096602
Pd       2.68102058       0.13196729      14.10742992
Pd       5.44058295       0.00038139      13.96847417
Pd       8.19216908       0.02605982      13.89118819
Pd      10.97721010      13.71368726      13.88740003
Pd      13.62916694       2.72480755      14.02042219
Pd       2.64668483       2.89917084      14.08720759
Pd       5.41399363       2.67547759      14.03206114
Pd       8.22712335       2.72331513      13.94519160
Pd      10.91616623       2.65951491      13.89029655
Pd       0.03688271       5.46288097      13.97388668
Pd       2.76697676       5.63261570      14.01215410
Pd       5.51766631       5.58574575      14.01598431
Pd       8.25035549       5.45915822      14.02951390
Pd      11.05152344       5.34829475      13.94054623
Pd       0.00830421       8.19577350      13.96432798
Pd       2.73526848       8.38458386      13.92942080
Pd       5.52995449       8.32180804      13.95726015
Pd       8.29952513       8.29855946      13.93060272
Pd      11.07034789       8.12830666      14.04216475
Pd       0.04603526      10.91490611      14.08263478
Pd       2.79290602      11.10952831      13.97421242
Pd       5.50521169      11.03131643      13.87518730
Pd       8.24616856      11.08062179      14.22387139
Pd      11.02814708      10.93727212      13.91638937
Pd      12.54360308       6.28897432      16.39827750
Pd       9.85704122       9.57413220      16.05548414
Pd       1.40211063      12.35498917      16.12920905
Pd       1.43496862       7.01031324      15.92223740
Pd      12.63699811       9.34144383      16.34143099
Pd       9.24805696       1.18641632      16.15419418
Pd       4.01138578       1.29501960      16.29936362
Pd       6.43614340      10.43476475      16.30998323
Pd       4.33515672      12.37910002      16.00883643
Pd      11.71518596      12.92012662      16.57266086
Pd       0.83145714       4.34711081      16.53680128
Pd       3.94354850       4.78044256      16.52440680
Pd      11.19879316       2.97623894      16.60907378
Pd       2.74410597      10.05155678      16.46809618
Pd       6.80599051       6.95089626      16.39828851
Pd       6.81476943      13.72412075      16.32320932
Pd       9.84314300       6.50667579      16.10770308
Pd       7.25550316       3.43310335      16.42670874
Pd      13.74031248       1.07051024      16.71349564
Pd       3.90169441       7.66118628      16.18358276
O        9.08188917       2.85997508      17.10989041
O       11.39338299      10.90317608      16.01432126
O       13.59099499      12.93239114      17.34613617
O       11.82524134       1.14133066      17.29433980
O       10.01296344      13.22402532      15.63782860
O        4.50120570      10.68770125      17.09531546
O        2.05737134       0.53829458      16.16990651
O        2.92782630       3.10673601      16.11870715
O        7.62671965      11.95599962      16.10799486
O        0.76628466      10.43717029      16.08201866
O        5.05012324       6.29834559      17.18035692
O        2.20924171       5.56648480      17.21763603
O        7.98340815       5.32810347      16.19044775
O        8.57496136       8.02657841      16.02606301
O        5.57076311       4.10631131      15.53979082
O       13.28374698       2.94276144      16.06794591
O       11.10946209       4.94712663      16.03118603
O       13.62354992       7.78538195      17.00292107
O        5.98434696       1.70525921      16.69813251
O        5.74752835       8.59324397      16.09838607
