115
Lattice="13.75323 0.0 0.0 0.0 13.75323 0.0 0.0 0.0 23.89" Properties=species:S:1:pos:R:3 trial_index=7 seed_entry_id=6 discovered_entry_id=7 energy=-571.80810546875 status=accepted pbc="T T F"
Pd       0.00000000       0.00000000      10.00000000
Pd       2.75064538       0.00000000      10.00000000
Pd       5.50129076       0.00000000      10.00000000
Pd       8.25193614       0.00000000      10.00000000
Pd      11.00258152       0.00000000      10.00000000
Pd       0.00000000       2.75064538      10.00000000
Pd       2.75064538       2.75064538      10.00000000
Pd       5.50129076       2.75064538      10.00000000
Pd       8.25193614       2.75064538      10.00000000
Pd      11.00258152       2.75064538      10.00000000
Pd       0.00000000       5.50129076      10.00000000
Pd       2.75064538       5.50129076      10.00000000
Pd       5.50129076       5.50129076      10.00000000
Pd       8.25193614       5.50129076      10.00000000
Pd      11.00258152       5.50129076      10.00000000
Pd       0.00000000       8.25193614      10.00000000
Pd       2.75064538       8.25193614      10.00000000
Pd       5.50129076       8.25193614      10.00000000
Pd       8.25193614       8.25193614      10.00000000
Pd      11.00258152       8.25193614      10.00000000
Pd       0.00000000      11.00258152      10.00000000
Pd       2.75064538      11.00258152      10.00000000
Pd       5.50129076      11.00258152      10.00000000
Pd       8.25193614      11.00258152      10.00000000
Pd      11.00258152      11.00258152      10.00000000
Pd       1.33305437       1.38035701      12.05221797
Pd       4.08925664       1.38750338      11.98771029
Pd       6.82888190       1.38154444      11.99332965
Pd       9.57512057       1.39592898      11.89594876
Pd      12.38684272       1.37174114      11.92044161
Pd       1.37065655       4.09970544      12.00656864
Pd       4.10125007       4.12393621      12.00820233
Pd       6.82444734       4.12497179      12.00908219
Pd       9.56728621       4.13975942      11.94281254
Pd      12.36578195       4.13265160      11.93417299
Pd       1.37110082       6.89256210      11.94010419
Pd       4.13935064       6.87026939      11.96482277
Pd       6.87097415       6.85831372      11.95140951
Pd       9.64205429       6.82915781      11.94515418
Pd      12.39111484       6.85622887      11.94896407
Pd       1.35216595       9.69735034      11.99083951
Pd       4.11777592       9.66324146      11.95099537
Pd       6.89476706       9.64088005      11.95142944
Pd       9.64982872       9.59779534      11.89439304
Pd      12.42487279       9.60955999      11.94161946
Pd       1.35802606      12.41462245      12.04582394
Pd       4.10624816      12.40887780      12.00662317
Pd       6.86816975      12.39901143      11.97280504
Pd       9.63028672      12.36702810      11.91406436
Pd      12.41879361      12.34804731      11.97632258
Pd      13.67887742       0.02226173      14.00386332
Pd       2.72528019      13.71005406      14.07481343
Pd       5.52529369      13.71106371      14.02169643
Pd       8.23291984      13.74910443      14.05133872
Pd      10.93562718       0.08392783      13.86882226
Pd      13.66953113       2.73722706      14.00491674
Pd       2.70438411       2.93858306      14.05837226
Pd       5.52685806       2.72182479      14.03825346
Pd       8.24005874       2.74250992      13.98613053
Pd      10.93682798       2.75053664      13.86932379
Pd       0.04576299       5.47135049      13.98079120
Pd       2.77250592       5.63022600      14.00178336
Pd       5.50100482       5.46141703      14.12798283
Pd       8.31201673       5.54158471      13.97511316
Pd      11.04007878       5.43144544      14.05177988
Pd       0.01292219       8.18963901      13.96754213
Pd       2.70612355       8.33872278      13.90707460
Pd       5.40015595       8.24052520      13.84982678
Pd       8.44743156       8.30228300      13.95351771
Pd      11.09622772       8.24035385      13.87679563
Pd      13.73190084      10.81994730      14.25288561
Pd       2.75530743      11.03310848      13.98072202
Pd       5.46402257      11.00343100      13.99262856
Pd       8.23573850      11.02961061      13.94610855
Pd      10.97326849      10.98867278      13.91652644
Pd      12.51765487       6.10691926      16.36968048
Pd       9.34653714       9.75717975      16.64875756
Pd       1.28926751      12.57606105      16.53274425
Pd       1.42622266       7.13066632      16.01066660
Pd      12.20528794       9.25342205      16.22252647
Pd       8.29059607       1.38625692      16.59462597
Pd       4.66186020       1.18205560      16.39415527
Pd       6.10387902       9.99838274      16.49691674
Pd       4.23750943      12.17899554      16.06887918
Pd      11.41792045      12.92689062      16.29703823
Pd       1.07632824       4.28018915      16.39704402
Pd       3.84839345       4.45913804      16.31296567
Pd      11.69353943       2.59788894      16.51766502
Pd       2.88186258       9.66995034      16.36875472
Pd       7.49193733       7.11896121      16.71833694
Pd       6.92842383      12.82524057      16.44435403
Pd      10.06452895       7.18225432      16.04495492
Pd       8.63829153       4.14341334      16.31669518
Pd       1.40445661       1.43390244      16.94823676
Pd       4.19168476       7.12305091      15.95084498
O        9.75243658       2.68982874      17.00572415
O       10.93712620      10.83898212      15.98011280
O       13.30769290      12.49177645      15.58957715
O       12.02938479       0.80086914      17.14209476
O        9.61999094       0.01268181      15.68699091
O        4.55092756       8.85487321      16.97656531
O        2.89016169       1.46103991      15.46217724
O        3.01077422       0.51667188      17.85187881
O        7.72618808      11.07752956      15.96748454
O        1.17902539      10.55718299      16.07145832
O        2.95510247      12.83776127      17.60246491
O        2.38570022       5.60340414      17.04429787
O        7.22294017       5.41537267      15.75417857
O        7.80465972       8.87770470      17.53375798
O        5.22204041       3.13153705      15.97785592
O       13.70805113       2.64830779      16.07843444
O       11.39042578       4.56218831      15.95912683
O       13.39436813       7.78913094      16.81465660
O        6.42771181       0.80264470      17.18714808
O        6.85685098       8.34709439      15.18204428
