115
Lattice="13.75323 0.0 0.0 0.0 13.75323 0.0 0.0 0.0 23.89" Properties=species:S:1:pos:R:3 trial_index=28 seed_entry_id=24 discovered_entry_id=25 energy=-574.8320922851562 status=accepted pbc="T T F"
Pd       0.00000000       0.00000000      10.00000000
Pd       2.75064538       0.00000000      10.00000000
Pd       5.50129076       0.00000000      10.00000000
Pd       8.25193614       0.00000000      10.00000000
Pd      11.00258152       0.00000000      10.00000000
Pd       0.00000000       2.75064538      10.00000000
Pd       2.75064538       2.75064538      10.00000000
Pd       5.50129076       2.75064538      10.00000000
Pd       8.25193614       2.75064538      10.00000000
Pd      11.00258152       2.75064538      10.00000000
Pd       0.00000000       5.50129076      10.00000000
Pd       2.75064538       5.50129076      10.00000000
Pd       5.50129076       5.50129076      10.00000000
Pd       8.25193614       5.50129076      10.00000000
Pd      11.00258152       5.50129076      10.00000000
Pd       0.00000000       8.25193614      10.00000000
Pd       2.75064538       8.25193614      10.00000000
Pd       5.50129076       8.25193614      10.00000000
Pd       8.25193614       8.25193614      10.00000000
Pd      11.00258152       8.25193614      10.00000000
Pd       0.00000000      11.00258152      10.00000000
Pd       2.75064538      11.00258152      10.00000000
Pd       5.50129076      11.00258152      10.00000000
Pd       8.25193614      11.00258152      10.00000000
Pd      11.00258152      11.00258152      10.00000000
Pd       1.33305437       1.38035701      12.05221797
Pd       4.08925664       1.38750338      11.98771029
Pd       6.82888190       1.38154444      11.99332965
Pd       9.57512057       1.39592898      11.89594876
Pd      12.38684272       1.37174114      11.92044161
Pd       1.37065655       4.09970544      12.00656864
Pd       4.10125007       4.12393621      12.00820233
Pd       6.82444734       4.12497179      12.00908219
Pd       9.56728621       4.13975942      11.94281254
Pd      12.36578195       4.13265160      11.93417299
Pd       1.37110082       6.89256210      11.94010419
Pd       4.13935064       6.87026939      11.96482277
Pd       6.87097415       6.85831372      11.95140951
Pd       9.64205429       6.82915781      11.94515418
Pd      12.39111484       6.85622887      11.94896407
Pd       1.35216595       9.69735034      11.99083951
Pd       4.11777592       9.66324146      11.95099537
Pd       6.89476706       9.64088005      11.95142944
Pd       9.64982872       9.59779534      11.89439304
Pd      12.42487279       9.60955999      11.94161946
Pd       1.35802606      12.41462245      12.04582394
Pd       4.10624816      12.40887780      12.00662317
Pd       6.86816975      12.39901143      11.97280504
Pd       9.63028672      12.36702810      11.91406436
Pd      12.41879361      12.34804731      11.97632258
Pd      13.64332871       0.05412122      14.07646734
Pd       2.60809775      13.72871414      14.06149483
Pd       5.33636080      13.72042825      14.02031282
Pd       8.13069065      13.70248693      13.98790994
Pd      10.96233605      13.73168786      13.87742367
Pd      13.65788973       2.78455995      14.05883224
Pd       2.68833434       2.81302009      14.10025700
Pd       5.50769564       2.74452360      14.07393217
Pd       8.25822749       2.71522679      13.93247184
Pd      10.94512169       2.67324535      13.89145323
Pd       0.04305334       5.52965843      13.98499802
Pd       2.75140610       5.60482787      14.00848184
Pd       5.53107702       5.60342024      14.00669324
Pd       8.26124205       5.47110061      13.96055877
Pd      11.04662097       5.37994876      13.92663999
Pd       0.02646044       8.25885194      13.98313582
Pd       2.79684403       8.33297082      13.96083491
Pd       5.51908243       8.32241895      13.96331109
Pd       8.28261341       8.23021760      13.91378075
Pd      11.04849551       8.14508038      14.08748815
Pd       0.01165159      11.02858634      13.97982889
Pd       2.78959422      11.03917017      13.98673504
Pd       5.54356351      11.03022868      13.92442233
Pd       8.27039023      10.98299568      13.95344719
Pd      11.02851876      10.95257545      13.92630772
Pd      12.56352100       6.46314388      16.32398187
Pd       9.61722361       9.71113886      16.05621263
Pd       1.12805842      12.56746920      16.32659343
Pd       1.56460944       7.22357496      16.02257489
Pd      12.38624457       9.42801406      16.31923164
Pd       9.08733675       1.40786537      16.17875841
Pd       3.48986211       1.08280765      16.34004706
Pd       6.84612765      10.69313155      16.34837386
Pd       4.23834048      12.08355210      16.09100883
Pd      11.37638218      13.04557444      16.56694026
Pd       0.87760178       4.43242640      16.49160621
Pd       3.99887450       4.90300576      16.45013554
Pd      11.21788027       3.15095860      16.58084812
Pd       2.05429298      10.07137358      16.39533583
Pd       6.78947479       7.18871858      16.54641302
Pd       6.59378596      13.70017602      16.39058133
Pd       9.74035891       6.50438488      16.11125067
Pd       7.59510311       3.88815375      16.28151214
Pd      13.50464168       1.13565115      16.91438696
Pd       4.06866546       8.36121235      16.71349275
O        9.23438850       3.14058073      17.08418210
O       11.12458591      11.03065039      16.03090920
O       13.17506515      13.00170081      17.47550756
O       11.54221285       1.27073125      17.27095631
O        9.68616200      13.40872125      15.51214587
O        3.82869618      10.30110458      17.09882209
O        1.73200328       0.57860770      17.01441975
O        2.91109429       3.18702083      16.10813147
O        7.58745320      12.26142661      17.09475541
O        0.24110109      10.73634422      15.98623874
O        4.93246355       6.57450299      17.02539105
O        2.27025928       5.64970059      17.13130329
O        7.97065081       5.69573701      17.08484264
O        8.53513260       8.05646273      16.03075334
O        5.72744696       4.22735471      15.58107387
O       13.28409738       3.00913415      16.12708530
O       11.14904170       5.08292431      16.00706793
O       13.60051744       7.97901006      16.94295876
O        5.35177754       1.36845981      15.73330708
O        5.95938868       8.92081599      15.95073216
