115
Lattice="13.75323 0.0 0.0 0.0 13.75323 0.0 0.0 0.0 23.89" Properties=species:S:1:pos:R:3 trial_index=27 seed_entry_id=23 discovered_entry_id=24 energy=-574.81298828125 status=accepted pbc="T T F"
Pd       0.00000000       0.00000000      10.00000000
Pd       2.75064538       0.00000000      10.00000000
Pd       5.50129076       0.00000000      10.00000000
Pd       8.25193614       0.00000000      10.00000000
Pd      11.00258152       0.00000000      10.00000000
Pd       0.00000000       2.75064538      10.00000000
Pd       2.75064538       2.75064538      10.00000000
Pd       5.50129076       2.75064538      10.00000000
Pd       8.25193614       2.75064538      10.00000000
Pd      11.00258152       2.75064538      10.00000000
Pd       0.00000000       5.50129076      10.00000000
Pd       2.75064538       5.50129076      10.00000000
Pd       5.50129076       5.50129076      10.00000000
Pd       8.25193614       5.50129076      10.00000000
Pd      11.00258152       5.50129076      10.00000000
Pd       0.00000000       8.25193614      10.00000000
Pd       2.75064538       8.25193614      10.00000000
Pd       5.50129076       8.25193614      10.00000000
Pd       8.25193614       8.25193614      10.00000000
Pd      11.00258152       8.25193614      10.00000000
Pd       0.00000000      11.00258152      10.00000000
Pd       2.75064538      11.00258152      10.00000000
Pd       5.50129076      11.00258152      10.00000000
Pd       8.25193614      11.00258152      10.00000000
Pd      11.00258152      11.00258152      10.00000000
Pd       1.33305437       1.38035701      12.05221797
Pd       4.08925664       1.38750338      11.98771029
Pd       6.82888190       1.38154444      11.99332965
Pd       9.57512057       1.39592898      11.89594876
Pd      12.38684272       1.37174114      11.92044161
Pd       1.37065655       4.09970544      12.00656864
Pd       4.10125007       4.12393621      12.00820233
Pd       6.82444734       4.12497179      12.00908219
Pd       9.56728621       4.13975942      11.94281254
Pd      12.36578195       4.13265160      11.93417299
Pd       1.37110082       6.89256210      11.94010419
Pd       4.13935064       6.87026939      11.96482277
Pd       6.87097415       6.85831372      11.95140951
Pd       9.64205429       6.82915781      11.94515418
Pd      12.39111484       6.85622887      11.94896407
Pd       1.35216595       9.69735034      11.99083951
Pd       4.11777592       9.66324146      11.95099537
Pd       6.89476706       9.64088005      11.95142944
Pd       9.64982872       9.59779534      11.89439304
Pd      12.42487279       9.60955999      11.94161946
Pd       1.35802606      12.41462245      12.04582394
Pd       4.10624816      12.40887780      12.00662317
Pd       6.86816975      12.39901143      11.97280504
Pd       9.63028672      12.36702810      11.91406436
Pd      12.41879361      12.34804731      11.97632258
Pd      13.66708887       0.00818753      14.07000689
Pd       2.66495340       0.04352147      14.04275690
Pd       5.41789610       0.01915524      13.92204056
Pd       8.15660913      13.68708226      13.99051722
Pd      10.96892002      13.73209572      13.87719434
Pd      13.65716501       2.75056798      14.04925217
Pd       2.69776016       2.84943439      14.08346245
Pd       5.51374664       2.72402206      14.18515130
Pd       8.24786430       2.70702010      13.94470923
Pd      10.93869363       2.67506926      13.88766525
Pd       0.03139717       5.49257788      13.97898792
Pd       2.76057765       5.62022394      14.01981513
Pd       5.52509700       5.62487405      14.00156851
Pd       8.25669631       5.46978976      13.96201647
Pd      11.04009151       5.38128642      13.93817859
Pd       0.00344535       8.23139416      13.95991618
Pd       2.74299463       8.36637974      13.90975603
Pd       5.53985099       8.34659741      13.94197697
Pd       8.29004496       8.23181274      13.92718216
Pd      11.05603648       8.14250512      14.09466948
Pd       0.05111143      10.97174825      14.07621687
Pd       2.78790486      11.07108601      13.96105201
Pd       5.51703074      11.05688501      13.91424412
Pd       8.23581176      10.96009100      14.05010911
Pd      11.03330657      10.94935210      13.91381283
Pd      12.52696472       6.44383667      16.34677450
Pd       9.74514351       9.67762316      16.05204072
Pd       1.27726591      12.49993658      16.28223111
Pd       1.45232951       7.08738977      15.93102345
Pd      12.57832089       9.46012636      16.29338374
Pd       9.11413843       1.37658210      16.17415039
Pd       3.53752705       1.27211250      16.35280766
Pd       6.44981335      10.62422992      16.41371821
Pd       4.17911653      12.45998030      15.95722406
Pd      11.43987788      13.01196940      16.52506535
Pd       0.86434170       4.41380102      16.53754573
Pd       4.00990115       4.92814840      16.54415303
Pd      11.22051566       3.13400918      16.57272719
Pd       2.68234253      10.18664707      16.49828915
Pd       6.79156308       7.19689851      16.67029067
Pd       6.53463023       0.11726562      16.37071162
Pd       9.70938740       6.53853516      16.10800192
Pd       7.60550884       3.93129728      16.29018975
Pd      13.53380000       1.10482395      16.84378416
Pd       3.91058496       7.82231101      16.20140375
O        9.23264833       3.11855537      17.06138618
O       11.25699973      11.00063914      16.01134649
O       13.27052329      12.95150122      17.37224570
O       11.57770390       1.23573786      17.24162204
O        9.70037921      13.36103875      15.53361122
O        4.43475615      10.83306216      17.12647975
O        1.76100285       0.59902858      16.84607922
O        2.86117824       3.27855379      16.10568386
O        7.33220246      12.23775886      16.90729788
O        0.71468684      10.56852508      16.04936600
O        5.01368114       6.49289137      17.29449419
O        2.23816406       5.65137482      17.20665108
O        8.01521556       5.72304627      17.14672828
O        8.50984929       8.11438798      16.03575739
O        5.73315298       4.32138805      15.59675694
O       13.28883852       2.99475274      16.11515485
O       11.10413780       5.08363656      16.01965414
O       13.62414428       7.92929229      16.94990413
O        5.43543263       1.71760682      16.04990038
O        5.77402765       8.77333926      15.99647351
