115
Lattice="13.75323 0.0 0.0 0.0 13.75323 0.0 0.0 0.0 23.89" Properties=species:S:1:pos:R:3 trial_index=20 seed_entry_id=18 discovered_entry_id=19 energy=-573.7596435546875 status=accepted pbc="T T F"
Pd       0.00000000       0.00000000      10.00000000
Pd       2.75064538       0.00000000      10.00000000
Pd       5.50129076       0.00000000      10.00000000
Pd       8.25193614       0.00000000      10.00000000
Pd      11.00258152       0.00000000      10.00000000
Pd       0.00000000       2.75064538      10.00000000
Pd       2.75064538       2.75064538      10.00000000
Pd       5.50129076       2.75064538      10.00000000
Pd       8.25193614       2.75064538      10.00000000
Pd      11.00258152       2.75064538      10.00000000
Pd       0.00000000       5.50129076      10.00000000
Pd       2.75064538       5.50129076      10.00000000
Pd       5.50129076       5.50129076      10.00000000
Pd       8.25193614       5.50129076      10.00000000
Pd      11.00258152       5.50129076      10.00000000
Pd       0.00000000       8.25193614      10.00000000
Pd       2.75064538       8.25193614      10.00000000
Pd       5.50129076       8.25193614      10.00000000
Pd       8.25193614       8.25193614      10.00000000
Pd      11.00258152       8.25193614      10.00000000
Pd       0.00000000      11.00258152      10.00000000
Pd       2.75064538      11.00258152      10.00000000
Pd       5.50129076      11.00258152      10.00000000
Pd       8.25193614      11.00258152      10.00000000
Pd      11.00258152      11.00258152      10.00000000
Pd       1.33305437       1.38035701      12.05221797
Pd       4.08925664       1.38750338      11.98771029
Pd       6.82888190       1.38154444      11.99332965
Pd       9.57512057       1.39592898      11.89594876
Pd      12.38684272       1.37174114      11.92044161
Pd       1.37065655       4.09970544      12.00656864
Pd       4.10125007       4.12393621      12.00820233
Pd       6.82444734       4.12497179      12.00908219
Pd       9.56728621       4.13975942      11.94281254
Pd      12.36578195       4.13265160      11.93417299
Pd       1.37110082       6.89256210      11.94010419
Pd       4.13935064       6.87026939      11.96482277
Pd       6.87097415       6.85831372      11.95140951
Pd       9.64205429       6.82915781      11.94515418
Pd      12.39111484       6.85622887      11.94896407
Pd       1.35216595       9.69735034      11.99083951
Pd       4.11777592       9.66324146      11.95099537
Pd       6.89476706       9.64088005      11.95142944
Pd       9.64982872       9.59779534      11.89439304
Pd      12.42487279       9.60955999      11.94161946
Pd       1.35802606      12.41462245      12.04582394
Pd       4.10624816      12.40887780      12.00662317
Pd       6.86816975      12.39901143      11.97280504
Pd       9.63028672      12.36702810      11.91406436
Pd      12.41879361      12.34804731      11.97632258
Pd       0.08152901       0.04063455      14.06820787
Pd       2.80011345       0.00373614      14.09653842
Pd       5.52561893      13.69469891      14.02187482
Pd       8.18624941      13.70902873      13.99383368
Pd      11.12654880       0.02352789      13.86786099
Pd      13.53721819       2.77292589      14.10889743
Pd       2.56550903       2.79762279      14.13554720
Pd       5.41278145       2.68727323      13.94723583
Pd       8.18998350       2.69452912      13.99618066
Pd      10.86012231       2.70567306      13.95780381
Pd       0.06298598       5.47427479      13.97619119
Pd       2.73349095       5.58015225      13.98540851
Pd       5.50004564       5.63588552      13.94827332
Pd       8.23646916       5.41924448      14.03178494
Pd      11.03741702       5.39888642      13.91013412
Pd       0.04008542       8.27007752      13.88937763
Pd       2.74757341       8.29048283      14.00889618
Pd       5.46415398       8.36190005      13.97118648
Pd       8.22598671       8.21351020      13.87030068
Pd      11.01070212       8.21271555      14.02402726
Pd       0.04616686      11.04078084      14.09306114
Pd       2.74485307      11.00461393      14.08731945
Pd       5.53335290      11.01641680      13.91388596
Pd       8.26048228      10.98428494      13.92184692
Pd      11.02981510      11.01942943      13.90905953
Pd      12.54387228       6.66457224      16.06292163
Pd       9.42899598       9.59519583      16.02200277
Pd      13.66766676      12.16467277      16.71130429
Pd       1.55069299       6.94702333      16.30915861
Pd      12.29901098       9.59834716      16.06310576
Pd       9.18324448       1.47219231      16.34870757
Pd       4.28574425       1.26792701      15.98170260
Pd       6.89712450      10.72639858      16.35737033
Pd       4.37273519      12.18871294      15.99834632
Pd       9.97031001      12.57288861      17.19218809
Pd       0.61314093       4.26201831      16.51803484
Pd       3.81895431       4.76474667      16.39704320
Pd      10.86432974       3.50835707      16.79287165
Pd       1.73738182      10.29696515      16.81858369
Pd       6.53536882       7.12308533      16.28682871
Pd       6.86034895       0.08737564      16.63001460
Pd       9.71894172       6.66891182      16.05924989
Pd       7.07475317       3.60620175      16.45402239
Pd      12.46627022       1.03277200      16.82951681
Pd       3.85282932       8.49729817      16.56574608
O        8.79852623       3.14692891      17.30954259
O       10.80550360      10.95343903      15.99225858
O       11.89807304      13.00805705      17.53193018
O       10.85897430       1.75656702      17.64085120
O        9.74270873      13.63040882      15.31070738
O        3.63862436      10.48467244      16.85586739
O        0.32324507       0.20736832      16.05155949
O        3.05683380       2.90382300      16.11168362
O        7.94964004      12.24412792      17.01936738
O       13.59660310      10.37823463      17.44608482
O        4.65147347       6.61108649      16.74404524
O        2.13553879       5.31613129      17.23104286
O        7.73969968       5.45901738      16.11673915
O        8.30854788       7.99460507      15.99089036
O        5.45460948       4.16993648      15.43160035
O       12.86719115       2.98980128      16.15239853
O       11.10343703       5.30138108      16.03103629
O        0.00787923       8.21409726      15.94621494
O        6.03919389       1.84621099      16.86563853
O        5.83691638       9.02300904      16.03716596
