115
Lattice="13.75323 0.0 0.0 0.0 13.75323 0.0 0.0 0.0 23.89" Properties=species:S:1:pos:R:3 trial_index=5 seed_entry_id=4 discovered_entry_id=5 energy=-570.0546875 status=accepted pbc="T T F"
Pd       0.00000000       0.00000000      10.00000000
Pd       2.75064538       0.00000000      10.00000000
Pd       5.50129076       0.00000000      10.00000000
Pd       8.25193614       0.00000000      10.00000000
Pd      11.00258152       0.00000000      10.00000000
Pd       0.00000000       2.75064538      10.00000000
Pd       2.75064538       2.75064538      10.00000000
Pd       5.50129076       2.75064538      10.00000000
Pd       8.25193614       2.75064538      10.00000000
Pd      11.00258152       2.75064538      10.00000000
Pd       0.00000000       5.50129076      10.00000000
Pd       2.75064538       5.50129076      10.00000000
Pd       5.50129076       5.50129076      10.00000000
Pd       8.25193614       5.50129076      10.00000000
Pd      11.00258152       5.50129076      10.00000000
Pd       0.00000000       8.25193614      10.00000000
Pd       2.75064538       8.25193614      10.00000000
Pd       5.50129076       8.25193614      10.00000000
Pd       8.25193614       8.25193614      10.00000000
Pd      11.00258152       8.25193614      10.00000000
Pd       0.00000000      11.00258152      10.00000000
Pd       2.75064538      11.00258152      10.00000000
Pd       5.50129076      11.00258152      10.00000000
Pd       8.25193614      11.00258152      10.00000000
Pd      11.00258152      11.00258152      10.00000000
Pd       1.33305437       1.38035701      12.05221797
Pd       4.08925664       1.38750338      11.98771029
Pd       6.82888190       1.38154444      11.99332965
Pd       9.57512057       1.39592898      11.89594876
Pd      12.38684272       1.37174114      11.92044161
Pd       1.37065655       4.09970544      12.00656864
Pd       4.10125007       4.12393621      12.00820233
Pd       6.82444734       4.12497179      12.00908219
Pd       9.56728621       4.13975942      11.94281254
Pd      12.36578195       4.13265160      11.93417299
Pd       1.37110082       6.89256210      11.94010419
Pd       4.13935064       6.87026939      11.96482277
Pd       6.87097415       6.85831372      11.95140951
Pd       9.64205429       6.82915781      11.94515418
Pd      12.39111484       6.85622887      11.94896407
Pd       1.35216595       9.69735034      11.99083951
Pd       4.11777592       9.66324146      11.95099537
Pd       6.89476706       9.64088005      11.95142944
Pd       9.64982872       9.59779534      11.89439304
Pd      12.42487279       9.60955999      11.94161946
Pd       1.35802606      12.41462245      12.04582394
Pd       4.10624816      12.40887780      12.00662317
Pd       6.86816975      12.39901143      11.97280504
Pd       9.63028672      12.36702810      11.91406436
Pd      12.41879361      12.34804731      11.97632258
Pd      13.72120406       0.06091939      14.03505120
Pd       2.77969877       0.00392538      14.09340228
Pd       5.57634809      13.64445247      13.99857022
Pd       8.27220243       0.02297968      14.00020877
Pd      10.95029408       0.14929999      13.86966320
Pd      13.65867022       2.76923086      13.99863810
Pd       2.68741141       2.84370126      14.20256803
Pd       5.50566141       2.68115706      14.04133817
Pd       8.22137233       2.71347007      14.00278062
Pd      10.90174636       2.80459960      13.84260077
Pd       0.04877922       5.49160472      13.96331314
Pd       2.75483323       5.56976214      14.00811846
Pd       5.45922555       5.41932196      14.09924613
Pd       8.34810731       5.52416138      13.95824944
Pd      11.08982978       5.45488513      13.90836260
Pd       0.01683805       8.21680543      13.95198963
Pd       2.72355768       8.30861884      13.95961977
Pd       5.40761323       8.21489492      13.85068259
Pd       8.41642082       8.28648047      13.96815118
Pd      11.03599198       8.16342008      14.03485181
Pd      13.66961555      10.92709015      14.10030258
Pd       2.76532594      11.08324736      14.04193496
Pd       5.50194902      10.93471577      13.93248437
Pd       8.22895115      11.03483795      13.94956197
Pd      10.91357301      10.95785774      13.95199535
Pd      12.70398445       6.36960317      16.33529708
Pd       9.39964819       9.49483343      16.71192990
Pd       0.40190766      12.05080243      17.04958718
Pd       1.63373578       7.07990089      16.29793890
Pd      12.26171010       9.48849345      16.11017732
Pd       8.30899363       1.43822749      16.70941103
Pd       4.78234346       1.00781667      16.31588167
Pd       6.15873609       9.86686947      16.52107105
Pd       4.50239662      12.09585582      16.07065574
Pd      11.05638524      12.87454494      16.30310424
Pd       1.06143553       4.34295525      16.32435270
Pd       3.93189841       4.34101524      16.31542002
Pd      11.52447235       2.96741005      16.44026341
Pd       3.02323744       9.71516077      16.39336381
Pd       7.48133419       6.95358706      16.68863514
Pd       7.23661168      12.61658686      16.45044328
Pd      10.03597426       6.36698536      16.14908534
Pd       8.38278358       4.11585842      16.33106863
Pd      12.58388108      13.44671168      18.45391010
Pd       4.28539900       7.05812574      15.98383322
O        9.65338832       2.83452105      17.05371441
O       10.79129142      10.80390412      16.09777909
O       13.01637259      12.47745134      15.47509635
O       11.57218955       0.99264010      15.76080498
O        9.24504870      13.33939372      17.01235586
O        4.58624665       8.77791997      17.07122279
O        2.98370848       1.32716714      15.57831281
O        0.27102503      12.70089810      19.61505069
O        7.86255486      10.81323656      15.98190366
O        1.52310541      10.82022193      15.75950796
O        1.14219259      11.96016123      18.88294981
O        2.51696067       5.47644640      17.08747636
O        7.03250529       5.36334694      15.59409679
O        7.94213322       8.57540875      17.62859521
O        5.30101811       3.00803582      16.02546370
O       13.46076656       2.97921000      15.97340680
O       11.43903704       4.98576840      16.87618616
O       13.66894569       8.10614212      16.04979033
O        6.54350680       0.57387406      17.09701736
O        6.83487847       8.29319067      15.23365256
