60
Properties=species:S:1:pos:R:3 source_escape=runs/20260728-block-krylov-fixed-starter-escape/output/cases/intermediate_accepted-seed42-balanced_refinement/escape.xyz pbc="F F F"
C       -2.48293944      -2.09780953       0.63875335
C        2.17467444      -2.87418377       0.05345200
C        1.22676311       0.03696407       2.61789564
C       -0.97362580       3.22831558      -1.96089238
C       -2.79735783       3.06006097      -0.30898179
C        2.78066328      -1.88104966       1.74352832
C       -2.87591033      -1.05668128       1.54390364
C       -1.49246588      -2.45966305       2.73021287
C        2.21088793       2.93032668      -0.64055107
C       -0.32394800       2.64831094      -3.08866126
C       -0.78669250       3.01892357       1.27685222
C        3.00765468       1.54645469       0.93919050
C       -2.24750097      -1.98522468      -0.78858958
C        1.33400807       3.29234312      -1.66136657
C        2.92696250       0.44632781      -1.14931223
C       -1.19935857      -0.21262659       3.06906547
C        3.27197881      -0.49460239      -0.07891378
C       -1.90461538       0.81174903      -3.11248101
C       -2.62944703       1.44357814      -2.06060557
C       -0.43716623      -3.43097526       0.95952551
C        0.40517929       0.65880511      -3.87485182
C       -0.83242573      -1.37122240      -3.29507712
C       -3.81502242       2.25594392       0.30503937
C       -3.29236733       0.26053347       1.28031761
C       -2.81293570       1.28763967       2.14787791
C       -1.49856362       1.11449938       2.67065857
C        0.37983823      -0.70607581      -3.64946358
C       -2.15421209      -1.22274779       2.76981336
C       -1.92474782      -0.59284487      -2.86443993
C        2.47857705      -0.53158690       2.14799285
C        0.96681772      -2.27730221      -2.11448458
C       -0.16272797      -3.33059802      -0.40285476
C       -3.21765134       2.52669506       1.61372642
C        1.09259667       2.55143727      -2.82263459
C        0.10857238      -0.78561739       3.02248599
C       -0.43515625      -2.40530092      -2.43825394
C       -3.68966944       0.84157075       0.05465167
C       -2.15321871       3.23545782       0.96831979
C       -0.43569696       1.95421425       2.20634896
C        0.93554685       1.44801239       2.28118178
C       -1.70344976      -3.00838470       1.42603411
C       -2.61971000      -0.85171417      -1.61473567
C        3.17415045       0.20412442       1.15807363
C        1.85773060      -2.91832656       1.46849557
C        1.14554854      -2.97849510      -0.88624978
C        1.44501049      -1.07100571      -2.73920878
C        1.53437171       3.17736321       0.61112958
C        3.16480039      -1.86075063       0.28532869
C        1.91790593       2.20591927       1.56399535
C       -0.77301800       1.44135046      -3.68003321
C        2.97952110       1.75389142      -0.49471823
C        0.54910595      -3.04404086       1.91700383
C        1.50583997       1.22554420      -3.13466817
C       -2.23416371       2.70923323      -1.54928582
C       -1.16018570      -2.79575171      -1.28899353
C       -0.07939828      -2.21017906       2.88160510
C        2.14681983       0.17801606      -2.34763190
C        0.18670029       3.51172951       0.36135099
C       -3.17793367       0.43505591      -1.19379015
C        0.05563047       3.65465350      -1.06386967
