60
Properties=species:S:1:pos:R:3 trial_index=38 seed_entry_id=46 discovered_entry_id=47 energy=-499.1495361328125 status=accepted pbc="F F F"
C        1.65816819      -3.09778658      -0.02444806
C        1.99865417       0.17649001      -2.63431449
C        1.61088662       1.64262155       1.97352280
C        2.74612750      -2.15413507       0.02807089
C       -4.16956929       1.20604186       0.80936319
C        3.28340178       0.26326439      -0.70769717
C       -0.91281111      -3.90095919       0.90798336
C        1.43470004      -1.72792416       2.94418013
C       -2.11517472       1.39718989      -3.02323860
C        3.00267483      -2.47401562       1.42109085
C       -2.15577934       1.39021069       1.95055654
C        0.72180001       3.44261050      -0.00766813
C        0.54988796      -2.94102210      -0.88532234
C       -1.47614235       3.89540080      -0.53290460
C       -0.19936473       2.95062643      -2.24467263
C        2.76412209      -1.58255275       2.48393267
C        0.98520390       2.23255796      -2.54752215
C       -2.28604548      -2.01078418       0.72810780
C       -3.10397982      -0.84112941       0.76285069
C        2.76873217       1.01098344      -1.77194619
C       -4.00695308       1.43640986      -1.46419987
C       -1.81650969      -1.52926260      -1.69101172
C       -1.76372687      -2.92198473       1.69994295
C       -4.49419399       0.59531495      -0.42563285
C       -0.40312938       0.05610601       3.16182641
C        4.09269016       0.28678352       1.60974193
C       -2.91987657      -0.60038759      -1.68276158
C        0.87182473      -2.88133325       2.33701631
C       -1.72726607      -2.34589010      -0.53495781
C        2.43690964       1.92022862       0.82609183
C       -0.70073804      -0.65528453      -3.63343701
C        1.81609089      -1.08893489      -1.98376613
C        3.14498435      -0.21569068       2.45501537
C       -2.36444860       3.23217436      -1.40890904
C        1.93091341       0.50546203       2.73033874
C       -0.63962817      -1.52164857      -2.52437870
C       -0.43605827      -3.23861475       2.04443554
C       -3.16883594       0.42510698       1.49910046
C       -0.81237022       1.20267177       2.51668345
C        0.24958418       2.11557948       2.01786957
C        1.82438077      -3.37276888       1.37661275
C       -0.71588875      -3.32598220      -0.40480914
C        1.89079983       2.68943167      -0.25167593
C        3.49732390       0.93945964       0.54547047
C        2.77792177      -1.07685374      -0.87013904
C       -3.10677794       0.69420947      -2.28283978
C        0.05845828       0.46252306      -4.04199677
C        1.10366840       1.02766220      -3.31922744
C       -0.08022436       3.16957940       1.14214882
C       -3.52147322       2.63022364      -0.88343086
C       -0.15593758       3.78471263      -1.07277524
C        2.07280600       2.22481257      -1.58243980
C       -1.59760291       2.58971609      -2.44052250
C       -3.62930403       2.48710596       0.53014985
C        0.63218796      -1.92665380      -1.93531418
C        0.88266372      -0.39916199       3.16670171
C       -1.32032676       0.59097507      -3.85535549
C       -1.43504727       3.47404406       0.82884454
C       -3.72561857      -0.58323551      -0.49330987
C       -2.44983210       2.62685857       1.29999052
