60
Properties=species:S:1:pos:R:3 trial_index=19 seed_entry_id=27 discovered_entry_id=29 energy=-498.0901184082031 status=accepted pbc="F F F"
C        1.97569683      -3.14323925      -0.87831995
C        1.86185064      -0.17164576      -2.85327583
C        1.31815355       1.37332510       2.00303238
C        2.60491528      -2.22523158      -1.77624516
C       -4.00037827       1.68965317       1.17813868
C        3.32717465      -0.13730288      -0.89134122
C       -0.29710747      -3.67975538       1.21530232
C        2.10746201      -1.80614556       1.79361381
C       -2.23382875       1.39691962      -2.82089451
C        3.66271694      -2.12209067       0.21434991
C       -2.07907254       2.13968524       2.30825154
C        0.88596581       3.24075208      -0.05012908
C        0.56763854      -2.96828731      -1.00092183
C       -1.23312027       4.01011345      -0.58482316
C       -0.15669171       2.79195768      -2.25909752
C        3.16028311      -1.13837189       1.12238807
C        0.92060343       1.92719241      -2.57625449
C       -1.54306757      -1.20940590       1.31415933
C       -2.62112092      -0.22703911       1.29509954
C        2.64233947       0.54936416      -1.89118893
C       -3.93850082       1.60844074      -1.09586491
C       -1.78553507      -1.36061764      -1.22289893
C       -0.30044308      -3.03137271       2.46482552
C       -4.30600891       0.88363373       0.07193718
C       -0.47307537      -1.50712417       2.41409603
C       -0.91386601       0.88154122       3.88324574
C       -2.86215861      -0.43276479      -1.16340375
C        2.07739023      -3.17357350       1.53504304
C       -1.34677557      -1.90702547       0.06012846
C        2.19475871       1.30697468       0.81941825
C       -1.08663331      -0.75957064      -3.51234763
C        1.61458992      -1.54496795      -2.55432659
C       -0.28918993      -0.15104895       3.32630233
C       -2.23552046       3.35303248      -1.34067925
C        0.92472779       0.16799950       2.58597465
C       -0.93700804      -1.56162763      -2.35455007
C        0.86855389      -3.74324051       1.96902952
C       -2.94340129       1.06077774       1.92464335
C       -0.85221453       1.97715080       2.98291200
C        0.30801162       2.37876801       2.19392137
C        2.75515172      -3.26942749       0.29400821
C       -0.43483247      -2.99906596      -0.01342759
C        1.86064210       2.22610326      -0.25889379
C        2.99808321       0.13449858       0.47487895
C        3.60433901      -1.52472713      -1.07737273
C       -3.13994086       0.76818677      -1.91504755
C       -0.23520301       0.27152191      -4.00292264
C        0.93195629       0.75861967      -3.41012426
C        0.12082956       3.32478659       1.15459260
C       -3.39709820       2.86100651      -0.71046082
C        0.04189639       3.65402294      -1.12533257
C        1.99063050       1.77848006      -1.61048881
C       -1.59212196       2.58239354      -2.36830185
C       -3.49081564       2.94246014       0.70167592
C        0.34940098      -2.09920981      -2.14041603
C        0.97455976      -1.13012086       2.11273839
C       -1.57497905       0.53319533      -3.70155267
C       -1.18977299       3.82066603       0.82404219
C       -3.45211854      -0.24481284       0.12384165
C       -2.31179510       3.23672017       1.43432312
