60
Properties=species:S:1:pos:R:3 trial_index=4 seed_entry_id=4 discovered_entry_id=6 energy=-488.5629577636719 status=accepted pbc="F F F"
C        1.65576444      -3.44814586      -0.86650730
C        2.38892097       0.05163483      -2.43279354
C        2.26688421       1.95227203       1.93686456
C        2.57870958      -2.41289399      -1.24586806
C       -3.32479576       1.20583369       1.43209043
C        2.73300514       0.75089854      -0.09152651
C       -0.17475700      -3.36587836       1.22419278
C        2.81465090      -1.56971684       2.22911175
C       -1.96567067       1.31586041      -2.67187287
C        0.10800498      -1.38517368      -0.00580895
C       -1.44305260       1.96274490       2.48830601
C        1.16992975       3.67803870      -0.09845927
C        0.27579800      -3.40444813      -1.22556887
C       -1.07938905       3.99751066      -0.42996593
C        0.03760081       2.86393265      -2.14813182
C        0.50837350      -0.38262600       1.01547031
C        1.21122349       2.10477833      -2.47250695
C       -3.01776762      -2.87615544       0.33909711
C       -3.92778427      -1.97749129       0.47550126
C        2.94013516       0.97950685      -1.50040005
C       -3.58605835       1.40895582      -0.84329247
C       -2.07386864      -1.80753047      -1.63351655
C       -0.43668462      -2.62342773       2.43424981
C       -3.86229469       0.56114920       0.27240915
C       -1.33380776      -1.69857964       2.77555505
C       -0.10016463       0.18535450       2.14696628
C       -2.97041933      -0.71977069      -1.43032672
C        2.22722322      -2.58101371       1.54146898
C       -1.92063182      -2.67586911      -0.48909873
C        2.75862373       2.01373456       0.58765344
C       -0.74211571      -0.83541748      -3.42427703
C        2.00545002      -1.22029297      -1.84440736
C       -1.41712466      -0.37291869       2.50325712
C       -2.04735337       3.24624284      -1.12645942
C        2.67895918       0.87044935       2.66982326
C       -1.04293738      -1.97675154      -2.64259153
C        0.91187884      -3.01221027       1.94879677
C       -2.30489806       0.80879062       2.37245546
C       -0.08031661       1.58804579       2.45731515
C        0.93233518       2.49100301       2.03981029
C        2.38246072      -2.87453040       0.13843767
C       -0.48603613      -2.78176240      -0.09269850
C        2.30918661       2.93836303      -0.39567783
C        1.55557168       0.02361609       0.11783323
C        1.05095545      -0.84372848      -0.88532677
C       -2.93819221       0.66300085      -1.86079005
C        0.18714399       0.20436234      -3.60019834
C        1.33854744       0.81194361      -3.09250194
C        0.50520659       3.51894533       1.15896905
C       -3.10367647       2.65554148      -0.40723639
C        0.17468347       3.83266418      -1.09464018
C        2.36250015       2.27509518      -1.66069914
C       -1.38275502       2.52271568      -2.18583965
C       -3.02605694       2.56830226       1.01281314
C       -0.12505468      -2.98738688      -2.44067472
C        2.94965411      -0.38630265       2.69382026
C       -1.17856909       0.48588542      -3.47789994
C       -0.89619704       3.77952663       0.96390853
C       -3.76829365      -0.76902286      -0.19519086
C       -1.86573001       3.03347544       1.67157828
