60
Properties=species:S:1:pos:R:3 trial_index=5 seed_entry_id=6 discovered_entry_id=8 energy=-487.0792541503906 status=accepted pbc="F F F"
C        1.46479113      -3.30503785      -0.93091475
C        2.05538432       0.23647024      -2.52222034
C        2.27315893       1.85123410       1.94870999
C        2.12930463      -2.17872433      -1.42663925
C       -3.44516091       1.16832991       1.32092880
C        2.64650778       0.70023088      -0.14147503
C       -0.23561252      -3.19434995       1.44165192
C        2.95459920      -1.55828554       2.10048411
C       -1.54599727       1.08855883      -2.54601421
C       -0.07315912      -1.32378082       0.07960880
C       -1.45056919       1.70885264       2.37652412
C        1.21558145       3.64288276      -0.01779447
C        0.07882396      -3.47584794      -1.01539064
C       -1.02908547       3.95792807      -0.40576046
C        0.17759239       3.02632505      -2.15723774
C        0.53507780      -0.43294135       1.08590493
C        1.37651933       2.43077960      -2.57164996
C       -3.19494338      -2.92221196       0.35770260
C       -4.06497728      -1.97575448       0.38228705
C        2.77053090       0.96827333      -1.54889906
C       -3.45657662       1.34596199      -0.97422902
C       -2.10364860      -1.91780683      -1.58993412
C       -0.20506400      -2.38184022       2.58991679
C       -3.91186198       0.54769596       0.12505777
C       -0.81060128      -1.06658740       2.84491695
C        0.13258447      -0.06168424       2.37517083
C       -2.94439421      -0.80032514      -1.45900091
C        2.26309940      -2.47514071       1.38692012
C       -2.04084197      -2.72604118      -0.38925300
C        2.76674434       1.93392802       0.59096114
C       -0.12252891      -1.04607621      -2.86626478
C        1.29699139      -0.99857045      -2.16050226
C       -2.08864240      -0.59793732       2.73156011
C       -1.91198983       3.15506853      -1.16386351
C        2.77824572       0.82392599       2.68780040
C       -0.97868033      -2.10493821      -2.48216715
C        0.99714916      -2.86267389       1.97527816
C       -2.46705182       0.65736412       2.29700246
C       -0.08645856       1.37866082       2.52924007
C        0.91088271       2.31330263       2.06377396
C        2.27560269      -2.63948673      -0.03687342
C       -0.61712857      -2.72904532       0.08112274
C        2.36928191       2.93279176      -0.34202162
C        1.45657351       0.02681620       0.11960598
C        0.73810369      -0.68635744      -0.85736805
C       -2.70403472       0.55091891      -1.88131437
C        0.29973485       0.90983364      -4.14216711
C        1.36148335       1.20268432      -3.33189095
C        0.50481317       3.35308355       1.19009288
C       -2.99745628       2.57336658      -0.50067786
C        0.25193890       3.91118877      -1.03028091
C        2.43859682       2.35326746      -1.64471005
C       -1.15457129       2.43471001      -2.17053844
C       -3.02226507       2.48908037       0.92258719
C       -0.40931295      -3.36246878      -2.27295572
C        3.11511626      -0.41529791       2.64228780
C       -0.61492987       0.25544755      -3.30939003
C       -0.87307408       3.63045523       0.97314535
C       -3.84044035      -0.79205634      -0.30545423
C       -1.83682682       2.83298166       1.60960805
