60
Properties=species:S:1:pos:R:3 trial_index=11 seed_entry_id=17 discovered_entry_id=19 energy=-492.9586486816406 status=accepted pbc="F F F"
C        1.82753127      -3.78478990      -0.81067127
C        1.80498331      -0.06067590      -2.87338553
C        1.70626101       1.56517751       2.13639938
C        2.88787463      -2.83454575      -0.80221982
C       -3.99461099       1.57740394       1.12769220
C        2.99310679      -0.20705989      -0.89987085
C        0.08727729      -3.40495984       1.06029036
C        2.41583253      -1.69473161       2.09017043
C       -2.18355757       1.46689354      -2.85963163
C        1.24344627      -1.50999290      -0.06294054
C       -1.98668602       1.87654493       2.23057521
C        0.93068937       3.31179056      -0.02901177
C        0.53432404      -3.26740637      -1.30169130
C       -1.22024844       4.00173033      -0.50443284
C       -0.13124769       2.89756158      -2.24262253
C        1.96414841      -0.99559851       0.98329463
C        0.94934394       2.05528662      -2.59569745
C       -1.65032967      -1.31439528       1.17326161
C       -2.72806948      -0.36559382       1.14608222
C        2.61732003       0.64816460      -1.91835685
C       -3.90400632       1.61092925      -1.15078195
C       -1.67592238      -1.33819958      -1.36592347
C       -0.20927450      -2.88450288       2.32196734
C       -4.30647707       0.83861741      -0.03297418
C       -0.96367050      -1.68264922       2.39981923
C       -0.66518627       0.48567351       3.59144002
C       -2.81897670      -0.44283776      -1.31145781
C        2.42755069      -3.14087135       1.80221592
C       -1.20846302      -1.80168346      -0.10068047
C        2.29701781       1.47195884       0.79976144
C       -0.99426149      -0.69114433      -3.58303435
C        1.58233535      -1.39859962      -2.42997326
C       -0.84700343      -0.74041318       3.40505117
C       -2.21114623       3.36814676      -1.29710896
C        2.13188994       0.53934818       3.01370518
C       -0.84551977      -1.60391452      -2.52051458
C        1.06082055      -3.44358187       2.01103818
C       -2.95345807       0.87944050       1.83804165
C       -0.70212512       1.65965687       2.82530802
C        0.44828508       2.29316512       2.20459152
C        2.54240189      -3.44461559       0.40472172
C        0.10713679      -2.52300948      -0.12031339
C        1.94019874       2.35965217      -0.28759953
C        2.67806588       0.16336403       0.43154164
C        2.34184522      -1.49200933      -1.17517674
C       -3.09146303       0.80286636      -1.99105944
C       -0.19763572       0.38122589      -4.06720895
C        0.94364801       0.89354033      -3.44974392
C        0.17966192       3.25697206       1.18736311
C       -3.36436524       2.83714956      -0.68965996
C        0.05707654       3.72849014      -1.08074118
C        2.02990054       1.89939478      -1.64023892
C       -1.56124667       2.65172141      -2.36045735
C       -3.44441631       2.83216309       0.72778891
C        0.44518646      -2.26839197      -2.38636490
C        2.50000060      -0.68808720       3.10935857
C       -1.53307716       0.59512525      -3.74073679
C       -1.15300655       3.70880818       0.88728182
C       -3.48754831      -0.31554224      -0.05015446
C       -2.24523539       3.04297349       1.45868141
