60
Properties=species:S:1:pos:R:3 trial_index=12 seed_entry_id=20 discovered_entry_id=22 energy=-498.06182861328125 status=accepted pbc="F F F"
C        1.90036912      -3.00377047      -0.31652223
C        1.87193431       0.25935402      -2.96302392
C        1.89918559       1.83798622       2.00707956
C        0.92149401      -4.57059231       1.28292060
C       -3.92282337       1.40162967       1.24391170
C        3.23775396       0.20105941      -1.11846443
C       -0.34137673      -4.01197552       0.85212797
C        1.84944929      -1.38736108       2.07765933
C       -2.27150020       1.49796410      -2.78710015
C        2.67069104      -1.82847861      -0.29712155
C       -1.83534639       1.67457315       2.18040159
C        0.86715702       3.48556812      -0.05643530
C        0.67941796      -2.85507570      -1.02798430
C       -1.34897726       4.02375078      -0.41105633
C       -0.27205101       3.02875835      -2.21839994
C        2.52495218      -0.91512215       0.76808204
C        0.85632037       2.28506751      -2.63324170
C       -1.75850458      -1.62846321       1.04445894
C       -2.71119661      -0.56769583       1.11005144
C        2.70767938       1.04072357      -2.08968990
C       -3.95409198       1.54396028      -1.02906591
C       -1.79645137      -1.44039219      -1.43038285
C       -0.43311171      -3.31545830       2.07273755
C       -4.32363172       0.72645563       0.06858033
C       -0.72381862      -1.95978780       2.01210024
C       -0.02198013       0.18971268       2.63471352
C       -2.88306829      -0.50023594      -1.32032335
C        1.90832774      -2.89300006       2.10198342
C       -1.51610374      -2.21248652      -0.24256757
C        2.37120487       1.67694986       0.66213148
C       -0.95488458      -0.56193613      -3.52912580
C        1.75582103      -1.06838070      -2.41334760
C        0.33748929      -1.03443450       2.28569735
C       -2.33375686       3.35899925      -1.17913919
C        2.32313245       0.84406816       2.91325484
C       -0.76381809      -1.43154968      -2.43167404
C        0.84193982      -3.76259098       2.55566946
C       -2.82401731       0.68168950       1.83284819
C       -0.44746435       1.45364128       2.52544301
C        0.58084455       2.42119314       2.12909922
C        1.95265052      -3.65206479       0.90845670
C       -0.47930211      -3.21496722      -0.30227559
C        1.91238530       2.58504322      -0.37223862
C        2.85969773       0.39294229       0.25557337
C        2.85681182      -1.12548575      -1.48628257
C       -3.15192827       0.78667178      -1.92585697
C       -0.24196696       0.54681895      -4.04747388
C        0.89237212       1.12809603      -3.48322146
C        0.18509236       3.40197198       1.19364410
C       -3.43456614       2.76499871      -0.53731967
C       -0.08671158       3.85067733      -1.05337598
C        2.00556776       2.21136102      -1.74581211
C       -1.68927637       2.69842429      -2.28080818
C       -3.43847310       2.69434739       0.88286473
C        0.57528632      -1.84387715      -2.07858392
C        2.52166966      -0.38827164       3.06644868
C       -1.58369318       0.68224083      -3.69650425
C       -1.20041787       3.70014042       0.96531659
C       -3.52901927      -0.43716211      -0.04192955
C       -2.19644246       2.89490810       1.54809942
