60
Properties=species:S:1:pos:R:3 system=runs/20260728-safe-lbfgs-strict-quench-200-production/output-c60-seed42 state_id=intermediate_accepted pbc="F F F"
C        0.04622126      -2.81830873       0.15467270
C        2.94009833       0.15339861       2.02462885
C       -0.08920809       0.22571745       4.72760897
C       -1.69676330       1.84185300      -3.23803323
C       -3.28764463      -0.02180881      -2.85528827
C        1.70677825       0.80070306       3.52980968
C       -1.31123728      -2.40076109       0.35957117
C       -0.32557712      -2.41061032       2.44654244
C       -1.18447917       3.70687411      -0.42828807
C       -0.33790607       2.15413580      -3.47942414
C       -3.66405581       1.48317100      -0.84557564
C       -1.14114546       2.40228251       1.56037607
C        0.90419509      -2.52305832      -0.98627585
C       -1.02557456       3.60320497      -1.82877480
C        0.97973138       2.56037255       0.40783626
C       -2.24265613      -0.75973865       1.88382980
C        1.13760465       1.99397043       1.69859166
C        0.34510009      -0.16293812      -3.69770599
C       -1.01204018      -0.52701928      -3.44377712
C        1.88175237      -2.40719303       1.81133815
C        1.81517555       1.68949400      -3.08751931
C        2.47047236      -0.64994726      -2.60171376
C       -3.43196891      -1.38027695      -2.42598590
C       -2.31945486      -2.05079415      -0.55386644
C       -3.35587249      -1.17128590      -0.15652577
C       -3.04069150      -0.21783931       0.87210498
C        2.62629080       0.76769792      -2.46168600
C       -1.46012752      -1.88298521       1.73171017
C        1.19990163      -1.09841354      -3.02625142
C        0.31207262       1.07939431       3.66354185
C        3.23561927      -0.07851145      -0.48922546
C        2.65532294      -1.92993608       0.74365628
C       -4.18034724      -0.88433480      -1.27615172
C        0.11126902       3.10811342      -2.50956942
C       -0.02068323      -1.18532922       4.68945250
C        2.95550669      -1.18207453      -1.37915698
C       -2.23820319      -2.03495876      -1.96301996
C       -4.05742756       0.47210453      -1.74403262
C       -3.22744930       1.17306431       0.48804172
C       -0.01509905      -0.54191695       5.92367013
C        0.59701220      -2.88245472       1.46090995
C        0.39257649      -2.01062107      -2.24282259
C       -0.08848026       1.82275899       2.43920096
C        2.32506887      -0.44904177       3.19635262
C        3.16707168      -0.58421286       0.84871866
C        2.74226901       1.11873732      -1.06956221
C       -2.50874539       3.28579234      -0.08167164
C        2.29215927       1.43307659       2.30954429
C       -2.49688301       2.32074128       1.00087950
C        0.66821463       1.21060474      -3.78468993
C       -0.37006362       3.06500570       0.49788419
C        1.73174158      -1.70857917       3.07233206
C        1.38367117       2.66449000      -2.09287617
C       -2.04835335       0.45641496      -3.33355986
C        2.28201452      -2.18328507      -0.64205206
C        0.39814403      -1.91033167       3.56543954
C        1.80070367       2.24974627      -0.78302948
C       -3.09030562       2.71332122      -1.24759097
C       -1.01467070      -1.72570460      -2.62053287
C       -2.18014206       2.85830200      -2.32383346
