60
Properties=species:S:1:pos:R:3 pbc="F F F"
C       -1.96000358      -2.78010312      -6.20457410
C        2.82125002       0.37427512      -0.17990783
C       -0.42272873       3.10675180       1.95682084
C        4.11781291       0.37200532       2.03716768
C       -3.64129351      -0.40775228      -0.15977560
C        1.70481488       1.92502775       1.52058824
C        0.73345123      -3.18242570       2.15593195
C        1.54527204       3.15567719       4.77637096
C       -0.30518744      -0.01455905      -3.81446271
C        0.80909882      -1.10680735       1.46214119
C       -3.50567442       1.28703262       1.15903237
C       -0.25130122       3.36976759      -0.80622746
C       -1.55651105      -2.72549499      -4.96266837
C       -1.53373266       2.88630238      -2.61538301
C        0.62093391       2.07903652      -2.73585924
C       -0.07698689      -0.00232903       2.03473707
C        1.66574047       1.58687078      -1.87130690
C       -1.35193148      -2.94033472       0.68988061
C        0.31620284      -3.91928042       3.23237924
C        2.41800997       1.62985142       0.29821349
C       -1.64745363      -0.35831570      -3.27970287
C       -0.54051614      -2.86236683      -1.44399649
C       -0.53484260      -2.88321336       2.88818800
C       -2.95673287      -1.37406841       0.58169517
C       -1.48817225      -2.40110853       2.00379863
C       -1.53312514       0.12566447       2.09197047
C       -1.85827084      -2.30073996      -1.43535293
C        3.58181756       1.85447589       3.96145364
C       -0.12943759      -2.97551818      -0.02677088
C        0.89031760       3.08843335       1.29431534
C        1.11494926      -1.97212412      -2.94508737
C        3.25370870      -0.23559360       1.10858876
C       -2.16552746      -1.15668389       1.80532812
C       -1.50576156       1.96423404      -3.67309661
C       -0.47778309       3.33031737       3.33293147
C        0.02101522      -2.92967213      -2.78750112
C        2.65198324       2.53563844       4.50744857
C       -4.40182594       0.59642327       0.55503335
C       -2.20805790       1.32671830       1.63980865
C       -1.43745213       2.45733182       1.11403828
C        4.20177476       1.04485686       3.13272899
C        0.88905918      -2.48100767       0.92098658
C        0.96035910       3.31592672      -0.11583122
C        1.20816807       0.77047357       2.18729001
C        1.98794862      -0.37585254       1.79143487
C       -2.22712779      -1.11169679      -2.15657910
C        1.82513110      -0.82788143      -2.49511737
C        2.20577821       0.22974672      -1.58351972
C       -1.44087056       2.76455527      -0.28019483
C       -2.33385588       0.90549128      -3.27790185
C       -0.19594661       3.14071465      -2.22052201
C        1.88693077       2.41932742      -0.71709866
C       -0.17532037       1.41813364      -3.74186511
C       -3.06141469      -0.16454774      -1.43102864
C       -0.88252207      -2.85911316      -3.85084807
C        0.35044910       3.39791818       4.31229831
C        0.84511634      -0.76240796      -3.55449189
C       -2.20159104       2.33183603      -1.46255843
C       -2.39237927      -2.45852557      -0.12279052
C       -2.82888699       1.13984774      -1.96551551
