60
Properties=species:S:1:pos:R:3 pbc="F F F"
C        0.76978007      -3.37748482      -0.62447350
C        2.12014037      -0.53054425      -2.47569232
C        1.70617555       0.84424240       1.97957165
C        1.83771151      -2.65197010      -1.24334070
C       -3.58762551       1.60281935       1.59108410
C        2.99000875      -0.33439254      -0.12591481
C        1.30611637      -2.33003206       1.61627450
C        3.63804677      -1.97221086       2.59921429
C       -1.65749790       1.91277642      -2.90657992
C       -0.51495938      -1.54359130       0.10969462
C       -1.82282150       2.40032926       3.02076183
C        1.35520818       2.83955557       0.01210294
C       -0.24720703      -3.54999190      -1.58949410
C       -0.38980687       4.07810498      -0.75445827
C        0.66116624       2.73048029      -2.32247202
C       -0.69419267      -0.03462209       0.66520862
C        1.58245460       1.66555646      -2.52117849
C       -2.73228317      -1.81010442       1.01756757
C        0.38657478      -2.10505597       2.68440801
C        2.95253976       0.09321575      -1.50366677
C       -2.68325543       2.03868994      -1.92602659
C       -2.48619211      -1.32831749      -1.27481765
C       -0.87475138      -2.03763849       2.72630658
C       -3.59147915       0.19146484       1.78460754
C       -2.12670322      -1.64010399       2.30437287
C       -1.24318835       0.44030612       1.86803911
C       -3.32080493      -0.26916431      -0.67826611
C        3.16945076      -1.71486195       0.14438460
C       -1.92294486      -1.94542017      -0.12782547
C        2.36779350       0.70249553       0.67145873
C       -1.16762857      -0.65953611      -3.32379740
C        1.27265318      -1.45747979      -1.82795494
C       -2.38191687      -0.24879213       2.38795429
C       -1.26803255       3.91984076      -1.84872939
C        2.33891431       0.15488833       3.00796651
C       -1.75515421      -1.66134765      -2.51541374
C        2.74819707      -2.19793801       1.47210563
C       -3.03861505       2.34941003       2.65810741
C       -0.77594667       1.56297021       2.55715747
C        0.55575005       1.84708966       2.04875926
C        3.18190014      -2.61402354      -0.93799260
C        0.46962779      -2.58227171       0.51191465
C        2.25460533       1.81977402      -0.19779222
C       -0.14911426       0.41352082      -0.57922699
C        0.25366892      -0.85059426      -1.06503194
C       -3.20416708       1.13843672      -0.86125804
C        0.02967163       0.09470066      -3.55701905
C        1.33779056       0.44607222      -3.17037269
C        0.34668687       2.74495063       0.99863928
C       -2.41411630       3.29920644      -1.32140979
C        0.82653071       3.48017394      -1.12684722
C        2.55953590       1.44399863      -1.51304222
C       -0.69089283       2.92532693      -2.69730930
C       -3.11773300       1.94028588       0.32639145
C       -0.99215725      -2.84338090      -2.28491981
C        3.10651021      -0.87144840       3.05156673
C       -1.19359822       0.72832148      -3.44058309
C       -0.86686926       3.38082857       0.42462248
C       -3.61677717      -0.72249005       0.67334383
C       -2.19989610       3.01608936       0.06441159
