60
Properties=species:S:1:pos:R:3 entry_id=177 rank=53 energy=-500.8872985839844 pbc="F F F"
C        1.23127215      -2.61586178       0.20441779
C        2.50814907       0.28596509      -2.60977644
C        3.24505128       1.30286441       1.14299093
C        2.43587046      -1.90692291       0.36395260
C       -2.09043538      -1.94988881       3.47987361
C        4.15945976       0.88939110      -0.94934749
C       -2.20308657       1.18139233       0.51805580
C       -1.27566765      -2.87539198       2.80508758
C       -0.43822784       2.17900881      -2.44826478
C        0.12586248      -2.65715273       2.56275143
C        0.13786936       0.74451598       3.24749162
C        1.73403554       3.28067246      -0.20375839
C        0.41599543      -2.31698186      -0.94709267
C       -0.53969118       3.22398077      -0.42135031
C        0.65740819       3.13164895      -2.38327127
C        0.73506011      -1.50150693       3.12476659
C        1.80192560       2.47840331      -2.86309100
C       -1.91126374      -3.20496567       1.56069826
C       -3.15797748      -1.60209036       2.58114321
C        3.56766569       1.15017479      -2.19675590
C       -6.27936678       1.85082522      -5.31542213
C       -1.65807181      -0.62133945      -1.82954501
C       -2.77009402      -1.30387170       0.31534520
C       -2.11462639       0.33630862       3.20632856
C       -2.95811263      -2.28745855       1.34624563
C        1.77568845      -0.70933971       2.49901191
C       -2.20119292       1.47193022      -0.87613279
C       -0.91238158      -3.34700674       0.59788080
C       -0.94120090      -2.61647795      -0.61707261
C        3.70862824       1.90641104      -0.05054894
C        0.08725131       0.89054629      -2.80521588
C        2.16689285      -0.88079788      -1.87898795
C       -1.49341541      -0.74992716       3.89701396
C       -4.43841830       1.11402252      -3.67061738
C        3.62216229      -0.07422233       1.06496339
C       -0.30721662      -0.39365882      -2.28361005
C       -7.17908415       2.04957753      -6.20698823
C       -0.10753325      -0.56953243       3.80142330
C        1.39670483       0.69179324       2.57973818
C        1.97626462       1.66683301       1.69844983
C        0.36633382      -3.12517255       1.21871254
C       -1.91170280      -1.59330494      -0.80979734
C        2.95372171       2.86234187      -0.76372456
C        3.98123173      -0.34584241      -0.30546087
C        3.02130183      -1.27614803      -0.79753837
C       -2.87452669      -0.01109528       0.94615547
C       -1.27707054       2.41874333      -1.33063949
C        1.46636281       1.11328472      -3.09091138
C        1.19433979       2.65602868       0.99187024
C       -5.34640607       1.44199981      -4.52927437
C        0.66626343       3.63909552      -1.06282542
C        3.01591335       2.49875737      -2.14978267
C       -3.53538440       0.77660394      -2.85876083
C       -1.10890026       1.23136501       2.73562854
C        0.76841066      -1.27676196      -1.84208883
C        2.72952142      -1.08667943       1.51300872
C       -2.62819486       0.49462087      -1.90830661
C       -0.26230952       2.69036335       0.86423262
C       -3.08296434      -0.20317428       2.33938193
C       -1.25122006       1.81416471       1.43434412
