60
Properties=species:S:1:pos:R:3 entry_id=227 rank=66 energy=-500.5655517578125 pbc="F F F"
C        0.80224274      -2.22734331       0.46723630
C        2.04626744       0.46734915      -2.53281632
C        2.56959989       1.96456084       1.14186598
C        1.90789477      -1.34392636       0.62545168
C       -2.25557406      -1.88642717       1.20146637
C        3.60958784       1.36364177      -0.86467346
C        0.22160170      -3.29279270       3.90447326
C       -1.33718010      -2.96191145       1.25270709
C       -3.53393495       2.41046700      -2.75497626
C        0.01102574      -2.61459967       1.58953241
C       -0.92959602       1.18462505       2.38379951
C        1.24084006       3.91863830      -0.37358688
C        0.26694061      -2.39777028      -0.85597544
C       -0.95705686       4.45457206      -0.55980241
C        0.02175772       3.51420851      -2.44140373
C        0.07258321      -0.82139938       3.07971645
C        1.03382157       2.57514870      -2.79695753
C       -1.31157337      -3.93055862       0.14452815
C       -2.70800431      -1.52549515      -0.10087411
C        2.97683243       1.45911991      -2.12081865
C       -3.45910457       2.00799336      -1.38642312
C       -1.74465648      -1.14478374      -2.25676642
C        0.22919351      -2.24477853       3.00014116
C       -2.72986549       0.38416132       1.18750827
C       -1.07536338      -5.25666709       0.43315906
C        1.07071291       0.06071232       2.56305742
C       -2.45297397       0.07950657      -2.37346093
C       -0.32352442      -5.49873972       2.82490175
C       -1.02542687      -3.03887655      -0.94790562
C        3.14177401       2.47029136      -0.06407129
C       -0.33197124       0.44675258      -3.18767213
C        1.89885846      -0.74557549      -1.78618692
C       -2.20983163      -0.70056711       1.98812267
C       -1.96266060       3.85758903      -1.34957432
C        2.98140120       0.60008538       1.20635275
C       -0.40039721      -0.90347469      -2.65141397
C       -0.00785486      -4.52571951       3.62694029
C       -1.16164461      -0.19299681       2.77102950
C        0.49369066       1.36875248       2.30298093
C        1.23289839       2.33476280       1.53898584
C       -0.70316673      -5.66910316       1.59786914
C       -2.03734203      -2.06124314      -1.22957544
C        2.40241994       3.33645179      -0.89263623
C        3.43916338       0.20526441      -0.09617727
C        2.59691912      -0.84482127      -0.54389460
C       -3.21329139       0.59429810      -1.29062970
C       -1.67120078       0.99201479      -3.14345206
C        0.88229584       1.15647051      -3.06501754
C        0.58478063       3.37389533       0.78447872
C       -2.69255970       2.91538063      -0.57968281
C        0.25532157       4.34925908      -1.29187034
C        2.31189879       2.73013012      -2.18105044
C       -1.39596538       3.35979863      -2.55310272
C       -1.97712973       1.57244125       1.47028248
C        0.66043859      -1.47706099      -1.89569262
C        2.09780919      -0.39211195       1.70081891
C       -2.16451428       2.32784761      -3.16641883
C       -0.82394895       3.63977428       0.61640679
C       -3.12868480      -0.14221709      -0.07601098
C       -1.93763334       2.72611223       0.64174584
