60
Properties=species:S:1:pos:R:3 entry_id=178 rank=49 energy=-500.89501953125 pbc="F F F"
C        1.17472454      -2.61175095       0.15054490
C        2.41716238       0.31795890      -2.64804028
C        3.26748829       1.26427659       1.10254944
C        2.39206883      -1.92143596       0.28924806
C       -2.04633136      -1.95609295       3.52806651
C        4.11883434       0.87284217      -1.02061599
C       -2.19829605       1.22710715       0.61985213
C       -1.26292127      -2.88074786       2.81612093
C       -0.49704909       2.24795860      -2.37330025
C        0.13335752      -2.67498755       2.53805508
C        0.21135547       0.71280839       3.28157754
C        1.74903124       3.28377914      -0.17031953
C        0.33340848      -2.28670161      -0.97490749
C       -0.53093413       3.26052818      -0.32832308
C        0.61280364       3.18427759      -2.32234026
C        0.77274950      -1.53798795       3.10279866
C        1.73429521       2.52424766      -2.84440037
C       -1.93660852      -3.18284314       1.58468720
C       -3.13280700      -1.57931452       2.66475231
C        3.49793358       1.16171237      -2.24716500
C       -6.00731960       1.55807746      -5.66807385
C       -1.73343711      -0.53941557      -1.75815234
C       -2.80103225      -1.24899377       0.39586865
C       -2.04650349       0.33434493       3.29367133
C       -2.97575280      -2.24722527       1.41416217
C        1.80599850      -0.74997499       2.46172287
C       -2.23626671       1.54579109      -0.76857629
C       -0.96629014      -3.32095770       0.59221697
C       -1.01872868      -2.57270835      -0.61139676
C        3.70748002       1.88118028      -0.09310761
C        0.00081512       0.95907661      -2.76761554
C        2.07969501      -0.85845147      -1.93036685
C       -1.42223834      -0.77155822       3.95007284
C       -4.35727582       1.07923473      -3.74764959
C        3.62036303      -0.11665998       0.98938117
C       -0.39630357      -0.32857261      -2.25690374
C       -6.83604552       1.60182419      -6.64549091
C       -0.03694327      -0.60748091       3.82024369
C        1.45113092       0.65478271       2.57943496
C        2.02016695       1.63710423       1.69947626
C        0.33100735      -3.12368573       1.18086230
C       -1.97699323      -1.53049281      -0.75556258
C        2.94697109       2.85841639      -0.77033316
C        3.93990682      -0.37035040      -0.39375565
C        2.95631960      -1.28075668      -0.87690220
C       -2.87133837       0.03517678       1.04839023
C       -1.30511062       2.48216297      -1.23135471
C        1.37479325       1.16775106      -3.08691006
C        1.23312030       2.64771895       1.02976486
C       -5.17639079       1.28409633      -4.72546359
C        0.66350699       3.66910790      -0.99451881
C        2.96659751       2.51631119      -2.16323983
C       -3.53578263       0.88022249      -2.81281384
C       -1.04186747       1.22337213       2.80940167
C        0.67728715      -1.23709143      -1.86288002
C        2.72589810      -1.12392133       1.44327948
C       -2.69014283       0.59321481      -1.80687059
C       -0.22632857       2.70274457       0.94080795
C       -3.04457313      -0.17756516       2.44388538
C       -1.21173909       1.82955416       1.52146742
