60
Properties=species:S:1:pos:R:3 entry_id=85 rank=24 energy=-501.5504150390625 pbc="F F F"
C        1.79699434      -2.00103136       1.08279899
C        2.30889980       0.16907767      -2.44386650
C        2.56133917       2.58622864       0.70916538
C        2.62418897      -0.86993372       1.00654809
C       -2.22597328      -1.33167571       2.93875485
C        3.69441264       1.72235517      -1.14436645
C       -3.43258308      -3.95099205      -0.70250273
C       -1.10690441      -2.14842637       3.16168579
C       -3.55666768       0.89313903      -2.55036499
C        0.19747303      -1.54603851       3.03808305
C       -0.74324383       1.82931136       2.45992069
C        0.90532795       3.87786177      -1.15636338
C        1.30224957      -2.57684775      -0.13394932
C       -1.36017416       3.98353804      -1.33136598
C       -0.27987827       2.70610475      -2.93261025
C        0.32636544      -0.12792502       3.13748398
C        0.88474947       1.91078162      -3.11143689
C       -1.21446104      -3.22818822       2.21681296
C       -2.77359826      -1.68569315       1.66237139
C        3.03349284       1.38659704      -2.34614175
C       -3.30662139       0.95166093      -1.14391080
C       -1.03597396      -2.08732094      -1.47373361
C       -2.33046797      -3.53819693       0.02501914
C       -2.56797323       0.59150685       1.76472976
C       -2.32766210      -2.99777649       1.34998566
C        1.29775282       0.73029699       2.48565876
C       -1.98120369      -0.99678532      -1.59465789
C        0.02835234      -3.37220772       1.59979574
C        0.13481822      -3.33957420       0.18758840
C        3.03236226       2.88605998      -0.60478405
C       -0.05213146      -0.44718112      -2.79366629
C        2.46839440      -0.86120447      -1.46869197
C       -2.10216850       0.05050934       3.00326124
C       -2.25966266       3.00544596      -1.82206042
C        3.16896383       1.35017578       1.06438878
C        0.20537877      -1.64728374      -2.05177177
C       -4.41745011      -4.42855026      -1.31262624
C       -0.86113497       0.64904018       3.28353221
C        0.64084947       1.97820800       2.10298665
C        1.20131520       2.84328114       1.09338585
C        0.92558135      -2.38640377       2.14018482
C       -1.05869952      -3.15929196      -0.55496275
C        2.13842489       3.37516663      -1.57832019
C        3.74788351       0.77330056      -0.11554469
C        3.19248322      -0.52097428      -0.27609062
C       -2.83307049      -0.32083431      -0.60321433
C       -1.45505276      -0.16740156      -2.65796371
C        1.00115094       0.47383119      -2.99358536
C        0.38665577       3.57734903       0.15116782
C       -2.76387812       2.22560252      -0.74745011
C       -0.16539763       3.86460761      -2.08670059
C        2.12859984       2.45264753      -2.66429083
C       -1.64108613       2.26942485      -2.86223199
C       -1.86940155       1.82118447       1.56033544
C        1.42571587      -1.85539766      -1.35497384
C        2.47252543       0.34283046       1.78177274
C       -2.21190819       0.97224530      -3.02355120
C       -1.04556751       3.60121573       0.01532210
C       -2.87134923      -0.49516076       0.84982427
C       -1.98444332       2.59882101       0.40017400
