60
Properties=species:S:1:pos:R:3 entry_id=63 rank=178 energy=-498.3154296875 pbc="F F F"
C        1.10165609      -1.73374156       0.61320080
C        2.37765629       0.77045873      -2.47541059
C        2.69415768       2.40443467       1.13759554
C        2.25039892      -0.94880755       0.72870429
C       -2.32093944      -1.42958880       1.08358365
C        3.86224038       1.77215546      -0.79016427
C       -1.91331903      -7.20879382       3.04187466
C       -1.15838457      -2.41150607       1.05583732
C       -3.19417653       2.68153279      -3.13320992
C        0.08532948      -1.69207162       1.61034057
C       -0.90755725       1.56971164       2.15686316
C        1.42114173       4.28680047      -0.50630568
C        0.54227346      -1.97028236      -0.67712394
C       -0.76162659       4.80026425      -0.83752111
C        0.32725124       3.80160842      -2.62471441
C        0.02073429      -0.54971551       2.43140216
C        1.35805181       2.85332960      -2.88643370
C       -1.35984180      -3.74570406       1.56666687
C       -2.71263814      -1.09550418      -0.23573797
C        3.27812754       1.79552247      -2.07236577
C       -3.22335169       2.35063472      -1.74663294
C       -1.42957158      -0.84035658      -2.27240158
C       -1.70052449      -6.07557359       2.55151955
C       -2.75460985       0.84362634       0.96197843
C       -1.52324753      -4.86585400       2.05096718
C        1.08709201       0.41749670       2.36358786
C       -2.14073509       0.36571936      -2.53037294
C       -2.36968605      -9.55332004       4.02569474
C       -0.80885950      -2.33845451      -0.46801213
C        3.32308779       2.88860375      -0.05134244
C        0.02925751       0.69191718      -3.23617710
C        2.22449113      -0.42023521      -1.69019160
C       -2.32236386      -0.23593411       1.81683994
C       -1.71904839       4.18381473      -1.67110173
C        3.16300496       1.06485996       1.28009739
C       -0.06116976      -0.62438874      -2.62032647
C       -2.09521081      -8.41156379       3.48695336
C       -1.18114221       0.19518195       2.49688287
C        0.53295890       1.73579947       2.13643948
C        1.31691740       2.73074215       1.43683551
C       -2.45498443     -10.80152681       4.29295103
C       -1.79904283      -1.63562561      -1.17514040
C        2.61572756       3.70913875      -0.94813393
C        3.70841178       0.63761440       0.01055305
C        2.93544721      -0.47174917      -0.44125475
C       -3.01136208       0.94284905      -1.56096349
C       -1.31122312       1.23717455      -3.29921218
C        1.23198039       1.41949145      -3.09138410
C        0.70258171       3.75643656       0.62479025
C       -2.50236109       3.27425281      -0.91597537
C        0.49005409       4.68097884      -1.49437984
C        2.60126751       3.05287938      -2.21661287
C       -1.07837547       3.63653337      -2.81518878
C       -1.93036941       1.99099881       1.22228281
C        0.97560605      -1.15834995      -1.79403462
C        2.29556926       0.05653219       1.74377950
C       -1.79913304       2.57106255      -3.43081989
C       -0.69572195       4.01568494       0.36541383
C       -3.09517445       0.27959411      -0.30463042
C       -1.81986388       3.11438314       0.35459534
