60
Properties=species:S:1:pos:R:3 entry_id=174 rank=54 energy=-500.87615966796875 pbc="F F F"
C        1.12771389      -2.60397901       0.08243294
C        2.58378675       0.35458645      -2.58180164
C        3.30471872       1.16962112       1.22257602
C        2.36102668      -1.96028534       0.28968908
C       -2.21024762      -1.92529646       3.33887283
C        4.23425858       0.80598289      -0.87226053
C       -2.13924657       1.34066198       0.51565153
C       -1.42881388      -2.85858966       2.63548825
C       -0.27563285       2.37263148      -2.37708290
C       -0.01521329      -2.69629878       2.42179935
C        0.14273869       0.66857233       3.25583777
C        1.90927491       3.27428382      -0.05565161
C        0.34541824      -2.21737373      -1.06547575
C       -0.36031314       3.33173542      -0.30896500
C        0.86180382       3.27001773      -2.25520757
C        0.63657997      -1.59550540       3.04166985
C        1.98433229       2.58831752      -2.74843533
C       -2.05879851      -3.10232604       1.36877179
C       -3.24489671      -1.48809323       2.44085180
C        3.67475062       1.14900544      -2.11468960
C       -6.54168745       0.96539580      -5.23811388
C       -1.62472019      -0.37566237      -1.88400199
C       -2.81229685      -1.11054453       0.19633770
C       -2.12435116       0.36914513       3.16561067
C       -3.05854324      -2.12836411       1.18098557
C        1.72195539      -0.82723235       2.46561127
C       -2.11045094       1.69992796      -0.86391078
C       -1.05297616      -3.24887282       0.41432698
C       -1.02954492      -2.46704661      -0.76822889
C        3.81538613       1.80245546       0.06434093
C        0.19915445       1.08108489      -2.78286402
C        2.17710198      -0.82606781      -1.90868130
C       -1.56546131      -0.77399491       3.81716677
C       -4.57481625       0.91746801      -3.57258260
C        3.61947216      -0.21867537       1.08875540
C       -0.26183579      -0.20112648      -2.31778828
C       -7.64175149       0.89051270      -5.89278626
C       -0.17158505      -0.65530419       3.74829730
C        1.40789973       0.58500835       2.60420154
C        2.04569693       1.56908660       1.77558244
C        0.22477928      -3.11583046       1.06170443
C       -1.94902882      -1.39059691      -0.92736896
C        3.11717701       2.82322473      -0.61591578
C        3.98860240      -0.44669972      -0.28700862
C        2.99453074      -1.30817621      -0.83398496
C       -2.86747931       0.15938715       0.88098122
C       -1.12028680       2.60283620      -1.26202974
C        1.59015184       1.25083730      -3.04121763
C        1.32217255       2.62446540       1.10350877
C       -5.58458853       0.93318855      -4.37753586
C        0.87372278       3.71920165      -0.91355135
C        3.18491783       2.51843355      -2.01540464
C       -3.61501629       0.89737543      -2.75505759
C       -1.07153549       1.23468505       2.74732754
C        0.76143952      -1.15658370      -1.90730112
C        2.67315653      -1.20603272       1.47790754
C       -2.57529585       0.76871805      -1.91641848
C       -0.12947506       2.73231387       0.95573362
C       -3.10295719      -0.08527577       2.26261374
C       -1.16798929       1.88077424       1.47168257
