60
Properties=species:S:1:pos:R:3 entry_id=121 rank=35 energy=-501.1340026855469 pbc="F F F"
C        2.22897128      -2.03664645       0.62020849
C        1.87012132       0.67886788      -2.60057342
C        2.30412363       2.45309406       0.85265472
C        3.00426567      -0.86005873       0.54834512
C       -0.80832305      -2.42587010       4.20392640
C        3.20355014       2.17408072      -1.26570329
C       -2.45441601      -0.31140427       0.90137095
C        0.29351826      -2.98228520       3.53196332
C       -5.88596101       3.25284884      -8.38597403
C        1.41960451      -2.20507090       3.08846274
C       -0.10149739       0.88780409       3.33613810
C       -0.00520089       3.21905387      -0.57978128
C        1.30694007      -2.31229916      -0.44645987
C       -1.89270535       1.92043900      -0.65568448
C       -1.01548412       2.71303136      -2.78372204
C        1.46745950      -0.82736809       3.43644457
C        0.30002775       2.30116876      -3.10961994
C       -0.19625750      -3.75672848       2.43011404
C       -1.98202720      -2.76374771       3.44623325
C        2.48969542       1.94870923      -2.45578167
C       -4.39559116       2.73681769      -6.37424229
C       -1.31304164      -1.48868371      -0.92736621
C       -1.92136404      -2.69085940       1.14137722
C       -1.91005970      -0.47796151       3.65740153
C       -1.56864634      -3.48274120       2.27530157
C        1.99070145       0.23144843       2.59381042
C       -2.23118418      -0.45658280      -0.51586191
C        0.67652373      -3.57190069       1.35324531
C        0.22993477      -3.10990407       0.08213305
C        2.38701616       3.01482207      -0.44602218
C       -0.54062706       0.03990754      -2.69698382
C        2.16596206      -0.40567533      -1.73781577
C       -0.81250015      -1.03491737       4.38287603
C       -2.85902072       2.14890720      -4.42637995
C        3.26516153       1.39347780       0.89108291
C       -0.26036547      -1.07546610      -1.84219349
C       -5.16382234       3.10942142      -7.33613182
C        0.32422188      -0.27215882       4.08900471
C        1.00608534       1.29599321       2.53677183
C        1.03032769       2.27052704       1.48470097
C        1.75211675      -2.71446902       1.78170573
C       -1.08930696      -2.59306525      -0.02056279
C        1.24522693       3.40881731      -1.18287923
C        3.63896600       1.10103712      -0.47019473
C        3.18130489      -0.22245522      -0.73936823
C       -2.58383917      -1.52515741       1.62040938
C       -2.28857285       0.72726345      -1.30075893
C        0.52196659       0.90356865      -3.03569078
C       -0.15031602       2.61695160       0.72932605
C       -3.61990500       2.44991792      -5.37813905
C       -1.11759086       2.85420408      -1.38376019
C        1.42713303       2.93056858      -2.51994079
C       -2.02676928       1.87125607      -3.41125568
C       -1.45689661       0.66492053       2.92533484
C        1.10858775      -1.36715780      -1.48557968
C        2.96090794       0.17100443       1.55380342
C       -1.84175263       0.63608823      -2.65960859
C       -1.41824894       1.89585736       0.71320236
C       -2.59546185      -1.53881519       3.03324246
C       -1.89674323       0.84870047       1.56837965
