60
Properties=species:S:1:pos:R:3 entry_id=5 rank=219 energy=-480.9170837402344 pbc="F F F"
C        1.81533840      -3.72238295      -0.61849496
C        2.08261398      -0.06725335      -2.33091615
C        1.39312820       1.94018402       1.85599349
C        3.00644032      -4.32760629      -0.26647093
C       -2.60930915       1.15688854       1.95229378
C        2.59565163       0.72727121       0.01848191
C       -0.23179252      -3.54621911       1.11925600
C        2.36024441      -1.60059002       2.57395365
C       -3.14826618       1.44836825      -2.75805059
C        0.30089899      -1.66015281       0.01159726
C       -1.08371355       1.79793115       3.61581651
C        1.03762322       3.81076966      -0.37336085
C        0.61739751      -3.42003528      -1.34029890
C       -1.00937704       4.50809729      -1.12231374
C        0.12069217       3.05782792      -2.51873911
C        0.49727583      -0.63027012       0.93925611
C        1.09994176       2.02843696      -2.55967929
C       -2.92633129      -3.47151180      -0.33477847
C       -2.76340312      -2.32018241       0.28113586
C        2.73676730       0.85876376      -1.41990679
C       -3.39801213       1.88592313      -1.42064903
C       -1.65444406      -1.61755343      -1.77830980
C       -0.57887410      -2.82674751       2.36039989
C       -2.42877824      -0.11821929       1.36946235
C       -1.28639579      -1.88158507       2.91789865
C        0.00927343      -0.08437142       2.09687679
C       -2.53771451      -0.61890258      -1.19145044
C        2.10066395      -2.80819974       1.88140469
C       -1.69165253      -2.75668473      -0.84027930
C        2.22119720       1.94646967       0.66618973
C       -0.23186308      -0.10444569      -3.21331917
C        1.78040267      -1.41560364      -1.96600194
C       -1.36736568      -0.49266735       2.53828400
C       -1.95240594       3.70321965      -1.81831367
C        1.17177082       0.66131225       2.61090219
C       -0.47994176      -1.45324399      -2.59050085
C        0.76776943      -3.24416050       1.98263417
C       -1.90339773       0.78679049       3.21200225
C       -0.92231239       2.58601482       2.46541172
C        0.31295706       2.90545400       1.82745012
C        2.48711263      -3.40484315       0.62881380
C       -0.33756723      -2.95938132      -0.26238354
C        2.03443796       2.84956104      -0.43149848
C        1.76506847      -0.32675951       0.29095485
C        1.51434070      -1.32922350      -0.61725785
C       -3.15398799       0.51822913      -1.71334790
C       -1.19817444       0.71001288      -3.67410947
C        0.99646912       0.62534253      -2.90054935
C        0.17524043       3.82403569       0.74606218
C       -2.75149150       3.00501246      -0.87745359
C        0.28428911       4.09843035      -1.54448437
C        2.20686135       2.15218425      -1.66455409
C       -1.27322745       2.95589808      -2.81412906
C       -2.06086660       2.42047681       1.58170250
C        0.68255996      -2.29695795      -2.36034519
C        2.11482904      -0.40312111       2.90282464
C       -1.89594619       1.82310409      -3.42676663
C       -1.11105245       4.16231517       0.25627337
C       -2.74585276      -0.91061716       0.25885967
C       -2.15880835       3.22631449       0.42152076
