60
Properties=species:S:1:pos:R:3 entry_id=3 rank=223 energy=-478.10272216796875 pbc="F F F"
C        1.72580421      -3.60550198      -0.66285063
C        2.25439254      -0.21365958      -2.25702317
C        1.85080540       1.98181618       1.87554719
C        2.71836434      -2.60333382      -0.95712489
C       -2.60556113       1.18208560       2.37472112
C        2.63885932       0.65869414       0.06032047
C       -0.27985136      -3.47862957       1.18765380
C        2.34733374      -1.52459112       2.45112297
C       -3.04460477       1.12302282      -3.41391071
C        0.09500142      -1.55178245       0.05407009
C       -0.89131078       1.47608359       3.88379914
C        0.95692928       3.49081327      -0.27937268
C        0.46111613      -3.39399512      -1.26435668
C       -1.21397147       3.89134326      -0.95489398
C        0.13929539       2.79107487      -2.49037806
C        0.27208696      -0.47998495       0.96721512
C        1.21996577       1.86316276      -2.55460546
C       -2.96921640      -2.67504411      -0.09013714
C       -3.19546150      -1.50982474       0.38307263
C        2.85598266       0.75738981      -1.37743648
C       -3.69382220       1.79667459      -2.29529709
C       -1.60660149      -1.50925195      -1.79078759
C       -0.45601946      -2.84999236       2.49335957
C       -2.01948227       0.45263907       1.28161795
C       -1.09184460      -1.94352232       3.25400847
C       -0.63446578       0.14536273       1.86990384
C       -2.37409929      -0.32940621      -1.33604939
C        2.11945937      -2.69659095       1.74310957
C       -1.75902083      -2.59156226      -0.84391073
C        2.56877228       1.95439581       0.65358371
C       -0.02536443      -0.22890723      -3.29946673
C        1.89296371      -1.56884253      -1.75411945
C       -1.23983174      -0.64220155       3.05297608
C       -2.07822325       3.32908427      -1.95300997
C        1.59440727       0.90098804       2.79138810
C       -0.41569050      -1.49107129      -2.62114170
C        0.81864526      -3.23485058       1.95167124
C       -1.92704826       0.61799636       3.57239715
C        0.01480151       1.35773631       2.72594506
C        0.53894460       2.50723106       1.87248405
C        2.42566692      -3.02709099       0.38275839
C       -0.46211888      -2.89750262      -0.20091048
C        2.14823921       2.78471272      -0.43237136
C        1.49692224      -0.10997778       0.26763869
C        1.15667228      -1.06798368      -0.63349183
C       -3.15193899       0.45506059      -2.18569069
C       -0.90342952       0.56341225      -3.93194926
C        1.19618980       0.46679127      -2.91193736
C        0.09842116       3.35660439       0.85497002
C       -3.40637112       3.00473214      -1.81083868
C        0.12318333       3.68752129      -1.38883712
C        2.31187741       2.04816551      -1.65866814
C       -1.22203609       2.66067204      -2.90706882
C       -2.83156621       2.51999593       2.06484103
C        0.66577737      -2.33798681      -2.25146887
C        2.12764888      -0.35742605       2.87569515
C       -1.70512539       1.61426896      -3.73992081
C       -1.26329579       3.70907023       0.47152121
C       -2.63901873      -0.24728429       0.17168293
C       -2.33121194       3.38033204       1.29495418
