60
Properties=species:S:1:pos:R:3 entry_id=41 rank=198 energy=-494.4332580566406 pbc="F F F"
C        1.98474660      -4.20404490      -1.28684357
C        2.13445610      -0.11675063      -2.23970840
C        1.86592573       1.90397774       1.29962204
C        3.23461377      -4.72171738      -0.95625119
C       -2.57852256      -0.73832159       2.67689775
C        3.20326199       0.91118992      -0.32190119
C        0.23305822      -4.09980312       0.75968640
C       -1.59586240      -0.99307700       3.63449256
C       -3.43762224       1.56763010      -2.84565358
C        0.31331394      -1.43420914       1.46110436
C       -1.63622551       2.33436193       2.65229028
C        1.11594662       3.74591765      -0.65648711
C        0.79643768      -3.52586103      -1.56589210
C       -1.01492184       4.32121862      -1.24405759
C        0.09174451       2.89245005      -2.70529797
C       -1.10713984       0.31829364       3.71535192
C        1.13450172       1.92573875      -2.79084464
C       -1.21049540      -1.93751453       1.05144237
C       -2.33214708      -0.97951022       1.32416742
C        2.92929369       0.91350134      -1.70023717
C       -3.32763502       1.58532212      -1.42698730
C       -1.23802868      -1.59580050      -1.50880591
C       -0.68892085      -4.25936090       1.81417092
C       -3.18146494       1.13752462       1.50115961
C       -1.27806795      -3.13662024       1.91691326
C       -0.06631275       0.71535130       2.86579830
C       -2.06002971      -0.42334350      -1.74558140
C        1.42347184      -2.16073573       0.86560294
C       -1.04731273      -2.42871523      -0.37621629
C        2.74913091       2.17304104       0.21820761
C       -0.16638952      -0.24992398      -3.07300586
C        1.97610897      -1.36608119      -1.54500989
C       -3.11576630       0.58631630       2.80408613
C       -1.96571546       3.50646757      -1.90491334
C        1.81511665       0.48212604       1.44272129
C       -0.18219277      -1.53186809      -2.44672933
C        1.56200485      -3.57467887       0.96279022
C       -2.13672422       1.30493285       3.51903568
C       -0.24705095       2.07471191       2.46152830
C        0.67649717       2.66917842       1.53671589
C        2.44064386      -4.15239179       0.03706441
C       -0.18298526      -3.53398579      -0.52447103
C        2.26038061       2.96146794      -0.85110723
C        2.60423016      -0.11516805       0.44297072
C        2.17740667      -1.35883043      -0.10778315
C       -2.87935053       0.32445425      -0.85604487
C       -1.48419221       0.27338258      -2.85498196
C        1.03042495       0.48534899      -2.93995020
C        0.29981606       3.60384577       0.52102647
C       -2.75285882       2.81351357      -0.95212904
C        0.25904907       3.96757896      -1.76475981
C        2.31745616       2.16443596      -2.02744602
C       -1.32211869       2.70504586      -2.87852449
C       -2.49030680       2.38127442       1.50636430
C        0.99431534      -2.24721166      -2.11996817
C        0.68849921      -0.16695349       2.02394799
C       -2.06083587       1.52475768      -3.19218894
C       -1.04151038       3.92996458       0.13783593
C       -2.89076172       0.10048183       0.55673361
C       -2.19545819       3.10883947       0.33504551
