60
Properties=species:S:1:pos:R:3 entry_id=163 rank=25 energy=-501.4571228027344 pbc="F F F"
C        1.79807345      -2.18008500       0.54569827
C        1.89582197       0.60919600      -2.61432307
C        2.42338637       2.28182204       0.90448377
C        2.71129864      -1.10399401       0.53635057
C       -1.47159020      -2.24005343       3.93658984
C        3.34856432       1.92164319      -1.19168216
C       -2.57196190       0.14758719       0.60654431
C       -0.41372600      -2.92216006       3.31390965
C       -1.73442978       0.33170958      -3.74241865
C        0.82754028      -2.28921319       2.95553578
C       -0.28458179       0.97698186       3.23031237
C        0.29454671       3.43901371      -0.55892296
C        0.91520087      -2.32647218      -0.57380661
C       -1.71609835       2.37801157      -0.76772893
C       -0.70513980       3.12394015      -2.82233845
C        1.03223621      -0.93576738       3.33899159
C        0.49053866       2.39561170      -3.09684795
C       -0.93554703      -3.60279994       2.16512613
C       -2.62915730      -2.39721675       3.09855649
C        2.62912823       1.79616814      -2.39315317
C       -2.88161927       0.98816683      -5.72798377
C       -1.54869946      -1.15693955      -1.22511363
C       -2.41659690      -2.28509644       0.80461020
C       -2.27172228      -0.15099176       3.39765938
C       -2.24682683      -3.14365206       1.93545776
C        1.73091364       0.06668839       2.55486326
C       -2.29195434       0.02840107      -0.81478782
C        0.01696035      -3.51329399       1.14705392
C       -0.28952082      -2.97341552      -0.13479500
C        2.62937442       2.85785127      -0.37700676
C       -0.44201347      -0.00956007      -3.15296755
C        2.04828033      -0.51892914      -1.77874552
C       -1.30181078      -0.86670948       4.16421060
C       -2.51186419       3.09636260      -4.68712951
C        3.22570280       1.09696260       0.94620759
C       -0.39304446      -0.98382819      -2.11724906
C       -2.27292043       0.11458483      -5.00271428
C       -0.05862743      -0.25329757       3.95813280
C        0.90567872       1.25739525       2.49559404
C        1.11441817       2.25691625       1.48698852
C        1.16871583      -2.81306289       1.65837253
C       -1.52018747      -2.28301766      -0.30865727
C        1.56793338       3.40673684      -1.13828714
C        3.61646068       0.78900945      -0.40560832
C        3.02758366      -0.46863981      -0.72681092
C       -2.92363817      -1.04782638       1.27761625
C       -2.23867607       1.28998773      -1.49821403
C        0.59965271       0.96101741      -3.13925457
C        0.02616082       2.79723079       0.70801907
C       -2.99485022       2.31975422      -5.59637295
C       -0.82746686       3.26061377      -1.41671348
C        1.68007665       2.87046006      -2.45918501
C       -1.91989367       2.71929191      -3.49578143
C       -1.63045527       0.94244993       2.73969723
C        0.90244528      -1.37418938      -1.61250143
C        2.73850919      -0.09103862       1.56153679
C       -2.22267726       1.41436487      -2.91531785
C       -1.31011911       2.23725616       0.60615626
C       -3.04240782      -1.09180075       2.68704282
C       -1.94847807       1.21099287       1.36610942
