60
Properties=species:S:1:pos:R:3 entry_id=81 rank=115 energy=-499.7479248046875 pbc="F F F"
C        1.66503450      -2.14679289       0.74909822
C        2.33934141       0.38707459      -2.49789892
C        2.58877034       2.43616775       0.89580759
C        2.51834235      -1.03838408       0.81847917
C       -2.38231658      -1.56848668       2.24242537
C        3.75966016       1.72246788      -1.00150893
C       -2.92470546      -5.74961959       2.26687458
C       -1.32036122      -2.41545365       2.58813405
C       -3.46874796       1.51996224      -2.82350326
C       -0.00696315      -1.82611380       2.61415801
C       -0.84367683       1.62442226       2.38674737
C        1.08604082       4.01571485      -0.86778986
C        1.12541472      -2.53981622      -0.50891335
C       -1.15522874       4.27906211      -1.11812618
C       -0.07639261       3.12383231      -2.81173573
C        0.14300093      -0.43335854       2.86329419
C        1.04215078       2.27244374      -3.02927840
C       -1.24910488      -3.75826295       1.98152868
C       -2.87465411      -1.64705194       0.86739879
C        3.12402186       1.54634541      -2.24912057
C       -3.33211423       1.43445810      -1.40937110
C       -1.16923119      -1.64853420      -1.73376633
C       -2.11750630      -4.77192268       2.11718445
C       -2.70334107       0.59183380       1.47727263
C       -2.42257448      -2.61964153       0.04146872
C        1.16989066       0.45816789       2.38399462
C       -2.04714536      -0.52767017      -1.92556719
C       -0.06931528      -3.60344040       1.15010798
C       -0.09073655      -3.26619871      -0.23869415
C        3.13286320       2.85378295      -0.35752315
C       -0.03897645      -0.04723485      -2.98954305
C        2.41134691      -0.74889159      -1.63464941
C       -2.26158555      -0.20263470       2.57483871
C       -2.08951140       3.43890829      -1.76723302
C        3.12893761       1.14158618       1.12917615
C        0.10327493      -1.30374604      -2.29340569
C       -3.76148497      -6.71502707       2.39382327
C       -1.03995488       0.33314889       3.00527766
C        0.56865732       1.76641572       2.12390770
C        1.22266964       2.71597909       1.25404223
C        0.79149215      -2.62803881       1.76004120
C       -1.31115005      -2.68835976      -0.74959323
C        2.30651545       3.49226187      -1.30201591
C        3.73231214       0.66689248      -0.08357650
C        3.13284794      -0.57824093      -0.40418852
C       -2.94680920       0.10374964      -0.98546005
C       -1.42778498       0.32398868      -2.90834768
C        1.07352538       0.82191000      -3.05826941
C        0.48843827       3.59291477       0.37218589
C       -2.71125775       2.58668312      -0.81842579
C        0.06358206       4.17337089      -1.83556066
C        2.29243989       2.69018595      -2.48087146
C       -1.46220259       2.77765119      -2.85422598
C       -1.94152936       1.80623627       1.46509261
C        1.30306834      -1.68045115      -1.63416113
C        2.36328355       0.09621094       1.70363192
C       -2.09323686       1.54421095      -3.19991492
C       -0.93408272       3.71147819       0.18269581
C       -3.04805284      -0.27009103       0.39435476
C       -1.95826030       2.73507296       0.40417647
