60
Properties=species:S:1:pos:R:3 entry_id=140 rank=3 energy=-503.8226318359375 pbc="F F F"
C        1.80707971      -2.05685802       0.76882659
C        1.82761029       0.30490358      -2.74603675
C        2.27937249       2.49267612       0.65016979
C        2.64458470      -0.93188810       0.63898871
C       -1.57531220      -1.83221225       4.02814846
C        3.12850990       1.89939113      -1.41841473
C       -2.55605503       0.05949091       0.33984252
C       -0.46489275      -2.54016523       3.54306744
C        0.09413843       1.34981913      -4.19389066
C        0.75789241      -1.89812989       3.14458579
C       -0.46874159       1.32966149       2.98981947
C        0.16479743       3.65105090      -0.84011169
C        1.00631896      -2.44552840      -0.35499014
C       -1.92010185       2.72917212      -1.01553975
C       -0.96337773       3.22097185      -3.06517705
C        0.90329768      -0.50302699       3.37029885
C        0.22754294       2.58589587      -3.51680109
C       -0.90601744      -3.39719443       2.48158145
C       -2.68253495      -2.14208745       3.16463297
C        2.32155119       1.62191789      -2.54934714
C       -2.56872924       0.25029355      -3.51661009
C       -1.48726707      -1.55294445      -1.26854706
C       -2.35743631      -2.33663555       0.89336587
C       -2.40536179       0.12972497       3.17626408
C       -2.22013847      -3.02572696       2.13630751
C        1.60072959       0.42815094       2.50165459
C       -2.31248182      -0.34166485      -1.06723696
C        0.08786565      -3.40429525       1.49886710
C       -0.18083601      -3.09322544       0.13514082
C        2.48171937       2.95129338      -0.68297805
C       -0.31788190      -0.76655514      -3.37137268
C        2.04673662      -0.72032872      -1.76401373
C       -1.46309924      -0.43592788       4.08394127
C       -2.55424245       1.96184579      -2.01776548
C        3.08333811       1.31721193       0.79817450
C       -0.31815142      -1.51591676      -2.16968694
C       -2.31454296       1.50148351      -4.23701028
C       -0.23433258       0.20218929       3.86727964
C        0.75071354       1.58017026       2.29810382
C        0.96544109       2.49065451       1.21887496
C        1.16914819      -2.56438454       1.93815835
C       -1.43020326      -2.49412036      -0.17916510
C        1.40718154       3.44456667      -1.46330747
C        3.46003185       0.87591372      -0.51730313
C        2.94949324      -0.44085958      -0.68513942
C       -2.89229185      -1.05161744       1.16323764
C       -1.45387575      -0.36792662      -4.12187787
C        0.67713790       0.21075513      -3.57366384
C       -0.12165093       2.97290858       0.41228813
C       -2.61647076       0.55724935      -2.12330787
C       -0.97660407       3.56597687      -1.66608251
C        1.40076628       2.71976448      -2.70773229
C       -2.18354878       2.51494636      -3.28448630
C       -1.77476772       1.15677373       2.42012312
C        0.98817723      -1.68693549      -1.54122411
C        2.62561018       0.19282705       1.54181208
C       -1.13774256       0.91976546      -4.75340146
C       -1.45578987       2.36736286       0.27612347
C       -3.10032647      -0.91864128       2.55513097
C       -2.04505483       1.26912980       1.01240551
