60
Properties=species:S:1:pos:R:3 entry_id=196 rank=184 energy=-497.5267028808594 pbc="F F F"
C        1.96899742      -1.85316838       0.63917449
C        2.51135956       0.63534387      -2.67531802
C        2.06172519       2.46786233       0.90678162
C        2.83620367      -0.74546402       0.70766531
C       -1.20334729      -2.37362402       4.10702471
C        3.29639010       2.25286460      -1.03425117
C       -2.90232892      -0.20638444       0.84021201
C       -0.08713580      -2.91077559       3.44079335
C       -4.12383005       1.52694577      -3.60908393
C        1.05999245      -2.12303980       3.07529102
C       -0.47064489       0.91370145       3.24489546
C       -0.11914537       2.97445288      -0.82287129
C        1.18643416      -2.11571439      -0.54141816
C       -2.17425764       1.89825704      -0.81845655
C       -1.23227243       2.66675300      -3.02581393
C        1.11230337      -0.76578864       3.48649282
C        0.93480460       2.06653408      -3.61754165
C       -0.55662518      -3.59991793       2.27447116
C       -2.36651193      -2.70206730       3.32901906
C        2.85322082       1.96263359      -2.32722712
C       -3.29193826       2.53633836      -5.72530447
C       -2.11434844      -1.44650641      -1.00292485
C       -2.27505596      -2.54606965       1.03422537
C       -2.29347005      -0.41744743       3.55396026
C       -1.93059607      -3.37331346       2.13711861
C        1.67072318       0.29289238       2.67123754
C       -2.85011876      -0.36432680      -0.61095933
C        0.29959527      -3.29508042       1.21047334
C       -0.06362194      -2.80088873      -0.07877093
C        2.25457528       2.98891997      -0.39353691
C        0.74709309      -0.52356514      -3.82363264
C        2.57505917      -0.39934557      -1.70671465
C       -1.21669118      -0.98434504       4.30214938
C       -0.83141602       2.74693831      -5.40679354
C        3.09006806       1.49224875       1.12167588
C        0.85017162      -1.49894427      -2.98720886
C       -4.02291466       2.05363886      -4.80041225
C       -0.07581266      -0.21639773       4.05255043
C        0.66346875       1.31000478       2.48846240
C        0.74546362       2.23275085       1.39821078
C        1.38020056      -2.52909525       1.73444120
C       -1.48193205      -2.38051430      -0.18150380
C        1.18138046       3.18285981      -1.31105837
C        3.66983094       1.20862594      -0.16930253
C        3.26798409      -0.11733249      -0.49862519
C       -2.98386513      -1.43388982       1.53930571
C       -3.06735932       0.90884258      -1.33565490
C        1.39975910       0.70083791      -3.59675591
C       -0.35947222       2.49031848       0.51276195
C       -2.00147430       2.77256624      -5.89966311
C       -1.25822177       2.64916967      -1.66891858
C        1.65944847       2.73766720      -2.59595681
C       -0.37227785       2.54478158      -4.08464218
C       -1.80793571       0.70587082       2.80424584
C        1.55604683      -1.45206446      -1.76353290
C        2.73053650       0.25463729       1.73131179
C       -3.75380281       1.09541297      -2.49187918
C       -1.65923711       1.84643081       0.51092857
C       -2.99459213      -1.47492703       2.94810149
C       -2.22368243       0.89402066       1.43775066
