60
Properties=species:S:1:pos:R:3 entry_id=78 rank=26 energy=-501.3832702636719 pbc="F F F"
C        1.65067251      -2.20468533       0.83682257
C        2.27114396       0.25074612      -2.48788448
C        2.63828488       2.35848683       0.85137241
C        2.53210185      -1.11487472       0.85492677
C       -2.28737920      -1.59696773       2.29114797
C        3.75017370       1.59287296      -1.05942130
C       -2.92690988      -4.61619068       1.28914088
C       -1.25760041      -2.43872422       2.74822566
C       -3.52856850       1.47256589      -2.72536000
C        0.07743264      -1.84634132       2.76680753
C       -0.76637919       1.60321000       2.42598828
C        1.10998549       3.92236197      -0.90668879
C        1.03004604      -2.57594085      -0.38524965
C       -1.13287451       4.21085384      -1.10964312
C       -0.10885491       3.01552805      -2.80874989
C        0.22542054      -0.44643824       2.94746547
C        0.99290388       2.14451532      -3.03388855
C       -1.17910983      -3.78549469       2.23840126
C       -2.84509460      -1.66697397       0.96570737
C        3.08131175       1.40125704      -2.28705085
C       -3.36517744       1.39846072      -1.31172810
C       -1.25901182      -1.70410733      -1.59431570
C       -3.40149410      -4.01337936       0.25334434
C       -2.63613654       0.56427967       1.55374529
C       -2.70171361      -2.81461632       0.08050337
C        1.24454785       0.42944517       2.42276632
C       -2.13263388      -0.58937176      -1.83549629
C       -0.09942059      -3.62250653       1.32284657
C       -0.21662916      -3.24532973      -0.05348381
C        3.15401715       2.74419347      -0.42334755
C       -0.12658387      -0.15259326      -2.91649870
C        2.34547791      -0.86439595      -1.59827866
C       -2.17608654      -0.22234087       2.63852487
C       -2.09306581       3.37420777      -1.72447795
C        3.17510849       1.06494736       1.10036468
C        0.00830568      -1.38638810      -2.18389620
C       -2.12866678      -4.79976533       2.29159307
C       -0.95915510       0.32263589       3.06632382
C        0.64164252       1.73125422       2.13692932
C        1.28275107       2.65720868       1.23349290
C        0.84089218      -2.67135610       1.90032371
C       -1.41604081      -2.72003081      -0.61494061
C        2.31365255       3.37645314      -1.35967294
C        3.73723053       0.55684588      -0.11901764
C        3.11173906      -0.68586099      -0.39670546
C       -2.99054239       0.06404865      -0.89337123
C       -1.51093464       0.23405866      -2.83858168
C        0.99958191       0.69449421      -3.02934974
C        0.53643006       3.52637282       0.35322926
C       -2.70707609       2.54594948      -0.74956248
C        0.06738797       4.07821356      -1.85319587
C        2.26205238       2.55389913      -2.52322957
C       -1.50052146       2.68832808      -2.81580589
C       -1.88031885       1.78004599       1.52026360
C        1.21039975      -1.76162413      -1.53708268
C        2.41641220       0.04030241       1.72022512
C       -2.16086737       1.46249112      -3.13434311
C       -0.88906770       3.65961628       0.19383795
C       -3.00665131      -0.31207568       0.48897700
C       -1.91960660       2.69934888       0.45200361
