60
Properties=species:S:1:pos:R:3 entry_id=77 rank=30 energy=-501.2777099609375 pbc="F F F"
C        1.62620880      -2.14499879       0.84927576
C        2.25682655       0.21393160      -2.51664269
C        2.67861000       2.39564517       0.78531980
C        2.53164837      -1.07016350       0.84651467
C       -2.31623231      -1.34757619       2.92932873
C        3.73634204       1.59785789      -1.13871828
C       -3.16801807      -3.72663328       0.27005801
C       -1.23617720      -2.24213072       3.01118383
C       -3.56995342       1.20415296      -2.43398637
C        0.09439975      -1.72026334       2.86917082
C       -0.62636545       1.72307227       2.55690773
C        1.06446485       3.89337536      -0.96454741
C        1.13122459      -2.63895285      -0.39596083
C       -1.19788032       4.12114575      -1.08811269
C       -0.20967161       2.89842992      -2.78635011
C        0.33260537      -0.33042659       3.08840807
C        0.91535168       2.06800570      -3.03960857
C       -1.47518734      -3.23361248       1.97830828
C       -2.99112791      -1.60278141       1.68402159
C        3.04577362       1.38255562      -2.35117174
C       -3.27689818       1.16559033      -1.03298596
C       -1.16756193      -1.98473607      -1.70076768
C       -3.59402029      -4.60096396      -0.74388714
C       -2.52887835       0.63077878       1.83711192
C       -2.37318185      -3.93403200      -0.85802437
C        1.33901122       0.50417739       2.46221778
C       -2.07094575      -0.82922601      -1.64185313
C       -0.27423843      -3.39055970       1.26467112
C       -0.08364978      -3.37705250      -0.15096648
C        3.14547680       2.75685483      -0.51355881
C       -0.13747579      -0.24693807      -2.84259866
C        2.37833208      -0.89149984      -1.62026648
C       -2.08106491       0.01354324       3.04174626
C       -2.15199820       3.21543470      -1.61579533
C        3.21774704       1.10498522       1.04751027
C        0.08158239      -1.51203633      -2.22234410
C       -2.73601142      -2.96717103       1.35302509
C       -0.79694560       0.51155078       3.32292371
C        0.75361768       1.81006214       2.17468639
C        1.34245264       2.70397177       1.20926165
C        0.71129208      -2.52217488       1.86446983
C       -1.16561136      -3.25712910      -1.06732072
C        2.26515454       3.35730189      -1.43705943
C        3.74928756       0.57836858      -0.17622535
C        3.11945452      -0.66977598      -0.41278347
C       -2.87721504      -0.15942669      -0.56808957
C       -1.52457654       0.06558143      -2.64578227
C        0.95741389       0.62624924      -3.01194778
C        0.55323817       3.53894999       0.33120447
C       -2.67260926       2.39464768      -0.57923322
C       -0.02256799       3.99312411      -1.87219805
C        2.19334772       2.51400573      -2.58265623
C       -1.58891460       2.51609537      -2.70984632
C       -1.76196929       1.82282364       1.67914226
C        1.29258042      -1.84165834      -1.56535404
C        2.47067707       0.09284493       1.70570921
C       -2.23053373       1.25894668      -2.92641171
C       -0.87773060       3.64452604       0.22576023
C       -2.94533051      -0.38293807       0.89166631
C       -1.85664428       2.66739744       0.56843579
