60
Properties=species:S:1:pos:R:3 entry_id=89 rank=124 energy=-499.6567687988281 pbc="F F F"
C        1.33092755      -2.45899180       0.75148849
C        2.24544918       0.17353141      -2.41166556
C        2.54565678       2.08351496       1.02757040
C        2.25778709      -1.41524626       0.87561308
C       -2.76202893      -1.50535101       2.01122444
C        3.72972249       1.33455531      -0.84495709
C        1.10684758      -3.82933383       2.92080948
C       -1.79212961      -2.46932721       2.33283295
C       -3.43747284       1.82057594      -2.93006967
C       -0.45924764      -2.02404951       2.47135315
C       -0.99450157       1.50346422       2.34140102
C        1.24702520       3.84015480      -0.73152988
C        0.70778978      -2.61673667      -0.49354095
C       -0.95387545       4.30472978      -1.05196872
C        0.08486669       3.10912607      -2.74051289
C       -0.20857215      -0.65804364       2.74466129
C        1.13595849       2.17230101      -2.94155710
C       -1.88763310      -3.68252547       1.57417114
C       -3.21865232      -1.50526630       0.67204340
C        3.12245871       1.25005133      -2.11618999
C       -3.37016149       1.67878799      -1.51314856
C       -1.47061306      -1.55463176      -1.78430388
C       -2.97480935      -3.87121169       0.74809379
C       -2.92631063       0.68981487       1.35536293
C       -2.90787235      -2.70847431      -0.04941371
C        0.90901245       0.16606678       2.35877594
C       -2.25120306      -0.37292207      -2.04120103
C       -0.60003676      -3.77106964       0.99266557
C       -0.57336432      -3.21053940      -0.29110199
C        3.17332814       2.49501489      -0.18730491
C       -0.15299598      -0.03549153      -2.98256926
C        2.19181943      -0.97710924      -1.56873352
C       -2.58334659      -0.17508504       2.44144135
C       -1.93274200       3.57026439      -1.76230750
C        2.96478252       0.74002922       1.23595581
C       -0.14753173      -1.29873984      -2.29384469
C        1.62930354      -4.47654922       3.84851637
C       -1.32061435       0.21763875       2.90177744
C        0.43143740       1.52894452       2.13143458
C        1.19437160       2.46137721       1.33869805
C        0.48274174      -3.08296280       1.83679321
C       -1.71656003      -2.59663788      -0.84761006
C        2.43662725       3.22872396      -1.13811720
C        3.58210531       0.25717240       0.03931906
C        2.91718290      -0.93945677      -0.33232291
C       -3.12502416       0.30410224      -1.13096046
C       -1.51145663       0.44164117      -2.96982040
C        1.03894131       0.72818619      -2.99977896
C        0.56830025       3.42934968       0.46925917
C       -2.66572995       2.75088099      -0.86544536
C        0.27810144       4.11460196      -1.72874597
C        2.39892061       2.46744813      -2.34231440
C       -1.32383244       2.88573096      -2.84442457
C       -2.04912816       1.82305732       1.40406190
C        0.99333942      -1.76892080      -1.59946818
C        2.11266793      -0.26648377       1.75349493
C       -2.05112510       1.72556369      -3.25285379
C       -0.83122977       3.67707116       0.23420128
C       -3.27563622      -0.13087857       0.22636258
C       -1.94510240       2.78969289       0.38337204
