60
Properties=species:S:1:pos:R:3 entry_id=13 rank=211 energy=-487.4502868652344 pbc="F F F"
C        1.95005716      -3.74362275      -0.57149911
C        2.03954367      -0.03224903      -2.31895466
C        1.88007489       1.68116782       1.44830896
C        2.87461010      -2.73857283      -0.21930365
C       -3.26309967       1.30080918       2.21439291
C        3.16573741       0.87627133      -0.35034017
C       -0.12948127      -3.43271762       1.42082624
C        2.58389823      -2.09447187       2.53087533
C       -3.50692735       1.76776957      -2.87901176
C        0.84588056      -1.51685538       0.47861334
C       -1.63836975       2.13400517       2.76240180
C        1.03110555       3.65003811      -0.44395831
C        0.70230382      -3.27870535      -1.08370499
C       -1.07057954       4.30108704      -1.00744078
C        0.02674777       3.00598021      -2.57808120
C        0.62843303      -0.50389583       1.40600118
C        1.04877694       2.03234229      -2.72115130
C       -2.49256968      -2.24456818       0.45464646
C       -3.72569237      -1.73719002       0.11331417
C        2.86406652       0.96165344      -1.73266835
C       -3.47987539       1.66924408      -1.45579822
C       -1.45907444      -1.53004427      -1.61541901
C       -1.14763270      -3.02520314       2.25326982
C       -3.01445221       0.09733927       1.50668465
C       -1.92010250      -2.00825884       1.80423142
C       -0.54512103       0.10643695       2.00319939
C       -2.27374350      -0.36514473      -1.88956874
C        2.23700759      -3.38588703       2.10514800
C       -1.40867735      -2.28115029      -0.44088912
C        2.64597735       2.03629177       0.30883589
C       -0.27356364      -0.14782809      -3.04195839
C        1.88206750      -1.27652416      -1.68195690
C       -1.82457129      -0.57469938       1.93405234
C       -2.02824874       3.55874048      -1.74292517
C        2.01111605       0.17825948       1.62555352
C       -0.29903984      -1.45640322      -2.43511247
C        0.99185675      -3.90313350       2.03103618
C       -2.66702427       1.49509279       3.53439565
C       -0.42620735       1.51900381       2.30472094
C        0.59630829       2.29441637       1.61589198
C        2.49401961      -3.68343314       0.73876990
C       -0.04172286      -2.68121995       0.05929833
C        2.17045220       2.90169590      -0.70063909
C        2.77690146      -0.22348215       0.39126250
C        2.19600388      -1.40360814      -0.20716666
C       -3.20078854       0.30180048      -1.03714662
C       -1.59673145       0.39170209      -2.90045248
C        0.91685006       0.60623980      -2.94718038
C        0.21138511       3.34848370       0.69784323
C       -2.85647934       2.81983882      -0.86508638
C        0.20117398       3.99395510      -1.54530573
C        2.24114687       2.22192290      -1.95054690
C       -1.38311737       2.83368211      -2.77656892
C       -2.56035070       2.43298114       1.68109461
C        0.85062249      -2.17818672      -2.02752430
C        2.63558628      -0.85325460       2.56981117
C       -2.12225033       1.68283318      -3.19466737
C       -1.10367150       3.78159882       0.32437582
C       -3.53652407      -0.35704333       0.22032853
C       -2.30709352       3.03582645       0.45784324
