60
Properties=species:S:1:pos:R:3 entry_id=108 rank=163 energy=-498.8216247558594 pbc="F F F"
C        1.76826225      -1.96679329       1.03185896
C        2.33650366       0.17292114      -2.45793293
C        2.46149439       2.64246215       0.78976473
C        2.59377662      -0.83043986       0.99694860
C       -2.29260193      -1.02977355       2.78870843
C        3.54894849       1.83463061      -1.11754172
C       -2.71305481      -2.08702069      -1.71212076
C       -1.27805747      -1.98601568       2.93877596
C       -3.46763478      -0.02665614      -2.60871378
C        0.08970909      -1.51332283       2.95148499
C       -0.60776742       1.96660903       2.92104592
C        0.56472495       3.68498446      -0.97334121
C        1.37493850      -2.57795081      -0.21758515
C       -1.63364546       3.06735758      -0.75025037
C       -0.56553765       2.22553900      -2.62543113
C        0.32335864      -0.13788349       3.20075902
C        0.69432703       1.72797299      -3.02971216
C       -1.43046705      -2.88729157       1.82863166
C       -2.78397628      -1.03011294       1.43855398
C        2.89731280       1.46537525      -2.31129995
C       -3.82191955       0.13339930      -1.26232190
C       -0.54857740      -2.80992750      -2.23935795
C       -2.07140155      -2.64036734      -0.49379544
C       -2.61275587       1.15254667       2.21799559
C       -2.34578917      -2.31945421       0.89333277
C        1.30285127       0.72495554       2.57277427
C       -1.69337668      -2.08934839      -2.73647438
C       -0.13572599      -3.21436140       1.38070022
C        0.19680890      -3.34879668       0.01118870
C        2.81199249       2.94446991      -0.55810723
C        0.15423893      -0.78356415      -3.09040349
C        2.56038479      -0.84143483      -1.48647753
C       -2.10310378       0.27234887       3.22029518
C       -2.32804284       1.86592223      -1.09477313
C        3.09645814       1.40734371       1.09497803
C        0.57189759      -1.97122606      -2.41955048
C       -3.79301763      -1.16181209      -1.83273238
C       -0.79212941       0.68508196       3.51826435
C        0.68657118       2.03448484       2.35381431
C        1.14971396       2.91826314       1.30447368
C        0.79437148      -2.32287500       2.00868493
C       -0.84043192      -3.30660618      -0.93257417
C        1.81429447       3.32695605      -1.48255016
C        3.67495618       0.87493915      -0.10160423
C        3.18923930      -0.44723466      -0.26311971
C       -1.62985037      -1.26409397      -1.01332211
C       -1.27619996      -0.81310350      -3.27336439
C        1.02893836       0.32457741      -3.05903578
C        0.25485777       3.61746555       0.43127980
C       -3.16059219       0.94050752      -0.31809131
C       -0.58426737       3.27145670      -1.67610259
C        1.86568499       2.42175640      -2.58627268
C       -1.75391293       1.44676076      -2.36956749
C       -1.85762440       2.38799177       2.32788918
C        1.62209212      -1.93288975      -1.45604780
C        2.43568442       0.36495783       1.79932451
C       -2.15188995       0.27774484      -3.03456789
C       -1.21264098       3.58762542       0.52629648
C       -2.98143237       0.39644558       1.04360388
C       -2.00005471       3.53561186       1.62770414
