60
Properties=species:S:1:pos:R:3 entry_id=31 rank=164 energy=-498.8017272949219 pbc="F F F"
C        1.25623648      -2.00215844       1.07664940
C        2.04647236       0.16768381      -2.43747527
C        2.66935895       2.38193599       0.81263184
C        2.28352319      -1.02076001       0.97992846
C       -1.81170136      -1.48658365       2.42938237
C        3.64106788       1.47464579      -1.10614216
C       -1.49424996      -5.05697215       1.14662764
C       -0.90112738      -2.25131228       3.19566353
C       -3.63352566       1.52983812      -2.49996659
C        0.34928282      -1.51906085       3.33431012
C       -0.67678764       1.78351223       2.54267938
C        1.11265969       3.91858809      -0.95405533
C        0.41345315      -2.20354443      -0.03330583
C       -1.13349793       4.25304446      -1.07237826
C       -0.19820502       3.01895562      -2.80154697
C        0.38800266      -0.12416716       3.32768802
C        0.87330276       2.11319253      -3.05010747
C       -2.50878035      -4.03087210      -1.32492940
C       -1.87777378      -1.58631589       1.03655129
C        2.92916387       1.27532336      -2.30577990
C       -3.33813890       1.39924414      -1.10305469
C       -1.57480460      -1.80427037      -1.90410480
C       -2.26084062      -5.61031280       0.28646526
C       -2.40737080       0.58147462       1.62563544
C       -2.80716186      -5.20700986      -0.87965148
C        1.34230242       0.66209045       2.62451262
C       -2.33775900      -0.59984192      -1.94558337
C       -0.28356149      -3.32814485       2.46316692
C       -1.77705466      -2.93038103      -1.04282523
C        3.13180532       2.68132297      -0.50255341
C       -0.32926041      -0.13558368      -2.94374849
C        2.01111824      -0.87013655      -1.45076621
C       -1.95913548      -0.12794941       2.78232287
C       -2.12335492       3.40556345      -1.62170915
C        3.17900802       1.08423419       1.10936605
C       -0.25561762      -1.38500654      -2.23002541
C       -0.91821846      -3.83357110       1.29927568
C       -0.84763143       0.56077365       3.29196317
C        0.72269993       1.91482594       2.22640608
C        1.34104895       2.74845016       1.23008843
C        0.84066424      -2.43812351       2.35666320
C       -1.04767548      -2.66765486       0.28320645
C        2.28306773       3.31830382      -1.42944264
C        3.60765420       0.48001931      -0.12192996
C        2.83479034      -0.69597754      -0.30352484
C       -2.87587147       0.05727205      -0.79481900
C       -1.69944447       0.27579916      -2.89616802
C        0.82085716       0.66957632      -3.02557408
C        0.58199652       3.59311681       0.34209962
C       -2.67847346       2.57915889      -0.61002126
C        0.03625833       4.08223896      -1.85951972
C        2.16955652       2.46750641      -2.56800743
C       -1.59989196       2.72508590      -2.75060716
C       -1.77178077       1.86383253       1.61862792
C        0.78669543      -1.64447102      -1.30293804
C        2.39664948       0.14303364       1.82902475
C       -2.31668555       1.53729903      -3.06625907
C       -0.84728744       3.74447054       0.23939801
C       -2.49795971      -0.35366259       0.52874603
C       -1.86114009       2.78356643       0.55441500
