60
Properties=species:S:1:pos:R:3 entry_id=222 rank=91 energy=-500.2818603515625 pbc="F F F"
C        1.09789664      -2.85074982      -0.06430357
C        2.00807415       0.37058869      -2.65372571
C        2.47734253       1.67439429       1.04639523
C        1.91314737      -1.76472015       0.32445034
C       -2.56409140      -1.58993840       1.34238166
C        3.59129170       1.12741559      -0.93329671
C       -0.10121196      -4.36946642       4.24308650
C       -1.60046156      -2.56910320       1.69834206
C       -3.48240883       2.62166921      -2.82344267
C       -0.80091419      -2.29075001       2.92969240
C       -1.06946879       1.27416083       2.32125019
C        1.35863907       3.80746705      -0.39537398
C        0.23282674      -2.53515348      -1.16384648
C       -0.78989299       4.51324803      -0.60868394
C        0.13727312       3.51590596      -2.48113914
C       -0.40433003      -0.88862859       2.89376859
C        1.09404404       2.52581441      -2.84163701
C       -0.98222408      -3.27589907       0.64781650
C       -2.87338481      -1.26801657      -0.01015280
C        2.97776722       1.30068043      -2.19324997
C       -3.44639466       2.23888479      -1.45074191
C       -1.84360956      -1.01214912      -2.19789380
C       -0.48878159      -3.23013169       3.85856462
C       -3.01029188       0.68609298       1.21060459
C        0.38912618      -3.80470229       0.78609190
C        0.71319992      -0.23289128       2.24634002
C       -2.50496734       0.23876063      -2.35657218
C        0.85372602      -5.50075881       2.61962792
C       -1.09099253      -2.73448156      -0.68165128
C        3.15111467       2.21645413      -0.09078953
C       -0.39181364       0.48169626      -3.25518438
C        1.84051392      -0.89289643      -2.00636419
C       -2.64254498      -0.39220200       2.09362743
C       -1.82971784       3.99583078      -1.41408320
C        2.72937143       0.27297880       1.02314625
C       -0.52226886      -0.86624673      -2.73912019
C        0.50275727      -5.51543009       3.90716706
C       -1.49569984      -0.00314089       2.79535505
C        0.34882461       1.18708427       2.11336395
C        1.18117723       2.14179449       1.43662439
C        0.83935351      -4.82587061       1.54767238
C       -2.10358711      -1.82289081      -1.06165034
C        2.48541430       3.15665526      -0.90539428
C        3.31977171      -0.05259079      -0.23341003
C        2.57251331      -1.11154807      -0.79163367
C       -3.27437965       0.81504410      -1.30931074
C       -1.69891307       1.09853762      -3.16696332
C        0.86574182       1.12380471      -3.14210237
C        0.64375083       3.28079337       0.73591066
C       -2.63710576       3.11354092      -0.65129895
C        0.42098186       4.32331077      -1.32381892
C        2.37388123       2.59894896      -2.21221805
C       -1.28666452       3.45219096      -2.60659337
C       -2.09510882       1.76877609       1.44070434
C        0.56578559      -1.55393394      -2.13601754
C        1.80216956      -0.73344339       1.41921191
C       -2.11572485       2.45953483      -3.21207801
C       -0.72957736       3.68000788       0.56030792
C       -3.29642442       0.11216356      -0.06976881
C       -1.91757845       2.87462039       0.57699816
