60
Properties=species:S:1:pos:R:3 entry_id=109 rank=112 energy=-499.912841796875 pbc="F F F"
C        1.39176322      -2.08732351       0.43592827
C        1.88901946       0.48895943      -2.88129829
C        2.51475894       2.20272359       0.64560684
C        2.44905673      -1.15483051       0.36569743
C       -1.51181039      -1.84499657       4.12775728
C        3.36080554       1.74308567      -1.45712601
C       -2.66629484       0.51077586       0.80459959
C       -0.58728708      -2.62808536       3.41769729
C       -1.81755543       0.69558576      -5.40001236
C        0.66724952      -2.11534403       2.93437781
C       -0.10476413       1.22845370       3.20939629
C        0.40926993       3.46172844      -0.75045804
C        0.40986556      -2.15185518      -0.62729474
C       -1.72836854       2.61608557      -0.70020277
C       -0.71292635       2.67887957      -2.74357805
C        1.04231635      -0.79027266       3.28691428
C        0.52976696       2.44919141      -3.54966583
C       -1.27861208      -3.26110065       2.33307764
C       -2.76014850      -1.91341752       3.41714625
C        2.65650463       1.67380493      -2.67157688
C       -2.63958396      -1.00124090      -3.70601480
C       -2.45268897      -1.06762924      -1.12160111
C       -2.82304611      -1.91901241       1.11640641
C       -2.16072648       0.29335469       3.57944967
C       -2.57769138      -2.73396893       2.25748139
C        1.77141611       0.12677548       2.43088365
C       -2.56171821       0.29637103      -0.62662175
C       -0.44449010      -3.22166079       1.21252641
C       -0.83004250      -2.67711780      -0.05557547
C        2.68695720       2.71283475      -0.66330126
C       -0.51525704       0.39668611      -2.99062161
C        1.84510158      -0.61425849      -1.96485669
C       -1.19948890      -0.48666011       4.29032347
C       -1.40761000       1.43719231      -2.59968286
C        3.24398667       0.97228956       0.70153645
C       -0.57989741      -0.92469869      -2.52467604
C       -2.39218623      -0.25465227      -4.72213084
C        0.07028109       0.00585307       3.96387721
C        1.04442433       1.38087937       2.38053363
C        1.25572216       2.31308662       1.31023545
C        0.80612951      -2.64588843       1.60310711
C       -2.12627972      -2.06860078      -0.12714087
C        1.64104002       3.29950304      -1.41759488
C        3.54711707       0.59835517      -0.65671830
C        2.80274694      -0.59371193      -0.91360418
C       -3.10020422      -0.60553124       1.56827040
C       -2.15313411       1.43116826      -1.37586208
C        0.68345059       0.94243834      -3.40789719
C        0.17268549       2.91881389       0.57557585
C       -2.01108066      -1.27087789      -2.49225679
C       -0.77895975       3.32551327      -1.50620650
C        1.76297814       2.83137297      -2.77373346
C       -0.00006514       2.44706437      -4.97945137
C       -1.48136763       1.29402659       2.82084792
C        0.58271240      -1.34983301      -1.78944402
C        2.67945991      -0.15057460       1.37260827
C       -0.93088639       1.66647795      -5.40439274
C       -1.22350277       2.50064321       0.62313510
C       -3.08033709      -0.58811835       2.98390560
C       -1.88165073       1.54239966       1.46668377
