60
Properties=species:S:1:pos:R:3 entry_id=207 rank=44 energy=-501.02178955078125 pbc="F F F"
C        1.41556489      -2.21148587       0.89172190
C        1.29066386       0.08042521      -2.70352806
C        2.20988229       2.23275402       0.64753922
C        2.34908806      -1.18210516       0.64882043
C       -1.37305662      -1.70837269       4.66944471
C        2.81941499       1.57772664      -1.49152789
C       -2.82442859       0.38245743       1.27887388
C       -0.43436434      -2.50810424       3.99647631
C        0.17336152       1.27793922      -8.21202436
C        0.76731893      -1.98183606       3.40718702
C       -0.19012303       1.34990173       3.45228434
C       -0.05793539       3.35094818      -0.65511709
C        0.39907238      -2.45893313      -0.09428184
C       -2.15304692       2.45896797      -0.40812547
C       -1.25334138       2.36048508      -2.52737379
C        1.06459071      -0.60502103       3.60210789
C       -0.13165818       2.35045185      -3.37541327
C       -1.12919008      -3.28530980       3.01259318
C       -2.63839882      -1.89630342       4.01508969
C        1.92887367       1.34598061      -2.57658184
C       -0.01632510       1.24833617      -5.66977159
C       -2.03276883      -1.16185444      -0.49086129
C       -2.71056723      -2.03120847       1.71632937
C       -2.17162872       0.35348193       4.02103427
C       -2.43785572      -2.77724089       2.90092672
C        1.67954007       0.26626782       2.62010514
C       -2.66339577       0.08859981      -0.13077891
C       -0.31667120      -3.36634068       1.87674431
C       -0.76642802      -2.97109711       0.58337646
C        2.26022626       2.64133607      -0.70906665
C       -1.09324506      -0.07650027      -2.53388997
C        1.46398758      -0.88325112      -1.65500965
C       -1.12737592      -0.32892618       4.71802350
C       -1.83336897       1.09220158      -2.23018480
C        2.98445676       1.02806715       0.72910374
C       -1.01993115      -1.10334806      -1.53425612
C        0.06463211       1.24508657      -6.92512295
C        0.09346657       0.19551645       4.27662486
C        0.88895528       1.48227937       2.52880713
C        0.98691632       2.34807852       1.38857052
C        0.91314669      -2.66746314       2.14708218
C       -1.96125506      -2.20129037       0.50844497
C        1.12988429       3.15916827      -1.37996971
C        3.17836853       0.54468992      -0.61671688
C        2.52662943      -0.71579376      -0.70789612
C       -3.11790630      -0.72601915       2.11063591
C       -2.51154634       1.20609065      -0.97578725
C        0.03302079       0.12036870      -3.38962348
C       -0.17599263       2.88581570       0.71332142
C       -0.09337062       1.24084272      -4.33381611
C       -1.28429455       3.12573713      -1.32515947
C        1.06560624       2.49362783      -2.65366199
C        0.42659411       1.42134115     -10.75264614
C       -1.59532183       1.35119347       3.17331894
C        0.29161476      -1.61813264      -1.23455341
C        2.54144802      -0.05796489       1.53486445
C        0.28264918       1.22895517      -9.49359748
C       -1.55694232       2.45328976       0.89298877
C       -3.05807126      -0.62122623       3.51967399
C       -2.10235532       1.51777067       1.83913848
