60
Properties=species:S:1:pos:R:3 entry_id=179 rank=152 energy=-499.1582946777344 pbc="F F F"
C        1.12766085      -2.65525975       0.16611068
C        2.83634084       0.16915243      -2.49676000
C        3.36211634       1.07481836       1.32883439
C        2.37036620      -2.04729340       0.42530372
C       -2.37287324      -1.77714586       3.20534224
C        4.39155311       0.62421326      -0.70128129
C       -2.09613153       1.47940051       0.35169194
C       -1.58692289      -2.75096171       2.56537613
C       -0.00023059       2.25523563      -2.50802919
C       -0.15659252      -2.64571992       2.43296358
C        0.07695147       0.72727081       3.19253872
C        2.10405794       3.17832222      -0.08529080
C        0.43219764      -2.27634817      -1.03280522
C       -0.13845759       3.26336812      -0.47402749
C        1.16406387       3.11930082      -2.33929105
C        0.50022071      -1.55364973       3.06055796
C        2.30243375       2.41121919      -2.75383339
C       -2.14950995      -2.98956272       1.26724831
C       -3.33580997      -1.32137195       2.23868641
C        3.91477495       0.94846180      -1.98320438
C       -7.32079237       0.65437021      -4.66807012
C       -1.35362873      -0.49870356      -2.06701649
C       -2.78856950      -0.99185555       0.00623748
C       -2.19259042       0.50693460       2.99149615
C       -3.09449875      -1.98027134       0.99864261
C        1.64365122      -0.83778085       2.52838917
C       -2.11355148       1.93839721      -1.01780553
C       -1.09505784      -3.19564932       0.38161750
C       -0.97322070      -2.44631441      -0.80908735
C        3.95371047       1.65861338       0.18250409
C        0.48990953       0.95501156      -2.88874393
C        2.36532862      -0.98466574      -1.81522363
C       -1.71186930      -0.64027173       3.69718660
C       -5.23914575       1.17648811      -3.26932128
C        3.63910057      -0.32567155       1.25089283
C       -0.03428859      -0.32452392      -2.43640620
C       -8.25964209       0.68607918      -5.52336416
C       -0.31181136      -0.57065173       3.69920738
C        1.37242437       0.58578444       2.61492978
C        2.08871277       1.52663038       1.80057140
C        0.14771276      -3.10489325       1.10067975
C       -1.86295960      -1.32821474      -1.08466890
C        3.32545951       2.67821565      -0.56495800
C        4.07981847      -0.60363588      -0.09452125
C        3.09652283      -1.45374168      -0.67424381
C       -2.85789556       0.29948964       0.67566906
C       -0.90884244       2.57734843      -1.44372663
C        1.89191896       1.07855018      -3.03846964
C        1.43623703       2.58132384       1.06073773
C       -6.24387188       0.97090328      -3.98284974
C        1.12963665       3.60746952      -1.01726487
C        3.45749921       2.33139297      -1.95001279
C       -4.18777810       1.45332790      -2.53363187
C       -1.08727352       1.31615958       2.60503709
C        0.95635472      -1.28470849      -1.89674163
C        2.63877324      -1.27116290       1.60874786
C       -3.17932619       1.66631517      -1.84099878
C       -0.00090564       2.71619382       0.82296777
C       -3.14228179       0.07010912       2.05121601
C       -1.10227987       1.93518397       1.31527048
