60
Properties=species:S:1:pos:R:3 entry_id=144 rank=160 energy=-498.993896484375 pbc="F F F"
C        0.75537816      -2.05616788       0.70341489
C        2.05452734       0.38802193      -2.46853853
C        2.55857060       2.04524255       1.12026717
C        1.92795203      -1.28267857       0.76011726
C       -2.45006283      -1.63986303       1.35498519
C        3.62458800       1.34979388      -0.84303969
C        0.79976791      -4.33019876       3.31079993
C       -1.47237040      -2.61606160       1.58174941
C       -3.48853369       2.42316081      -2.89379578
C       -0.07898945      -2.16878952       2.04240778
C       -1.00809145       1.35716578       2.30747523
C        1.27674966       3.94605587      -0.49959641
C        0.19060350      -2.28941025      -0.57359089
C       -0.90429645       4.51621471      -0.74817108
C        0.08275345       3.46828953      -2.56617702
C       -0.12329500      -0.77239786       2.65891660
C        1.08050311       2.49392666      -2.85909735
C       -1.41252573      -3.67895114       0.58322908
C       -2.83913547      -1.36023973       0.01524037
C        2.99999110       1.38616198      -2.10639321
C       -3.45539300       2.09944070      -1.50393704
C       -1.77510284      -1.12918750      -2.11719663
C        0.57068942      -3.19038259       2.87649163
C       -2.90399870       0.63035935       1.18680912
C       -1.20743041      -4.98669234       0.87088292
C        0.94764479       0.14272242       2.46315156
C       -2.46314108       0.09309756      -2.34095106
C       -0.05820704      -6.35086946       2.55598627
C       -1.11421009      -2.90219664      -0.61515016
C        3.15138575       2.49190815      -0.09939090
C       -0.32058668       0.37012046      -3.13753387
C        1.88391800      -0.77786866      -1.65505639
C       -2.47252288      -0.41833607       2.06492250
C       -1.91126272       3.90928456      -1.52939571
C        2.98215681       0.68845783       1.26097721
C       -0.42105651      -0.93836933      -2.50567942
C        0.68877867      -5.68112267       3.37407499
C       -1.29639270      -0.00668906       2.68494939
C        0.42857264       1.48050867       2.22813409
C        1.20964922       2.42723934       1.47135579
C       -0.83395429      -6.00281909       1.52552653
C       -2.10694427      -1.96301674      -1.03255666
C        2.43612162       3.32706169      -0.97749819
C        3.45427962       0.22827072      -0.02249104
C        2.61335187      -0.84366244      -0.43083917
C       -3.25131226       0.68752578      -1.32152154
C       -1.64958288       0.94173856      -3.15066164
C        0.90585529       1.06497441      -3.04812309
C        0.59232452       3.45616226       0.66840059
C       -2.68080753       3.02777532      -0.72763746
C        0.31588210       4.35365309      -1.45385125
C        2.35452428       2.66216825      -2.23780253
C       -1.33513659       3.33536413      -2.69412178
C       -2.05323116       1.77220415       1.40194110
C        0.62073461      -1.47256402      -1.69830525
C        2.09472939      -0.28000432       1.76956584
C       -2.11288018       2.28461841      -3.26432370
C       -0.80739813       3.75006826       0.46442758
C       -3.24641802       0.02440936      -0.06311309
C       -1.95077175       2.87648766       0.51432354
