60
Properties=species:S:1:pos:R:3 entry_id=83 rank=185 energy=-497.49200439453125 pbc="F F F"
C        1.65026389      -2.08384538       1.10518568
C        2.26088763       0.12678150      -2.38991932
C        2.60464628       2.49426681       0.78062952
C        2.50499103      -0.97234626       1.04253483
C       -2.36879666      -1.22815202       2.73715287
C        3.72119027       1.59011197      -1.06633130
C       -3.38658362      -5.14897666      -0.51837496
C       -1.31923496      -2.11613684       3.04745306
C       -3.55676806       1.24064812      -2.63398331
C        0.00578483      -1.56961279       2.97303416
C       -0.78107202       1.87420746       2.44525735
C        1.06109049       3.90422116      -1.09107536
C        1.15585331      -2.63411994      -0.11963277
C       -1.18676051       4.15409776      -1.30374643
C       -0.16204330       2.82389419      -2.89806496
C        0.17402419      -0.15707173       3.07682163
C        0.94984328       1.95272768      -3.06202502
C       -1.40169782      -3.17753637       2.07972997
C       -2.76462549      -1.46685767       1.38864093
C        3.05393786       1.29967548      -2.27584567
C       -3.37098168       1.29919663      -1.22208571
C       -1.22169032      -1.80159834      -1.27188823
C       -2.35729058      -5.20292497      -1.45462971
C       -2.69586737       0.80095810       1.72650897
C       -2.12444373      -2.64373520       0.93884644
C        1.20130021       0.67227766       2.48224281
C       -2.11423136      -0.70847855      -1.57594358
C       -0.09366192      -3.47493862       1.63520989
C       -0.04375339      -3.34054202       0.20362745
C        3.11635420       2.78307725      -0.52124076
C       -0.13535940      -0.34388690      -2.74603597
C        2.36099452      -0.92127683      -1.42720235
C       -2.24994903       0.14957080       2.93118097
C       -2.14113722       3.25270187      -1.83143315
C        3.13820010       1.22224007       1.12603575
C        0.03026690      -1.52218891      -1.93376614
C       -2.19796077      -5.79326574      -0.20769195
C       -0.97607862       0.66916066       3.21510822
C        0.61891232       1.96468550       2.12048267
C        1.25294347       2.82127193       1.14595890
C        0.76979060      -2.45403690       2.15857386
C       -1.27788649      -2.73504433      -0.20911779
C        2.26707969       3.33128858      -1.50212075
C        3.71234738       0.62981124      -0.04763150
C        3.10217774      -0.63637453      -0.23092395
C       -2.96893006       0.01998861      -0.67734845
C       -1.52171540       0.03208621      -2.65984934
C        0.97688787       0.50799624      -2.94610412
C        0.49948613       3.61486171       0.20224205
C       -2.73366975       2.50834661      -0.77947687
C        0.01049563       3.96759135      -2.04062116
C        2.21713150       2.41798051      -2.59556881
C       -1.54905763       2.47898794      -2.86118907
C       -1.90687161       1.98087730       1.55107897
C        1.26492234      -1.85399042      -1.31320708
C        2.37793261       0.24230360       1.81334045
C       -2.19428741       1.21943714      -3.05516463
C       -0.92641659       3.72550455       0.04184197
C       -2.98909826      -0.21094861       0.74021326
C       -1.94486806       2.78615236       0.39528711
