60
Properties=species:S:1:pos:R:3 entry_id=43 rank=98 energy=-500.0987854003906 pbc="F F F"
C        1.13464642      -2.45339642       0.65461027
C        2.04029113       0.27671971      -2.49826606
C        2.58277990       1.99711237       1.00373852
C        2.11047205      -1.43828846       0.70025710
C       -2.55720044      -1.50782229       1.57514193
C        3.66072961       1.27941781      -0.94407363
C       -0.25012464      -6.18396937       2.85480884
C       -1.59726150      -2.50403496       1.86751101
C       -3.49671577       2.36283985      -2.88170628
C       -0.36543620      -2.08423665       2.42844591
C       -0.97206498       1.44920518       2.30536818
C        1.32597485       3.90014160      -0.62239727
C        0.26541418      -2.41995157      -0.49014421
C       -0.84946091       4.49983806      -0.85555680
C        0.09068846       3.37373450      -2.64910535
C       -0.19534039      -0.70588327       2.72091254
C        1.07101948       2.37837842      -2.92718959
C       -1.50410964      -3.58847202       0.85927907
C       -2.86695935      -1.27948905       0.21394395
C        3.00057856       1.28043396      -2.18999242
C       -3.45359840       2.10400005      -1.47966873
C       -1.77971270      -1.14984179      -1.92163053
C       -1.15882294      -5.81949852       1.94669862
C       -2.93418703       0.75977159       1.28644255
C       -1.55670255      -4.91007051       1.15520558
C        0.92163568       0.09898862       2.33172711
C       -2.47677638       0.05287851      -2.21423514
C        1.08248531      -4.08781993       2.63392174
C       -1.09754708      -2.85216506      -0.34018036
C        3.19318932       2.43516307      -0.21202890
C       -0.35241729       0.26180962      -3.07757708
C        1.90032966      -0.88485928      -1.66868556
C       -2.53582573      -0.25538876       2.22888690
C       -1.87983006       3.88517363      -1.60040695
C        2.96343192       0.63489040       1.14437321
C       -0.44460447      -1.00872556      -2.37397274
C        0.68122793      -5.23285978       3.00423659
C       -1.32378894       0.14335337       2.78993409
C        0.46045378       1.47296765       2.12410122
C        1.25036563       2.40825122       1.36356253
C        0.75844452      -2.93576828       1.98930013
C       -2.07780744      -1.90922312      -0.77878841
C        2.47036639       3.25398901      -1.10035988
C        3.49330382       0.17256555      -0.10668524
C        2.72139561      -0.94845003      -0.50803371
C       -3.26072506       0.70202629      -1.22608210
C       -1.67619996       0.84778040      -3.08690777
C        0.88114590       0.94567564      -3.06002706
C        0.64810687       3.44570426       0.56376251
C       -2.65482484       3.05080592      -0.75475329
C        0.35681588       4.29499192      -1.57455332
C        2.35909782       2.55563923      -2.33955761
C       -1.33007368       3.25520471      -2.74791984
C       -2.03188595       1.87182771       1.42007957
C        0.62246866      -1.56175209      -1.61322106
C        2.08139347      -0.35079472       1.65441090
C       -2.12790399       2.18908357      -3.26004576
C       -0.74567164       3.76733410       0.37662859
C       -3.26977787       0.10021332       0.06283896
C       -1.90796394       2.92597786       0.47861273
