60
Properties=species:S:1:pos:R:3 entry_id=18 rank=202 energy=-493.28271484375 pbc="F F F"
C        1.97016503      -3.47678431      -0.32550671
C        2.15031099       0.10384928      -2.52963307
C        2.11292726       1.73368394       1.09044013
C        2.97760260      -2.50507145      -0.03412998
C       -3.20414696       0.25597017       3.97991454
C        3.42718899       1.11831056      -0.75677894
C       -0.51950486      -3.93041262       1.03363112
C        1.78439066      -1.70645935       2.83440279
C       -3.52213842       1.74174423      -3.09052495
C        1.29929846      -1.16307600       4.04762811
C       -1.44647020       1.68578287       2.44231876
C        1.05674302       3.69226994      -0.68576771
C        0.77048800      -3.03683378      -0.95792088
C       -1.10906537       4.23830902      -1.11340085
C       -0.00556936       3.04664366      -2.76703408
C        0.91030377       0.08509849       4.13464042
C        1.05761144       2.12304048      -2.95894764
C       -2.85034581      -2.66180873       0.09416209
C       -3.56644925      -1.54588804       0.31654833
C        3.00589634       1.15303854      -2.10550972
C       -3.50722682       1.61876114      -1.67101492
C       -1.48328823      -1.54684258      -1.71712956
C       -1.85310826      -4.45949935       1.29517440
C       -3.24605220       0.65449080       1.28203484
C       -2.90136805      -3.89422430       0.86721115
C        0.54863510       1.18080105       3.59036100
C       -2.30012287      -0.39718105      -2.03986569
C        1.56220849      -3.03152665       2.18724659
C       -1.62654063      -2.53244868      -0.70899313
C        2.79751743       2.18400893      -0.06607184
C       -0.23160247      -0.07167454      -3.02310897
C        2.13855086      -1.13539246      -1.82323014
C       -3.31472995       0.21507951       2.61186319
C       -2.06223971       3.51854602      -1.87726316
C        2.57690061       0.28502344       1.24825027
C       -0.22246256      -1.32474024      -2.33711569
C        0.38589363      -3.67566728       2.00552675
C       -2.15481822       0.89582259       3.36626377
C       -0.00356586       1.88727645       2.54348279
C        0.84462386       2.36392308       1.44012810
C        2.32442826      -3.18764424       0.98796728
C       -0.45554455      -3.24206369      -0.29331004
C        2.23375631       3.04334169      -1.02635145
C        3.29211522      -0.04898105      -0.00395196
C        3.02448665      -1.25851624      -0.69180510
C       -3.23794312       0.27551850      -1.21987159
C       -1.58304227       0.39306015      -3.00398535
C        0.95490941       0.68876265      -3.06933952
C        0.31692733       3.29499326       0.47489878
C       -2.82537200       2.68724121      -1.02140552
C        0.15251760       4.02233200      -1.72430348
C        2.30006721       2.39148956      -2.29588215
C       -1.41053400       2.82998756      -2.93196806
C       -2.29863306       1.74279095       1.26653274
C        0.94573033      -1.93372694      -1.83788099
C        2.24861471      -0.74301236       2.02368450
C       -2.12410515       1.65994334      -3.34790576
C       -1.05003884       3.58706340       0.16585676
C       -3.51983350      -0.19791874       0.12995641
C       -2.13802623       2.67055513       0.23177850
