60
Properties=species:S:1:pos:R:3 system=runs/20260728-safe-lbfgs-strict-quench-200-production/output-c60-seed42 state_id=plateau_accepted pbc="F F F"
C        1.88443611      -0.41018313       2.42633245
C       -0.90362311      -0.78102643       1.83473872
C       -1.41948358      -2.38770676      -0.61719350
C        0.51877594       2.31073557      -2.93948555
C        2.56001584       0.97002618      -2.65603852
C       -0.29376027       0.78275952      -0.10956617
C        2.32425012      -1.14341603       1.28884408
C        0.75309806      -2.37603500       2.32880471
C       -2.47145305       0.51239632      -3.18874337
C       -0.35366491       3.27159762      -2.36690043
C        0.82828543      -0.88229052      -3.14912752
C       -2.97333800      -1.31115211      -1.90972152
C        1.41510910       0.93513845       2.34409716
C       -1.70706432       1.68380987      -3.30441547
C       -3.17632467       0.65400050      -0.75434373
C        0.85125965      -2.68933833       0.08050131
C       -2.84218740      -0.38318921       0.20132435
C        0.94158693       3.34851192      -0.32951280
C        1.91249327       2.50967046      -0.94311459
C        0.02442781      -1.11015648       4.14012500
C       -1.53014813       3.56045627      -0.58460942
C       -0.46151961       2.97727407       1.61021068
C        3.53883960       0.42848207      -1.76570543
C        2.88482116      -0.75669564       0.05708445
C        2.64032342      -1.57821062      -1.08190346
C        1.39010285      -2.24165158      -1.15661695
C       -1.58396336       3.35777324       0.84265041
C        1.58049423      -2.33464498       1.22727171
C        0.80808298       2.93626955       1.02971666
C       -0.19545755      -0.16240797       0.72474794
C       -2.09872121       1.32512801       1.79462763
C       -0.47459778      -0.22623437       3.17252305
C        3.16020769      -0.91062103      -2.21167283
C       -1.71799904       2.83676886      -2.51388275
C       -0.53276058      -2.75873093       0.40967099
C       -0.87846098       1.86453366       2.35903463
C        3.21226154       0.53918160      -0.36986420
C        2.15392298      -0.34629190      -3.06457340
C        0.47543898      -1.93977167      -2.20329807
C       -0.89985783      -2.24311038      -1.96201527
C        1.10893954      -1.36386461       3.22731644
C        1.72825699       1.86093208       1.29719326
C       -2.60923049      -1.58758754      -0.55213996
C       -1.36159563      -2.82883601       3.07429154
C       -1.90770000      -3.13010738       4.31349486
C       -2.52659886       2.30087529       0.87667226
C       -1.60095453      -0.58620740      -3.58655726
C       -2.24242525      -0.06677312       1.47353840
C       -1.91597796      -1.69984828      -2.77740472
C       -0.16618944       3.78704122      -1.06677635
C       -3.21888610       0.08278373      -2.06364425
C       -0.89007333      -2.17854651       4.23483449
C       -2.35935619       2.92267133      -1.31140437
C        1.75643422       2.05929992      -2.28366636
C        0.10237478       1.05787830       2.94218103
C       -0.68018711      -2.36214861       1.87107399
C       -2.94869534       2.01227549      -0.44315923
C       -0.24697013      -0.08871063      -3.67766158
C        2.48351295       1.65660527       0.06222889
C       -0.32356333       1.33160685      -3.57085896
