60
Properties=species:S:1:pos:R:3 system=runs/20260728-safe-lbfgs-strict-quench-200-production/output-c60-seed42 state_id=intermediate_accepted pbc="F F F"
C       -0.74318767       1.32699800       2.85717232
C       -0.43684667      -3.26906119       1.66376577
C        2.69758196      -0.91994668       0.51453628
C       -1.07871501       1.96896088      -3.04452612
C       -0.06452294       3.76222830      -1.79276898
C        1.60321746      -3.22171095       1.24116242
C        0.31267288       2.19212373       2.35678815
C        1.23969241       0.49129753       3.56084706
C        0.84889393      -0.82910127      -3.64435767
C       -2.14713456       1.07411400      -3.19379589
C        1.88352003       2.07151467      -1.86266399
C        1.84480844      -1.84996889      -1.96247025
C       -1.97322487       0.99659567       2.23907639
C       -0.25171006      -0.00389486      -3.92197605
C       -0.37473943      -2.58394114      -1.85093016
C        2.35829101       1.20754643       1.70478382
C        0.45964312      -3.19483483      -0.82221231
C       -3.17826704       1.70640621      -1.10133082
C       -2.15249618       2.70749691      -1.02258964
C       -0.35094060      -1.08001176       3.51797687
C       -3.32065336      -0.48070371      -2.05715838
C       -3.78256987      -0.21807413       0.36930016
C        0.06215898       4.38454580      -0.52539880
C        0.40893226       3.16516639       1.32975353
C        1.56626467       3.21923867       0.71134300
C        2.41952175       2.05466229       0.56987147
C       -3.61528497      -1.04890049      -0.80261914
C        1.52299866       1.59518013       2.74048674
C       -3.34398709       1.13188226       0.20539235
C        2.30570404      -2.30526661       0.36213415
C       -2.57764073      -2.12817403       0.90869069
C       -1.53681624      -1.43781006       2.86267926
C        1.15612992       3.95757645      -0.32890070
C       -1.60534750      -0.22676443      -3.56741175
C        2.41245516      -0.22549099       1.71413598
C       -3.26377965      -0.98505500       1.43107947
C       -0.60845488       3.68000076       0.52993322
C        1.34722450       3.38616492      -1.71754624
C        2.51223327       1.39851773      -0.67880836
C        2.80805226      -0.05714950      -0.69617979
C       -0.14513020       0.33398717       3.71078092
C       -2.45390609       1.78165039       1.11298622
C        1.77268843      -2.66369381      -0.87113711
C        0.80599664      -2.90834627       2.37357553
C       -1.55242595      -2.45004345       1.84329295
C       -2.67672591      -2.10885367      -0.54629330
C        1.96455395       0.01299808      -3.17794484
C        0.37059666      -3.61224002       0.51643400
C        2.50243254      -0.62488585      -1.99093269
C       -3.18477379       0.91010549      -2.26774404
C        0.65125530      -1.92440634      -2.74381886
C        0.88679155      -1.73154514       3.11207196
C       -2.23350461      -1.16475876      -2.67762050
C       -1.16677452       2.90727785      -2.03104046
C       -2.49201270      -0.39470557       2.48130069
C        1.75404332      -0.66958610       2.88848995
C       -1.74608872      -2.16196234      -1.73440238
C        1.45793962       1.33402598      -2.99644971
C       -1.79850217       2.90612545       0.35231977
C        0.11771394       1.33269255      -3.52330478
