60
Properties=species:S:1:pos:R:3 system=runs/20260728-safe-lbfgs-strict-quench-200-production/output-c60-seed42 state_id=intermediate_accepted pbc="F F F"
C       -0.71988765       1.34933493       2.93763738
C       -0.39221099      -3.22995884       1.69242005
C        2.63026665      -0.90590575       0.50474158
C       -1.15535458       2.00299133      -3.12717859
C       -0.11234735       3.72922689      -1.70682776
C        1.61173695      -3.19914944       1.25353927
C        0.33713750       2.22751933       2.52682607
C        1.33701337       0.49787772       3.66634252
C        0.72841209      -0.87005467      -3.53779390
C       -2.21835500       1.06785659      -3.28735271
C        1.81489669       2.04584528      -1.81057959
C        1.95774406      -2.02717202      -2.05637457
C       -1.94895241       1.05335847       2.22572964
C       -0.31341079      -0.02172011      -3.90800091
C       -0.32218868      -2.61393576      -1.86571153
C        2.39877135       1.21631882       1.76692847
C        0.46371959      -3.22333368      -0.78781715
C       -3.16882211       1.71333925      -1.15372596
C       -2.17789196       2.73125932      -1.03927011
C       -0.34201263      -1.02834241       3.45490932
C       -3.37294959      -0.50373460      -2.14551013
C       -3.74188664      -0.19420089       0.25445847
C       -0.02868911       4.36283970      -0.42190738
C        0.39311128       3.13646319       1.45514770
C        1.61809494       3.22018414       0.72768806
C        2.36035734       2.01109734       0.59351054
C       -3.58077143      -1.03728933      -0.88589065
C        1.59002990       1.62112539       2.86404135
C       -3.36826842       1.15959060       0.14586903
C        2.32031807      -2.31766223       0.36110850
C       -2.49895935      -2.08886055       0.81488516
C       -1.50523097      -1.35926802       2.76287273
C        1.40316127       4.05990992      -0.38257294
C       -1.66706284      -0.22522906      -3.62067800
C        2.49179074      -0.20952436       1.76430604
C       -3.16938916      -0.91046769       1.31304615
C       -0.65710703       3.62737320       0.64705889
C        1.27201379       3.34026747      -1.61411081
C        2.43562620       1.36556145      -0.68246472
C        2.67666851      -0.07735942      -0.72028909
C       -0.08304750       0.33502529       3.72652141
C       -2.45698723       1.79201195       1.08430181
C        1.79343870      -2.72447383      -0.88843071
C        0.82593764      -2.83196648       2.37207347
C       -1.53477187      -2.43339258       1.80628473
C       -2.59797808      -2.06676819      -0.62186241
C        1.79881652      -0.03968794      -3.03735134
C        0.36241647      -3.67216008       0.55367882
C        2.47574914      -0.70806368      -1.99144198
C       -3.23553041       0.90756666      -2.31373245
C        0.68994697      -2.04741636      -2.75798343
C        0.89232460      -1.66459593       3.12185512
C       -2.25799745      -1.18761551      -2.75419209
C       -1.23030943       2.95840307      -2.07385385
C       -2.39858970      -0.31588835       2.33836318
C        1.88664584      -0.65627196       2.99703962
C       -1.69439887      -2.13496539      -1.79871677
C        1.34935230       1.29291317      -2.92640707
C       -1.81140502       2.87842356       0.34386283
C        0.04511004       1.33894390      -3.53119177
