60
Properties=species:S:1:pos:R:3 trial_index=12 seed_entry_id=6 discovered_entry_id=7 energy=-484.54571533203125 status=accepted pbc="F F F"
C        2.31965349      -2.55123208       1.90234597
C        2.02751672       3.65279605      -3.12600413
C        1.14905651       2.07429420       2.59032777
C        2.07182228       0.19832729      -2.01148923
C       -3.39343993       0.04080367       1.34904418
C        3.00526772       1.75781960       1.01657192
C       -0.47376756      -5.90428332       2.71094960
C        0.80635057      -5.43935080       2.46300602
C       -2.39682719       0.72095324      -4.02155230
C        2.08145306      -1.35930381      -0.28123966
C       -3.16499631       0.30272947       2.71515160
C        0.49566056       4.17130870       0.74649437
C        1.63005743      -2.38780003       0.56942239
C       -1.26943494       4.15430034      -0.75933342
C        0.78419873       4.76322764      -1.58563232
C        2.45835840      -1.46086354       2.67193767
C        1.98033395       3.99172462      -1.71931340
C       -1.78103840      -2.42146481      -0.41889868
C       -3.69311839      -1.38896706      -1.70192842
C        3.04318070       2.01973147      -0.38888598
C       -2.31194338       2.03816705      -3.60570556
C        0.13141957      -1.47609982      -1.80388333
C       -0.29774117      -4.71670104       1.97197323
C       -3.29474734      -1.30201883       0.84999626
C       -0.55275257      -3.63881296       1.15531512
C       -2.79633087      -2.35861442       1.63644996
C       -0.68533545      -0.83381120      -2.74923045
C        2.12592201      -5.10136691       2.47138736
C       -0.42627828      -2.32459170      -0.80267257
C        2.09954448       2.61762082       1.64935658
C       -4.32845565      -0.85800186      -4.09502609
C        2.88090624       0.73357233      -1.02448454
C       -1.84462951      -3.03592353       0.89836113
C       -1.30376152       3.97277330      -2.20451116
C        1.50106910       0.86093530       3.13308568
C       -4.18167535      -1.26840974      -2.83473327
C        3.50829238      -4.96119657       2.62802098
C       -2.30745423       1.14667350       3.21438568
C       -1.27898395       1.89645514       3.11465115
C       -0.27216735       2.54818348       2.46632610
C        2.72542162      -3.86243626       2.28238190
C        0.35594917      -2.92764349       0.26911604
C        1.77933811       3.61814641       0.70542868
C        2.96541550       0.38051743       1.29459732
C        2.90924873      -0.26725631       0.06370405
C       -1.47070076      -0.16201060      -3.42403781
C       -4.49743691      -0.43629435      -5.43310205
C        0.84722172       3.90236978      -3.68627333
C       -0.55624086       3.42113927       1.35692395
C       -1.98927301       3.02397209      -2.93671502
C       -0.00446283       4.73416657      -0.44109431
C        2.41931142       3.31059823      -0.56402658
C       -0.04250889       4.45377637      -2.71701264
C       -3.15019251       1.20204207       0.58218841
C        1.45271410      -0.99327998      -1.53437381
C        2.33934084      -0.09377660       2.52793658
C       -3.49392850       0.15234347      -4.71552853
C       -1.66591433       3.33891756       0.38224701
C       -2.96612388      -1.61558906      -0.57477320
C       -2.60543920       2.30782798       0.40737433
