60
Properties=species:S:1:pos:R:3 trial_index=13 seed_entry_id=9 discovered_entry_id=10 energy=-486.1225891113281 status=accepted pbc="F F F"
C        3.04052475       1.37916122      -1.15418489
C        0.42021535      -0.42895141       1.00573783
C        3.81652065      -3.38303363       2.60116566
C        2.44367905       1.02728469       0.11583882
C        4.18004218      -4.63874500      -2.37748828
C        2.38716447      -1.44617630       1.97774996
C        4.15676119      -0.68871970      -2.15845929
C        5.06552289      -0.98658079       0.72523045
C       -1.57573334      -3.54045767      -3.53723343
C        3.54347546      -1.51271235      -1.23364882
C        4.01716635      -5.42357040      -0.16564608
C        1.14033303      -4.50140227       2.56199764
C        2.79000520       1.18755560      -2.45203276
C        0.44863442      -5.68720306       0.70384477
C       -0.78086971      -3.82338724       1.16107404
C        4.01628407      -1.73318958       0.08792436
C       -0.53184780      -2.49465301       1.50905493
C        2.95293688      -1.90865027      -4.39795392
C        3.07040681      -3.16990217      -4.47605428
C        1.04327952      -1.00464227       2.14491117
C        0.02958318      -5.26696946      -2.94837182
C        1.00381755      -1.82078988      -3.01307692
C        6.21843291      -1.44295125      -1.46625314
C        2.82502301      -4.83878144      -2.64185318
C        6.22065202      -2.62080113      -1.04539730
C        5.37913413      -3.90948616       0.94599893
C        0.95623668      -3.22384216      -3.41753603
C        5.06651043       0.22091870      -0.12324100
C        2.20410656      -1.12673169      -3.51839240
C        2.65953980      -2.58965268       2.83104754
C       -0.62883346      -1.82249517      -0.86414580
C        1.14418506       0.35053824       0.06431037
C        5.70624258      -3.76730862      -0.44161242
C       -0.15585359      -5.29716706      -0.51057275
C        5.08639660      -2.92486860       1.98258622
C        0.27626095      -1.24703254      -1.83942676
C        5.38089248      -0.28031974      -1.50250733
C        4.78642364      -4.72488405      -1.17138904
C        4.44872584      -4.96916391       1.08523585
C        3.54605249      -4.69802832       2.12388497
C        3.82067467       0.88373564      -0.11510957
C        3.05388355      -0.06715475      -2.89686906
C        1.33851428      -3.17309650       2.97682422
C        2.74390902      -1.65083119       0.64891965
C        2.27523653      -1.36046362      -0.68403598
C       -0.20420105      -4.05981383      -3.51550530
C       -1.34299767      -3.06175551      -1.11085707
C       -0.44064574      -1.47784507       0.51726463
C        2.25254705      -5.22372191       2.02619737
C        0.58920950      -5.53984159      -1.74192983
C        0.01316143      -4.82687758       1.75557535
C        0.37227627      -2.19944101       2.55509741
C       -0.98762145      -4.14612434      -0.22533839
C        2.04088425      -5.52425907      -1.62256283
C        1.21702025      -0.50930945      -1.06500760
C        5.51051251      -1.60429730       1.84371374
C       -1.89854654      -3.19969556      -2.36865295
C        1.84454052      -5.86512544       0.80642830
C        2.23616386      -3.91802840      -3.60841872
C        2.66134485      -5.78963446      -0.36052528
