60
Properties=species:S:1:pos:R:3 trial_index=30 seed_entry_id=20 discovered_entry_id=21 energy=-495.0220031738281 status=accepted pbc="F F F"
C       -0.32474807      -1.05895988      -5.59199041
C       -2.42241594      -1.17380597       0.02143993
C        1.98349902      -1.27367451       0.69994732
C       -0.70209497      -0.10623161      -4.76651695
C        2.01459229      -5.39916202      -1.85448586
C       -0.35089823      -0.18840855       0.17198264
C        2.68976501      -1.65823188      -5.96711399
C        1.38611389       0.26161903      -2.12765940
C       -3.20074237      -6.07454826      -1.16521801
C       -0.14353990      -2.93032430      -3.93585656
C        2.84626553      -4.52064946       0.20165152
C        0.49129870      -2.46317793       2.83485112
C        0.36607152      -2.12587005      -5.06457159
C        0.13892413      -4.75179522       2.73701938
C       -1.76066754      -3.43307041       2.65703163
C       -0.00238290       0.20425021      -2.35686329
C       -2.20146142      -2.25373403       2.03669768
C        1.01715267      -3.74834330      -3.53319594
C        1.03127119      -4.89741243      -2.76828005
C       -1.58756922      -0.39053978       0.86307761
C       -1.63032282      -6.67030497       0.11017779
C       -2.54830710      -4.95508722      -1.87066843
C        3.96875269      -1.59573522      -5.91787990
C        0.96765003      -6.09673746      -1.11071412
C        3.45058911      -3.07354112      -3.22820393
C        3.43560714      -2.44540291      -0.69781455
C       -1.38182582      -5.78348552      -2.08765651
C        4.56302530      -2.56054089      -3.87530468
C        2.20509144      -3.09960412      -3.97701164
C        0.68976182      -0.75316881       1.02230824
C       -2.94727135      -3.55661379       0.04465975
C       -1.85883124      -1.24538471      -1.27298766
C        3.44436686      -3.38740178      -1.78474752
C       -0.84046888      -5.46347715       2.00754622
C        2.71492968      -1.19736308      -0.55339193
C       -2.63691626      -3.63853205      -1.35755557
C        4.86443337      -1.99606162      -4.98453264
C        2.97969515      -4.62636171      -1.22109325
C        3.23269594      -3.19210521       0.51144137
C        2.45322506      -2.43021114       1.39873995
C       -0.61560493       0.34767518      -3.58178771
C        1.80825955      -2.27742544      -5.10075116
C        0.02918219      -1.29003007       2.19461543
C       -0.70139654      -0.35346373      -1.23257049
C       -1.23337223      -2.70689532      -3.17623435
C       -1.92658779      -6.87178792      -1.30049983
C       -2.86754524      -4.73052773       0.85381071
C       -2.79227185      -2.32396326       0.73173125
C        1.66845704      -3.09891447       2.33958484
C       -0.49576999      -6.22153024       0.84231370
C       -0.43359663      -3.49509001       3.15930806
C       -1.37038402      -1.09140452       2.07241008
C       -2.03351059      -4.67262328       2.00514544
C        0.83325056      -6.01788044       0.29634872
C       -1.99511495      -2.48743699      -2.05872719
C        2.32604292      -0.28608280      -1.51768628
C       -2.87401126      -5.97448110       0.22817157
C        1.41382237      -4.50912219       2.17066000
C       -0.01145223      -5.67025963      -2.09184613
C        1.81019741      -5.16716202       0.95961477
