60
Properties=species:S:1:pos:R:3 trial_index=15 seed_entry_id=11 discovered_entry_id=12 energy=-484.5549621582031 status=accepted pbc="F F F"
C        4.47993899      -0.04975746      -1.84689822
C        1.51858455      -0.47172150       0.70996013
C        3.47676928      -4.47973203       2.09063406
C        3.68912527       0.25791219      -0.59902174
C        3.22766924      -4.90424780      -3.12890138
C        2.93309205      -2.18520816       1.82162921
C        6.65347554      -1.53845873      -2.63990825
C        5.38386387      -2.02682450       0.52673668
C       -1.95682632      -2.43569020      -3.72211614
C        4.38252215      -2.37977793      -1.55496294
C        2.85992576      -6.10320870      -0.98090951
C        0.64988773      -4.55940263       1.97579799
C        4.52549115      -1.32223867      -2.45829335
C       -0.52025302      -5.27296038       0.13899096
C       -0.91791235      -3.12688850       0.78360636
C        4.15326665      -2.24276729      -0.19032210
C       -0.17727835      -2.01690910       1.16399947
C        3.93942076      -3.89690014      -3.92365209
C        2.96858261      -3.19414992      -4.61005043
C        1.82670914      -1.28696950       1.89135894
C       -0.91995592      -4.46550201      -3.43799340
C        0.59767654      -1.50383721      -3.32810011
C        7.88383330      -1.08331357      -2.22748386
C        1.85816405      -4.64108481      -3.21120398
C        5.04263471      -3.55214835      -1.95262232
C        4.58478209      -4.99592374       0.12966158
C        0.50485785      -2.67723262      -4.04916359
C        6.10678704      -0.91409502      -0.13472953
C        5.15304410      -3.35065243      -3.37682533
C        2.70039117      -3.39782281       2.56098968
C       -0.30766629      -1.09831015      -1.07680137
C        2.52514857       0.11829646      -0.00227429
C        4.73464058      -4.75310491      -1.26636246
C       -1.11733709      -4.61276075      -0.97051453
C        4.73192691      -4.21172558       1.33586418
C        0.38604373      -0.83330251      -2.28203188
C        6.88547991      -1.22782139      -1.26807612
C        3.70945434      -5.46359173      -1.94250231
C        3.45212196      -5.82156247       0.25483863
C        2.76574612      -5.49650124       1.41005453
C        5.13385192       0.02023468      -0.63586782
C        5.49457778      -1.88388884      -3.38680395
C        1.27278342      -3.46028306       2.55250146
C        3.02264199      -2.64787096       0.46394982
C        2.07011235      -3.41717563      -0.10529468
C       -0.81144983      -3.27359302      -4.06387181
C       -1.38460506      -2.06408222      -1.32342290
C        0.23329287      -1.02247711       0.24449403
C        1.38492855      -5.57598502       1.34396968
C       -0.48859477      -4.87093905      -2.24328726
C       -0.51068147      -4.38092854       1.21956681
C        0.77457703      -2.17750178       2.17946219
C       -1.38400174      -3.25440838      -0.54550075
C        1.01449843      -4.88955132      -1.98992552
C        1.45392838      -6.02641377      -1.07979024
C        5.53859940      -3.09148491       1.36869897
C       -2.03821119      -2.03469409      -2.54213957
C        0.71742825      -5.97602794       0.13856444
C        1.68382715      -3.53664344      -4.12483638
C        1.34386536      -3.85464758      -1.01476505
