60
Properties=species:S:1:pos:R:3 trial_index=3 seed_entry_id=2 discovered_entry_id=3 energy=-485.3135070800781 status=accepted pbc="F F F"
C        4.38262689      -4.48326843      -1.20208462
C        2.25836323      -1.99734382      -2.93350301
C        2.43535381       1.06718825       0.59103214
C        4.33120389      -3.18935625      -1.77661055
C       -0.77448709      -2.90025586       3.30174644
C        2.91451070      -0.32774461      -1.25564556
C        3.04571584      -4.41630837       0.85975257
C        4.31812469      -1.70164785       1.16738101
C       -2.52867303      -5.17082553      -2.04088942
C        2.46521007      -3.21309035       0.47855397
C        0.02928815      -0.83291968       2.76499647
C       -0.04061473       0.96887400      -0.92050607
C        3.11575939      -5.16555299      -1.29038128
C       -1.90816468      -0.33641772      -0.41729152
C       -0.98930126      -0.64653165      -2.50066932
C        2.79844519      -1.82930907       1.04948410
C        0.28413604      -0.82480340      -3.02744089
C        0.76140391      -6.25708403       1.30968381
C       -0.19176329      -5.73698769       1.96198174
C        2.50232789      -0.63749033      -2.59810764
C       -3.18906556      -3.78394504      -0.15579467
C        0.26231211      -5.08437130      -0.76679582
C        3.70262160      -3.77228840       2.93123903
C       -1.31357067      -3.56462117       2.17378936
C        2.70780892      -3.26348493       3.51132762
C        2.12479902      -1.32262670       2.27483536
C       -1.03285290      -4.84148849      -0.07270742
C        4.94278262      -2.97576694       0.88090573
C        1.21087986      -5.77640449       0.06545296
C        2.36537082       0.92365630      -0.83938677
C        0.13531750      -3.28468085      -2.65936348
C        2.85629065      -3.04855825      -2.12485930
C        1.75000504      -2.28375948       3.27268644
C       -2.48833253      -1.54493653      -0.96785161
C        3.66498562       0.62582643       1.13008685
C        0.79157269      -4.40154237      -1.96276148
C        4.19420066      -4.02822751       1.64193513
C        0.33959871      -2.04163013       3.46970544
C        1.20411594      -0.25494364       2.23267846
C        1.18054453       0.71063805       1.20169520
C        4.85287174      -3.38846969      -0.47263360
C        2.60878164      -5.45402092      -0.02806048
C        1.16574050       1.02704446      -1.62533795
C        2.60309608      -1.35273994      -0.36853024
C        2.37798475      -2.64665104      -0.77835182
C       -2.31568566      -4.76879574      -0.65639460
C       -1.30294717      -3.08423091      -2.66277522
C        0.86280912      -2.13303064      -3.08340498
C       -0.03926229       0.71882905       0.47489373
C       -3.22394152      -2.54445837      -0.34820418
C       -1.15880661       0.29073562      -1.46258354
C        1.29904969       0.11468420      -2.73206764
C       -1.76528372      -1.80399175      -2.20340288
C       -1.69531369      -2.22617964       2.28802743
C        2.23042917      -4.39300652      -2.07856696
C        4.52094807      -0.30416862       1.29293323
C       -2.06706573      -4.22611898      -2.73475472
C       -1.18232396      -0.12175752       0.80567577
C       -0.98964553      -4.71695385       1.40454187
C       -1.13717200      -0.93083530       1.97917829
