60
Properties=species:S:1:pos:R:3 trial_index=21 seed_entry_id=14 discovered_entry_id=15 energy=-487.3720397949219 status=accepted pbc="F F F"
C       -2.11517664      -1.90349141      -3.29946257
C       -5.39562625      -1.37402235      -5.75941755
C       -8.53966291      -1.02857759      -2.28667442
C       -2.85532368      -0.69448962      -3.29802709
C       -5.55653870      -5.81698461      -2.11193298
C       -6.50631692      -0.44760405      -3.74068299
C       -3.36615838      -4.33894020      -2.06902107
C       -6.21178128      -1.54461004      -0.79822988
C       -5.71032658      -6.97652566      -8.17536596
C       -4.36720407      -5.19083226      -2.54964740
C       -7.72600593      -4.68792084      -1.76164759
C       -9.17407883      -2.25255499      -4.73390023
C       -2.58050523      -3.08822001      -3.89746647
C       -8.35428592      -4.29563888      -5.19673329
C       -8.32652775      -2.78606428      -7.09865456
C       -5.06562988      -1.32807809      -1.69211698
C       -7.40217203      -1.72782711      -6.83730156
C       -2.67534296      -6.77966209      -4.13333795
C       -4.08607433      -6.79799797      -4.26320309
C       -6.37203473      -0.55759300      -5.16415971
C       -6.14007448      -7.07279451      -5.41922588
C       -4.59323866      -4.19180253      -4.87037981
C       -3.47658410      -3.74272881       0.50290357
C       -6.14520159      -6.73669641      -3.06361301
C       -4.69207205      -3.89872523       0.04065213
C       -6.77976916      -2.86726643      -0.70840370
C       -4.08389611      -5.33019261      -4.06827368
C       -3.82121727      -1.98273968      -1.45062899
C       -2.55174722      -5.42422970      -3.90758545
C       -7.92001927      -0.61338638      -3.50160381
C       -5.87766118      -3.55891710      -6.89295371
C       -4.27764297      -1.66936254      -4.95004880
C       -5.99135378      -4.02474216      -0.41583357
C       -7.12638118      -4.94678347      -5.44500315
C       -7.18143617      -0.56867189      -0.63137080
C       -5.79540975      -4.27857835      -5.68096700
C       -3.61607987      -3.36359546      -0.98169079
C       -6.45058185      -5.07898660      -1.25401686
C       -7.94102623      -3.28839225      -1.44684494
C       -8.73675750      -2.45462102      -2.28852285
C       -2.71285346      -1.43194317      -2.10789545
C       -2.34186864      -4.26039802      -3.11660563
C       -8.54064767      -1.00899539      -4.74639915
C       -5.27175693      -0.67069801      -2.98800126
C       -4.12962820      -0.71966263      -3.87669209
C       -5.88469425      -6.80259967      -6.79900924
C       -6.71434979      -4.39395018      -7.78992566
C       -6.04727151      -2.15677864      -6.77295507
C       -9.17974369      -3.02411945      -3.51466526
C       -7.17792943      -6.24635599      -4.94057054
C       -8.83990850      -3.13691479      -5.81806476
C       -7.61495646      -0.78839076      -5.79089451
C       -7.91006280      -3.79740188      -7.96368914
C       -7.40926020      -6.30829322      -3.53685215
C       -3.76924586      -3.00031918      -4.69250472
C       -8.31143319      -0.26732955      -1.10031812
C       -6.27810820      -5.78747945      -7.74035783
C       -8.81413402      -4.35891968      -3.84015773
C       -5.37682667      -7.32458584      -4.20223580
C       -8.19089564      -5.26205777      -2.94769488
