60
Properties=species:S:1:pos:R:3 pbc="F F F"
C        0.76180709      -1.28886843      -7.98298357
C        1.48731244       2.55769041      -0.39146344
C       -1.30679305       1.27944308       3.37745229
C        3.20868943       3.12027215       1.23251863
C       -2.03295521      -2.92255211       0.11574639
C        0.68162882       2.04877690       1.89989368
C        4.11061050      -1.78686274      -0.51945836
C        0.30558341       3.88823804       5.12564889
C       -1.98622260       0.66103101      -3.14253056
C        2.26936227      -0.41733089       0.37154611
C       -2.16044504      -2.15932190       2.18738953
C       -2.62974118       2.02955556       1.09440510
C        0.79238476      -1.06777888      -6.69270957
C       -3.99246296       1.18130879      -0.49701859
C       -2.19041701       2.36966903      -1.31265680
C        1.18306592      -0.48627057       1.48847196
C       -0.83639660       2.69731005      -0.96821536
C        1.37978736      -2.94195449      -0.87280763
C        3.83584317      -2.76358892       0.30880787
C        0.67746275       2.85155649       0.72599841
C       -2.43396048      -0.66198017      -2.77396704
C        0.91036124      -1.72421237      -2.77473062
C        2.91201109      -3.40223765       0.98457260
C       -0.64961585      -3.14611468       0.08682585
C        1.62923042      -3.14524948       0.53562106
C        0.12844147      -1.46194207       1.78501156
C       -0.35409873      -2.23847273      -2.22813758
C        2.25306697       4.05981187       3.41965449
C        1.91228917      -1.92515505      -1.67188470
C       -0.63478268       2.12793289       2.42203683
C        0.58712289       0.39102435      -3.56118076
C        2.87571479       2.21914110       0.13253970
C        0.31567774      -2.75718196       1.11123432
C       -3.91788562       0.91873997      -1.88108495
C       -1.28935931       1.93144363       4.62005351
C        0.99217708      -0.90965144      -4.01979610
C        1.34830337       4.12957883       4.32843986
C       -2.69857248      -2.99686858       1.40065237
C       -1.21190242      -1.15864615       2.34660117
C       -1.85925967       0.17183011       2.51904425
C        2.98216778       3.70299942       2.34741862
C        2.83964105      -1.16437421      -0.78477672
C       -1.46637350       2.72052839       1.43623455
C        1.51504532       0.90325093       1.79857765
C        2.55778587       0.94295588       0.79361100
C       -1.69900992      -1.73718463      -2.13332656
C        0.46213889       1.48704622      -2.66634021
C        0.47786875       2.29083273      -1.48297807
C       -2.73704114       0.63295091       1.42416061
C       -3.62464525      -0.45149174      -1.99884184
C       -3.12793367       2.26111871      -0.21647158
C       -0.65239426       3.13342693       0.36715228
C       -2.74527221       1.59450366      -2.37804685
C       -2.45048614      -2.05213942      -0.91268631
C        0.89478059      -1.05754590      -5.39519506
C       -0.63827387       2.95820579       5.07938624
C       -0.65909387       0.97088800      -3.39453125
C       -3.51189021       0.04942649       0.27672547
C        0.01339485      -3.08901658      -1.15103441
C       -3.40665175      -1.00743566      -0.70347777
