60
Properties=species:S:1:pos:R:3 pbc="F F F"
C        2.11896708      -5.07299848      -3.19574667
C       -1.11398088       0.14542787      -3.18152961
C        2.46138043       2.14122651      -0.54059089
C        0.92938401      -4.69933883      -2.53422429
C        0.00971825       0.66253519       3.39727830
C        0.95782505       0.83877626      -2.04870354
C        1.25954040      -3.41844523      -0.21721663
C        3.11548322      -1.48267633       0.28372029
C       -3.28648848       1.85540926      -0.04182395
C       -2.73827011       1.56024008      -2.36870615
C        1.86214614       2.13336860       3.18917117
C        0.21387333       3.85130192      -0.72202828
C       -0.18346228      -4.37896204      -1.89419348
C       -1.40841925       4.39201113       0.79595065
C       -2.15601591       3.63352428      -1.22846348
C        0.98325931       0.34785312       0.27570364
C       -1.87590285       2.70183977      -2.26490399
C       -0.17626170      -2.91501039       1.45578302
C       -0.77844443      -2.80639351       2.69606480
C       -0.14238153       1.13631470      -2.92816234
C       -2.79875494       1.53689614       1.23870256
C       -1.46652536      -1.50600332      -0.06316660
C        2.05595253      -1.73251688       1.31714603
C        0.37050986      -0.64568740       2.92926385
C        1.19282038      -2.77320543       1.02448594
C        1.62086440       0.58294639       1.40706916
C       -1.47203490      -0.78120209       1.32504450
C        3.36014901      -2.50683847      -0.60077697
C       -0.89767521      -2.89955509       0.19886452
C        1.56885173       2.08415804      -1.64604836
C       -3.52520430      -0.35831527      -1.36570620
C       -1.05504017      -1.02536279      -2.40683801
C        1.58322742      -0.65395329       2.16649287
C       -2.69305549       3.84778015       1.01316348
C        3.35127967       1.03502411      -0.38701066
C       -2.74395863      -1.49264771      -0.94327651
C        2.45527498      -3.45245498      -0.99930793
C        1.00545215       1.52935959       3.90152001
C        2.02663152       1.89413131       1.81904810
C        1.91034299       2.74755201       0.66103572
C        2.30918001      -4.25952967      -2.14450182
C       -0.05437908      -3.66688951      -0.72049878
C        0.53649793       3.05289783      -1.81682442
C        0.58533720      -0.03500600      -0.93181031
C       -0.51281074      -0.93816069      -1.13529571
C       -1.82304547       0.55406707       1.68141422
C       -3.25367791      -0.61059461      -2.77798869
C       -2.47455717       0.50408849      -3.26045938
C        0.71075055       3.49911761       0.56924786
C       -2.49267987       2.76578516       1.88638168
C       -1.11105365       4.33616206      -0.58837772
C       -0.52591800       2.46462561      -2.59563306
C       -3.07295348       3.24934697      -0.22465771
C       -0.95707754       1.27511140       2.59044190
C       -2.35772512      -1.63574335      -2.33142232
C        3.53314721      -0.15337615      -0.05497195
C       -3.29063495       1.02976999      -1.19585132
C       -0.41407248       3.62633821       1.49384828
C       -0.70890733      -1.43905188       2.36649934
C       -1.12918594       2.68478018       2.31045503
