60
Properties=species:S:1:pos:R:3 pbc="F F F"
C        2.54325625      -5.97507813      -2.36058961
C       -1.35933198       0.47108723      -3.30366438
C        2.30504911       2.13660536      -0.63455477
C        1.32980085      -5.28633688      -2.08858322
C        0.07955455       0.53602118       3.40414083
C        0.70252839       1.08581390      -2.14075063
C        1.43493159      -3.63222831      -0.06452589
C        3.13205509      -1.55771846       0.24437394
C       -3.16337436       1.94950531      -0.03070978
C       -2.95139179       1.90170025      -2.45196199
C        1.91636890       1.98211252       3.12764904
C        0.12429860       4.00000653      -0.65119132
C        0.16900205      -4.72758578      -1.76292133
C       -1.41554578       4.42922514       0.97083713
C       -2.27148965       3.89555961      -1.12012991
C        0.84818679       0.33645431       0.16945247
C       -2.07849588       3.07389760      -2.28987883
C       -0.15757390      -2.94111330       1.37218305
C       -0.90693706      -2.86980388       2.54906756
C       -0.40132832       1.45916884      -2.97760942
C       -2.65512447       1.52540815       1.20541621
C       -1.38941844      -1.51614556      -0.26486817
C        2.08354999      -1.79153404       1.29260185
C        0.40688120      -0.76623891       2.89731019
C        1.26614345      -2.89479809       1.10887918
C        1.51866241       0.50759855       1.30676897
C       -1.32071050      -0.79232381       1.15353039
C        3.53038845      -2.70986134      -0.42251855
C       -0.73373293      -2.90986009       0.03463193
C        1.38217918       2.26130706      -1.71732720
C       -3.46948996      -0.15841822      -1.41467574
C       -1.21831721      -0.77675324      -2.62740569
C        1.58139775      -0.71236831       2.08585789
C       -2.67696164       3.84745731       1.19419348
C        3.13403843       0.95683578      -0.56208599
C       -2.75745071      -1.36952249      -1.07448600
C        2.72242096      -3.78668695      -0.68406050
C        1.12541611       1.35936863       3.90443971
C        1.96374119       1.80298711       1.73897615
C        1.81977396       2.69748391       0.61019784
C        2.69455455      -4.86035862      -1.61000063
C        0.17869529      -3.80228106      -0.72828200
C        0.38689252       3.29349926      -1.82241731
C        0.42745409       0.11603741      -1.08934215
C       -0.59765824      -0.83415680      -1.37838363
C       -1.66571015       0.52810602       1.58474512
C       -3.45232094      -0.34658553      -2.87609590
C       -2.72860345       0.83468619      -3.38937951
C        0.66517359       3.52400253       0.59253377
C       -2.41470960       2.69798464       1.96846426
C       -1.18035685       4.50135421      -0.43187618
C       -0.72981387       2.79810192      -2.61704781
C       -3.07815451       3.35744646      -0.08683929
C       -0.84773214       1.19718801       2.58278141
C       -2.51519615      -1.43519421      -2.53538601
C        3.39988894      -0.21690348      -0.21136344
C       -3.23367228       1.22687119      -1.24045165
C       -0.39227026       3.62180901       1.57702126
C       -0.66480108      -1.51010883       2.23191125
C       -1.04731904       2.62711992       2.39047877
