60
Properties=species:S:1:pos:R:3 system=runs/20260728-safe-lbfgs-strict-quench-200-production/output-c60-seed42 state_id=intermediate_accepted pbc="F F F"
C       -2.49657223      -2.04031191       0.21387539
C        2.13686840      -3.06677130      -1.83372377
C        1.38156555      -0.46566857       2.15868625
C       -0.92390803       3.58171180      -1.48460492
C       -2.59765411       3.23747461       0.35809513
C        1.91606669      -2.29828318       0.57895072
C       -2.81773161      -1.21868347       1.37676243
C       -1.25081156      -2.81054819       2.02658153
C        2.28029958       2.78510153      -0.72659462
C       -0.48140856       3.18597638      -2.78191699
C       -0.41697759       2.84978514       1.65048760
C        3.01491996       1.02917905       0.39206592
C       -2.42795803      -1.69683670      -1.20367428
C        1.36446972       3.44777491      -1.53358604
C        2.51969953       0.31708614      -1.80283681
C       -0.94086166      -0.70504817       2.86178173
C        2.82414996      -0.83474137      -0.95673604
C       -2.17766828       1.47848560      -2.88504611
C       -2.71466260       1.89947675      -1.63878291
C       -0.31537594      -3.19440994      -0.03809245
C       -0.08742273       1.38683095      -4.12287693
C       -1.41810678      -0.65952880      -3.79528882
C       -3.61536345       2.36449387       0.91791101
C       -3.17495954       0.15026181       1.44477989
C       -2.49737545       0.98273160       2.38131377
C       -1.16031106       0.68132907       2.70232763
C       -0.22314295      -0.00505244      -4.26467945
C       -1.93270084      -1.64032201       2.42716007
C       -2.29710336       0.06928502      -2.96753301
C        2.30205639      -1.11232440       1.28047739
C        0.46013202      -1.98828744      -3.32963811
C       -0.28761743      -2.97072853      -1.42836683
C       -2.83097689       2.32759382       2.14332553
C        0.92282592       2.92438180      -2.76511893
C        0.32295833      -1.27754326       2.62257280
C       -0.98083011      -1.89826439      -3.27508385
C       -3.61335041       1.00110889       0.40641384
C       -1.80579679       3.14498431       1.56270294
C       -0.09829028       1.57571141       2.29949027
C        1.19095348       0.97202079       2.09025583
C       -1.53356486      -2.98590294       0.65049213
C       -2.80901921      -0.42453875      -1.69048451
C        3.02637341      -0.36741952       0.37314580
C        2.87214973      -3.38824091       6.35016764
C        0.87034043      -2.89642354      -2.29706151
C        0.93191288      -0.66699326      -3.65886955
C        1.81090748       2.87901444       0.63235314
C        2.39566882      -2.21111453      -0.79782087
C        2.14824218       1.68234091       1.29919267
C       -1.13706263       2.17649727      -3.53912845
C        2.83934836       1.48787238      -0.93432946
C        0.74432287      -3.01492920       0.91899894
C        1.15414019       1.66306280      -3.43517769
C       -2.16280281       3.04860272      -0.97600498
C       -1.42565315      -2.34992941      -2.01046828
C        0.13520194      -2.62227549       2.17094758
C        1.71230524       0.38293163      -2.99857941
C        0.51302814       3.38817227       0.68017872
C       -3.24546900       0.77043855      -0.94164653
C        0.22330044       3.77964969      -0.68819553
