60
Properties=species:S:1:pos:R:3 system=runs/20260728-safe-lbfgs-strict-quench-200-production/output-c60-seed42 state_id=intermediate_accepted pbc="F F F"
C       -2.40552665      -2.04739048       0.24857988
C        2.11391406      -3.00175528      -1.74509812
C        1.51888249      -0.37965163       2.35724921
C       -0.97653260       3.55705837      -1.50136032
C       -2.58737650       3.17585374       0.33333351
C        1.89699905      -2.27598376       0.63620428
C       -2.56506226      -1.18273458       1.38306835
C       -1.16884218      -2.88201981       2.05914559
C        2.30501161       2.77101492      -0.71934184
C       -0.53196904       3.16627213      -2.79839687
C       -0.40287085       2.78768572       1.61581114
C        3.10937153       1.04262620       0.49227390
C       -2.41840696      -1.68995872      -1.14964642
C        1.34482182       3.38096065      -1.52286088
C        2.62338631       0.34448222      -1.71903999
C       -0.76882695      -0.67994111       3.00239050
C        2.91995615      -0.79696732      -0.85376720
C       -2.25868198       1.47465489      -2.94088297
C       -2.76862397       1.91746710      -1.68630211
C       -0.30508678      -3.32320711      -0.00466460
C       -0.10228490       1.34124901      -4.05708571
C       -1.43271557      -0.68450570      -3.72608279
C       -3.56391310       2.30821796       0.92886513
C       -2.99407853       0.15661063       1.44465115
C       -2.39992245       0.99637232       2.42577275
C       -1.05991111       0.70723343       2.79535938
C       -0.23244740      -0.03134481      -4.14364195
C       -1.65669346      -1.61644758       2.41916852
C       -2.35843642       0.05180002      -2.96467076
C        2.28603750      -1.09040082       1.37287980
C        0.42764476      -1.95903812      -3.18760871
C       -0.34210935      -3.11067839      -1.38190806
C       -2.79805480       2.32526923       2.17357212
C        0.88822542       2.90641734      -2.75308107
C        0.59060784      -1.13464843       3.14296007
C       -1.00437717      -1.90715825      -3.18483893
C       -3.54553706       0.95962145       0.41944853
C       -1.78155077       3.10287343       1.52409222
C       -0.01991089       1.59111406       2.34570262
C        1.31400384       1.04280823       2.17894597
C       -1.51266172      -3.07877163       0.69935863
C       -2.86111885      -0.41824228      -1.68595699
C        3.08365527      -0.33505142       0.47616858
C        0.84664130      -2.49849357       3.31235765
C        0.83863891      -2.91367148      -2.20370710
C        0.91287872      -0.66290530      -3.52216224
C        1.83492713       2.88229893       0.64177637
C        2.44206030      -2.15817888      -0.73121023
C        2.24945497       1.75487784       1.37421938
C       -1.16796443       2.14222484      -3.54446398
C        2.92409112       1.50387182      -0.86770435
C        0.78267180      -3.09476174       0.92006804
C        1.12530089       1.64362030      -3.36386778
C       -2.21235728       3.04064853      -1.01559193
C       -1.46779419      -2.42131870      -1.95519564
C        0.23162706      -3.11902554       2.26024046
C        1.73782377       0.40023434      -2.89144299
C        0.49601220       3.34544091       0.65345917
C       -3.25283489       0.78214868      -0.94703107
C        0.19553266       3.73147187      -0.69896042
