60
Properties=species:S:1:pos:R:3 trial_index=3 seed_entry_id=1 discovered_entry_id=2 energy=-481.0169677734375 status=accepted pbc="F F F"
C        1.16108216      -5.71986509       0.14757215
C        2.12468799       0.04276301      -2.59718144
C        1.79113035       1.94671020       1.85600517
C        2.38630941      -1.24490161      -2.94809255
C       -2.31172851       2.97715589       2.79300138
C        2.37135015       0.66720381       0.02624805
C       -0.06875605      -3.39785625       2.80945167
C        2.57507969      -1.25153066       3.68751561
C       -4.98609986       1.26912528      -2.74650038
C        0.26764573      -2.10297610       0.67292468
C       -1.85519297       1.68069269       2.82432905
C        1.10921705       3.86828454      -0.01101619
C        0.65205886      -4.73917970      -0.76943056
C        0.21187313       4.92203971      -0.48452359
C        1.01745024       3.54153615      -3.39196990
C        0.54392907      -0.75138348       1.13193522
C        1.54294429       2.34039935      -2.99546646
C       -0.48473677      -2.87446790      -1.68050923
C       -2.87127596       0.64904208       0.42383161
C        2.33315961       0.80078709      -1.39620202
C       -3.96465238       0.41370640      -2.83617098
C       -1.19594378      -2.08084758      -2.66811134
C       -1.15534055      -2.83605164       3.31058130
C       -1.72148932      -0.11176899       0.42744684
C       -1.95524365      -1.91467907       3.62110102
C       -0.57703644       0.15253001       1.28624953
C       -2.01321405      -1.09907870      -1.98141739
C        2.20926186      -2.44350050       3.40369232
C       -0.55822034      -2.09070594      -0.45261503
C        2.33423094       1.97862348       0.55289488
C        0.05647927      -0.73626267      -4.54290470
C        1.98381124      -2.16630133      -3.73538324
C       -2.37576509      -0.66724963       3.66416088
C       -3.93603780       1.28641598       0.25417466
C        2.11834236       0.62178671       2.35989806
C       -0.56852901      -1.84654785      -3.88570039
C        1.30237226      -3.16945171       2.77760361
C       -2.40242161       0.55877195       3.42803134
C       -0.61634191       1.40434450       2.04255708
C        0.42709837       2.40806247       1.88197155
C        0.82016966      -4.50700271       0.65136431
C        0.63441092      -3.32280989       1.40655753
C        2.01104883       2.92064698      -0.47315943
C        1.84687193      -0.15263865       1.11125446
C        0.18061200      -4.04437067      -1.78422150
C       -2.99555888      -0.31840861      -2.53142420
C        0.55062978       0.48163713      -4.45307628
C        1.43873800       0.96018295      -3.54250150
C        0.30851360       3.61430203       1.13391514
C       -4.99228287       1.85954799      -0.31707173
C        0.15615419       5.31268752      -1.77978699
C        2.06019056       2.16945357      -1.68052003
C        0.59843015       4.58338713      -2.77299740
C       -2.25499601       4.11227484       2.24647835
C        0.73586553      -2.05436834      -4.29496800
C        2.56500148       0.03173243       3.49966060
C       -5.29264510       1.78155286      -1.57985940
C       -0.61045519       4.70167270       0.76668080
C       -1.49877609      -1.06051231      -0.62796446
C       -1.76652586       5.00677372       1.39665181
