60
Properties=species:S:1:pos:R:3 trial_index=15 seed_entry_id=9 discovered_entry_id=13 energy=-477.8376159667969 status=accepted pbc="F F F"
C        1.56762511      -5.42252106      -0.49576969
C        1.86774446       0.89770811      -3.39351510
C        2.11073500       1.22807628       1.37922504
C        1.22957540      -0.19052660      -3.92228294
C       -1.59993261       2.83609190       2.95380923
C        2.43484273       0.62361432      -0.67350586
C       -4.71371995      -2.46176548       6.70683639
C        3.91033498      -1.13683607       3.25786537
C       -5.83186744      -0.30234353      -2.34177869
C        0.70996353      -2.32904906       0.40069028
C       -1.41392330       1.47803231       2.76460756
C        1.71315766       3.77704458       0.20607434
C        0.73221334      -5.69106102      -1.54206577
C        1.02349079       5.04797486       0.08198438
C        1.90300563       4.60917322      -3.13140867
C        0.75248260      -0.90197886       0.72859878
C        2.13307475       3.25054102      -3.10868204
C       -0.71232186      -3.61753443      -1.42939865
C       -2.94756549      -0.26253861       1.02215728
C        2.27147708       1.16440735      -2.01671437
C       -4.73354423      -0.88827208      -1.98553318
C       -1.77808338      -2.97590180      -2.21074187
C       -4.17231740      -1.64923394       5.87302396
C       -1.68711602      -0.78536064       0.74034775
C       -3.46005452      -0.93049337       5.08953304
C       -0.43704402      -0.23231330       1.19510195
C       -2.49600726      -2.05284372      -1.32868108
C        3.39723275      -2.12777864       2.57072372
C       -0.45544202      -2.67907868      -0.33184345
C        2.78148902       1.73105906       0.14595589
C        1.33776916       2.56852936      -6.63057859
C        0.41918675      -1.10460851      -4.17793054
C       -2.79385984      -0.13725246       4.29517385
C       -4.17268163       0.01260754       1.08994024
C        2.96018037       1.05461586       2.54471742
C       -1.44292071      -2.65918983      -3.50028159
C        2.70179001      -2.77059473       1.75335776
C       -2.13478989       0.55374721       3.48608761
C       -0.36526124       1.06619960       1.83130801
C        0.75214181       1.92547561       1.56815579
C        1.85048240      -4.50303867       0.30172503
C        1.78905170      -3.21929852       0.81782503
C        2.54675740       2.96174785      -0.53483926
C        1.83909283      -0.04853526       0.46660453
C       -0.11937954      -4.77154734      -1.82092557
C       -3.64904789      -1.42083286      -1.64172239
C        1.59230534       2.38332716      -5.41503955
C        1.91801719       2.19612416      -4.09581630
C        0.82855331       3.28178517       1.21329566
C       -7.98473632       0.83344194      -3.11665278
C        1.12728720       5.82577543      -1.02272635
C        2.41124742       2.57024691      -1.88959444
C        1.56313466       5.40888757      -2.18362444
C       -1.47945963       4.06474270       2.71389173
C       -0.55764704      -1.99118095      -4.10956142
C        3.59734016       0.13674786       3.11856777
C       -6.92159471       0.31071023      -2.62842036
C        0.14878629       4.61900890       1.22492793
C       -1.59341684      -1.82025900      -0.23942955
C       -0.87240060       5.02092671       2.00833860
