60
Properties=species:S:1:pos:R:3 source_escape=runs/20260728-block-krylov-fixed-starter-escape/output/cases/bootstrap_quenched-seed43-balanced_refinement/escape.xyz pbc="F F F"
C        1.15357906      -3.23716652      -2.59384889
C        2.80335686      -0.66510217      -0.17606356
C       -0.52917093      -1.01333152       3.13859072
C        1.89049468      -3.06035066      -1.36012784
C       -3.59711644       1.77847583       0.52900682
C        1.26974064      -1.44734215       1.61953276
C       -1.56594491      -2.15488294      -2.47777351
C       -0.80414427      -3.71639933       0.56708965
C        0.71579909       3.48402792      -2.41673292
C       -0.08857544      -0.18729722      -1.05420650
C       -3.51610900      -0.06543169       1.81126192
C        0.95532490       1.41218530       3.18507675
C        0.90885597      -1.98709087      -3.22767975
C        0.29773292       3.34033562       2.11414727
C        2.40386665       2.54231082       1.47532995
C       -0.60008262      -0.10669606       0.25139261
C        2.99695654       1.27295889       1.14837973
C       -2.18573877      -0.83981525      -2.53977996
C       -2.85415491      -0.00576263      -1.61114333
C        2.50611851      -0.94019395       1.20987927
C       -0.01575804       4.06502559      -1.34085590
C       -0.15839106       0.49866660      -2.34591069
C       -3.06344143      -2.86632604      -0.86683420
C       -2.32510397       1.54656534      -0.07612596
C       -3.78792111      -1.88730927      -0.55649714
C       -1.56288492       0.71618319       0.79311650
C       -1.04341689       1.67420330      -2.13490718
C       -0.70155329      -3.78971184      -0.80217635
C       -0.98467692      -0.41459289      -3.18424357
C        0.88256056      -0.92330284       2.86429349
C        1.95749428       1.51194190      -3.30409588
C        2.04599747      -1.48071669      -1.24189797
C       -3.74443964      -0.48205751      -0.59026840
C        0.72755168       4.06168925       0.91894989
C       -1.08718326      -2.16854290       2.59849856
C        1.27897885       0.39973759      -2.85638680
C       -1.80135444      -3.10784145      -1.47574021
C       -4.00995718       0.37321508       0.58197411
C       -2.21431170       0.29473147       2.04100519
C       -1.21428773       0.25274829       3.09475358
C        0.58798250      -3.69208252      -1.41771430
C       -0.44255027      -1.72734179      -3.27662100
C        1.68513635       0.23492885       3.04288010
C        0.17646639      -1.41908698       0.63507074
C        0.69591065      -1.25640435      -0.74231315
C       -0.50944487       2.93536582      -2.08612839
C        2.76860536       2.46889656      -3.91716276
C        3.18116851       0.67982186      -0.13833493
C       -0.46778928       1.45089224       3.21067892
C       -0.02269412       4.59911842      -0.12438207
C        1.39358907       2.53279226       2.48300503
C        2.69846691       0.20093971       2.03362955
C        2.05386593       3.60370301       0.65302383
C       -3.29177107       2.63885254       1.60452960
C        1.73669672      -0.96243940      -2.67006659
C       -0.71831690      -2.61789792       1.35290170
C        1.75313055       2.93954030      -3.10428631
C       -0.91502629       2.71132673       2.60895667
C       -2.24052118       1.26471209      -1.45658784
C       -2.24027200       2.92478054       2.23661436
