60
Properties=species:S:1:pos:R:3 system=runs/20260728-safe-lbfgs-strict-quench-200-production/output-c60-seed42 state_id=plateau_accepted pbc="F F F"
C       -2.82578333      -0.50036863       1.49461178
C        0.39727790      -2.25978982       1.60151057
C        1.99077503       0.46442559       1.69275030
C       -0.02916430       2.10214770      -3.35734208
C       -1.48256761       3.35849531      -1.82910614
C        1.16396013      -0.08982181       2.66885600
C       -2.71135844       0.89002358       1.77072410
C       -1.86671429      -0.24729500       3.60111743
C        3.11079233       1.28199074      -2.06131225
C        0.19006917       0.90554488      -4.09885672
C        0.64789692       3.25708070      -0.38911854
C        3.54825469       0.51179830       0.03251405
C       -2.59622950      -1.11171830       0.21719143
C        2.19248390       1.42627811      -3.11467499
C        2.66371301      -1.11251007      -1.34318196
C       -0.64425307       1.61071911       2.83647284
C        2.27436251      -1.42622518       0.03069390
C       -1.83315131      -0.06745314      -3.18936850
C       -2.16672250       1.19641386      -2.60706299
C       -1.88688493      -2.50892927       2.64283655
C        0.11696719      -1.36503265      -3.90279245
C       -1.39182610      -2.24736469      -2.17351940
C       -2.58674371       3.36296897      -0.91436906
C       -2.63477900       1.97854881       0.88943094
C       -1.65493172       2.97369033       1.16667672
C       -0.42329437       2.54047797       1.75555738
C       -0.23092295      -2.37049212      -2.99223826
C       -1.94103912       1.02826762       2.95256501
C       -2.18108914      -1.08272859      -2.24841755
C        0.80203693      -1.50025500       2.76415519
C        0.42465417      -2.74957199      -0.79915445
C       -1.02554572      -2.55445601       1.50877449
C       -1.70367769       3.91364427       0.11811898
C        1.53979371       0.44399746      -3.87605920
C        0.21894762       0.63768941       3.41600882
C       -0.99719088      -2.65311640      -0.86535770
C       -3.00151653       2.05410290      -0.47404759
C       -0.59878665       3.80728407      -0.77935130
C        0.77882153       2.64645950       0.93458577
C        1.95402602       1.80660633       1.13424838
C       -2.41294376      -1.19784772       2.70195363
C       -2.75383805      -0.46434176      -1.06960593
C        2.78592860      -0.36299931       0.84324564
C        0.09802152      -1.62476758       4.00843584
C       -0.52208775      -2.79828673       4.42114830
C        0.89443715      -2.57574624      -2.12389364
C        2.80054952       2.31743785      -1.10203533
C        1.13317402      -2.25152203       0.33702979
C        3.02282759       1.83141814       0.18661022
C       -0.69937177      -0.19873554      -4.01969293
C        3.42568577       0.10214649      -1.33315914
C       -1.54001172      -3.24017539       3.79939761
C        1.48291190      -0.94655789      -3.62435076
C       -1.30319314       2.31889244      -2.75909935
C       -1.69510087      -2.23638796       0.27145950
C       -0.56032491      -0.37343503       4.11388929
C        1.91633161      -1.63649997      -2.43440375
C        1.56418052       2.92612047      -1.43756174
C       -2.85270916       0.96942356      -1.36134558
C        1.22034743       2.44396378      -2.74696928
