60
Properties=species:S:1:pos:R:3 entry_id=3 rank=0 energy_eV=-479.3125915527344 parent_id=1 pbc="F F F"
C        3.37141103      -1.55049986      -0.15811340
C        1.92984039       1.17914430      -2.35425573
C        0.55885209       3.35798373       1.64820138
C        3.42864333      -0.22340164      -0.70733565
C       -3.25732522      -0.36244448       2.66772514
C        1.83328936       2.31313777      -0.09023026
C        1.69116429      -2.35962102       1.79583915
C        2.94797286       0.95769319       2.63077454
C       -2.55692342      -1.74854593      -3.36443795
C        0.73304129      -0.83570959       0.37643703
C       -2.07785292       1.60430891       3.48290942
C       -0.95139491       3.69929831      -0.68491531
C        2.28072848      -2.29457755      -0.62341972
C       -2.76551286       2.50155072      -1.47353543
C       -1.10905285       2.92813478      -3.07205035
C        0.51088464       0.34002150       1.26613280
C        0.31059601       2.71669260      -3.03176095
C       -0.93355208      -3.58289805       0.71529012
C       -1.90385479      -3.49454030       1.50156271
C        1.98817955       2.35494579      -1.51872109
C       -3.45446215      -0.70645621      -3.16137436
C       -0.18330410      -3.01348147      -1.51735295
C        1.08065259      -1.83300617       2.99167826
C       -3.32995767      -1.73484399       2.54572426
C       -0.09879206      -1.48505495       3.50946206
C       -0.31934850       0.62321384       2.34953518
C       -1.44672239      -3.39251466      -2.00413035
C        3.13152175      -0.25045833       2.05158172
C        0.05906393      -3.14311542      -0.11588547
C        1.15382436       3.50016668       0.34474163
C        0.02543477      -1.71102649      -3.56221391
C        2.19127323      -0.13796281      -1.63666041
C       -0.83545135      -0.38435299       3.22732151
C       -3.08245480       1.76559431      -2.70989202
C        1.42770953       2.91432871       2.61562788
C        0.61661499      -2.15392661      -2.35979166
C        2.36747108      -1.39536618       2.45710100
C       -2.18486446       0.19340677       3.49576490
C       -1.07136833       1.84595227       2.56379181
C       -0.81904828       2.92997802       1.62903567
C        3.48952103      -0.48257476       0.69282028
C        1.18855304      -2.28372878       0.39738767
C        0.41876257       3.92020769      -0.80200640
C        1.19766350       1.13135853       0.27558601
C        1.22584023       0.02621012      -0.57548715
C       -2.42417640      -2.97642361      -2.67358984
C       -0.25079330      -1.21732637      -4.83697773
C        1.00691699       1.52475367      -3.34498748
C       -1.57172229       3.08905101       0.44536645
C       -3.63555632       0.49011973      -2.87057430
C       -1.66485064       3.30692331      -1.81557168
C        1.02330191       3.30013325      -1.94096395
C       -2.12720654       2.19621979      -3.68678355
C       -3.61496130       0.54410827       1.65322717
C        1.83641198      -1.65877672      -1.84087631
C        2.35956488       2.06462342       2.87340362
C       -1.30460910      -1.47066371      -3.96602089
C       -2.75883825       2.33556962      -0.02057258
C       -2.82935030      -2.81677258       2.17292605
C       -3.42464958       1.40644023       0.77893566
60
Properties=species:S:1:pos:R:3 entry_id=1 rank=1 energy_eV=-479.3113098144531 parent_id=0 pbc="F F F"
C        1.50823753      -3.30958564      -0.74949586
C        2.62268419       0.17408287      -1.72055884
C        1.73906418       1.44980359       2.78121837
C        2.48063068      -2.25217964      -0.71908450
C       -3.62902575       0.99229661       2.14376283
C        2.57585622       0.38898243       0.80392521
C       -0.79196668      -3.35622763       0.66042189
C        1.86998982      -2.07309702       2.79696731
C       -2.22825493       1.28341014      -3.96297251
C       -0.23447234      -1.25329205      -0.05881007
C       -1.79989753       1.38035910       3.70547556
C        1.42609927       3.33481176       0.73366682
C        0.37542849      -2.99794873      -1.51009173
C       -0.44312998       3.87826397      -0.51551090
C        1.51225533       3.57131140      -1.76676750
C        0.03630852      -0.53879223       1.22155242
C        2.46775661       2.50032064      -1.77476523
C       -3.20050471      -2.20319679      -0.90424264
C       -4.09950698      -1.74083159      -0.16568635
C        3.11849767       0.72840017      -0.48352332
C       -2.36861722       2.53445207      -3.37427839
C       -1.66715219      -1.66387836      -2.70148708
C       -1.28455101      -2.94060122       1.95003377
C       -4.44795619       0.10576680       1.47537736
C       -2.12127134      -2.08354256       2.53834068
C       -0.72845504      -0.11855710       2.30941562
C       -2.71529034      -0.98724288      -3.34947247
C        1.46460824      -2.87572578       1.78710192
C       -1.95438710      -2.30484834      -1.45809154
C        2.63421533       1.54169915       1.65744975
C       -0.17242305      -0.28892356      -4.04427369
C        1.84917679      -1.12721039      -1.57820524
C       -1.95265639      -0.74987357       2.70401358
C       -0.77482386       3.90631601      -1.95132956
C        1.87535158       0.29751443       3.51668148
C       -0.31944951      -1.32879110      -3.10155704
C        0.10112610      -3.30887432       1.67287120
C       -2.71426540       0.45276507       3.15284577
C       -0.64122818       1.16738585       2.97806636
C        0.44231952       2.04091264       2.55701233
C        1.98205645      -2.87574496       0.46066476
C       -0.73806003      -2.57646808      -0.60591883
C        2.63453613       2.64303806       0.75250673
C        1.29642994      -0.13421807       0.64787518
C        0.90867027      -0.68589609      -0.57388135
C       -3.03460391       0.12669562      -3.83329690
C        0.26369029       0.61186304      -5.01601717
C        2.39518693       1.29814559      -2.51883697
C        0.28615817       2.97879365       1.51342690
C       -1.89631589       3.40982912      -2.62606333
C        0.96208541       3.83871782      -0.47977305
C        3.04999000       2.14121084      -0.52173044
C        0.47434776       3.87512680      -2.64979050
C       -3.09204209       2.15596444       1.56558491
C        0.75129444      -1.91315688      -2.38509801
C        2.00796886      -0.98037221       3.44278610
C       -0.93803420       0.85273235      -4.35884311
C       -0.93194118       3.34417920       0.75473920
C       -4.59215155      -0.86649294       0.70472739
C       -2.20276033       2.89157972       1.10592314
60
Properties=species:S:1:pos:R:3 entry_id=4 rank=2 energy_eV=-477.5475769042969 parent_id=3 pbc="F F F"
C        3.66593796      -0.26758877      -0.45750451
C        1.14127058       2.38401064      -1.55721622
C       -0.31787801       2.39182191       2.98182319
C        3.25446254       1.11515522      -0.43587276
C       -2.80718353      -2.47684074       2.51345166
C        0.99849670       2.53911894       0.96444360
C        2.44980318      -2.30467274       0.83925032
C        2.74761006       0.61530165       3.06729239
C       -1.35322709      -0.59402110      -4.86170148
C        0.97763694      -0.71847466       0.12242462
C       -2.02922324      -0.67993350       3.96504069
C       -2.32158676       2.96426612       0.91671454
C        2.85988212      -1.08268692      -1.25209100
C       -4.09484633       3.77947978      -3.71660214
C       -2.47452021       3.31168442      -1.52538475
C        0.49356449      -0.11593438       1.40482720
C       -0.99863929       3.30160612      -1.57976611
C        0.07174613      -3.54586466      -0.87821919
C       -0.79347986      -4.02743820      -0.11372731
C        0.92776665       3.13808107      -0.34278967
C       -2.29256979       0.40600010      -4.75411157
C        0.68590891      -1.99627171      -2.64840544
C        1.82058398      -2.53036683       2.11228391
C       -2.47477045      -3.54311353       1.68715292
C        0.64932014      -2.79475592       2.69001637
C       -0.24122490      -0.54303320       2.51493464
C       -0.45092921      -2.34009604      -3.40975198
C        3.19911697      -0.14751435       2.04801763
C        0.93413635      -2.60874606      -1.37563177
C       -0.02463767       3.12588589       1.79612262
C        1.10660109      -0.27724043      -4.37194514
C        1.99147230       1.12635539      -1.36887982
C       -0.36966328      -1.92565614       2.88638814
C       -3.29926161       2.60832528      -3.90582309
C        0.76491125       1.95565620       3.70492293
C        1.36480883      -0.79769678      -3.09092790
C        2.85712404      -1.53189035       1.87455020
C       -1.75959394      -1.94448981       3.40157304
C       -1.26119403       0.21190275       3.23050400
C       -1.49341924       1.59671707       2.84981903
C        3.49228285       0.34874197       0.74571204
C        1.85061182      -1.82175664      -0.44091762
C       -1.01840513       3.54303586       0.88347965
C        0.81797859       1.16279787       0.82409178
C        1.10187055       0.54624897      -0.39329929
C       -1.27561447      -1.84675454      -4.22043505
C        1.18142522       0.26547167      -5.66222466
C       -0.01667222       2.60929595      -2.32624385
C       -2.56669352       1.92630743       1.93925549
C       -2.82367521       1.47070976      -4.43886828
C       -2.99466730       3.07730688      -0.28181581
C       -0.37658420       3.67416129      -0.36732951
C       -3.22909347       3.37864225      -2.73025105
C       -3.72694061      -1.48862802       2.20695439
C        2.22701508      -0.18322569      -2.17043360
C        1.90234726       1.36434998       3.66511254
C       -0.03527097      -0.18034909      -5.16450847
C       -3.59519017       1.01639060       1.82103135
C       -1.74621613      -4.04815452       0.81022516
C       -3.87623435      -0.23048763       2.01090341
60
Properties=species:S:1:pos:R:3 entry_id=2 rank=3 energy_eV=-477.0215148925781 parent_id=0 pbc="F F F"
C        0.93490050      -3.96534605       2.09795990
C       -0.58172505      -1.41084098      -3.19701003
C        2.62967750       1.46078438      -1.02454763
C        1.47185803      -3.98252172       0.74399510
C       -0.98891114       3.11075491       1.66341775
C        1.44614622      -0.49299121      -1.96582285
C        0.59593167      -1.69631120       3.48388473
C        3.39865910      -1.24479337       1.45638283
C       -2.62408463      -0.80582038      -2.16611518
C        0.30345438      -1.34716617       1.14967793
C        1.25534691       3.50150781       1.61474029
C        0.97369595       2.76966424      -2.95878856
C       -0.38402400      -3.42960703       2.02723181
C       -0.74540184       4.32185357      -2.76748489
C       -1.31565089       2.23850627      -3.52135565
C        0.62997903      -0.08001607       0.58904017
C       -0.99081919       0.86197093      -3.49645813
C       -2.29879222      -0.51335034       3.13558334
C       -2.53202517       0.60968937       2.57338280
C        0.62867001      -0.76410506      -3.13630736
C       -3.34922167       1.26711620      -1.45821886
C       -2.21040561      -1.54636343       0.92578483
C        1.26125196      -0.44433349       3.74883490
C       -1.07617306       1.77358622       1.11133558
C        1.03443742       0.85808143       3.63354490
C        0.40474269       1.29522906       1.09276641
C       -2.53079898      -0.27383733       0.33652216
C        2.78406428      -2.14173974       2.25999257
C       -1.72672237      -1.47330744       2.28761384
C        2.07751228       0.76887883      -2.15201160
C       -2.60482331      -3.02818514      -0.96987537
C        0.41275080      -3.43344149      -0.10298901
C        0.58145837       1.62281303       2.66727702
C       -2.12902974       4.32086745      -2.84481407
C        3.31511805       0.72975282      -0.09776297
C       -1.96205281      -2.78573732       0.24864996
C        1.94797410      -1.63872976       3.33003180
C        0.23527527       3.06159429       2.47205457
C        1.30515003       2.54029841       0.64265042
C        1.81010476       2.62321520      -0.67903695
C        2.14091592      -3.34242036       1.81726621
C       -0.34362248      -1.99132726       2.35229881
C        1.36550627       1.44714680      -3.16456322
C        0.99107546      -0.81502277      -0.66282938
C        0.63308854      -2.04635288      -0.01094562
C       -2.92860014       0.01110149      -1.02121946
C       -3.27472849      -3.51142976      -2.09817746
C       -1.60088292      -0.43272450      -3.09957368
C        1.08623206       3.34478492      -1.67425308
C       -3.34612383       2.22659953      -2.24573262
C       -0.25810420       3.17947862      -3.50447852
C        0.38793465       0.56051154      -3.64805121
C       -2.48215144       2.96418525      -3.04042881
C       -1.13489678       4.16717159       0.77870436
C       -0.83637003      -3.55808446       0.66925165
C        3.60717811      -0.23672072       0.69620050
C       -2.88465265      -2.17556212      -2.02988402
C       -0.00630490       4.29111047      -1.51093763
C       -2.20061918       0.88424972       1.21732657
C       -0.68725447       4.51096827      -0.33579786
60
Properties=species:S:1:pos:R:3 entry_id=0 rank=4 energy_eV=-474.6689147949219 parent_id=-1 pbc="F F F"
C        1.73503932      -3.37215092      -0.91668114
C        2.04772716       0.15217719      -2.30136679
C        1.91573029       1.86847159       2.12962682
C        2.52760018      -2.20384697      -1.15141005
C       -2.92227362       1.05180683       2.39467716
C        2.47042652       0.67254294       0.13203306
C       -0.04213642      -3.76354810       0.95452737
C        2.54727480      -1.61511816       2.33392650
C       -2.61994263       0.78750742      -3.27564226
C       -0.06753260      -1.52268192       0.07003750
C       -1.20806045       1.61863205       3.80111806
C        1.12478009       3.57732988       0.02856292
C        0.42025800      -3.26632665      -1.41326565
C       -0.98165657       3.98396614      -0.79211239
C        0.59311726       3.46250628      -2.41992280
C        0.13069564      -0.46198450       1.05595080
C        1.59449448       2.43091777      -2.51742226
C       -2.92640397      -2.99369480       0.17397318
C       -3.25099273      -1.87098630       0.68608925
C        2.72897039       0.89558019      -1.26220823
C       -3.00406128       1.85954784      -2.43023379
C       -1.88010541      -1.71891735      -1.63099321
C       -0.05079865      -2.59195127       2.92598541
C       -2.28496064       0.26024070       1.38743422
C       -0.86542032      -1.79342137       3.48695149
C       -0.81796358       0.19275865       1.94134174
C       -2.52569317      -0.54373168      -1.09459866
C        2.06748077      -2.60086061       1.54510467
C       -1.83385940      -2.81540492      -0.70428151
C        2.56949396       1.90585070       0.84575347
C       -1.21433677      -1.06999763      -3.92521975
C        1.56434493      -1.24044224      -1.89673554
C       -1.35640371      -0.55366095       3.18194213
C       -1.67933164       3.77309433      -2.04739560
C        2.27456569       0.79327782       2.90950226
C       -0.89741840      -1.68352972      -2.71112492
C        0.74057784      -3.16561098       1.91183686
C       -2.18688895       0.62044667       3.62290928
C       -0.41472780       1.52275592       2.68438202
C        0.56564115       2.38965174       2.09840721
C        2.35755039      -2.78409046       0.16157873
C       -0.43943129      -2.96598591      -0.22631871
C        2.32778460       2.90088201      -0.14498149
C        1.27819135      -0.03196620       0.29062729
C        0.83809521      -0.87073466      -0.71881870
C       -2.77779288       0.52324849      -1.93686125
C       -1.42405951      -0.70275931      -5.24903536
C        1.46736660       1.14192587      -3.09391748
C        0.19722416       3.27604105       1.06190746
C       -2.91970486       3.15260168      -2.15509016
C        0.38792801       3.94387749      -1.09600351
C        2.49953853       2.28741741      -1.42318374
C       -0.65399842       3.59122916      -3.04113149
C       -2.98975403       2.36887176       1.93412007
C        0.40243086      -2.20474426      -2.38036435
C        2.58035155      -0.45698016       2.88008715
C       -2.02602480       0.05461262      -4.24485527
C       -1.16018073       3.57006741       0.58751450
C       -2.82249041      -0.57687811       0.36660356
C       -2.31335146       3.17330068       1.25166374
