60
Properties=species:S:1:pos:R:3 system=runs/20260728-safe-lbfgs-strict-quench-200-production/output-c60-seed42 state_id=intermediate_accepted pbc="F F F"
C       -2.09752140      -1.74005958      -1.33503596
C        1.94861197      -4.18527178       0.43591348
C       -0.39681933      -1.53051252       2.48362604
C       -0.44103374       3.92503082      -0.59863516
C       -2.74319325       3.20363039      -0.14242853
C        1.35794732      -3.46581856       2.30126929
C       -3.20832605      -1.26394904      -0.57382420
C       -2.56896504      -3.27823074       0.35051392
C        1.93670439       2.29290983       1.24909205
C        0.63346919       4.01177400      -1.52727750
C       -1.59142549       2.07867417       1.84768817
C        1.83640948       0.03044566       1.64026705
C       -1.06370283      -0.97976586      -1.98943669
C        1.55884044       3.41223118       0.48134875
C        2.94569506       0.81759218      -0.53145390
C       -2.74035543      -1.48883994       1.75452230
C        2.59300082      -2.25852942       0.74445090
C       -0.49787680       2.44865395      -2.97404109
C       -1.69359779       2.59335893      -2.20181342
C       -0.43484451      -3.29916126      -0.49456368
C        1.91636894       2.73310624      -2.91969410
C        1.03269560       0.56239770      -3.14174940
C       -3.83628891       2.33717149      -0.47314090
C       -3.61739228       0.06924981      -0.38875390
C       -3.73791241       0.52260734       0.95200189
C       -2.83060659      -0.07430431       1.87055232
C        2.13059194       1.42368378      -3.36363185
C       -3.30056156      -2.09426923       0.59771758
C       -0.28308455       1.05731863      -3.15817440
C        0.91304047      -2.11289999       2.30044104
C        2.64695320      -0.09239114      -1.66409688
C        0.66318033      -2.55833583      -0.95627946
C       -3.91606092       1.91782724       0.92816791
C        1.87725720       3.72159817      -0.85442464
C       -1.58859166      -2.23319711       2.12904010
C        1.36543733      -0.46967737      -2.22208665
C       -3.43506278       1.17749751      -1.23851731
C       -2.70804725       2.65203285       1.18640860
C       -1.67015765       0.67671310       2.24727674
C       -0.45805911      -0.07126122       2.53918709
C       -1.77708305      -2.99703892      -0.80379770
C       -1.35377248       0.31954111      -2.54969420
C        1.87159622      -1.36536125       1.57014015
C        0.78513048      -4.28286850       1.30119352
C        1.89402341      -2.93276701      -0.33204489
C        3.22910100       0.89909899      -2.57898135
C        0.83809256       2.01665086       2.14784422
C        2.64784408      -3.50419487       1.54151440
C        0.76957402       0.62916895       2.36798649
C        0.60989285       3.29093749      -2.75587430
C        2.44708508       1.02966510       0.78613180
C       -0.42146603      -3.91811807       0.76103771
C        2.67649681       2.97213031      -1.74152110
C       -1.69781155       3.43292595      -1.05133915
C        0.34704576      -1.38951678      -1.78788702
C       -1.61374640      -3.47711556       1.41841199
C        3.43280456       1.81385932      -1.45356493
C       -0.31864721       2.72242470       1.72005339
C       -2.34541082       1.30830051      -2.11628022
C        0.12310105       3.60353975       0.67444832
