60
Properties=species:S:1:pos:R:3 entry_id=18 rank=12 energy=-492.95635986328125 pbc="F F F"
C        1.31331417      -4.10355624      -0.71615376
C        2.43062063       0.18373021      -1.86247339
C        1.41221706       2.89356321       1.90857413
C        2.03230186      -5.26575752      -0.42704522
C       -1.85083786       0.12497888       2.88438145
C        2.56554316       1.23270991       0.43145045
C       -0.19587884      -2.52321274       0.67065023
C        1.60194683      -3.98079713       3.03603613
C       -3.13162467       0.22297552      -2.69931915
C        0.94430481      -1.70182780       0.89563769
C       -0.07657442       1.66528574       3.04546839
C        0.80274738       4.05458950      -0.65743789
C        0.60293767      -3.08320477      -1.39169368
C       -1.28995233       3.91278543      -1.62463630
C        0.41350912       2.92218490      -2.81814067
C        1.22200009      -0.73866060       1.94785313
C        1.61934966       2.21321515      -2.66995776
C       -2.77555273      -1.38920529      -0.75333599
C       -3.02266420      -1.24149356       0.62655523
C        2.84671274       1.21979716      -0.97862477
C       -3.67188079       1.46905851      -3.00013152
C       -1.16999320      -1.30408006      -2.57297265
C       -0.78439309      -2.71105113       2.95675929
C       -2.54720887       0.84787241       1.92746847
C        0.26726996      -2.06268434       3.59751433
C       -2.04394604       2.16249342       1.55623168
C       -3.51400886       0.75626625      -0.35827418
C        0.87792401      -4.20458338       1.86068290
C       -1.61727341      -1.93917723      -1.39849470
C        2.19006444       2.58988041       0.76599957
C        0.46949160       0.13156770      -3.30162701
C        2.04625733      -1.09019219      -1.36297077
C        0.48462838      -0.70856045       3.17700363
C       -1.88313153       2.95211675      -2.47683337
C        1.27889246       2.01029622       2.99775941
C        0.21470698      -1.20294254      -2.86066439
C       -0.32726686      -3.36539779       1.81428289
C       -0.55560529       0.32819770       3.26721357
C       -0.84289504       2.54256142       2.19597413
C        0.09226730       3.40751247       1.58400488
C        1.36900623      -4.60149119       0.60853195
C       -0.60216542      -2.68643081      -0.70087294
C        1.98552056       3.30601479      -0.46676776
C        2.09783074       0.00101394       0.95437347
C        1.89472438      -1.09250650       0.02178859
C       -3.36636179      -0.22098594      -1.36235141
C       -0.79213254       0.83280389      -3.39692132
C        1.63284215       0.79118779      -2.88427324
C       -0.19989854       4.00882360       0.36869203
C       -3.12024054       2.36558034      -2.08584493
C        0.11447465       3.97030794      -1.90276492
C        2.42994036       2.47345810      -1.52744208
C       -0.82488398       2.23374783      -3.13378607
C       -3.19224503       2.09434241      -0.65140063
C        1.14802540      -1.94888103      -2.10004423
C        1.32989529      -2.98226297       3.79350193
C       -1.81363721      -0.12592623      -3.09431199
C       -1.48688837       3.79573608      -0.22434033
C       -3.25687775       0.11673897       0.90545049
C       -2.37833941       2.80263517       0.29706978
