60
Properties=species:S:1:pos:R:3 entry_id=32 rank=1 energy=-501.00372314453125 pbc="F F F"
C        0.35193446      -2.78454950       0.83695980
C        2.28108496       0.18078621      -2.40956842
C        1.64844865       2.01395716       1.68387658
C       -0.13094181      -2.69688937       2.20967742
C       -1.50417973      -0.68560539       2.64247269
C        3.01325135       0.87582788      -0.14479371
C       -0.85691908      -2.83125803       0.03107831
C        1.64139499      -3.46422040       3.80978621
C       -3.39417549       0.53294736      -2.68486625
C        1.55515726      -2.07955366       0.53910916
C        0.12063123       1.02206162       3.11292915
C        0.93435729       3.78044496      -0.45011906
C        0.28205401      -2.96057487      -2.08935007
C       -1.24874919       3.89679701      -1.19074967
C        0.27669348       3.08876022      -2.72393395
C        2.23035983      -1.08368873       1.40104216
C        1.46237282       2.33203465      -2.82650915
C       -2.99827097      -1.41486161      -1.14970720
C       -2.87597083      -1.48540828       0.27037722
C        2.95168114       1.09702997      -1.54950158
C       -3.88211096       1.83394215      -2.71349961
C       -1.50531906      -1.06479569      -3.00844704
C       -1.39739187      -2.01208822       2.12548291
C       -2.27701608       0.30360904       1.88711829
C        0.81003635      -1.12849252       3.39190854
C       -1.82876430       1.68779050       1.77235272
C       -3.52400699       0.64723625      -0.25166112
C        2.81212476      -3.75735890       4.52468123
C       -1.94025010      -1.90909213      -1.96154977
C        2.43891273       2.04197908       0.50375681
C        0.14984952       0.41441895      -3.59592173
C        1.92248710      -1.13293234      -1.99480363
C        1.80172606      -0.45131315       2.58037863
C       -1.97119563       3.12825519      -2.13031808
C        1.45519110       0.93896978       2.60391579
C       -0.12214628      -0.94907293      -3.30406727
C       -1.90163818      -2.29990626       0.83201762
C       -0.35975120      -0.27011495       3.37491573
C       -0.59297393       2.01600704       2.41334026
C        0.41087535       2.76547546       1.71267636
C        2.17362456      -4.76164512       3.81651181
C       -0.91378921      -2.78419349      -1.39613514
C        2.10629396       2.99422764      -0.53444686
C        2.83054942      -0.46179577       0.23954133
C        2.21391726      -1.44055225      -0.64075918
C       -3.57823273      -0.14370600      -1.43424397
C       -1.08635484       1.16600506      -3.49445791
C        1.38414739       0.95746491      -3.22091805
C        0.04054944       3.58109288       0.65138903
C       -3.19125132       2.52250927      -1.71610177
C        0.12135903       3.95609169      -1.60589882
C        2.43664823       2.41174471      -1.78887264
C       -1.02220268       2.50539515      -3.01421780
C       -3.14343439       2.00136511      -0.34969734
C        0.82429110      -1.81471221      -2.65663487
C        0.72104450      -2.53337040       3.31903246
C       -2.13006907       0.20848501      -3.26042058
C       -1.31288434       3.53498432       0.18158825
C       -3.09748406      -0.18686008       0.83097573
C       -2.21868729       2.51210822       0.62828269
