60
Properties=species:S:1:pos:R:3 entry_id=27 rank=7 energy=-498.4267883300781 pbc="F F F"
C        0.57180775      -2.99617147       0.71551289
C        2.34678567       0.30740167      -2.42597137
C        1.47552952       1.92115367       1.67107419
C        0.69377585      -3.74916974       1.86428679
C       -1.82881467      -0.63738359       2.70547487
C        3.00261334       0.98002280      -0.13103235
C       -0.74120103      -2.82773874       0.07298612
C        2.01684364      -3.39504555       4.94677373
C       -3.34931034       0.46577779      -2.79692413
C        1.65410242      -2.04525240       0.44602642
C       -0.07748453       0.87479373       3.08704443
C        0.80417814       3.79595073      -0.41585848
C        0.43820606      -2.85416683      -2.03927595
C       -1.35822562       3.89408666      -1.22302073
C        0.23144302       3.14013714      -2.71694196
C        2.31323949      -1.02775665       1.37501323
C        1.44370349       2.42762669      -2.80295394
C       -2.88461850      -1.43432297      -1.21750602
C       -2.78791611      -1.48730076       0.19793188
C        2.97183172       1.23249727      -1.53365940
C       -3.87669168       1.75288741      -2.84842163
C       -1.39532416      -1.06468556      -3.06635733
C       -1.71140430      -1.93845541       2.22381918
C       -2.50395641       0.33055356       1.82186715
C        2.13534940      -1.16052412       3.82130597
C       -2.00890316       1.67072978       1.70913683
C       -3.59635962       0.58854126      -0.38040726
C        1.48972760      -4.29226220       4.18020277
C       -1.79830745      -1.89003562      -1.99108261
C        2.32812104       2.06670541       0.53728588
C        0.21735486       0.47333737      -3.63006651
C        2.01434463      -1.01917773      -2.03318196
C        2.02363191      -0.42520831       2.65841959
C       -2.03052474       3.11083318      -2.19068963
C        1.30152875       0.83038928       2.59654976
C       -0.01539016      -0.90366081      -3.35586591
C       -1.80534889      -2.27275857       0.88335022
C       -0.82757108      -0.15781974       3.56977064
C       -0.75437901       1.91484943       2.33947211
C        0.24254603       2.66022240       1.67092121
C        0.99943951      -4.30591755       2.94992892
C       -0.77025163      -2.70141306      -1.35725531
C        1.99933437       3.04850517      -0.47883153
C        2.83330460      -0.35869918       0.21943768
C        2.25726045      -1.32351682      -0.67912035
C       -3.54661951      -0.21333413      -1.55077385
C       -1.04580872       1.18169931      -3.54190761
C        1.42459920       1.06066530      -3.22815119
C       -0.11213056       3.53745515       0.64841362
C       -3.25024664       2.47152011      -1.82844126
C        0.02340087       3.98794827      -1.59297186
C        2.39257997       2.52493460      -1.74256581
C       -1.03809954       2.51826594      -3.04693807
C       -3.24406535       1.95273694      -0.45977127
C        0.94297889      -1.73515752      -2.68903761
C        2.22429246      -2.10739881       4.64076407
C       -2.05935543       0.18574389      -3.33433991
C       -1.45325953       3.51060143       0.14224416
C       -3.17821484      -0.22001411       0.71799680
C       -2.36718194       2.48696849       0.55130923
