60
Properties=species:S:1:pos:R:3 entry_id=28 rank=8 energy=-498.156982421875 pbc="F F F"
C        1.84114465      -4.28309512      -1.32153892
C        2.45557687       0.39592508      -1.93228713
C        1.44735976       3.30809624       1.75056871
C        1.60316879      -5.23487884      -0.50047327
C       -1.28423038       0.17974374       3.09026562
C        2.61074756       1.54905067       0.29439282
C        0.39605360      -2.57297147       0.83535290
C       -0.64001157      -4.46932208       1.93262868
C       -3.03165532      -0.25634107      -2.30931856
C        1.42907375      -1.60642834       1.02973699
C        0.22357417       2.08961403       3.12356114
C        0.52023274       4.14524317      -0.83779400
C        1.19355580      -3.07806924      -1.44681998
C       -1.60372760       3.69441269      -1.62503698
C        0.11551422       2.83907080      -2.89918623
C        1.63980333      -0.50358361       1.96821466
C        1.40779573       2.28459117      -2.80684352
C       -2.22143106      -1.65244705      -0.33961270
C       -2.28363176      -1.40915533       1.08319371
C        2.79421171       1.50472097      -1.12308470
C       -3.76474996       0.88258918      -2.63139436
C       -0.90046924      -1.53808978      -2.37970642
C       -1.08759617      -1.24485045       3.16263793
C       -2.17526617       0.80153564       2.18089196
C        0.22472918      -1.51786052       3.63051524
C       -1.91202514       2.15870845       1.74527220
C       -3.28409728       0.37950407       0.01885023
C        0.08599365      -5.35253867       1.35828344
C       -1.11950897      -2.15127981      -1.11159434
C        2.13151343       2.90320098       0.57527819
C        0.46882916       0.06618787      -3.30031611
C        2.26743540      -0.89119050      -1.37418511
C        0.94150805      -0.36032839       3.20697752
C       -2.13837586       2.61491816      -2.36449996
C        1.51996588       2.62224298       2.97187555
C        0.42457224      -1.27183021      -2.81463693
C       -1.57045395      -2.05146122       2.11017329
C       -0.01977796       0.73602819       3.35826070
C       -0.73436970       2.76408756       2.26591348
C        0.05071020       3.65062160       1.49591766
C        0.96320869      -5.75958859       0.49739621
C        0.05043149      -2.77636595      -0.55166136
C        1.77704408       3.51904688      -0.67935284
C        2.36776434       0.26384812       0.89850028
C        2.23624889      -0.91498331       0.03619618
C       -3.06440743      -0.64634535      -0.93218757
C       -0.87572262       0.59858449      -3.29065433
C        1.57031763       0.86344040      -2.96013270
C       -0.40014759       4.08917006       0.25945747
C       -3.25497410       1.90640231      -1.83157556
C       -0.24080238       3.89690860      -2.01729838
C        2.24087743       2.67992099      -1.71913226
C       -1.05514697       1.99513355      -3.07763957
C       -3.18239914       1.73252060      -0.37882314
C        1.51420582      -1.84929172      -2.12284101
C       -0.63718906      -3.10963904       1.76608237
C       -1.73495408      -0.46337753      -2.85074976
C       -1.68873864       3.66910622      -0.20969125
C       -2.79920517      -0.08254786       1.27365391
C       -2.41121965       2.62485533       0.45501771
