60
Properties=species:S:1:pos:R:3 entry_id=25 rank=3 energy=-500.4590148925781 pbc="F F F"
C        1.49381828      -4.17376830      -1.15789939
C        2.36490480       0.25769999      -1.96770442
C        1.48633529       3.03686444       1.84813188
C        1.69539670      -4.91856813      -0.15886247
C       -1.38675933      -0.04469803       2.86901674
C        2.57658103       1.29109694       0.31970500
C       -0.17452204      -2.36215972       0.62030893
C        0.95765843      -4.19089916       3.24072983
C       -3.18028212       0.04527741      -2.55610528
C        1.10317440      -1.75635276       0.90076473
C        0.15161054       1.82566618       3.13679440
C        0.67301942       4.06992245      -0.70555683
C        0.77456789      -3.08911766      -1.55956360
C       -1.45842713       3.81757279      -1.55740709
C        0.22577009       2.91639499      -2.84684068
C        1.45105751      -0.74180988       1.90034607
C        1.47043889       2.26151491      -2.75569548
C       -2.55719325      -1.54353064      -0.71950486
C       -2.41776622      -1.37740411       0.68193153
C        2.77668001       1.29970719      -1.09968429
C       -3.80067789       1.26550729      -2.79621852
C       -1.14947976      -1.40974227      -2.67216396
C       -1.17741009      -1.46088750       2.72144323
C       -2.23959004       0.69620900       2.00266885
C        0.03491398      -1.83508091       3.43568608
C       -1.92136718       2.07014445       1.68820947
C       -3.41854718       0.52112622      -0.17087155
C        1.39563020      -4.98392298       2.30738907
C       -1.48128729      -2.07540559      -1.46479049
C        2.17579721       2.65746264       0.66495347
C        0.38316337       0.14942605      -3.38546149
C        2.05024115      -1.03351957      -1.46844259
C        0.81712093      -0.60372028       3.17218358
C       -2.05118485       2.82922722      -2.37421874
C        1.47973984       2.28830199       3.03575765
C        0.22011000      -1.20944538      -2.99221150
C       -1.33757607      -1.95291668       1.40480989
C       -0.14998559       0.47220475       3.30367374
C       -0.73672497       2.58850145       2.28343065
C        0.11752335       3.47126666       1.58408748
C        1.65759504      -5.23320216       1.09969705
C       -0.39970575      -2.70462696      -0.76540940
C        1.88347379       3.35457712      -0.56166701
C        2.22384039       0.00580106       0.85510647
C        2.00096457      -1.11365468      -0.05738764
C       -3.30986379      -0.44108794      -1.21377982
C       -0.91819668       0.78367330      -3.39719813
C        1.53204004       0.84274935      -2.97956897
C       -0.27443987       4.00842187       0.36791692
C       -3.22870557       2.17456503      -1.90687843
C       -0.07588668       3.94562017      -1.91189771
C        2.30980441       2.53964806      -1.63741120
C       -0.99885386       2.17496483      -3.10276458
C       -3.19451068       1.88611928      -0.47046776
C        1.21104062      -1.89370472      -2.25020483
C        0.48671137      -3.08850121       3.62146336
C       -1.88016471      -0.23402521      -3.07788868
C       -1.57631297       3.70219290      -0.14882796
C       -2.91384551      -0.07768522       1.02903393
C       -2.37456894       2.66118758       0.43031827
