60
Properties=species:S:1:pos:R:3 source_escape=runs/20260728-block-krylov-fixed-starter-escape/output/cases/bootstrap_quenched-seed43-discrete/escape.xyz pbc="F F F"
C        2.56027399      -0.16980676      -3.01784032
C        2.11824131       2.89503938      -0.56429305
C        1.54143326      -0.23915576       3.00433320
C        3.01840646       0.91184929      -2.18282632
C       -2.70267478      -2.29380744       1.33890671
C        2.20052434       1.11189577       1.13742265
C        1.22398106      -2.40134223      -1.94325100
C        3.65279983      -1.50397139       0.47304461
C       -3.32949132       1.99330912      -2.34916613
C        0.38528843      -0.29233927      -1.32649618
C       -1.55218518      -2.26959077       2.74199149
C       -0.04097325       2.11678744       3.11104743
C        1.21498227      -0.36782424      -3.48592265
C       -2.19900390       2.31940453       2.33219899
C       -0.69421878       3.89575912       1.47914618
C        0.21963138      -0.49093402       0.11543108
C        0.66063261       3.89491462       0.98363505
C       -1.40607456      -2.96082171      -2.91133835
C       -1.90815100      -2.61861889      -1.77266963
C        2.40001633       2.47417493       0.77445152
C       -3.61664228       1.93084578      -0.94728272
C       -1.58986519      -0.44007930      -3.11933587
C        1.11606297      -3.19037516      -0.76616304
C       -2.01410255      -1.47119889       0.35825840
C        0.23214985      -3.70549496       0.12968080
C       -0.77842883      -1.06067294       0.90977542
C       -2.39674275      -0.34572434      -1.95498801
C        3.32180151      -1.49248536      -0.84907649
C       -0.82999558      -1.65144457      -3.06407809
C        1.95975913       1.04997615       2.54533147
C       -1.77859788       1.75826352      -4.21934300
C        2.09893940       1.79519486      -1.53273031
C       -0.73401321      -3.78532424       0.92759250
C       -2.80617805       2.97233333       1.18509937
C        2.40001394      -1.24401655       2.62289848
C       -0.97712527       0.64325949      -3.87113333
C        2.30600640      -2.45196396      -1.15050432
C       -1.72744600      -3.32026714       1.72493776
C       -0.53320627      -1.35689058       2.27627293
C        0.09712793      -0.34182787       3.05944476
C        3.28456276      -0.48039421      -1.88603766
C        0.48783911      -1.25746884      -2.48707061
C        1.31061448       2.28588649       2.82219790
C        1.23919335       0.51833323       0.30636757
C        1.13757269       0.88380379      -1.05180283
C       -3.10535567       0.80949849      -1.70611162
C       -2.40391090       2.84126716      -4.79780567
C        1.10671498       3.85394804      -0.35809405
C       -0.65734915       0.83818704       3.20527210
C       -3.65322685       2.42946611       0.25334619
C       -0.97051904       2.97557521       2.52853141
C        1.61910660       3.16465440       1.73519780
C       -1.89830681       4.02418119       0.79306802
C       -2.77676271      -1.45993757       2.57316187
C        0.39066331       0.49796074      -4.11239132
C        3.22897541      -1.55462957       1.68426910
C       -2.85132002       2.40102730      -3.54826445
C       -2.06901207       0.93869176       2.81003695
C       -2.25993200      -1.50023305      -1.03558126
C       -2.87565732      -0.14573655       2.70423948
