60
Properties=species:S:1:pos:R:3 system=runs/20260728-safe-lbfgs-strict-quench-200-production/output-c60-seed42 state_id=plateau_accepted pbc="F F F"
C        1.12734175       2.50857750       1.67265743
C       -1.00699558      -0.41106928       2.75986600
C        0.66680684      -2.27139379       0.96867892
C       -0.81234826       0.47848519      -3.79324093
C        1.51797613       1.31474865      -3.44575079
C        1.08218706      -1.66628417       2.16965260
C        2.30301597       2.11305426       1.00056625
C        2.33330186       1.10623379       3.10760617
C       -1.37338344      -2.73831557      -2.55044252
C       -2.20255564       0.62746534      -3.55249316
C        1.76992145      -0.99301025      -2.42470175
C       -0.70980450      -3.43243794      -0.46217405
C       -0.17798011       2.68360426       1.07868660
C       -1.73721426      -1.62112171      -3.33342581
C       -2.50555773      -2.01143880      -0.41354487
C        2.90084810      -0.22784649       1.24916969
C       -1.81605274      -1.92403403       0.86031222
C       -1.79362115       2.57529363      -2.16533882
C       -0.40211760       2.56795717      -2.56233799
C        0.03896131       1.65316411       3.74108616
C       -3.75736248       1.03358434      -1.94439082
C       -2.82815245       2.20254695       0.00676858
C        2.38733451       2.14940751      -2.67105218
C        2.53992031       2.07346370      -0.40187105
C        3.20541279       0.89884361      -0.89644007
C        2.87668948      -0.32609231      -0.21705900
C       -3.80579732       1.31138974      -0.56238255
C        2.90622048       1.08927862       1.78388490
C       -1.84758451       2.87777528      -0.76848286
C        0.17661436      -1.14503717       3.18914771
C       -2.86630738       0.20309542       1.27565981
C       -0.84811417       1.02188478       2.84497701
C        3.23166275       1.00912366      -2.31167133
C       -2.77000487      -0.65515291      -3.19950803
C        2.31533684      -1.00406127       2.31472191
C       -2.39566715       1.55091460       1.18181040
C        1.80717247       2.68736073      -1.46907536
C        2.30486085       0.17161209      -3.01757216
C        2.07924842      -1.25242263      -1.00888224
C        1.26279725      -2.24930936      -0.36752274
C        1.21073673       1.96015995       3.01846198
C       -0.48924835       3.10563711      -0.27911135
C       -0.66476742      -2.76323750       0.78934830
C        1.01494303      -0.63076641       4.24300966
C        0.48595082       0.11326153       5.30136042
C       -3.69720138       0.03410905       0.14473576
C        0.07630602      -2.75839170      -2.48320375
C       -1.98253573      -0.82515274       1.75225010
C        0.45941672      -3.09254733      -1.17996486
C       -2.72761774       1.65625617      -2.72934226
C       -1.83540942      -2.98012092      -1.22256773
C       -0.01290724       1.26369189       5.08943505
C       -3.62560517      -0.41870712      -2.10239355
C        0.10432441       1.53434701      -3.44736525
C       -1.17191564       1.88411738       1.74959421
C        2.19449504      -0.22830942       3.54534937
C       -3.42624166      -0.99036687      -0.79953696
C        0.61217647      -1.58125782      -3.06119791
C        0.41434634       3.00111945      -1.44583043
C       -0.51087672      -0.91009753      -3.66397373
