60
Properties=species:S:1:pos:R:3 pbc="F F F"
C        2.38722155      -5.91112847      -2.65295513
C       -1.54556073       0.53561810      -3.19525081
C        2.25259609       2.17927017      -0.75205136
C        1.19576425      -5.23639502      -2.28011057
C        0.31120379       0.45882548       3.38820182
C        0.56593535       1.15410943      -2.16435726
C        1.45071937      -3.62666336      -0.23196518
C        3.15277061      -1.53712380      -0.02120640
C       -3.15285881       1.90588441       0.17896885
C       -3.11138163       1.93231854      -2.26162150
C        2.11684247       1.93213773       3.02507917
C        0.05511492       4.02911586      -0.58445654
C        0.06024141      -4.69376352      -1.85649071
C       -1.38706830       4.38430899       1.14116155
C       -2.36804566       3.90200930      -0.90951361
C        0.88935041       0.32200618       0.10618525
C       -2.24439630       3.11823428      -2.11828389
C       -0.03595595      -2.96031749       1.32387243
C       -0.72079509      -2.93348699       2.54823882
C       -0.59670770       1.52716286      -2.91567050
C       -2.56761182       1.45959884       1.37636315
C       -1.36627332      -1.51961777      -0.22613316
C        2.19290933      -1.80572508       1.10453201
C        0.61843745      -0.83046628       2.83696853
C        1.36733387      -2.90972468       0.96311985
C        1.62661964       0.48540182       1.20466920
C       -1.21963569      -0.83190800       1.20424074
C        3.49998070      -2.67054019      -0.74573772
C       -0.70136722      -2.91311675       0.02629191
C        1.25664606       2.32744522      -1.76579160
C       -3.54212134      -0.16021537      -1.23998927
C       -1.35002980      -0.71046817      -2.57717586
C        1.74258806      -0.74784800       1.95707970
C       -2.62473184       3.77986137       1.42705850
C        3.09444473       1.00259857      -0.76945553
C       -2.78322063      -1.36986862      -0.96525452
C        2.68534669      -3.75386384      -0.95638608
C        1.37980538       1.28418885       3.83361121
C        2.07356841       1.78206180       1.63127851
C        1.83693110       2.69822532       0.53446506
C        2.59029371      -4.81012103      -1.89595519
C        0.15041220      -3.79370017      -0.80517123
C        0.24838788       3.35550071      -1.78939555
C        0.38809405       0.14426079      -1.12905410
C       -0.63835079      -0.81550637      -1.37490799
C       -1.54717681       0.47098961       1.68353149
C       -3.56939712      -0.31776268      -2.69002202
C       -2.91341683       0.87325617      -3.22145482
C        0.67454295       3.51471506       0.60998228
C       -2.30162644       2.61584099       2.15611851
C       -1.24133642       4.50414896      -0.27136605
C       -0.91289831       2.86080084      -2.52136412
C       -3.09223769       3.31637597       0.15928363
C       -0.67901204       1.12612775       2.64776144
C       -2.61406268      -1.36848485      -2.41750341
C        3.38469932      -0.17984645      -0.46173197
C       -3.30232856       1.22319994      -1.04641534
C       -0.32032215       3.57371099       1.66029645
C       -0.49120123      -1.56851416       2.22437605
C       -0.91039867       2.55671067       2.49854834
