60
Properties=species:S:1:pos:R:3 system=runs/20260728-safe-lbfgs-strict-quench-200-production/output-c60-seed42 state_id=intermediate_accepted pbc="F F F"
C       -2.25373165      -0.61820885       2.34764785
C        2.29744887       0.69845482       2.78574210
C       -0.00915490       3.16378849       0.64946572
C       -0.57570526      -1.12093363      -3.51133060
C       -2.87096051      -0.48812437      -2.86753825
C        2.01676505       2.65291874       2.22872263
C       -3.12134776       0.22985642       1.58234351
C       -2.16084886       1.56537853       3.18931761
C        1.80292770       1.34042819      -3.00523497
C        0.55052969      -1.95610035      -3.25751189
C       -1.69562734       1.75740119      -2.49965744
C        2.07128810       2.77310361      -1.29648439
C       -1.47649357      -1.74729271       1.87216964
C        1.37637477       0.14489434      -3.58034210
C        3.00273256       0.67116853      -0.75625065
C       -2.34851142       2.46858661       1.09145524
C        3.00917494       1.55835321       0.41138052
C       -0.61046728      -3.04531970      -1.43066492
C       -1.78053441      -2.29730871      -1.75067020
C       -0.35219725       0.25625451       3.64558441
C        1.80641295      -2.75737544      -1.55768158
C        0.73587868      -3.21021765       0.59629946
C       -3.92760617      -0.55610287      -1.89896152
C       -3.57413230       0.10018286       0.25722061
C       -3.63836791       1.28610906      -0.53418058
C       -2.64125730       2.27263971      -0.28182122
C        1.88176610      -2.86029941      -0.17982590
C       -2.94670489       1.58011318       2.02666984
C       -0.53389169      -3.13465328      -0.00901544
C        1.39121299       3.16529098       1.03643236
C        2.00581875      -1.59514334       1.70556782
C        0.43630708      -0.80098246       3.19615432
C       -3.95888530       0.90680778      -1.85240558
C        1.73462689      -1.13598771      -3.14785665
C       -1.06840999       2.86506176       1.58690028
C        0.88966611      -2.50748035       1.79791828
C       -3.51488784      -1.02279832      -0.59878119
C       -2.83364942       0.94670062      -2.73768614
C       -1.60928633       2.49801218      -1.24867881
C       -0.33147012       3.04383372      -0.78954650
C       -1.74400355       0.21306302       3.39898393
C       -1.63382474      -2.39039553       0.58090218
C        2.31936039       2.75077450       0.05078936
C        1.44114210       1.79544042       3.19637668
C        1.76498135      -0.58963031       2.68675851
C        2.52362656      -1.68205469       0.36430634
C        0.64820549       2.20225198      -2.90459282
C        2.95470434       1.54213434       1.82815072
C        0.74176805       2.99611386      -1.73832227
C        0.55424676      -2.92486973      -2.22324493
C        2.60095737       1.54673554      -1.85777369
C        0.09458144       1.60184926       3.47681869
C        2.41987509      -1.51508819      -1.95903549
C       -1.80861622      -1.41011256      -2.86031080
C       -0.17820256      -1.89275566       2.49131040
C       -0.98152999       2.35692911       2.93553512
C        2.82401574      -0.77222914      -0.77049281
C       -0.51319167       1.47593737      -3.24229589
C       -2.48812769      -1.98599456      -0.53766916
C       -0.07116242       0.19864480      -3.73472400
