60
Properties=species:S:1:pos:R:3 trial_index=6 seed_entry_id=5 discovered_entry_id=6 energy=-491.8431396484375 status=accepted pbc="F F F"
C        2.41932253      -2.77844277      -1.55745390
C        0.70165024       0.96282408      -3.02777428
C        2.27823978       1.99564090       1.16243531
C        3.02839001      -1.87609932      -2.44124780
C       -2.62985361      -0.32215675       2.21546410
C        2.31471902       1.41511667      -1.26704064
C        1.97115572      -2.99859940       0.76170932
C        4.56131424      -0.88372124       0.50644564
C       -4.62605794       0.62453024      -1.50784784
C        1.96084287      -0.81713835      -0.14385683
C       -0.83730535       0.95472197       2.93036656
C        0.20120418       3.76285681       0.20854886
C        0.14557983      -2.03966863      -1.11322715
C       -2.04636176       3.47634408       0.65700576
C       -1.46733983       3.36793537      -1.55733036
C        1.97537404      -0.30636648       1.18813942
C       -0.47220864       2.83986849      -2.38069516
C       -1.25643596      -2.75855191       0.84266307
C       -2.55840764      -2.71804252       1.37267423
C        1.59109110       1.87449053      -2.40050972
C       -4.40330465       0.69111621      -0.08169323
C       -2.13415035      -1.55613593      -1.18456048
C        1.01265272      -3.21658430       1.68985221
C       -3.21519390      -1.52570597       1.79312845
C       -0.15274393      -2.52224598       1.76629167
C        0.91794222      -0.26103494       2.14556539
C       -3.46671892      -1.61113281      -0.69043543
C        4.14392106      -2.13391410       0.05183164
C       -1.11687294      -2.27863904      -0.47999391
C        2.14599771       2.34997993      -0.20725011
C       -1.73186776       0.69374626      -2.58828696
C        0.97015546      -0.42351953      -2.86801740
C       -0.18300989      -1.17563480       2.30931641
C       -3.00245904       2.63059546       0.00766049
C        2.98350474       0.74545649       1.33263947
C       -1.46009299      -0.67665036      -2.16895501
C        3.33656327      -2.88430177       0.88849949
C       -1.29322056      -0.38260743       2.70786949
C        0.52895587       1.04882921       2.57740426
C        1.06210517       2.20573367       1.93962696
C        3.73452466      -2.40975353      -1.29041722
C        1.48757850      -2.21964385      -0.52819043
C        1.20986006       3.33864945      -0.66489050
C        2.32853472      -0.65285504      -2.47558642
C        2.42865473      -0.00458978      -1.19520789
C       -4.32102054      -0.51417165      -0.73454760
C       -2.92348641       1.51759264      -2.32743102
C       -0.59703623       1.50249222      -2.88829971
C        0.09093777       3.16020059       1.50596194
C       -3.59104293       1.53193981       0.71404302
C       -1.11482335       3.94842367      -0.31271628
C        0.88781036       3.06080005      -2.02850281
C       -2.65371325       2.59012613      -1.38414373
C       -2.89722738       1.06884209       1.88227794
C       -0.07090681      -1.14162055      -2.20270623
C        4.25561807       0.23592435       1.00595871
C       -4.24653995       1.20168737      -2.65061810
C       -1.32513574       3.00036063       1.77739456
C       -3.61551096      -2.17774985       0.61481841
C       -1.79571004       1.84257167       2.40953883
