60
Properties=species:S:1:pos:R:3 trial_index=1 seed_entry_id=0 discovered_entry_id=1 energy=-476.3492736816406 status=accepted pbc="F F F"
C        1.66111998      -3.62657720      -0.74548367
C        2.14953752      -0.18774237      -2.24853553
C        1.99538183       1.91114996       1.95187572
C        2.64888990      -2.60332785      -0.98026796
C       -2.83206119       1.14649409       2.35715948
C        2.60601125       0.65150375       0.03403431
C       -0.20073443      -3.74404555       1.01823716
C        2.46106902      -1.66931289       2.36412078
C       -3.08032994       0.97068185      -3.36081603
C        0.05644816      -1.56320137       0.14067564
C       -1.09989316       1.74447299       3.72380701
C        1.06490579       3.49836794      -0.21475114
C        0.39892929      -3.36504748      -1.33354776
C       -1.10157076       3.89148699      -0.88183442
C        0.27198876       2.97601456      -2.52592050
C        0.22354625      -0.42043101       1.03583833
C        1.27222833       1.95160629      -2.57471374
C       -2.97596353      -2.81122743      -0.08917028
C       -3.25942793      -1.69989597       0.46973569
C        2.81773977       0.74326234      -1.39321219
C       -3.49755616       1.88591713      -2.35388069
C       -1.66723459      -1.50741005      -1.72731134
C       -0.14807008      -2.58167987       2.98881825
C       -2.19743485       0.35257335       1.34532041
C       -0.89635191      -1.70108128       3.50592711
C       -0.72276465       0.26335761       1.90258579
C       -2.44741177      -0.36994109      -1.21288157
C        1.99836372      -2.74845794       1.68757982
C       -1.78132227      -2.63756938      -0.83626646
C        2.61400131       1.93286144       0.64194074
C       -0.11066873      -0.15789740      -3.28751846
C        1.80660222      -1.53551868      -1.73113899
C       -1.29368825      -0.44406045       3.16330080
C       -1.95061426       3.51663408      -1.99594385
C        2.33042524       0.81326216       2.72727392
C       -0.48962174      -1.40439472      -2.57152648
C        0.61677345      -3.21374242       1.99726978
C       -2.09026716       0.74895448       3.58229267
C       -0.31143307       1.61249522       2.61018151
C        0.65518440       2.45974748       1.96907725
C        2.32837638      -3.09460836       0.33766387
C       -0.47141783      -2.93186532      -0.19620435
C        2.24610464       2.79884441      -0.42468789
C        1.44484230      -0.08663006       0.29994888
C        1.10669109      -1.07832929      -0.56612843
C       -3.05625782       0.55694407      -2.03385376
C       -1.03894403       0.35150651      -4.15393554
C        1.11485570       0.53361006      -2.90374359
C        0.23081122       3.31499404       0.92066381
C       -3.30084561       3.15487128      -1.96433787
C        0.23170915       3.73544762      -1.30942693
C        2.35271885       2.06260648      -1.66425984
C       -1.04388646       3.03537001      -2.99476935
C       -2.97612325       2.46675908       1.93096668
C        0.59507698      -2.26957827      -2.24743003
C        2.55620319      -0.45642613       2.79286848
C       -2.22790318       0.72030518      -4.40357558
C       -1.15695968       3.61814236       0.53628234
C       -2.74495334      -0.41559872       0.27207488
C       -2.28790615       3.26649722       1.25455475
