60
Properties=species:S:1:pos:R:3 entry_id=10 rank=39 energy=-489.0125427246094 pbc="F F F"
C        1.69117152      -3.45619998      -0.87180059
C        2.39438689       0.04034521      -2.40497348
C        2.21415003       1.85355663       1.99953630
C        2.58679082      -2.45604650      -1.35716698
C       -3.48603025       1.23732772       1.29154883
C        2.78807048       0.69391062      -0.02998770
C        0.04176435      -3.07462543       1.46614018
C        3.39059780      -1.54765822       2.07794332
C       -1.96746577       1.31424394      -2.68666873
C        0.13318867      -1.38900399       0.00046002
C       -1.53600627       1.83167378       2.33491049
C        1.13798091       3.60477725      -0.03696673
C        0.28948179      -3.42690699      -1.11278261
C       -1.09369448       3.98574679      -0.42663370
C        0.04209159       2.84857730      -2.12859560
C        0.72472632      -0.75133827       1.27331223
C        1.21368514       2.08450842      -2.43945242
C       -2.66498135      -2.19794839       0.87350948
C       -3.92564622      -1.70707086       0.65876598
C        2.93776220       0.94841038      -1.44711720
C       -3.68728646       1.47811964      -0.97200214
C       -2.08461785      -1.77899511      -1.48047108
C       -0.93227786      -2.81331656       2.38227708
C       -4.04721518       0.65745815       0.13029004
C       -1.85748113      -1.86444427       2.05009787
C       -0.22145446      -0.01502607       2.19225665
C       -3.01430291      -0.69257795      -1.42155871
C        2.57292258      -2.40837760       1.37165838
C       -1.85234146      -2.47292911      -0.25316802
C        2.73976255       1.95101327       0.65752008
C       -0.74986072      -0.87629266      -3.32348356
C        2.00138243      -1.22742567      -1.84171407
C       -1.59215151      -0.46349437       2.22107928
C       -2.06195798       3.26512968      -1.16451072
C        2.72459376       0.79395395       2.71881507
C       -1.07321227      -2.00078238      -2.51013340
C        1.19323483      -2.18649144       1.63718508
C       -2.42391489       0.72995933       2.12173321
C       -0.18880589       1.41228911       2.39676476
C        0.84882556       2.33228992       2.05667339
C        2.55120151      -2.89662615       0.03618743
C       -0.41367193      -2.79387657       0.02590016
C        2.28365085       2.87496223      -0.32301991
C        1.69868987      -0.14248138       0.24700316
C        1.11072299      -0.85820159      -0.81289204
C       -2.97675135       0.67709108      -1.90506033
C        0.18824556       0.15828782      -3.53605269
C        1.34028837       0.79493912      -3.06497907
C        0.44524666       3.39919801       1.19477075
C       -3.16768542       2.70639376      -0.49805031
C        0.17320202       3.80374966      -1.06028731
C        2.34759073       2.23015268      -1.59209721
C       -1.38221400       2.52227588      -2.19985884
C       -3.12829782       2.60195519       0.92682246
C       -0.17802387      -3.01959975      -2.30810053
C        3.24499184      -0.38257412       2.61707455
C       -1.17354188       0.44629752      -3.44399482
C       -0.94034623       3.71720993       0.96513260
C       -3.89428851      -0.70170012      -0.24716687
C       -1.93794952       2.96733283       1.61037550
