60
Properties=species:S:1:pos:R:3 entry_id=43 rank=18 energy=-495.91290283203125 pbc="F F F"
C        1.69334971      -3.34668368      -0.42030048
C        1.89612157       0.03419068      -2.90361503
C        1.75625871       1.75927639       2.13185291
C        2.86196776      -2.54377755      -0.64101053
C       -4.07558155       1.24989483       0.92866863
C        3.04450486      -0.16682692      -0.89327384
C       -0.81451185      -3.88560018       0.84684319
C        1.55267585      -1.40404677       2.24895907
C       -2.20392388       1.41237533      -2.99785068
C        3.04316630      -2.34217230       0.75436546
C       -2.03843218       1.44885798       2.02312592
C        0.79340181       3.24360315      -0.02574515
C        0.49039457      -3.04889336      -1.12077587
C       -1.37636117       3.86890216      -0.51617016
C       -0.20391489       2.86387430      -2.26386926
C        2.63693086      -1.07219233       1.33010115
C        0.92852232       2.08889073      -2.60869247
C       -2.17845039      -1.96756963       0.74968881
C       -3.00626974      -0.80027841       0.82920306
C        2.64514959       0.73484674      -1.89686482
C       -4.00801379       1.47692009      -1.34642742
C       -1.89621525      -1.53343067      -1.71455484
C       -1.56302342      -2.86151073       1.68876508
C       -4.45534977       0.63893793      -0.28847306
C       -0.24756547       0.15547853       3.22507713
C        3.84026717       0.96077169       5.34327981
C       -2.97567222      -0.58152154      -1.63113384
C        1.11167337      -2.74643481       1.95242121
C       -1.72456955      -2.33094221      -0.54991658
C        2.25332231       1.42646572       0.78970677
C       -0.88576819      -0.66454728      -3.72462289
C        1.71695183      -1.31725173      -2.43764657
C        3.14852271       1.20473481       4.29084091
C       -2.32450942       3.23897290      -1.35523865
C        2.44216287       1.42215025       3.23808861
C       -0.79673671      -1.56703102      -2.64408180
C       -0.20285115      -3.19108493       1.89436400
C       -3.05235615       0.46605159       1.57814639
C       -0.71360184       1.31920220       2.60375061
C        0.33249304       2.19782098       2.12197854
C        1.97168731      -3.30079842       0.99157545
C       -0.72963715      -3.33245516      -0.48952908
C        1.82307091       2.30384877      -0.26885450
C        2.78858428       0.09952785       0.49606769
C        2.76649422      -1.44506878      -1.45278761
C       -3.17058962       0.72060806      -2.21535792
C       -0.11125538       0.44024238      -4.15321877
C        0.99941842       0.95428597      -3.48514237
C        0.01978146       3.16077835       1.15847766
C       -3.47710856       2.66424377      -0.78851130
C       -0.07609822       3.66437673      -1.07701769
C        1.98862673       1.93672823      -1.62526778
C       -1.62332725       2.57886539      -2.42260557
C       -3.54688598       2.53319614       0.62834365
C        0.49704143      -2.05718223      -2.19965839
C        0.68412065      -0.64168145       2.99512249
C       -1.47071326       0.60418191      -3.87981327
C       -1.33135356       3.50305483       0.85884288
C       -3.70133995      -0.54735233      -0.39003080
C       -2.34775290       2.68132519       1.36541638
