60
Properties=species:S:1:pos:R:3 entry_id=30 rank=5 energy=-499.73028564453125 pbc="F F F"
C        1.79012995      -3.01301994      -0.80966308
C        1.80276840      -0.18104327      -2.89453441
C        1.44686564       1.17436336       2.01558634
C        2.43709794      -2.23362108      -1.81521723
C       -4.21877893       1.81925308       0.98153465
C        3.34544944      -0.21056863      -0.98290268
C       -0.18824721      -3.12702854       1.43064930
C        2.72414658      -1.86531205       2.08059803
C       -2.22914949       1.56204143      -2.90507555
C        3.71379880      -2.18627139       0.05611151
C       -2.23251949       1.85590959       2.14295214
C        0.93247302       3.11411383       0.00321274
C        0.38291101      -2.75343424      -0.88628341
C       -1.15233938       3.99419939      -0.51354016
C       -0.09838349       2.82950016      -2.22907263
C        3.46243689      -1.19620149       1.06640023
C        0.94199361       1.93395087      -2.56117808
C       -2.39287435      -1.36079150       1.08596893
C       -3.25858869      -0.30360285       1.08229390
C        2.62855712       0.49869929      -1.93693760
C       -4.01423417       1.85992946      -1.29126021
C       -2.08057499      -1.28882146      -1.36085900
C        0.13048257      -2.78245120       2.78373003
C       -4.56818242       1.13574237      -0.20670434
C        0.65483224      -1.69401953       3.49683016
C       -0.90530339       0.43518896       3.63974889
C       -3.12840888      -0.29167590      -1.38136698
C        2.31130371      -3.14662601       1.60703239
C       -1.79444446      -1.90123450      -0.03541317
C        2.29328387       1.17390424       0.81246876
C       -1.17225302      -0.64688053      -3.56491932
C        1.45975084      -1.52508713      -2.57553498
C        0.19772045      -0.30474305       3.65408590
C       -2.16486358       3.45937146      -1.34951702
C        1.43332141       0.12346964       2.95401130
C       -1.11009237      -1.45390895      -2.39705787
C        1.02523947      -3.55580231       1.96697760
C       -3.32589045       1.00021784       1.74824144
C       -0.96506306       1.47441513       2.73597671
C        0.25176045       1.99387032       2.08081633
C        2.70442430      -3.20143228       0.25109310
C       -0.60108782      -2.73722052       0.13066392
C        1.91429429       2.11668261      -0.23975579
C        3.13791059       0.04543377       0.41686234
C        3.55605854      -1.59457999      -1.22339932
C       -3.23189792       0.97586312      -2.08265853
C       -0.26381071       0.34396795      -4.03312474
C        0.90875619       0.79077029      -3.42484608
C        0.11384008       3.05904753       1.16518570
C       -3.38687267       3.02968316      -0.79525948
C        0.12151984       3.63096322      -1.05673513
C        2.01114093       1.72418795      -1.60619916
C       -1.53614883       2.69140853      -2.38449833
C       -3.51691161       3.00518789       0.61888467
C        0.16762902      -1.97680594      -2.09012979
C        1.91368270      -1.20740287       2.97552046
C       -1.59596354       0.66771217      -3.77459429
C       -1.16116159       3.63734375       0.86290489
C       -3.90013108      -0.10743581      -0.18868386
C       -2.32447604       3.05176045       1.38559071
