60
Properties=species:S:1:pos:R:3 entry_id=21 rank=6 energy=-499.5971374511719 pbc="F F F"
C        2.05181495      -3.01276494      -0.43835183
C        1.92550472       0.27835531      -3.05063538
C        1.35937570       1.11558264       1.86842229
C        0.95850424      -4.65635691       0.92238549
C       -4.10542461       1.51479723       1.15305808
C        3.34404829       0.15624809      -1.25556564
C       -0.00365351      -3.65824311       1.06215710
C        3.01961155      -1.75151063       1.79867878
C       -2.24932259       1.52383552      -2.82105864
C        3.00445576      -1.98306133      -0.56064669
C       -2.15123686       1.84376307       2.29524431
C        0.81768930       3.26092165       0.02821937
C        0.77475731      -2.71146113      -1.00390399
C       -1.33876797       4.00808284      -0.40469442
C       -0.24180878       3.00383376      -2.19050356
C        3.24921141      -1.15359754       0.56352891
C        0.87736455       2.25613489      -2.60471339
C       -1.71961994      -1.38927545       1.19740190
C       -2.78462996      -0.41497107       1.17809659
C        2.75676548       1.03348841      -2.14824813
C       -3.97988442       1.58961114      -1.11971714
C       -1.71750111      -1.32128905      -1.34656509
C        0.08223577      -2.75394330       2.16124197
C       -4.38209457       0.78780202      -0.02107607
C       -0.74736238      -1.61705167       2.24944010
C       -0.83837311       0.47966289       3.69647409
C       -2.84474331      -0.42965815      -1.29189930
C        2.47491440      -3.09684252       1.85561374
C       -1.38535326      -1.97659229      -0.09485605
C        2.22830434       1.27776189       0.67196787
C       -0.93271949      -0.53737176      -3.52114601
C        1.81763824      -1.06081458      -2.52957517
C       -0.19257242      -0.50080215       3.01861777
C       -2.32312365       3.38704255      -1.21818685
C        1.17899308      -0.12712377       2.57461449
C       -0.72127237      -1.35996309      -2.39155079
C        1.39790898      -2.58403185       2.63064234
C       -3.06698432       0.82531218       1.87404799
C       -0.86751319       1.57939917       2.86381077
C        0.27582462       2.04768461       2.09189094
C        2.06211255      -3.83620943       0.71589884
C       -0.32527264      -2.93042058      -0.13512831
C        1.84830457       2.33310823      -0.28288861
C        3.10274594       0.23302440       0.15948290
C        2.98611238      -1.16285572      -1.69535980
C       -3.13908399       0.81777885      -1.96429201
C       -0.21754678       0.56112179      -4.07036291
C        0.92009351       1.14731593      -3.51329267
C        0.04966848       3.13025705       1.21490833
C       -3.47391049       2.82084504      -0.63440157
C       -0.05649542       3.76418542      -0.98674358
C        2.00826010       2.12673497      -1.69009915
C       -1.66121796       2.71603166      -2.30158789
C       -3.57548407       2.79161652       0.77972874
C        0.63305029      -1.76736286      -2.09138554
C        1.98302868      -1.27005220       2.64433912
C       -1.55783233       0.70091899      -3.71808475
C       -1.27117112       3.64982784       0.96834156
C       -3.53182472      -0.34555284      -0.03414444
C       -2.38757014       3.00821836       1.52741432
