60
Properties=species:S:1:pos:R:3 system=runs/20260728-safe-lbfgs-strict-quench-200-production/output-c60-seed42 state_id=plateau_accepted pbc="F F F"
C       -2.51729330       2.55594872       2.51989541
C       -1.52840108       0.02474357       1.32827352
C        1.45495904      -1.32585679       1.08209020
C        0.51243031       0.38144441      -3.33070843
C        2.08383427       2.02331454      -2.65232144
C       -0.14398563       2.20347677       0.58578760
C        1.88231764       3.38695118       1.64154539
C       -0.00163549       1.67607184       2.78681475
C        0.94677603      -2.88123475      -2.55119235
C       -0.81501531      -0.02153394      -3.36559720
C        3.16618124      -0.08870573      -1.86413331
C        1.12556415      -3.16901689      -0.30645982
C       -3.49327086       1.89602620       1.74278451
C        0.42259919      -1.93185031      -3.44216165
C       -1.06280311      -2.86210879      -0.95545738
C        1.79601292       1.05365214       1.27141065
C       -0.84441368      -2.21158914       0.29401540
C       -1.72512242       1.57708511      -1.69862909
C       -0.32334269       2.15476110      -1.77240088
C       -1.98534973       0.68838934       3.68832227
C       -2.83469886      -0.50226459      -2.62057834
C       -3.73739306       0.39811778      -0.54785521
C        2.47637736       3.10742556      -1.84978052
C        2.49775463       3.31191292       0.41885819
C        3.42940560       2.23694637      -0.03281563
C        2.82397634       1.02917266       0.31113737
C       -3.65410347      -0.65115581      -1.51409847
C        0.90280817       2.27578005       1.69106248
C       -2.92555843       1.58917517      -0.64465863
C       -0.99288351       1.12643031       0.75181954
C       -3.16661272      -1.50060440       0.49086072
C       -2.44007340       0.01110921       2.51716175
C        3.66044874       2.36558487      -1.42785093
C       -0.90162970      -1.42591782      -3.43830072
C        1.27991874      -0.10272351       1.83712921
C       -3.90497755      -0.25782561       0.70010339
C        1.62303301       3.35231031      -0.74045671
C        3.24867752       1.26379292      -2.29516613
C        3.00960077      -0.18105764      -0.45142654
C        2.47186796      -1.37762381       0.07724009
C       -1.43439867       1.93396325       3.13180931
C       -3.37308567       2.33616514       0.44299630
C        0.51744498      -2.35050710       0.69037879
C        0.18555588      -0.14283082       4.21854541
C       -0.08749114       0.10437871       5.57280618
C       -3.32270416      -1.89175366      -0.87616106
C        2.24987089      -2.39352735      -2.11839488
C       -1.80309811      -1.29570474       0.79213533
C        2.32816001      -2.54261115      -0.72481537
C       -1.89601213       0.55786257      -2.66426385
C        0.22648231      -3.33405066      -1.41226467
C       -1.13857541       0.13341900       4.65543096
C       -2.13855057      -1.76192177      -2.84331908
C        0.72141124       1.60953844      -2.68022190
C       -3.63267198       0.45168476       1.88383511
C        0.49545467       0.36176015       2.96134901
C       -2.26453395      -2.51652221      -1.64321669
C        2.49398622      -1.09250536      -2.66208377
C        0.32897019       2.77024609      -0.64521949
C        1.33322960      -0.78202144      -3.42853483
