60
Properties=species:S:1:pos:R:3 entry_id=1 rank=0 energy_eV=-480.2518615722656 parent_id=0 pbc="F F F"
C        1.69758432      -3.23504262      -0.77962564
C        2.40513676       0.28714669      -2.02412817
C        2.14678825       1.67004450       2.52566175
C        2.58732074      -2.11606628      -0.88872771
C       -3.61608063       0.96824159       1.94558850
C        2.72290083       0.60294979       0.46411917
C       -0.42971277      -3.39451545       0.88904646
C        2.41039909      -1.86097614       2.65873009
C       -2.76128752       0.98615395      -3.55469544
C       -0.06569450      -1.27173745       0.06416889
C       -1.56699033       1.67554999       2.63881130
C        1.37260822       3.51972471       0.50708931
C        0.46548812      -3.02748788      -1.41433386
C       -0.76016982       3.80926195      -0.38765915
C        0.97913529       3.58492449      -1.96473941
C        0.36337307      -0.54491382       1.27756113
C        2.01088152       2.59371841      -2.10563441
C       -3.06160993      -2.55231311      -0.42234010
C       -4.00879237      -2.11768171       0.27418738
C        3.03272790       0.93509109      -0.89944484
C       -2.95848327       2.21903625      -2.94502754
C       -1.79779268      -1.88325422      -2.37212635
C       -0.85420163      -2.87737700       2.17056382
C       -4.48596482      -0.03002735       1.54611039
C       -1.74599279      -2.00237886       2.64816769
C       -0.27123148      -0.12708586       2.45289896
C       -2.97191047      -1.31499550      -2.89563738
C        1.88837510      -2.71351565       1.74423039
C       -1.87357516      -2.51649482      -1.09349048
C        2.82832330       1.79115031       1.26346864
C       -0.60358275      -0.41533242      -3.89585673
C        1.78027896      -1.06982754      -1.72482700
C       -1.62550508      -0.64592502       2.67793645
C       -1.33082581       3.74281262      -1.75559463
C        2.44415768       0.54520990       3.24910556
C       -0.54029561      -1.45360504      -2.94086396
C        0.53555703      -3.20242801       1.82022465
C       -2.42634800       0.55959342       2.66605803
C       -0.23653557       1.27490494       2.77773173
C        0.79598566       2.16533265       2.43795556
C        2.25280832      -2.72847633       0.36450315
C       -0.54937362      -2.64600819      -0.39054528
C        2.59355214       2.86056970       0.34238726
C        1.48383474      -0.03708638       0.52409435
C        0.95444137      -0.64242061      -0.62090400
C       -3.44128438      -0.23796589      -3.33691692
C       -0.38412651       0.49868644      -4.92549295
C        1.93848452       1.35742170      -2.79382039
C        0.42201733       3.14310385       1.49104906
C       -2.50101281       3.15240451      -2.25718808
C        0.64069477       3.89729448      -0.61639628
C        2.82496012       2.33588498      -0.96492700
C       -0.22007360       3.76135023      -2.65047253
C       -3.35188316       2.29598221       1.43192826
C        0.65224796      -1.95146926      -2.35913311
C        2.61015269      -0.72931516       3.21538692
C       -1.49770738       0.65988332      -4.11036409
C       -0.93268151       3.32298952       0.97684923
C       -4.55994166      -1.15593846       1.00267305
C       -2.01264073       2.64638249       1.67762075
60
Properties=species:S:1:pos:R:3 entry_id=3 rank=1 energy_eV=-478.1830139160156 parent_id=1 pbc="F F F"
C        1.96642146      -3.08808289      -0.65083272
C        2.42599628       0.44344816      -2.11532914
C        2.18440311       2.02056224       2.37662773
C        2.79570341      -1.94790402      -0.91631369
C       -3.42302095       0.64032601       1.78315351
C        2.89130346       0.94085236       0.34278819
C       -0.27237528      -2.78571126       1.54638548
C        2.85902287      -1.46269029       2.66559808
C       -3.01508016       0.67725853      -3.25809739
C        0.18518083      -1.06182610       0.17643749
C       -1.51574508       1.61013389       2.56308019
C        1.17106127       3.68997959       0.32449420
C        0.65069815      -2.93467962      -1.09469994
C       -1.00436871       3.77632742      -0.49194001
C        0.67269544       3.59886304      -2.13254796
C        0.64940558      -0.27585486       1.29902204
C        1.78476148       2.69442375      -2.27484044
C       -2.72351961      -3.24320319      -0.11118004
C       -3.90096722      -2.82927554       0.60225780
C        3.06041333       1.22188688      -1.05928132
C       -3.27365243       1.94967690      -2.76121539
C       -1.73169940      -2.01090912      -1.95775989
C       -3.67196392      -4.17239457       0.28375796
C       -4.18453185      -0.45872552       1.42152243
C       -1.31111241      -2.05596912       2.23426493
C        0.00153440      -0.00268978       2.49080715
C       -3.00201643      -1.58228632      -2.39109058
C        2.27088893      -2.37533491       1.81118693
C       -1.62495569      -2.61867947      -0.69122347
C        2.83332730       2.16797504       1.08851197
C       -0.77098258      -0.56569372      -3.66392445
C        1.90031803      -0.96433406      -1.72666893
C       -1.28890748      -0.72947748       2.55947665
C       -1.63123063       3.62097331      -1.82168690
C        2.62796221       0.96576107       3.12691280
C       -0.55710026      -1.52468437      -2.65440363
C        0.99070361      -2.83277637       2.00154428
C       -2.21524874       0.38553298       2.52716365
C       -0.15244793       1.40075971       2.77557807
C        0.78070233       2.37472707       2.34128588
C        2.61007982      -2.49461938       0.40640934
C       -0.31311328      -2.46381131      -0.00823879
C        2.44159843       3.14706222       0.12621382
C        1.72654647       0.19499153       0.49492422
C        1.16773458      -0.49457739      -0.58864908
C       -3.55773514      -0.56252431      -2.86646683
C       -0.69741062       0.28909759      -4.76358223
C        1.81803360       1.42450698      -2.90264318
C        0.29391365       3.26511554       1.36004340
C       -2.80582579       2.96119435      -2.20354247
C        0.37245231       3.95838064      -0.78487121
C        2.67436754       2.58286321      -1.16778663
C       -0.56511328       3.65722921      -2.77209253
C       -3.33323545       1.98890981       1.29127494
C        0.70014851      -1.93745687      -2.15400715
C        2.93830585      -0.28617816       3.14754596
C       -1.77091640       0.40822359      -3.88960631
C       -1.08266912       3.30645557       0.88252837
C       -4.29308928      -1.64140993       1.08442964
C       -2.06520558       2.51650878       1.58979786
60
Properties=species:S:1:pos:R:3 entry_id=4 rank=2 energy_eV=-476.5989685058594 parent_id=2 pbc="F F F"
C        0.74168391      -5.14525118      -1.52302875
C        1.69558958      -1.86231441      -3.16401858
C        2.48005037      -0.10420265       1.14866929
C        1.74042694      -4.21422263      -1.94881057
C       -2.66950284       0.47758540       1.64544583
C        2.59313699      -1.45623083      -0.83320001
C       -0.86564469      -4.93389966       0.59674994
C        2.40680437      -3.60663929       1.53190638
C       -2.92891909      -0.34420064      -3.71668012
C       -0.42022838      -2.85983825      -0.46410555
C       -0.70163011       0.70851066       2.86114891
C        1.96565774       1.73877631      -0.91296055
C       -0.56543783      -4.73845106      -1.85410522
C        0.08023620       2.90648227      -1.52147227
C        1.10414527       1.69511649      -3.23306413
C        0.25302637      -1.97071166       0.49601336
C        1.75740138       0.44292635      -3.40413973
C       -3.65291706      -3.84813158      -0.06639641
C       -3.96506775      -2.68821511       0.35536864
C        2.69346105      -1.31228590      -2.26322090
C       -2.42384617       0.74389110      -3.02942861
C       -2.51742012      -2.71463161      -1.90920234
C       -0.93016964      -4.16681837       1.85910284
C       -2.72446908      -0.87850125       1.23845096
C       -1.59617533      -3.06643428       2.09368281
C       -0.27417601      -1.21936309       1.56871399
C       -2.97629070      -1.43739966      -1.39547911
C        1.62941301      -4.46121895       0.82082585
C       -2.55307804      -3.78080849      -0.94532415
C        3.02015782      -0.25315295      -0.18437907
C       -2.11904474      -2.49965316      -4.33000742
C        0.94057824      -3.07541601      -2.63421585
C       -1.65812246      -1.73482849       1.83675557
C       -0.84932719       2.87636613      -2.59684507
C        2.69814199      -1.18322757       1.96684870
C       -1.67262817      -2.95624551      -3.08727062
C        0.29745204      -4.74645181       1.25627531
C       -1.96094621       0.76388277       2.89395765
C        0.18672712       0.07639631       1.97518004
C        1.27472415       0.69269079       1.21186105
C        1.64516398      -4.68150325      -0.59495294
C       -1.18079888      -4.17729642      -0.63678329
C        2.89762979       0.74458002      -1.18571461
C        1.30201534      -1.83248433      -0.48771887
C        0.49427103      -2.48249606      -1.41193938
C       -2.93611807      -0.36645540      -2.31041118
C       -2.60207642      -2.28865160      -5.61702903
C        1.24369764      -0.77920503      -3.90798673
C        1.07643758       1.67574169       0.20162172
C       -1.50759067       1.77964559      -3.16556738
C        1.28690802       2.33525114      -1.99130813
C        2.75932169       0.09315400      -2.44443360
C       -0.21515489       2.07240345      -3.68866753
C       -2.36815113       1.46606644       0.72849718
C       -0.47953729      -3.74391648      -2.88929125
C        2.75925207      -2.46973347       1.99743210
C       -2.79427944      -1.29597057      -4.66642703
C       -0.14946732       2.38650120      -0.20398526
C       -3.38690193      -1.44456784       0.06542105
C       -1.42363642       2.11540773       0.24361009
60
Properties=species:S:1:pos:R:3 entry_id=2 rank=3 energy_eV=-475.38818359375 parent_id=0 pbc="F F F"
C        1.73542382      -3.34128093      -0.78063245
C        1.97716344       0.16404291      -2.31538853
C        1.92290038       1.89785597       2.13135635
C        2.52660243      -2.19112065      -1.12842059
C       -2.90287417       1.06520607       2.39463266
C        2.48556971       0.69776247       0.10736659
C       -0.13540764      -3.39421431       1.26495808
C        2.74958255      -1.53143290       2.39893742
C       -2.51897536       0.54016873      -3.54113070
C       -0.08854759      -1.44667000       0.07836659
C       -1.20526052       1.54169914       3.84506142
C        1.05375771       3.59508311       0.07507963
C        0.40778714      -3.27920098      -1.23116600
C       -1.07285250       4.13271206      -0.63153027
C        0.41699461       3.46267406      -2.32441958
C        0.15842520      -0.41831041       1.05984027
C        1.40160022       2.42800971      -2.48131220
C       -3.00330903      -2.89006640       0.24767811
C       -3.28040616      -1.70588151       0.64119670
C        2.68536511       0.93068403      -1.30030788
C       -2.58950070       1.71567220      -2.82612851
C       -1.88801400      -1.75078532      -1.62513137
C       -0.29347949      -2.74760761       2.55806724
C       -2.24907194       0.35831947       1.33064638
C       -1.04176039      -1.91288394       3.31312688
C       -0.79895537       0.21490437       1.93460076
C       -2.46506989      -0.50673341      -1.18381647
C        2.27171044      -2.52757012       1.61670721
C       -1.87243006      -2.77002985      -0.60484510
C        2.54608613       1.93605313       0.82682023
C       -1.25751310      -1.45208006      -3.99674290
C        1.54374185      -1.25911621      -1.88898318
C       -1.37959177      -0.64497244       3.10031407
C       -1.85243586       4.04756478      -1.81426282
C        2.34305012       0.86017255       2.92208704
C       -0.90584729      -1.84708053      -2.70287179
C        0.98741465      -3.07271061       1.95123094
C       -2.18409740       0.55979911       3.59411318
C       -0.39935144       1.49871159       2.73376915
C        0.56186913       2.40636111       2.15859346
C        2.44886026      -2.70436064       0.20576184
C       -0.48846195      -2.87352375      -0.10147709
C        2.24441110       2.91599014      -0.15436655
C        1.30109408      -0.01218300       0.28217100
C        0.82904465      -0.83795214      -0.72554227
C       -2.62986046       0.49335510      -2.13712092
C       -1.56979156      -1.29934356      -5.34074494
C        1.31603121       1.13286267      -3.06571965
C        0.16796489       3.32231360       1.15521345
C       -2.11730537       3.01736938      -2.72571890
C        0.26977594       3.95634444      -1.02181130
C        2.37885183       2.31034219      -1.43975315
C       -0.88401232       3.66467963      -2.92615191
C       -2.98754918       2.41769534       2.05847288
C        0.38820868      -2.29572536      -2.29318962
C        2.72898622      -0.36868627       2.92584459
C       -2.06656245      -0.36779528      -4.43117807
C       -1.19316183       3.69004878       0.75155377
C       -2.80080730      -0.44337284       0.27992156
C       -2.32908098       3.27936990       1.43137293
60
Properties=species:S:1:pos:R:3 entry_id=0 rank=4 energy_eV=-474.6688537597656 parent_id=-1 pbc="F F F"
C        1.73504090      -3.37213233      -0.91662782
C        2.04764196       0.15221368      -2.30137071
C        1.91577418       1.86850152       2.12964143
C        2.52756055      -2.20382297      -1.15141671
C       -2.92227362       1.05176167       2.39462442
C        2.47036525       0.67254402       0.13200838
C       -0.04221368      -3.76343396       0.95455638
C        2.54734372      -1.61511275       2.33393070
C       -2.61985530       0.78750186      -3.27558012
C       -0.06763845      -1.52262145       0.06998312
C       -1.20808919       1.61862350       3.80107222
C        1.12480354       3.57726249       0.02859128
C        0.42026788      -3.26628141      -1.41324498
C       -0.98160586       3.98398750      -0.79211266
C        0.59317422       3.46259388      -2.41991062
C        0.13067674      -0.46201988       1.05599201
C        1.59449920       2.43096623      -2.51740835
C       -2.92647300      -2.99372324       0.17387061
C       -3.25100643      -1.87103354       0.68604580
C        2.72890461       0.89560295      -1.26222567
C       -3.00403189       1.85954702      -2.43022018
C       -1.88014041      -1.71899621      -1.63098931
C       -0.05072796      -2.59187926       2.92610859
C       -2.28491678       0.26016975       1.38742880
C       -0.86529707      -1.79339654       3.48712525
C       -0.81797431       0.19271276       1.94135394
C       -2.52575835      -0.54381497      -1.09462078
C        2.06750278      -2.60086472       1.54514975
C       -1.83393108      -2.81550643      -0.70435808
C        2.56952404       1.90583330       0.84575177
C       -1.21428691      -1.07004978      -3.92523158
C        1.56426329      -1.24040240      -1.89673637
C       -1.35637502      -0.55367529       3.18199883
C       -1.67928525       3.77322856      -2.04742259
C        2.27464910       0.79330731       2.90949908
C       -0.89749406      -1.68364756      -2.71114605
C        0.74056361      -3.16552483       1.91185535
C       -2.18691883       0.62044147       3.62289800
C       -0.41473561       1.52271169       2.68435787
C        0.56564059       2.38959418       2.09839698
C        2.35751042      -2.78396679       0.16158678
C       -0.43946955      -2.96600047      -0.22637623
C        2.32781228       2.90088156      -0.14495964
C        1.27817270      -0.03197876       0.29064575
C        0.83796550      -0.87065906      -0.71884497
C       -2.77774156       0.52323569      -1.93682855
C       -1.42416222      -0.70280912      -5.24903228
C        1.46730624       1.14198003      -3.09389153
C        0.19721801       3.27594219       1.06188544
C       -2.91959240       3.15261246      -2.15517907
C        0.38798046       3.94388968      -1.09597541
C        2.49955557       2.28745264      -1.42318607
C       -0.65392418       3.59142212      -3.04114470
C       -2.98984039       2.36881163       1.93404292
C        0.40237731      -2.20472298      -2.38034743
C        2.58045192      -0.45693438       2.88006136
C       -2.02594484       0.05459176      -4.24477794
C       -1.16015607       3.56996884       0.58747861
C       -2.82246733      -0.57696027       0.36659714
C       -2.31329666       3.17321348       1.25162641
