54
Lattice="21.66 0.0 0.0 0.0 5.10531 0.0 0.0 0.0 22.55266" Properties=species:S:1:pos:R:3 trial_index=25 seed_entry_id=22 discovered_entry_id=24 energy=-200.77340698242188 status=accepted pbc="T T F"
Cu       0.00000000       0.00000000      10.00000000
Cu       3.61000000       0.00000000      10.00000000
Cu       7.22000000       0.00000000      10.00000000
Cu      10.83000000       0.00000000      10.00000000
Cu      14.44000000       0.00000000      10.00000000
Cu      18.05000000       0.00000000      10.00000000
Cu       0.00000000       2.55265548      10.00000000
Cu       3.61000000       2.55265548      10.00000000
Cu       7.22000000       2.55265548      10.00000000
Cu      10.83000000       2.55265548      10.00000000
Cu      14.44000000       2.55265548      10.00000000
Cu      18.05000000       2.55265548      10.00000000
Cu       1.80500000       1.27632774      11.27632774
Cu       5.41500000       1.27632774      11.27632774
Cu       9.02500000       1.27632774      11.27632774
Cu      12.63500000       1.27632774      11.27632774
Cu      16.24500000       1.27632774      11.27632774
Cu      19.85500000       1.27632774      11.27632774
Cu       1.80500000       3.82898322      11.27632774
Cu       5.41500000       3.82898322      11.27632774
Cu       9.02500000       3.82898322      11.27632774
Cu      12.63500000       3.82898322      11.27632774
Cu      16.24500000       3.82898322      11.27632774
Cu      19.85500000       3.82898322      11.27632774
Cu       0.07358687       0.00778085      12.66539110
Cu       3.42254580       5.07480558      12.77791637
Cu       7.29553676       5.08337184      12.48991815
Cu      10.90175961       2.54956032      12.46137028
Cu      14.44668631       0.11288222      12.58527623
Cu      18.02170395       5.02609538      12.45033269
Cu      21.56551796       2.57780460      12.62586670
Cu       3.55244106       2.52018049      12.36626747
Cu       7.30390855       2.58822126      12.55759185
Cu      14.33439497       2.57911584      12.65795382
Cu      16.43423336       1.17116622      13.84054841
Cu      18.07814179       2.48080231      12.45642979
Cu       4.84337546       3.32455776      14.13903938
Cu       9.05129346       1.40568913      14.10652400
Cu      19.72074847       1.12296718      13.82776606
Cu       9.01772338       3.90963398      14.09799776
Cu       5.88363100       0.30194363      14.63659512
Cu       1.87513353       1.63735998      13.82562420
Cu       0.09640859       3.63629775      15.12613786
Cu       0.00714612       1.05357197      15.38895257
Cu      19.55331865       3.67206751      13.93253737
Cu      16.27289427       3.68035860      14.07043144
O        4.07688965       4.90927823      14.60933251
O       20.33027580       4.88766757      15.28316136
O       17.75149998       2.58432553      14.47388535
O       10.36648099       2.67319441      14.23141729
O        7.77247258       0.13086980      14.49644897
O        5.71483196       1.87354861      13.45713543
O       14.45379950       3.97830095      13.99358226
O        1.32109936       2.32286970      15.49470127
