54
Lattice="21.66 0.0 0.0 0.0 5.10531 0.0 0.0 0.0 22.55266" Properties=species:S:1:pos:R:3 trial_index=24 seed_entry_id=6 discovered_entry_id=23 energy=-200.5537109375 status=accepted pbc="T T F"
Cu       0.00000000       0.00000000      10.00000000
Cu       3.61000000       0.00000000      10.00000000
Cu       7.22000000       0.00000000      10.00000000
Cu      10.83000000       0.00000000      10.00000000
Cu      14.44000000       0.00000000      10.00000000
Cu      18.05000000       0.00000000      10.00000000
Cu       0.00000000       2.55265548      10.00000000
Cu       3.61000000       2.55265548      10.00000000
Cu       7.22000000       2.55265548      10.00000000
Cu      10.83000000       2.55265548      10.00000000
Cu      14.44000000       2.55265548      10.00000000
Cu      18.05000000       2.55265548      10.00000000
Cu       1.80500000       1.27632774      11.27632774
Cu       5.41500000       1.27632774      11.27632774
Cu       9.02500000       1.27632774      11.27632774
Cu      12.63500000       1.27632774      11.27632774
Cu      16.24500000       1.27632774      11.27632774
Cu      19.85500000       1.27632774      11.27632774
Cu       1.80500000       3.82898322      11.27632774
Cu       5.41500000       3.82898322      11.27632774
Cu       9.02500000       3.82898322      11.27632774
Cu      12.63500000       3.82898322      11.27632774
Cu      16.24500000       3.82898322      11.27632774
Cu      19.85500000       3.82898322      11.27632774
Cu       0.17113942       5.09462668      12.67361805
Cu       3.48863031       4.98003688      12.55308505
Cu       7.27649658       5.08630980      12.55645895
Cu      10.80010361       0.09637003      12.52675856
Cu      12.92751103       4.17884270      13.93729280
Cu      17.97554564       0.07500173      12.57272793
Cu       0.03893599       2.57568482      12.51719574
Cu       3.51842828       2.48185924      12.61211614
Cu       7.25028094       2.58295071      12.53897717
Cu      12.89261022       1.62384156      14.06853391
Cu      14.44291965       2.54272679      12.36772471
Cu      18.05819656       2.57004806      12.57988079
Cu       3.55377870       3.57043852      14.98861645
Cu       9.00221399       1.31191972      13.84405299
Cu      19.84328862       1.37954739      13.74327270
Cu       9.10096724       3.96936677      13.79427246
Cu       6.84789188       3.47899855      14.99551296
Cu       0.57428485       1.55892103      14.77057395
Cu       2.95686672       0.92462979      14.67898972
Cu       5.33822442       0.49106819      14.17166421
Cu      19.89664465       3.83005583      13.85977741
Cu      16.07377386       3.41202762      14.01084506
O        5.22394747       4.26584597      15.40876497
O       21.00463129       0.15775348      14.62015112
O       17.83488163       3.94391617      14.07941744
O       11.60903684       0.32614460      14.23976683
O        8.52387297       2.68635256      15.03435071
O        5.42439299       2.05714801      13.19597475
O       14.26939470       2.91741952      14.28596705
O        2.07744909       2.48966138      15.28440457
