54
Lattice="21.66 0.0 0.0 0.0 5.10531 0.0 0.0 0.0 22.55266" Properties=species:S:1:pos:R:3 trial_index=39 seed_entry_id=37 discovered_entry_id=38 energy=-202.6417236328125 status=accepted pbc="T T F"
Cu       0.00000000       0.00000000      10.00000000
Cu       3.61000000       0.00000000      10.00000000
Cu       7.22000000       0.00000000      10.00000000
Cu      10.83000000       0.00000000      10.00000000
Cu      14.44000000       0.00000000      10.00000000
Cu      18.05000000       0.00000000      10.00000000
Cu       0.00000000       2.55265548      10.00000000
Cu       3.61000000       2.55265548      10.00000000
Cu       7.22000000       2.55265548      10.00000000
Cu      10.83000000       2.55265548      10.00000000
Cu      14.44000000       2.55265548      10.00000000
Cu      18.05000000       2.55265548      10.00000000
Cu       1.80500000       1.27632774      11.27632774
Cu       5.41500000       1.27632774      11.27632774
Cu       9.02500000       1.27632774      11.27632774
Cu      12.63500000       1.27632774      11.27632774
Cu      16.24500000       1.27632774      11.27632774
Cu      19.85500000       1.27632774      11.27632774
Cu       1.80500000       3.82898322      11.27632774
Cu       5.41500000       3.82898322      11.27632774
Cu       9.02500000       3.82898322      11.27632774
Cu      12.63500000       3.82898322      11.27632774
Cu      16.24500000       3.82898322      11.27632774
Cu      19.85500000       3.82898322      11.27632774
Cu       0.06708452       0.02987335      12.60220165
Cu       3.58883482       2.52804885      12.44814902
Cu       5.13106705       1.01343759      14.14852898
Cu       7.23805520       5.05829974      12.65007121
Cu      14.42968744       0.01415848      12.54585237
Cu      18.03922511       0.04886502      12.56542236
Cu       0.04640447       2.57862570      12.58040841
Cu       3.59699584       5.06723706      12.47573675
Cu       7.09518013       2.58972215      12.61049367
Cu      12.57370309       3.87718991      13.90219833
Cu      14.42577080       2.48872490      12.53213886
Cu      18.03746847       2.53063594      12.56018795
Cu       1.92360318       3.88979276      13.84515070
Cu       9.73828716       2.78942125      13.46935119
Cu      19.96768115       3.86866623      13.85692589
Cu      10.79896763       0.05951357      12.50750347
Cu       5.06046481       3.56577281      14.19961631
Cu       1.90323308       1.32055626      13.89071681
Cu       0.03951503       0.10043847      15.38540516
Cu       0.04879460       2.64936837      15.36933801
Cu      19.86910824       1.31052215      13.79197237
Cu      16.21434424       3.82484543      13.95018112
O        3.76110994       2.23104786      14.46597149
O       20.40362985       1.38075963      15.59678075
O       18.02832887       3.84568027      14.09573497
O       10.79694447       4.13093281      14.09643586
O        8.55064378       1.42106248      13.21843881
O        6.38757160       4.79977754      14.36682354
O       14.39160317       3.73206246      14.08408101
O        1.32817201       3.93482313      15.64579566
