54
Lattice="21.66 0.0 0.0 0.0 5.10531 0.0 0.0 0.0 22.55266" Properties=species:S:1:pos:R:3 trial_index=34 seed_entry_id=32 discovered_entry_id=33 energy=-201.69085693359375 status=accepted pbc="T T F"
Cu       0.00000000       0.00000000      10.00000000
Cu       3.61000000       0.00000000      10.00000000
Cu       7.22000000       0.00000000      10.00000000
Cu      10.83000000       0.00000000      10.00000000
Cu      14.44000000       0.00000000      10.00000000
Cu      18.05000000       0.00000000      10.00000000
Cu       0.00000000       2.55265548      10.00000000
Cu       3.61000000       2.55265548      10.00000000
Cu       7.22000000       2.55265548      10.00000000
Cu      10.83000000       2.55265548      10.00000000
Cu      14.44000000       2.55265548      10.00000000
Cu      18.05000000       2.55265548      10.00000000
Cu       1.80500000       1.27632774      11.27632774
Cu       5.41500000       1.27632774      11.27632774
Cu       9.02500000       1.27632774      11.27632774
Cu      12.63500000       1.27632774      11.27632774
Cu      16.24500000       1.27632774      11.27632774
Cu      19.85500000       1.27632774      11.27632774
Cu       1.80500000       3.82898322      11.27632774
Cu       5.41500000       3.82898322      11.27632774
Cu       9.02500000       3.82898322      11.27632774
Cu      12.63500000       3.82898322      11.27632774
Cu      16.24500000       3.82898322      11.27632774
Cu      19.85500000       3.82898322      11.27632774
Cu      21.64525139       5.09956011      12.49542414
Cu       3.57896039       2.42224262      12.46599606
Cu       7.21333424       0.16567604      12.53386456
Cu       9.85330661       2.77923193      13.42774890
Cu      14.40456222       0.03422571      12.43719553
Cu      18.02576230       5.08232732      12.59549365
Cu       0.03926846       2.57596095      12.60291593
Cu       3.56887516       4.95354819      12.49685050
Cu       4.93210844       3.48505826      14.33561826
Cu      12.72534368       3.96441543      13.94335540
Cu      14.50933400       2.49447846      12.58655306
Cu      18.06522144       2.54274648      12.54047977
Cu       2.33096465       3.53491774      14.41976752
Cu       7.16673390       2.91245376      13.26624624
Cu      18.35163667       4.96953114      15.22368681
Cu      10.83236881       0.04314144      12.51114214
Cu       5.14000348       0.93859402      14.06358438
Cu       1.79331161       1.10844449      13.81400517
Cu      21.17844351       4.18939501      14.83859334
Cu      19.93389712       1.21574801      13.75298054
Cu      18.23057496       2.40883360      15.08207480
Cu      15.89421822       0.00666926      14.36946120
O        3.67445144       2.13918047      14.65427181
O       19.55333221       3.61565582      15.43696649
O       16.99198537       1.10135632      15.33974543
O       10.92879065       4.09666776      14.08750841
O        8.49755848       1.54597065      13.23061022
O        6.40779381       4.56856071      14.21244520
O       14.56892673       3.83931162      14.00384877
O        1.20282286       4.85760006      15.01503059
