54
Lattice="21.66 0.0 0.0 0.0 5.10531 0.0 0.0 0.0 22.55266" Properties=species:S:1:pos:R:3 trial_index=36 seed_entry_id=30 discovered_entry_id=35 energy=-201.7755126953125 status=accepted pbc="T T F"
Cu       0.00000000       0.00000000      10.00000000
Cu       3.61000000       0.00000000      10.00000000
Cu       7.22000000       0.00000000      10.00000000
Cu      10.83000000       0.00000000      10.00000000
Cu      14.44000000       0.00000000      10.00000000
Cu      18.05000000       0.00000000      10.00000000
Cu       0.00000000       2.55265548      10.00000000
Cu       3.61000000       2.55265548      10.00000000
Cu       7.22000000       2.55265548      10.00000000
Cu      10.83000000       2.55265548      10.00000000
Cu      14.44000000       2.55265548      10.00000000
Cu      18.05000000       2.55265548      10.00000000
Cu       1.80500000       1.27632774      11.27632774
Cu       5.41500000       1.27632774      11.27632774
Cu       9.02500000       1.27632774      11.27632774
Cu      12.63500000       1.27632774      11.27632774
Cu      16.24500000       1.27632774      11.27632774
Cu      19.85500000       1.27632774      11.27632774
Cu       1.80500000       3.82898322      11.27632774
Cu       5.41500000       3.82898322      11.27632774
Cu       9.02500000       3.82898322      11.27632774
Cu      12.63500000       3.82898322      11.27632774
Cu      16.24500000       3.82898322      11.27632774
Cu      19.85500000       3.82898322      11.27632774
Cu      21.57958262       5.09191259      12.66456441
Cu       3.57345975       2.56870175      12.48275411
Cu       7.31559861       5.05199750      12.57550104
Cu      10.77008254       2.46758569      12.54068031
Cu      14.46157869       0.05834364      12.66847639
Cu      18.01725651       0.00458510      12.48273001
Cu      21.62545489       2.51829571      12.61896841
Cu       3.55718582       5.09024319      12.48251218
Cu       5.46526454       2.43211520      14.03021360
Cu      12.89173863       2.48846181      14.06985976
Cu      14.53225559       2.64806689      12.41030793
Cu      18.03630628       2.56529259      12.43070936
Cu       1.84220759       3.79887046      13.78815769
Cu       8.02243835       2.61167809      13.36650472
Cu      19.62354503       1.19929382      13.93832632
Cu      10.47632811       4.92473987      13.24438549
Cu       5.35763654       4.98750375      14.13231183
Cu       1.83448638       1.24261491      13.86231328
Cu       0.04724986       4.95101826      15.37595771
Cu       0.04101762       2.39971919      15.36785032
Cu      19.70927452       3.78523631      13.88835761
Cu      16.31094800       1.97684563      14.12617294
O        4.03784635       1.21083659      14.20813144
O       20.44164196       1.11383290      15.67756019
O       18.09580550       2.52536742      14.36846605
O       11.38850102       3.51299595      14.03137927
O        9.02460025       1.03172000      13.28078307
O        6.78224138       3.77226820      14.18288845
O       14.48419989       1.45349773      14.08639552
O        1.34472682       3.66811686      15.59468315
