54
Lattice="21.66 0.0 0.0 0.0 5.10531 0.0 0.0 0.0 22.55266" Properties=species:S:1:pos:R:3 trial_index=3 seed_entry_id=2 discovered_entry_id=3 energy=-200.39093017578125 status=accepted pbc="T T F"
Cu       0.00000000       0.00000000      10.00000000
Cu       3.61000000       0.00000000      10.00000000
Cu       7.22000000       0.00000000      10.00000000
Cu      10.83000000       0.00000000      10.00000000
Cu      14.44000000       0.00000000      10.00000000
Cu      18.05000000       0.00000000      10.00000000
Cu       0.00000000       2.55265548      10.00000000
Cu       3.61000000       2.55265548      10.00000000
Cu       7.22000000       2.55265548      10.00000000
Cu      10.83000000       2.55265548      10.00000000
Cu      14.44000000       2.55265548      10.00000000
Cu      18.05000000       2.55265548      10.00000000
Cu       1.80500000       1.27632774      11.27632774
Cu       5.41500000       1.27632774      11.27632774
Cu       9.02500000       1.27632774      11.27632774
Cu      12.63500000       1.27632774      11.27632774
Cu      16.24500000       1.27632774      11.27632774
Cu      19.85500000       1.27632774      11.27632774
Cu       1.80500000       3.82898322      11.27632774
Cu       5.41500000       3.82898322      11.27632774
Cu       9.02500000       3.82898322      11.27632774
Cu      12.63500000       3.82898322      11.27632774
Cu      16.24500000       3.82898322      11.27632774
Cu      19.85500000       3.82898322      11.27632774
Cu      21.63675781       5.06722776      12.46612396
Cu       3.57116575       5.10089675      12.56750562
Cu       7.19837209       0.00198354      12.47907614
Cu      10.79173319       5.09144003      12.52489498
Cu      14.51561630       0.02695525      12.60012560
Cu      18.05986389       0.05595688      12.44803340
Cu      21.60011679       2.49365058      12.54250485
Cu       3.67969610       2.56683203      12.64107083
Cu       7.19319551       2.54739340      12.58261023
Cu      10.74437215       2.55318842      12.70400219
Cu      14.63390041       2.52646964      12.75443663
Cu      18.02252898       2.59004925      12.54580594
Cu       4.05252160       1.03571460      14.87410650
Cu       9.07641049       1.25292948      13.87655920
Cu      19.77718107       1.26233139      13.83881851
Cu       9.01326792       3.80978826      13.88927071
Cu       6.81410139       1.30271491      14.81829116
Cu       1.45133101       1.15178889      14.19816881
Cu       1.59708439       3.73406728      14.07032506
Cu       6.63423655       3.94792245      14.74899218
Cu      19.86840430       3.70191897      13.83755382
Cu      16.84297573       4.33020775      14.28842962
O        5.68695001       2.55864665      13.94382556
O        0.16675085       4.92392097      14.43864096
O       18.57888665       4.96739233      14.54028823
O       12.64430218       2.52123250      12.81391449
O        8.23893952       0.00836271      15.15069058
O        5.42555134       0.11491700      15.58293554
O       15.10311589       3.95181912      13.97183969
O        2.81613176       2.38110799      14.48652879
