48
Lattice="10.7943 0.0 0.0 -1.8055431112859115e-05 5.172499999968488 0.0 -5.160518831295406 8.170974220333357e-07 9.475013563676034" Properties=species:S:1:pos:R:3 source_doi=10.1039/c7sc01459g source_section="SI section 7" source_name=brookite reported_vasp_energy_rounded=-429.98 role=reported_phase pbc="T T T"
O       -2.97612291       4.02607503       5.15818734
O        1.31291960      -1.54995313       4.02792675
O       -5.31142299       2.86802302       6.30722800
O       -0.94731027       1.43961424       8.57476176
O        8.21449427       8.03967026       1.47974947
O       10.45336860       5.45375560       5.24544509
O        0.23706296       2.86633108       6.21863394
O       -2.67539772       1.44059177       6.39484752
O        6.08851471       4.02609371       2.97934741
O        4.13066301       3.62086464       8.76293111
O        2.09947130       1.03536375       5.34872896
O        6.46470304      -0.39187289       7.61356798
O        2.08621808       5.45403387       0.59903361
O        3.04227171      -1.55109911       6.20440097
O        4.90418536      -4.89067685       5.33477126
O        3.64800926       4.78049669       2.87631142
O       -1.88989644       4.02616068       7.71845246
O        7.63649549       5.45283561       0.50658338
O        7.04116284       2.19368248       8.58719664
O        4.99989146       4.02505388       0.42060988
O       -2.49575996       2.86839250      11.04591573
O       10.07655677       1.03422009       0.61020538
O        8.89282446       4.77987461       2.96557791
O        3.82751356      -4.13808963       7.52686310
O        0.91355862       4.77964929       7.70403913
O        1.49304942       2.19342133       8.67747892
O       -3.76266248       1.43948202       3.83537695
O       -1.32282688       7.36650795       3.93916419
O        0.22425943       3.62144617       1.46775990
O        4.22619413       2.19422437       3.84824826
O        1.01126296       1.03632589       2.79061163
O        5.30204107       1.43930975       1.65736295
Ti       9.30947805       4.53674334       1.15828826
Ti       4.45078236       3.10807354       2.06724156
Ti      -2.65873444       0.52332413       8.26748364
Ti       5.32340349       0.52326087       3.52752857
Ti       3.27872712       1.95177762       9.17527590
Ti       1.86370238       4.53969368       2.37958119
Ti      -0.18070082       3.10855971       8.02436870
Ti       0.99085313       1.95233144       0.92040027
Ti       1.33326882       4.53827542       5.89751004
Ti       7.79929506       3.11023685       3.28728364
Ti       0.46234829       1.95249845       4.43962541
Ti       4.67899645       4.53900694       7.11469291
Ti      -2.12601587       0.52220382       4.74593647
Ti      -3.52599459       3.10829626       6.80811392
Ti       3.81083611       1.95238482       5.65348146
Ti       5.85104293       0.52155094       0.00782454
