54
Lattice="21.66 0.0 0.0 0.0 5.10531 0.0 0.0 0.0 22.55266" Properties=species:S:1:pos:R:3 trial_index=13 seed_entry_id=9 discovered_entry_id=10 energy=-201.18609619140625 status=accepted pbc="T T F"
Cu       0.00000000       0.00000000      10.00000000
Cu       3.61000000       0.00000000      10.00000000
Cu       7.22000000       0.00000000      10.00000000
Cu      10.83000000       0.00000000      10.00000000
Cu      14.44000000       0.00000000      10.00000000
Cu      18.05000000       0.00000000      10.00000000
Cu       0.00000000       2.55265548      10.00000000
Cu       3.61000000       2.55265548      10.00000000
Cu       7.22000000       2.55265548      10.00000000
Cu      10.83000000       2.55265548      10.00000000
Cu      14.44000000       2.55265548      10.00000000
Cu      18.05000000       2.55265548      10.00000000
Cu       1.80500000       1.27632774      11.27632774
Cu       5.41500000       1.27632774      11.27632774
Cu       9.02500000       1.27632774      11.27632774
Cu      12.63500000       1.27632774      11.27632774
Cu      16.24500000       1.27632774      11.27632774
Cu      19.85500000       1.27632774      11.27632774
Cu       1.80500000       3.82898322      11.27632774
Cu       5.41500000       3.82898322      11.27632774
Cu       9.02500000       3.82898322      11.27632774
Cu      12.63500000       3.82898322      11.27632774
Cu      16.24500000       3.82898322      11.27632774
Cu      19.85500000       3.82898322      11.27632774
Cu      21.61562191       5.08779005      12.53373708
Cu       3.60459618       0.00867226      12.57927404
Cu       5.84921093       1.08315467      13.83402608
Cu      10.82180865       5.05796201      12.55492899
Cu      14.42362294       5.07639593      12.49634796
Cu      18.02499786       0.03749437      12.42712300
Cu      21.58130148       2.53551720      12.59712543
Cu       3.57204178       2.54402458      12.54770074
Cu       8.11597398       2.59946848      13.23116883
Cu      10.76735442       2.50408164      12.55135922
Cu      13.06918984       3.24986919      13.80296342
Cu      18.00299934       2.55685553      12.49675516
Cu       4.39569279       3.87204514      14.67918691
Cu       8.36329836       0.04335348      13.25568408
Cu      19.70208202       1.21732387      13.84356135
Cu      10.14019572       3.74592602      14.80725334
Cu       7.44127617       4.89632643      15.48065396
Cu       1.73606938       1.32196390      14.04975818
Cu       1.66904593       3.88814426      14.14539808
Cu      10.16333802       1.16823922      14.81517423
Cu      19.74466015       3.67574160      13.82261531
Cu      16.52814371       4.30931341      14.10896711
O        5.64504643       5.04917413      15.26911186
O        0.38065825       0.09094811      14.43853714
O       18.34639708       4.89101894      14.41524359
O       11.47911196       2.47051331      14.45683018
O        9.22849388       5.00155998      15.81491865
O        6.21162486       2.53381519      12.72821987
O       14.69467652       4.10177056      14.07991086
O        3.01818283       2.62803801      14.51267076
