54
Lattice="21.66 0.0 0.0 0.0 5.10531 0.0 0.0 0.0 22.55266" Properties=species:S:1:pos:R:3 trial_index=28 seed_entry_id=20 discovered_entry_id=21 energy=-201.75677490234375 status=accepted pbc="T T F"
Cu       0.00000000       0.00000000      10.00000000
Cu       3.61000000       0.00000000      10.00000000
Cu       7.22000000       0.00000000      10.00000000
Cu      10.83000000       0.00000000      10.00000000
Cu      14.44000000       0.00000000      10.00000000
Cu      18.05000000       0.00000000      10.00000000
Cu       0.00000000       2.55265548      10.00000000
Cu       3.61000000       2.55265548      10.00000000
Cu       7.22000000       2.55265548      10.00000000
Cu      10.83000000       2.55265548      10.00000000
Cu      14.44000000       2.55265548      10.00000000
Cu      18.05000000       2.55265548      10.00000000
Cu       1.80500000       1.27632774      11.27632774
Cu       5.41500000       1.27632774      11.27632774
Cu       9.02500000       1.27632774      11.27632774
Cu      12.63500000       1.27632774      11.27632774
Cu      16.24500000       1.27632774      11.27632774
Cu      19.85500000       1.27632774      11.27632774
Cu       1.80500000       3.82898322      11.27632774
Cu       5.41500000       3.82898322      11.27632774
Cu       9.02500000       3.82898322      11.27632774
Cu      12.63500000       3.82898322      11.27632774
Cu      16.24500000       3.82898322      11.27632774
Cu      19.85500000       3.82898322      11.27632774
Cu       0.01207382       0.08717973      12.56163079
Cu       3.45744493       5.09819276      12.58734381
Cu       5.27528348       0.95892650      13.99378781
Cu      10.88489615       5.02615892      12.52465740
Cu      14.47073150       5.09230177      12.49168637
Cu      18.00593661       5.08020585      12.50553799
Cu      21.61193766       2.63117045      12.55203116
Cu       3.54691690       2.57923806      12.54203997
Cu       7.42735084       2.58703723      12.68053749
Cu      10.80792821       2.46266806      12.53526027
Cu      13.02715654       3.41102896      13.86548327
Cu      18.05497270       2.50763105      12.41946215
Cu       3.65224682       3.83376258      14.85790946
Cu       7.24800547       0.01697905      12.53770030
Cu      19.68218855       1.36890536      13.93196610
Cu      10.09228221       3.77894729      14.64823057
Cu       7.07481748       4.61813244      15.02129262
Cu       1.77844060       1.44923875      13.85333464
Cu       0.71127178       4.01951352      14.65666185
Cu       9.10551444       1.09854417      13.85169596
Cu      19.53600494       3.90110566      14.22769485
Cu      16.42227966       3.47602169      13.98458846
O        5.23831030       4.69227203      15.20957180
O       20.87153570       0.02656520      14.63781475
O       18.13943802       2.66710713      14.39656784
O       11.45341586       2.58873472      14.34866623
O        8.85172206       4.95586861      15.26587105
O        5.49474791       2.53994423      13.04209572
O       14.70971144       4.14326465      14.08878816
O        2.08789206       2.88802264      15.06914512
