54
Lattice="21.66 0.0 0.0 0.0 5.10531 0.0 0.0 0.0 22.55266" Properties=species:S:1:pos:R:3 trial_index=18 seed_entry_id=12 discovered_entry_id=14 energy=-201.70162963867188 status=accepted pbc="T T F"
Cu       0.00000000       0.00000000      10.00000000
Cu       3.61000000       0.00000000      10.00000000
Cu       7.22000000       0.00000000      10.00000000
Cu      10.83000000       0.00000000      10.00000000
Cu      14.44000000       0.00000000      10.00000000
Cu      18.05000000       0.00000000      10.00000000
Cu       0.00000000       2.55265548      10.00000000
Cu       3.61000000       2.55265548      10.00000000
Cu       7.22000000       2.55265548      10.00000000
Cu      10.83000000       2.55265548      10.00000000
Cu      14.44000000       2.55265548      10.00000000
Cu      18.05000000       2.55265548      10.00000000
Cu       1.80500000       1.27632774      11.27632774
Cu       5.41500000       1.27632774      11.27632774
Cu       9.02500000       1.27632774      11.27632774
Cu      12.63500000       1.27632774      11.27632774
Cu      16.24500000       1.27632774      11.27632774
Cu      19.85500000       1.27632774      11.27632774
Cu       1.80500000       3.82898322      11.27632774
Cu       5.41500000       3.82898322      11.27632774
Cu       9.02500000       3.82898322      11.27632774
Cu      12.63500000       3.82898322      11.27632774
Cu      16.24500000       3.82898322      11.27632774
Cu      19.85500000       3.82898322      11.27632774
Cu       0.09683266       5.09703218      12.52821750
Cu       3.49465763       0.00273902      12.55835489
Cu       5.27622083       1.06987197      13.97739846
Cu      10.88264361       5.01618680      12.53502939
Cu      14.37993762       0.04953462      12.45347807
Cu      18.01945494       0.01002831      12.57893469
Cu       0.01400319       2.57547568      12.53878728
Cu       3.52024356       2.58003548      12.56586607
Cu       7.43621163       2.59158439      12.69660140
Cu      10.79906221       2.46607936      12.47575210
Cu      12.70913674       3.46977710      13.92079714
Cu      18.08050538       2.47093158      12.60482960
Cu       3.68605455       3.90868920      14.83750866
Cu       7.26487878       0.04083083      12.56541485
Cu      19.99881989       1.23524416      13.81985364
Cu       9.93371855       3.73891785      14.62443035
Cu       7.03575308       4.73088723      15.06103264
Cu       1.79782373       1.31156324      13.88889910
Cu       0.78294817       3.99139661      14.70104445
Cu       9.16266505       1.16220180      13.88062979
Cu      19.84875999       3.72165456      13.90407906
Cu      16.03717422       3.90820126      13.89422388
O        5.20870519       4.84193828      15.23397791
O       20.93047251       5.02147799      14.84586623
O       17.85459592       3.77109199      14.07210155
O       11.21769970       2.44717390      14.36240281
O        8.81594136       5.01444516      15.27598734
O        5.49709625       2.65929060      13.03474372
O       14.28840145       4.36256773      14.14507604
O        2.19404734       2.84865052      14.96348325
