60
Properties=species:S:1:pos:R:3 source_escape=runs/20260728-block-krylov-fixed-starter-escape/output/cases/bootstrap_quenched-seed44-deep_refinement/escape.xyz pbc="F F F"
C        3.69705931      -1.36318838       0.21938644
C        2.38234433       2.10978397      -0.58577146
C       -0.79896905       1.76128178       2.93086482
C        3.55123220      -0.01112201       0.63115902
C       -3.40935694      -1.40355755       0.38264239
C        1.18627819       1.86820074       1.60155001
C        1.99235552      -3.34406531       0.41697736
C        0.99153183      -1.01497183       2.59185984
C       -0.68443758       1.53760122      -3.23479194
C        1.00326954      -1.13503343       0.05105151
C       -3.31335825      -0.73967710       2.56106532
C       -1.56063006       3.39851801       0.76081575
C        3.03761488      -1.65156125      -1.00059788
C       -2.97607240       2.91172623      -0.98812640
C       -0.79126388       3.46821809      -1.56436868
C        0.21066403      -0.70322326       1.29659303
C        0.55818417       3.47524741      -1.11479820
C       -0.05493278      -3.52337267      -1.84695855
C       -1.16438099      -2.97623596      -1.53733107
C        1.82664290       2.69930177       0.61854660
C       -2.73235167       0.31418492      -3.20951256
C        0.68092152      -1.27772415      -2.47891514
C        0.36525141      -3.41660140       2.03013350
C       -2.06142617      -1.20808475      -0.09462845
C       -0.88653070      -3.26227924       2.12864871
C       -1.31605234      -0.93404261       1.28768540
C       -0.69137675      -0.86319771      -2.39786436
C        2.16777674      -1.76543993       2.26953581
C        0.94980166      -2.52656973      -1.82059840
C        0.12726715       2.59809415       2.24272391
C        1.66109280       0.65091797      -3.59999970
C        2.73318737       0.63637474      -0.53491364
C       -1.77197708      -2.26270005       1.84407854
C       -2.76085009       2.43061159      -2.29309654
C       -0.22025890       0.74352047       3.68684601
C        1.80546422      -0.39720862      -2.68141217
C        1.68249810      -3.03804077       1.70748053
C       -3.21687223      -1.90541270       1.76902259
C       -2.25401822       0.02896955       2.14824554
C       -1.99052035       1.44939606       2.19928569
C        3.11607084      -1.13683496       1.44895751
C        1.75549583      -2.28991392      -0.59198562
C       -0.26614932       3.54287517       1.25393105
C        0.80457076       0.66843171       1.01840014
C        1.46558151       0.14035387      -0.05786536
C       -1.31678545       0.23271983      -3.05956829
C        1.74533868       1.62462921      -4.59249119
C        1.68236134       2.75756906      -1.59556337
C       -2.41965984       2.34532794       1.18112375
C       -3.41639999       1.35256963      -2.91536625
C       -1.81828365       3.65286747      -0.60179920
C        0.78393967       3.61400194       0.28787074
C       -1.35266270       2.60935073      -2.57539599
C       -4.24718034      -0.33084409       0.08768395
C        2.81997266      -0.40691830      -1.67838443
C        0.51822332      -0.27392753       3.65749614
C        0.59819120       1.53877153      -3.79257449
C       -3.38187479       2.07457045       0.11898703
C       -1.49337236      -1.62835759      -1.36425939
C       -4.13525858       0.91521605       0.01332887
