60
Properties=species:S:1:pos:R:3 trial_index=9 seed_entry_id=8 discovered_entry_id=9 energy=-493.30999755859375 status=accepted pbc="F F F"
C        0.15270877       4.72361170      -1.16535244
C       -1.88875546       2.34678628       1.52106010
C        1.30834170      -0.20929527       2.45627148
C       -0.61907865       4.44783588       1.12195330
C       -0.44924909      -2.58671889      -1.57236827
C        0.05912901       1.67001837       3.08918974
C        0.86689110       3.98833577      -2.14000742
C        1.15224623       3.43807378       1.92910981
C       -2.73039938      -1.98258715      -2.91947627
C        2.13170653       1.34913735       0.37892892
C        2.83180438      -2.52289679       0.33318436
C       -1.04923687      -1.68312499       3.14859803
C       -1.07125673       4.15062560      -1.62152851
C       -1.58755469      -3.34420876       1.66069111
C       -2.81209361      -1.17866797       1.50580234
C        2.25636910      -0.42432355      -3.01184514
C       -2.72433294       0.18379119       1.91752531
C        0.93054411       1.79016310      -2.68083826
C        1.12521295       0.41519139      -2.93522451
C       -1.32259857       1.85378799       2.75825368
C       -1.88702088      -2.35279963      -1.75787487
C       -1.44154279       1.49561553      -2.43198656
C        3.64261176      -0.43362818      -3.32782659
C        0.46335848      -1.73824218      -2.27389888
C        4.16838901      -1.55595785      -2.87435427
C        1.88751593      -1.69112141      -2.46228148
C       -1.29849692       0.07534539      -2.55213895
C        1.41086860       3.62231065       0.52935722
C       -0.38586812       2.26637041      -2.96080751
C        0.29330760       0.28440047       3.31959474
C       -2.74846253       1.01825467      -0.41298683
C       -1.54304059       3.43910986       0.67154053
C        3.16058862      -2.30077898      -2.10560588
C       -1.63859477      -3.38561701       0.26445516
C        1.80227365       1.01864608       1.67434746
C       -2.13088125       1.99042906      -1.28134295
C        1.51150076       2.75432002      -1.75882889
C        3.32020060      -2.68388252      -0.80718355
C        1.71094029      -2.46303360       1.11219395
C        1.26102703      -1.62654098       2.23574179
C        0.46345414       4.58267582       0.15385912
C       -0.39792247       3.65735689      -2.78555346
C       -0.96062480      -0.33824446       3.48911545
C        0.07038860       4.26876183       2.33613903
C        1.81938804       2.54488771      -0.32931591
C       -2.33743327      -0.77822032      -2.07187357
C       -2.94508199      -0.33416699      -0.83780208
C       -2.66380458       1.25211137       0.97532516
C        0.15656346      -2.34603270       2.81603446
C       -2.52227021      -2.60376690      -0.47821793
C       -2.08392290      -2.15196749       2.27064614
C       -1.95108903       0.57106776       3.03993971
C       -3.02049893      -1.41239811       0.10508340
C       -0.32957377      -3.27066494      -0.30220734
C       -1.72416602       3.25497176      -0.74091046
C        1.16397035       2.13466943       2.38150685
C       -3.40373597      -2.31384407      -3.99884814
C       -0.19861660      -3.43894267       1.98693133
C       -0.00593325      -0.44313550      -2.72436682
C        0.58201363      -3.31537488       0.79634652
