60
Properties=species:S:1:pos:R:3 trial_index=5 seed_entry_id=4 discovered_entry_id=5 energy=-486.1241455078125 status=accepted pbc="F F F"
C       -0.49081083      -3.98243510       0.67141325
C        0.41732760      -1.38587791      -2.85738528
C        2.41858189       0.63077817      -0.00890494
C        1.09227222      -2.80413731      -1.02749660
C       -1.79671750       2.38985699       0.83511000
C        2.60104283      -0.95822284      -1.81439014
C       -0.59521118      -3.35372783       1.98774533
C        2.50035614      -2.06950024       0.70759228
C       -4.34624727       1.21121025      -1.69257947
C        0.07592373      -0.75063840       0.53059530
C        1.41280271       2.34829208       2.72289757
C        1.92161776       2.55528198      -2.10330114
C       -0.71917316      -1.78375456       0.13476863
C        0.21278896       3.98647471      -1.53725100
C       -0.29322199       2.10355346      -3.04545031
C       -0.13224645      -0.44464644       1.91735810
C        0.21649931       0.83321787      -3.40794126
C       -3.34409147      -1.77597324       2.06057841
C       -3.38304197      -0.59783644       2.54559659
C        1.72470121      -0.86184876      -2.92849537
C       -2.64223319       2.26889579      -0.33349977
C       -2.99663353      -1.08130149      -0.23728694
C        0.39631161      -1.34102396       2.88580388
C       -1.89190301       1.36951397       1.85800020
C        0.43276068      -0.63192191       4.09786414
C       -0.77946332       0.67702037       2.52184551
C       -3.39064421       0.17199533       0.31384086
C        1.47982024      -2.87682149       1.23652933
C       -2.78847451      -2.12290636       0.81158146
C        2.90249662       0.40793148      -1.43590285
C       -1.84245950      -0.26253893      -2.58474436
C        0.07313573      -2.36659993      -1.92641198
C        0.05837600       0.69115206       3.76316274
C       -0.98935257       3.69625984      -0.90256901
C        3.33503808       0.01664723       0.96931456
C       -2.19097850      -1.17779185      -1.50985978
C        0.61638741      -2.67350430       2.34217659
C        0.94767465       1.77250299       3.73264301
C        1.47764488       2.68610425       1.39390302
C        2.18790316       2.10080199       0.27378882
C        0.75963872      -3.46600150       0.17278490
C       -1.43281480      -2.74061571       0.92342130
C        2.38574141       1.28019271      -2.43800052
C        2.01725973      -1.71616451      -0.68469998
C        1.23843675      -0.44967222      -0.17355139
C       -3.65256924       1.30676376      -0.48500996
C       -2.49921564       0.96933634      -2.92713978
C       -0.51061524      -0.34244264      -3.11519718
C        2.13119530       3.00913918      -0.79077498
C       -1.98533993       2.86480278      -1.46462789
C        0.63752834       3.02880441      -2.50305747
C        1.59349031       0.51164507      -3.29552477
C       -1.68117612       2.13339400      -2.65026273
C       -0.78503360       3.36275712       0.46149817
C       -1.07600631      -2.01922222      -1.20676219
C        3.37124291      -1.19456483       1.35406624
C       -3.91658187       1.05663139      -2.86540852
C        1.18180595       4.01615657      -0.48736106
C       -3.00024496       0.45966520       1.68304200
C        0.57689028       3.62191030       0.75500198
