60
Properties=species:S:1:pos:R:3 trial_index=10 seed_entry_id=5 discovered_entry_id=10 energy=-487.5750732421875 status=accepted pbc="F F F"
C        3.57308112      -2.58659306       0.13480098
C        0.67325871      -0.82399913      -2.95172769
C        1.13287003       3.31784285      -0.99409256
C        2.70535348      -0.92371030      -1.64872764
C       -2.52162465       0.66260006       1.46399589
C        1.76955409       1.28453234      -2.43442513
C        2.89840976      -2.38065635       1.40780686
C        2.93533424       0.88538258       0.02468530
C       -3.51618734      -2.24900739      -0.59840528
C        0.94387463      -0.58739642       0.45074104
C       -0.01219587       3.35429558       2.06645289
C       -1.31898890       3.03840584      -2.47581978
C        1.23978128      -1.89830881       0.08954369
C       -3.25532415       2.76068517      -1.26656826
C       -2.47545505       0.85540436      -2.64402435
C        0.84052404      -0.34850120       1.85571954
C       -1.29610412       0.34298956      -3.24244275
C       -0.13208325      -3.02841594       2.87661114
C       -0.95561576      -2.20733356       3.39055576
C        1.00000452       0.50084681      -3.33156929
C       -3.26241361      -0.23621272       0.61704365
C       -0.89031042      -2.72659991       0.56934957
C        2.10925157      -0.26759459       2.48791315
C       -1.56731628       0.05012189       2.37122867
C        1.99131951       0.75074594       3.42608865
C       -0.16029840       0.38138013       2.56852510
C       -1.95027893      -2.07996762       1.24344482
C        3.51423648      -0.37301161       0.52406099
C        0.20999721      -3.12090062       1.51411328
C        1.05660464       2.52097865      -2.19265918
C       -1.41739419      -1.73521697      -1.88268406
C        1.51283670      -1.59209759      -2.13801404
C        0.70435282       1.33887229       3.28224189
C       -3.54371589       1.80689604      -0.28716198
C        2.28731638       3.14379070      -0.23036266
C       -0.64041687      -2.46683764      -0.91497544
C        3.12587257      -0.97763183       1.73517778
C        0.41532745       2.67628473       3.02011149
C       -0.65336962       3.57871221       0.86464875
C       -0.12224911       3.81227660      -0.48207319
C        3.43256274      -1.36507192      -0.49977883
C        1.53378511      -2.76851861       1.13023726
C       -0.14755667       2.45382658      -2.96007701
C        2.37141994       0.47064493      -1.40722932
C        1.51897328       0.47586880      -0.18913255
C       -3.09674776      -1.62312148       0.57278592
C       -2.87018555      -1.50632384      -1.83766024
C       -0.73656005      -0.89818493      -2.80718506
C       -1.23862601       3.89519133      -1.35873467
C       -3.66095774       0.43096908      -0.58107320
C       -2.52254189       2.26411117      -2.38520584
C       -0.22136151       1.19790270      -3.59944217
C       -3.21523522      -0.06479525      -1.82941223
C       -2.72359675       1.99048191       0.86953040
C        0.79239450      -2.30987502      -1.14662015
C        3.12166014       2.30056129       0.20493271
C       -3.88957257      -2.66442221      -1.77273298
C       -2.43381851       3.72974102      -0.61342172
C       -1.67405499      -1.39265815       2.48817325
C       -2.04552965       3.23774746       0.67597133
