60
Properties=species:S:1:pos:R:3 system=runs/20260728-safe-lbfgs-strict-quench-200-production/output-c60-seed42 state_id=plateau_accepted pbc="F F F"
C       -0.20951927       1.06700172       2.51246827
C       -1.44884882       0.76963051      -0.14556682
C        0.85225015      -3.51720771       1.73052899
C        1.78027462       0.95538830      -2.77178092
C        3.51034541       1.05828771      -0.94552284
C       -2.36215778       0.18991473      -2.54070141
C        1.12010304       0.54303393       2.72753264
C       -0.31820270      -1.23956512       3.21525502
C       -0.48347480      -1.50792327      -2.52150527
C        0.66727104       1.57622852      -3.38537488
C        2.77950599      -1.35924771      -0.62677645
C       -2.65391619      -1.88517302      -1.43286908
C       -0.61601866       2.25528743       1.76970503
C        0.27379672      -0.68901834      -3.38867279
C       -4.65692277      -0.09639407      -1.52443909
C        1.92514895      -1.83520899       2.97028446
C       -4.02644368      -0.27122919      -0.28618021
C        0.44160878       3.07408846      -1.55436605
C        1.62876870       2.52368260      -0.99747900
C       -2.07620762      -0.38781802       1.74145042
C       -1.46406995       2.39046501      -2.98419385
C       -1.80085381       3.31618385      -0.73345825
C        3.76495117       1.50536390       0.39764135
C        2.33250690       0.82768178       2.07099606
C        3.29054051      -0.20813770       1.88197716
C        2.83509938      -1.55886812       1.88990871
C       -2.32961661       2.75813967      -1.92175157
C        1.01043144      -0.80271141       3.20773745
C       -0.41631607       3.39353780      -0.46933212
C       -1.67204767       0.62076353      -1.35730290
C       -3.69251447       2.13069546      -0.23629593
C       -2.43954655       0.82723763       1.02998499
C        4.12270762       0.16432778       0.81227738
C       -0.23649312       0.57290778      -3.80833190
C        1.13828359      -3.02580482       3.01125328
C       -2.64958175       2.96047094       0.33064171
C        2.57023841       1.84678923       1.12803248
C        3.75344613      -0.30119965      -0.48974918
C        2.48068682      -2.08223095       0.60199242
C        1.33405760      -2.90252816       0.58068725
C       -1.09009394      -0.14076383       2.70210731
C        0.18506135       2.92255300       0.78186926
C       -3.07412206      -1.34703720      -0.25882154
C       -0.54789587      -3.21102637       1.79209086
C       -0.95931040      -2.38661512       0.80333700
C       -3.53402875       2.01553251      -1.61981454
C        0.47102595      -1.95223961      -1.49107066
C       -3.71899347       0.88871339       0.42256218
C        0.20185199      -2.49647319      -0.19630698
C       -0.05015992       2.65482335      -2.80150207
C       -1.92389055      -1.29447207      -2.40524900
C       -2.09101604      -1.49150625       0.77909210
C       -1.54372353       1.02315290      -3.46225521
C        2.42454896       1.58436124      -1.66442669
C       -2.04280550       2.21424274       1.41385294
C       -0.31187645      -2.65663829       3.09800777
C       -3.76762744       0.72818504      -2.23288460
C        1.77998559      -1.38739555      -1.71576790
C        1.55853032       2.54522124       0.42793354
C        1.58776047      -0.46405276      -2.81390906
