60
Properties=species:S:1:pos:R:3 system=runs/20260728-safe-lbfgs-strict-quench-200-production/output-c60-seed42 state_id=plateau_accepted pbc="F F F"
C       -2.51544438       2.55252107       2.50836680
C       -1.52474098       0.01325180       1.33459946
C        1.45786433      -1.33154171       1.07638293
C        0.50221240       0.38957681      -3.33459127
C        2.07917754       2.02759103      -2.65368933
C       -0.14537013       2.19526760       0.58407612
C        1.87863286       3.37875628       1.64011783
C       -0.00102984       1.67300547       2.78009352
C        0.94204168      -2.87362844      -2.56260209
C       -0.82566769      -0.01322426      -3.36736188
C        3.16375186      -0.08561107      -1.87247456
C        1.12812682      -3.17040176      -0.31900889
C       -3.49811480       1.87996694       1.75281558
C        0.41548225      -1.92156871      -3.44920195
C       -1.06212737      -2.86581518      -0.95838195
C        1.79715398       1.04589288       1.26850292
C       -0.84217150      -2.22049729       0.29388256
C       -1.72992624       1.57725262      -1.69110644
C       -0.32777235       2.15813855      -1.77078729
C       -1.97682448       0.69670239       3.69220651
C       -2.83969951      -0.50214339      -2.61280513
C       -3.73483468       0.38887479      -0.53314177
C        2.47666457       3.10898558      -1.85009139
C        2.49915306       3.30676544       0.41999764
C        3.43079966       2.23286908      -0.03525825
C        2.82550929       1.02470781       0.30724532
C       -3.65406385      -0.65665564      -1.50239045
C        0.90178497       2.26812492       1.68639654
C       -2.92324350       1.57977311      -0.63022146
C       -0.99033255       1.11287323       0.74930438
C       -3.16457017      -1.51374764       0.49858112
C       -2.43146942       0.00527317       2.52779471
C        3.66028963       2.36445319      -1.43107910
C       -0.90908351      -1.41809115      -3.44088779
C        1.28093339      -0.11003627       1.83581261
C       -3.90270077      -0.27151538       0.71293474
C        1.62396465       3.34991381      -0.73842314
C        3.24462831       1.26703808      -2.30156192
C        3.01023918      -0.18240501      -0.45936270
C        2.47282368      -1.37941330       0.06765742
C       -1.43029208       1.93687373       3.12368761
C       -3.37558612       2.32701539       0.45601431
C        0.52202147      -2.35671209       0.68320745
C        0.19763610      -0.11963395       4.23230464
C       -0.06687639       0.18334887       5.57797084
C       -3.32126880      -1.89926127      -0.87073423
C        2.24657423      -2.38775422      -2.13196553
C       -1.80091391      -1.30861042       0.79957645
C        2.32860260      -2.54173735      -0.73874925
C       -1.90521956       0.56135243      -2.65953211
C        0.22622172      -3.33181450      -1.42286964
C       -1.12595588       0.16558627       4.66983282
C       -2.14180774      -1.75919245      -2.84052040
C        0.71516523       1.61496404      -2.68128494
C       -3.63032538       0.43649593       1.89833314
C        0.49716324       0.35941694       2.96110055
C       -2.26413281      -2.51901096      -1.64308598
C        2.48813982      -1.08488744      -2.67188893
C        0.32903098       2.76784304      -0.64369978
C        1.32520786      -0.77194544      -3.43496544
