60
Properties=species:S:1:pos:R:3 checkpoint_path=runs/20260728-direction-conditioned-checkpoint-shooting/output-v3/cases/plateau_accepted-seed44-balanced_refinement/macro_checkpoints/step001_checkpoint.xyz pbc="F F F"
C       -0.76572529       2.55369853       1.93730323
C       -1.23487577      -0.42212722       2.00756126
C        1.67217302      -1.38964696       1.40170859
C        0.19228452       0.40565831      -3.74283529
C        1.52875844       2.25035259      -2.82051374
C        0.23964899       0.63832243       0.18727896
C        0.60710464       2.74584260       1.54251202
C        0.60306283       1.38641459       3.35228456
C        0.88695144      -2.73680856      -2.38550238
C       -1.09826548      -0.16871669      -3.90610591
C        2.72951830       0.25260042      -1.73093601
C        1.21923289      -3.04993121      -0.15074921
C       -1.84840519       2.25201091       1.04023811
C        0.30146875      -1.89367474      -3.34583871
C       -0.99319164      -2.80596339      -0.68230924
C        2.23373547       0.92967105       1.85642978
C       -0.78429831      -2.37858956       0.68096234
C       -2.07984987       1.56110079      -2.53607764
C       -0.83413190       2.24780094      -2.51309035
C       -1.70501343       1.07516406       3.80509249
C       -3.00626727      -0.67761191      -2.78126024
C       -3.47572744       0.65529222      -0.76972365
C        1.61276854       3.34431800      -1.90201190
C        1.21273798       3.04782618       0.31315857
C        2.48043652       2.45175101       0.03990547
C        2.75189887       1.16457489       0.56528815
C       -3.61023468      -0.54444371      -1.53048622
C        1.41754928       1.94687735       2.37243886
C       -2.66288713       1.68794739      -1.24549615
C       -0.34255600       0.18639871       1.19279808
C       -2.91895131      -1.12124551       0.58880546
C       -2.20832162       0.45907431       2.63960981
C        2.78832633       2.71493305      -1.30551480
C       -1.04393932      -1.56890441      -3.57246755
C        1.76003607      -0.33198455       2.37568205
C       -3.27232710       0.28108728       0.57844441
C        0.58359634       3.38989583      -0.89961501
C        2.63571941       1.59146694      -2.18061631
C        2.87657623       0.04237577      -0.30772022
C        2.53345631      -1.23039611       0.24191381
C       -0.69331331       1.89137359       3.23130351
C       -1.79528191       2.46153206      -0.38504772
C        0.64831250      -2.39384582       0.98359355
C        0.06472572      -0.54955331       4.47397957
C       -0.75637189      -0.85916203       5.56991845
C       -3.14070384      -1.61885789      -0.71305380
C        2.13275545      -2.11462918      -1.99799295
C       -1.77478242      -1.56004833       1.30381207
C        2.33042798      -2.32223398      -0.62991587
C       -2.25329109       0.40375990      -3.31834096
C        0.26997719      -3.22237379      -1.20498027
C       -1.17610501       0.12469923       4.70165815
C       -2.15836647      -1.85592218      -2.75781794
C        0.28878262       1.72244205      -3.20527854
C       -2.72141952       1.19562032       1.50498482
C        0.91721613       0.02022219       3.53201292
C       -2.13862519      -2.35585592      -1.41090905
C        2.18765295      -0.79583356      -2.53074414
C       -0.68994949       2.91352958      -1.24133959
C        1.08171370      -0.67365418      -3.43131891
