60
Properties=species:S:1:pos:R:3 checkpoint_path=runs/20260728-direction-conditioned-checkpoint-shooting/output-v3/cases/plateau_accepted-seed44-balanced_refinement/macro_checkpoints/step005_checkpoint.xyz pbc="F F F"
C        0.98433154       2.23835692       1.73192005
C       -2.70385338       1.78241744       0.67895420
C       -1.30656988      -1.16194386       2.47226361
C        1.60167565      -1.45875336      -2.94416378
C        3.23902653      -1.45997661      -1.11465924
C       -2.32765512      -0.10855911       2.43176661
C        1.86371946       1.21801828       2.21618878
C        0.10312780       1.39514881       3.73310447
C       -1.60687289      -2.45983155      -2.08349041
C        0.88823041      -0.69671050      -3.90684124
C        1.28453422      -2.58827348       0.08377646
C       -2.74067178      -1.64312980      -0.23954167
C        0.75566135       2.62259017       0.36262981
C       -0.60786945      -2.21798056      -3.04736051
C       -3.02010704      -0.30880312      -2.16706028
C        0.92071774      -0.73997952       3.31266122
C       -3.46180755       0.39550344      -1.00441589
C        1.69812811       1.36891583      -2.92093348
C        2.57550988       0.61177237      -2.09207013
C       -1.32646952       2.93274266       2.39835167
C       -0.38483671       1.16951381      -4.17212021
C       -0.17530039       2.84071292      -2.39283238
C        3.93917021      -0.72403532      -0.10305952
C        2.76232032       0.37872087       1.51898610
C        2.75656602      -1.00823542       1.85227506
C        1.51141144      -1.52989234       2.29871657
C       -0.91301503       2.26531060      -3.47551246
C        1.25980248       0.63578523       3.36463589
C        1.12556529       2.39497189      -2.10783488
C       -2.91131793       0.43419135       1.25134282
C       -2.33704865       2.42272992      -1.66315377
C       -1.65550053       2.70605938       1.03579876
C        3.49787930      -1.70643214       0.88643059
C       -0.49072865      -1.12276311      -3.93020971
C       -0.45958588      -0.80969248       3.55097423
C       -1.07402138       2.99271433      -1.29914635
C        3.30964312       0.53597311       0.22937495
C        2.66747537      -2.32134088      -0.11412832
C        0.66621713      -2.18874853       1.33356221
C       -0.79413192      -1.99959963       1.41695456
C       -0.06476617       2.38771851       2.72781760
C        1.62669166       2.27741840      -0.75143871
C       -3.28898330      -0.40851128       0.16123338
C       -2.23188117       0.66347683       3.63041822
C       -2.86599613       1.89394494       3.84994168
C       -2.20061197       1.87169012      -2.96648179
C       -0.94573546      -2.88421980      -0.87611861
C       -3.07961590       1.71842906      -0.70614602
C       -1.58962347      -2.34522657       0.26763319
C        0.94737758       0.72606385      -3.93163177
C       -2.68069125      -1.63085810      -1.70284153
C       -2.38512825       2.94503947       3.33308544
C       -1.28796598       0.04401278      -4.01949379
C        2.61844910      -0.80810141      -2.18903719
C       -0.62730210       2.94739701       0.04164870
C       -0.90700505       0.45819689       4.07684882
C       -2.38526024       0.45750880      -3.19148734
C        0.45993404      -2.83800275      -1.05289670
C        2.67288301       1.24726073      -0.80296914
C        0.68895983      -2.42501901      -2.40923025
