60
Properties=species:S:1:pos:R:3 input=/mnt/d/download/trae-research-code/ssw/runs/20260428-c60-mace-production/prerelaxed_c60.xyz system=c60 pbc="F F F"
C       -2.51244757      -0.91667456       2.96361923
C       -2.60442592      -0.41169289      -0.28339016
C        0.41434928      -2.74309413      -1.34365106
C       -3.05027927      -1.45186280       1.71530664
C        2.95409735       0.08049892      -1.26113789
C       -1.84363106      -2.71143814      -0.90874016
C       -1.08786925       0.44433332       4.65226938
C        1.09265644      -1.42006862       2.31886567
C       -0.56917114       3.10183064      -1.96035369
C       -1.17772524      -0.69597197       0.36820615
C        2.96467798       0.78208391       0.02990200
C       -0.22911589      -1.23892453      -3.71978477
C       -2.58947718       0.49317098       2.93127624
C        0.91016223       0.65566050      -4.20598739
C       -1.19576016       1.00748850      -3.30189155
C        0.02983898      -0.36237103      -0.02725233
C       -2.14170917       0.39915572      -2.41964710
C        0.51530123       2.06427585       3.34317288
C        1.60786318       2.04101641       2.43490219
C       -2.64419883      -1.57015784      -1.18368113
C        1.61534790       2.40184697      -1.16260233
C       -1.06267277       2.44397642       1.47738860
C        0.98842422       0.88798152       4.01491051
C        2.26318749       2.01073604       0.02440652
C        2.03615882       0.79151458       3.04055868
C        1.50525228      -0.98213466       0.13756436
C        0.10204352       2.77084015       0.60859807
C        0.01005816      -1.15440988       3.18377084
C       -0.80454052       2.10717125       2.86344379
C       -0.85228007      -2.74210680      -1.91404502
C       -2.67842185       2.03033388      -0.43593798
C       -3.36264133      -0.28501483       0.93564547
C        2.08650385      -0.36150352       2.24956127
C        0.97024852       1.79570071      -3.39469123
C        0.22177712      -2.90293554       0.11108147
C       -2.32912159       1.94886176       0.96798577
C        0.07520975      -0.17648649       4.23330242
C        2.41930041      -0.17249227       0.92292165
C        2.13576840      -1.08026876      -1.17010539
C        1.40897210      -1.91342876      -2.04475174
C       -1.25391712      -1.51950815       2.72995622
C       -1.63360479       1.22937317       3.63166885
C       -1.20508107      -1.83836745      -2.93870042
C       -1.19227783      -2.85191954       0.33700163
C       -1.63648032      -1.86787143       1.32816099
C        0.30891860       2.90555491      -0.85297143
C       -2.63797680       3.23529761      -1.12256202
C       -2.58303530       0.80073639      -1.12052919
C        1.13376294      -1.44127988      -3.36634324
C        1.96872600       1.86734061      -2.41776160
C       -0.39446499       0.11657910      -4.10114757
C       -2.24187119      -1.04028945      -2.44171004
C       -0.36824617       2.15505735      -3.01123004
C        2.96387256       0.82068640      -2.47429006
C       -2.97637513       0.87872149       1.64653013
C        1.01844673      -2.07521156       0.97668075
C       -1.78502351       3.82700362      -1.83137695
C        1.89366285      -0.36696911      -3.98039685
C        1.41153878       2.39673985       1.10407075
C        3.13429038       0.04571794      -3.61217055
