54
Lattice="21.66 0.0 0.0 0.0 5.10531 0.0 0.0 0.0 22.55266" Properties=species:S:1:pos:R:3 trial_index=155 seed_entry_id=147 discovered_entry_id=148 energy=-201.48133850097656 status=accepted pbc="T T F"
Cu       0.00000000       0.00000000      10.00000000
Cu       3.61000000       0.00000000      10.00000000
Cu       7.22000000       0.00000000      10.00000000
Cu      10.83000000       0.00000000      10.00000000
Cu      14.44000000       0.00000000      10.00000000
Cu      18.05000000       0.00000000      10.00000000
Cu       0.00000000       2.55265548      10.00000000
Cu       3.61000000       2.55265548      10.00000000
Cu       7.22000000       2.55265548      10.00000000
Cu      10.83000000       2.55265548      10.00000000
Cu      14.44000000       2.55265548      10.00000000
Cu      18.05000000       2.55265548      10.00000000
Cu       1.80500000       1.27632774      11.27632774
Cu       5.41500000       1.27632774      11.27632774
Cu       9.02500000       1.27632774      11.27632774
Cu      12.63500000       1.27632774      11.27632774
Cu      16.24500000       1.27632774      11.27632774
Cu      19.85500000       1.27632774      11.27632774
Cu       1.80500000       3.82898322      11.27632774
Cu       5.41500000       3.82898322      11.27632774
Cu       9.02500000       3.82898322      11.27632774
Cu      12.63500000       3.82898322      11.27632774
Cu      16.24500000       3.82898322      11.27632774
Cu      19.85500000       3.82898322      11.27632774
Cu      18.03449482       2.55835214      12.57206594
Cu       0.05250604       0.12536464      12.76021179
Cu       7.28367628       2.57227732      12.56791112
Cu      10.93038313       0.00188889      12.61572482
Cu      14.43339821       5.10237395      12.45279829
Cu      15.98821157       1.27512760      14.14298608
Cu       4.95568223       5.03806536      13.68564949
Cu       4.93337038       2.48906171      13.66161232
Cu       7.24204480       5.06500582      12.52259873
Cu      10.86981402       2.54950340      12.62883055
Cu      12.86798856       1.28203077      13.88263012
Cu      21.63523273       2.56892395      12.53705567
Cu      10.89658893       1.24686975      15.38589722
Cu       9.01283286       1.27535371      13.81512649
Cu      17.85003601       0.00839430      12.69261848
Cu      10.89314019       3.80490193      15.39151129
Cu       9.00434212       3.82731783      13.82828956
Cu       2.40454160       5.08590673      13.39387822
Cu       2.33531800       2.43867123      13.44006642
Cu      12.85178004       3.81035233      13.87744429
Cu      15.98960880       3.83589373      14.14132280
Cu      14.46975335       2.55181880      12.45430723
O        9.50735920       5.08195032      15.33598417
O        0.84305735       3.74629407      13.78273399
O       19.76429898       0.00467951      12.83032044
O       14.64004771       0.00131365      14.51686353
O       12.26303148       2.53012805      15.41142385
O        6.30770178       1.22695982      13.82101465
O       17.30311542       2.55488211      14.32701478
O        3.69207656       3.76662518      14.16956161
