54
Lattice="21.66 0.0 0.0 0.0 5.10531 0.0 0.0 0.0 22.55266" Properties=species:S:1:pos:R:3 trial_index=167 seed_entry_id=68 discovered_entry_id=159 energy=-199.130126953125 status=accepted pbc="T T F"
Cu       0.00000000       0.00000000      10.00000000
Cu       3.61000000       0.00000000      10.00000000
Cu       7.22000000       0.00000000      10.00000000
Cu      10.83000000       0.00000000      10.00000000
Cu      14.44000000       0.00000000      10.00000000
Cu      18.05000000       0.00000000      10.00000000
Cu       0.00000000       2.55265548      10.00000000
Cu       3.61000000       2.55265548      10.00000000
Cu       7.22000000       2.55265548      10.00000000
Cu      10.83000000       2.55265548      10.00000000
Cu      14.44000000       2.55265548      10.00000000
Cu      18.05000000       2.55265548      10.00000000
Cu       1.80500000       1.27632774      11.27632774
Cu       5.41500000       1.27632774      11.27632774
Cu       9.02500000       1.27632774      11.27632774
Cu      12.63500000       1.27632774      11.27632774
Cu      16.24500000       1.27632774      11.27632774
Cu      19.85500000       1.27632774      11.27632774
Cu       1.80500000       3.82898322      11.27632774
Cu       5.41500000       3.82898322      11.27632774
Cu       9.02500000       3.82898322      11.27632774
Cu      12.63500000       3.82898322      11.27632774
Cu      16.24500000       3.82898322      11.27632774
Cu      19.85500000       3.82898322      11.27632774
Cu      21.60784476       5.09559694      12.45880490
Cu       1.99973493       3.74270148      13.84243488
Cu       7.11750356       5.02343490      12.56395399
Cu      14.38529183       0.02803898      12.51913427
Cu      10.75009887       5.02348375      12.62065423
Cu      15.42708078       1.29593799      14.32423892
Cu       6.93478932       1.38456761      14.44444451
Cu       4.56079290       0.79412262      13.43435753
Cu       7.12506809       2.54626758      12.38477995
Cu      10.81643136       2.47068175      12.58727122
Cu      18.08528854       1.24839107      14.56354879
Cu       0.02876966       2.54004755      12.51650878
Cu      12.68362563       1.24386952      14.20387702
Cu       8.85137594       3.52246340      13.83415258
Cu      20.73171170       1.28353006      14.53251365
Cu       9.80686693       1.07735573      14.74156242
Cu      14.46515243       2.64219455      12.47669310
Cu       1.69260025       1.29675987      14.14193058
Cu      20.64068395       3.82661580      14.44545402
Cu      12.58910561       3.77974610      13.98430204
Cu      18.00978928       2.48918458      12.38597320
Cu      17.94457643       3.75370179      14.52105379
O        8.43560755       2.21089840      15.22843898
O        0.44672380       5.01401736      14.59496826
O       19.34858969       2.55448176      15.03737644
O       14.01626340       2.53842074      14.47911610
O       11.34941725       0.00296121      14.65658704
O        2.88024903       5.05518199      12.51001053
O       16.72943650       0.02262520      14.57382006
O        3.18619732       2.30839053      14.06048664
