54
Lattice="21.66 0.0 0.0 0.0 5.10531 0.0 0.0 0.0 22.55266" Properties=species:S:1:pos:R:3 trial_index=25 seed_entry_id=23 discovered_entry_id=24 energy=-200.61105346679688 status=accepted pbc="T T F"
Cu       0.00000000       0.00000000      10.00000000
Cu       3.61000000       0.00000000      10.00000000
Cu       7.22000000       0.00000000      10.00000000
Cu      10.83000000       0.00000000      10.00000000
Cu      14.44000000       0.00000000      10.00000000
Cu      18.05000000       0.00000000      10.00000000
Cu       0.00000000       2.55265548      10.00000000
Cu       3.61000000       2.55265548      10.00000000
Cu       7.22000000       2.55265548      10.00000000
Cu      10.83000000       2.55265548      10.00000000
Cu      14.44000000       2.55265548      10.00000000
Cu      18.05000000       2.55265548      10.00000000
Cu       1.80500000       1.27632774      11.27632774
Cu       5.41500000       1.27632774      11.27632774
Cu       9.02500000       1.27632774      11.27632774
Cu      12.63500000       1.27632774      11.27632774
Cu      16.24500000       1.27632774      11.27632774
Cu      19.85500000       1.27632774      11.27632774
Cu       1.80500000       3.82898322      11.27632774
Cu       5.41500000       3.82898322      11.27632774
Cu       9.02500000       3.82898322      11.27632774
Cu      12.63500000       3.82898322      11.27632774
Cu      16.24500000       3.82898322      11.27632774
Cu      19.85500000       3.82898322      11.27632774
Cu      18.04997348       0.09335904      12.59168077
Cu       4.21530665       2.71806766      13.20910149
Cu       7.23320060       5.10420054      12.59657354
Cu      10.86161255       0.01243944      12.51978811
Cu      13.20526760       4.89852825      13.30315879
Cu      15.60066869       0.15881622      13.57279023
Cu       6.95966352       3.72081898      14.89422125
Cu      19.98138469       3.95685013      14.00778173
Cu       7.23231838       2.49168590      12.58820074
Cu      10.95900552       2.58411283      12.56523293
Cu      13.79955846       2.21704684      13.40239716
Cu      21.58908730       2.55935655      12.48705216
Cu       9.46592383       2.54257683      16.03795767
Cu       9.07698064       1.28070462      13.80730207
Cu      20.02290852       1.37278601      14.20582115
Cu       9.45964598       5.10305466      16.03077337
Cu       9.16753202       3.82293501      13.78130720
Cu       1.28503401       1.13238703      13.99917676
Cu      21.60086042       5.05438863      12.43609420
Cu      11.69341120       1.27121837      14.50261192
Cu      18.13036756       2.63171249      12.51383888
Cu      17.01447105       2.10108339      14.57831452
O        8.16076827       3.81918036      16.27214181
O       21.41641077       0.12703817      14.49868042
O       18.76387217       2.66838809      14.68125753
O       15.28520784       1.61919716      14.64808408
O       10.77443484       1.26965208      16.13526584
O        5.77079714       3.71342007      13.46433428
O       14.79669989       3.79234801      12.74060217
O        2.51087701       2.09343633      13.03151053
