54
Lattice="21.66 0.0 0.0 0.0 5.10531 0.0 0.0 0.0 22.55266" Properties=species:S:1:pos:R:3 trial_index=50 seed_entry_id=11 discovered_entry_id=47 energy=-201.24752807617188 status=accepted pbc="T T F"
Cu       0.00000000       0.00000000      10.00000000
Cu       3.61000000       0.00000000      10.00000000
Cu       7.22000000       0.00000000      10.00000000
Cu      10.83000000       0.00000000      10.00000000
Cu      14.44000000       0.00000000      10.00000000
Cu      18.05000000       0.00000000      10.00000000
Cu       0.00000000       2.55265548      10.00000000
Cu       3.61000000       2.55265548      10.00000000
Cu       7.22000000       2.55265548      10.00000000
Cu      10.83000000       2.55265548      10.00000000
Cu      14.44000000       2.55265548      10.00000000
Cu      18.05000000       2.55265548      10.00000000
Cu       1.80500000       1.27632774      11.27632774
Cu       5.41500000       1.27632774      11.27632774
Cu       9.02500000       1.27632774      11.27632774
Cu      12.63500000       1.27632774      11.27632774
Cu      16.24500000       1.27632774      11.27632774
Cu      19.85500000       1.27632774      11.27632774
Cu       1.80500000       3.82898322      11.27632774
Cu       5.41500000       3.82898322      11.27632774
Cu       9.02500000       3.82898322      11.27632774
Cu      12.63500000       3.82898322      11.27632774
Cu      16.24500000       3.82898322      11.27632774
Cu      19.85500000       3.82898322      11.27632774
Cu      19.75281434       3.95001319      13.82680341
Cu       0.01013433       0.08412227      12.54825212
Cu       7.28184850       5.04012654      12.59546542
Cu      10.89039150       5.08098569      12.53629686
Cu      15.96760755       0.84173301      13.77243432
Cu      18.06584927       5.08686482      12.53370621
Cu       4.68860091       2.38032425      13.41285349
Cu       3.55101099       5.01168104      12.61863003
Cu       7.29159290       2.58055576      12.60384254
Cu      10.92660807       2.54133468      12.55979212
Cu      14.32222673       2.63065260      12.53934713
Cu       0.00209823       2.60937872      12.51908030
Cu      10.91943484       2.54682062      15.17007558
Cu       9.15906988       1.26765029      13.78058266
Cu      19.88138802       1.31200856      13.86998536
Cu      10.90088784       0.01280603      15.20193252
Cu       9.03907150       3.81979211      13.82759092
Cu       2.15568926       1.94622422      13.73474888
Cu       0.45205258       3.92377490      14.64069617
Cu      13.20091446       0.55817119      13.68893420
Cu      18.07394578       2.52320309      12.55609667
Cu      16.18481304       3.43796768      13.96997866
O        9.67993218       3.82056823      15.60413907
O        1.29038331       0.36601677      14.03763606
O       20.72205355       2.70603727      14.89464588
O       14.73648917       4.53742086      13.60255468
O       12.22124727       1.28088038      15.11399882
O        6.10067449       1.23426289      13.36334731
O       17.28575190       2.01983319      14.33356068
O        3.25622220       3.44135126      13.71361806
