54
Lattice="21.66 0.0 0.0 0.0 5.10531 0.0 0.0 0.0 22.55266" Properties=species:S:1:pos:R:3 trial_index=86 seed_entry_id=82 discovered_entry_id=83 energy=-201.353759765625 status=accepted pbc="T T F"
Cu       0.00000000       0.00000000      10.00000000
Cu       3.61000000       0.00000000      10.00000000
Cu       7.22000000       0.00000000      10.00000000
Cu      10.83000000       0.00000000      10.00000000
Cu      14.44000000       0.00000000      10.00000000
Cu      18.05000000       0.00000000      10.00000000
Cu       0.00000000       2.55265548      10.00000000
Cu       3.61000000       2.55265548      10.00000000
Cu       7.22000000       2.55265548      10.00000000
Cu      10.83000000       2.55265548      10.00000000
Cu      14.44000000       2.55265548      10.00000000
Cu      18.05000000       2.55265548      10.00000000
Cu       1.80500000       1.27632774      11.27632774
Cu       5.41500000       1.27632774      11.27632774
Cu       9.02500000       1.27632774      11.27632774
Cu      12.63500000       1.27632774      11.27632774
Cu      16.24500000       1.27632774      11.27632774
Cu      19.85500000       1.27632774      11.27632774
Cu       1.80500000       3.82898322      11.27632774
Cu       5.41500000       3.82898322      11.27632774
Cu       9.02500000       3.82898322      11.27632774
Cu      12.63500000       3.82898322      11.27632774
Cu      16.24500000       3.82898322      11.27632774
Cu      19.85500000       3.82898322      11.27632774
Cu      21.61817136       5.07539971      12.59810399
Cu       1.89889480       3.85557844      13.99866266
Cu       7.31212109       5.10348708      12.53832404
Cu      10.77337479       5.09675801      12.55617345
Cu      15.46335954       0.12046762      13.44753571
Cu      18.06713054       5.06913350      12.56999965
Cu       4.68531452       1.45043467      14.16503509
Cu       3.57510436       0.00213919      12.50507948
Cu       3.53012045       2.61317782      12.45497860
Cu      10.88328975       2.54458493      12.59537698
Cu      14.55336059       2.54581182      12.52165729
Cu       0.03913057       2.52498190      12.54425457
Cu      12.91518979       3.77344439      14.09758880
Cu       8.99572744       1.20006204      13.80858704
Cu      20.95096043       1.33721433      14.73040496
Cu      10.70072760       2.53175244      15.20088653
Cu       8.97446241       3.85681194      13.79321114
Cu       1.96100570       1.33164359      14.24405674
Cu      19.82396332       3.68139359      13.80648391
Cu      12.90116969       1.27134476      14.06856840
Cu      18.00693493       2.53515784      12.48175609
Cu      18.28329650       1.41814351      14.69299408
O        8.87490181       2.53587494      15.11660232
O        0.63350960       0.05374692      14.59481975
O       19.63490511       2.50331259      15.27101151
O       13.64898890       5.06292254      12.96637952
O       12.51080522       2.51370421      15.37973348
O        5.56926709       0.11990411      13.24548537
O       17.09404243       0.11071885      14.26358888
O        3.28667345       2.63539824      14.58429630
