54
Lattice="21.66 0.0 0.0 0.0 5.10531 0.0 0.0 0.0 22.55266" Properties=species:S:1:pos:R:3 trial_index=49 seed_entry_id=45 discovered_entry_id=46 energy=-198.71324157714844 status=accepted pbc="T T F"
Cu       0.00000000       0.00000000      10.00000000
Cu       3.61000000       0.00000000      10.00000000
Cu       7.22000000       0.00000000      10.00000000
Cu      10.83000000       0.00000000      10.00000000
Cu      14.44000000       0.00000000      10.00000000
Cu      18.05000000       0.00000000      10.00000000
Cu       0.00000000       2.55265548      10.00000000
Cu       3.61000000       2.55265548      10.00000000
Cu       7.22000000       2.55265548      10.00000000
Cu      10.83000000       2.55265548      10.00000000
Cu      14.44000000       2.55265548      10.00000000
Cu      18.05000000       2.55265548      10.00000000
Cu       1.80500000       1.27632774      11.27632774
Cu       5.41500000       1.27632774      11.27632774
Cu       9.02500000       1.27632774      11.27632774
Cu      12.63500000       1.27632774      11.27632774
Cu      16.24500000       1.27632774      11.27632774
Cu      19.85500000       1.27632774      11.27632774
Cu       1.80500000       3.82898322      11.27632774
Cu       5.41500000       3.82898322      11.27632774
Cu       9.02500000       3.82898322      11.27632774
Cu      12.63500000       3.82898322      11.27632774
Cu      16.24500000       3.82898322      11.27632774
Cu      19.85500000       3.82898322      11.27632774
Cu      21.62233641       0.01447151      12.53133380
Cu       1.73932446       3.88607464      13.83255282
Cu       5.99767186       5.06599395      13.57988111
Cu      10.83674191       0.04260629      12.44266081
Cu      15.90817079       4.22786934      13.78856691
Cu      18.08048102       0.02282488      12.53233237
Cu       6.05889161       2.54360434      13.55199397
Cu       3.52886055       5.08677367      12.57663113
Cu       3.57835889       2.59823597      12.56304918
Cu      10.84623430       2.58260380      12.43653356
Cu      13.05619919       2.26124493      13.51559087
Cu      21.60103444       2.57471176      12.56701322
Cu      10.79459922       3.88458294      14.59926666
Cu       8.73371957       2.44792567      13.73026943
Cu      19.86957703       1.33960509      13.81986355
Cu      10.97814955       1.21775942      14.55218718
Cu       8.62726222       5.07970563      13.43824395
Cu       1.68119163       1.22235539      13.84052164
Cu       0.14775343       2.64602741      15.48402875
Cu      12.90780373       4.92214535      13.67470186
Cu      18.03310373       2.57207268      12.51137431
Cu      18.31381677       3.41153973      14.83788975
O        7.27984030       3.83295867      14.10170030
O       20.17339222       2.78901725      16.22252277
O       19.16380968       1.93860733      15.53676253
O       14.22524626       3.62503592      13.95867329
O        9.87926851       2.46827846      15.36704102
O        4.68155558       1.27628800      13.64473560
O       17.49796365       4.95504588      14.34577921
O        1.92671657       2.55920477      15.15233268
