54
Lattice="21.66 0.0 0.0 0.0 5.10531 0.0 0.0 0.0 22.55266" Properties=species:S:1:pos:R:3 trial_index=149 seed_entry_id=142 discovered_entry_id=143 energy=-200.91360473632812 status=accepted pbc="T T F"
Cu       0.00000000       0.00000000      10.00000000
Cu       3.61000000       0.00000000      10.00000000
Cu       7.22000000       0.00000000      10.00000000
Cu      10.83000000       0.00000000      10.00000000
Cu      14.44000000       0.00000000      10.00000000
Cu      18.05000000       0.00000000      10.00000000
Cu       0.00000000       2.55265548      10.00000000
Cu       3.61000000       2.55265548      10.00000000
Cu       7.22000000       2.55265548      10.00000000
Cu      10.83000000       2.55265548      10.00000000
Cu      14.44000000       2.55265548      10.00000000
Cu      18.05000000       2.55265548      10.00000000
Cu       1.80500000       1.27632774      11.27632774
Cu       5.41500000       1.27632774      11.27632774
Cu       9.02500000       1.27632774      11.27632774
Cu      12.63500000       1.27632774      11.27632774
Cu      16.24500000       1.27632774      11.27632774
Cu      19.85500000       1.27632774      11.27632774
Cu       1.80500000       3.82898322      11.27632774
Cu       5.41500000       3.82898322      11.27632774
Cu       9.02500000       3.82898322      11.27632774
Cu      12.63500000       3.82898322      11.27632774
Cu      16.24500000       3.82898322      11.27632774
Cu      19.85500000       3.82898322      11.27632774
Cu       0.07339729       4.99569748      12.60984337
Cu       2.66374931       0.04672418      13.44704141
Cu       7.27742182       0.07207499      12.54507688
Cu      13.39324932       3.24687832      13.66538357
Cu      10.80298789       5.04691993      12.53586746
Cu      17.91751181       5.03268142      12.60091572
Cu       3.52611107       2.57466942      12.59178060
Cu       5.43610753       3.82543861      13.89918977
Cu       7.19896440       2.53396479      12.49104266
Cu      10.83726047       2.51483550      12.57507343
Cu      15.65665642       1.10270124      14.82196622
Cu      19.72522249       3.57476483      13.97167559
Cu      11.43088170       1.02390477      14.67263355
Cu       8.81946263       2.93884084      14.36539196
Cu      17.90551662       2.13840285      15.00418978
Cu      11.28811008       3.58543934      14.91897964
Cu      14.47105493       0.11057257      12.54412825
Cu      21.65558483       2.49326246      12.60894454
Cu      19.80921730       1.11798263      13.85085921
Cu      16.02305750       3.36424477      13.64060449
Cu      18.08103755       2.48821352      12.54106356
Cu      17.71826133       4.56693018      15.00856897
O       10.17467919       2.19554700      15.34251005
O        1.73236103       1.62697572      13.20897065
O       20.99884681       4.87372740      14.36915634
O       14.63731585       1.86437168      13.47488858
O       12.66615848       4.76257539      14.55939507
O        7.27386171       3.89827628      14.00989925
O       17.00608395       0.82636215      16.04170871
O        3.65341383       3.77435841      14.09442271
