54
Lattice="21.66 0.0 0.0 0.0 5.10531 0.0 0.0 0.0 22.55266" Properties=species:S:1:pos:R:3 trial_index=170 seed_entry_id=113 discovered_entry_id=161 energy=-200.64651489257812 status=accepted pbc="T T F"
Cu       0.00000000       0.00000000      10.00000000
Cu       3.61000000       0.00000000      10.00000000
Cu       7.22000000       0.00000000      10.00000000
Cu      10.83000000       0.00000000      10.00000000
Cu      14.44000000       0.00000000      10.00000000
Cu      18.05000000       0.00000000      10.00000000
Cu       0.00000000       2.55265548      10.00000000
Cu       3.61000000       2.55265548      10.00000000
Cu       7.22000000       2.55265548      10.00000000
Cu      10.83000000       2.55265548      10.00000000
Cu      14.44000000       2.55265548      10.00000000
Cu      18.05000000       2.55265548      10.00000000
Cu       1.80500000       1.27632774      11.27632774
Cu       5.41500000       1.27632774      11.27632774
Cu       9.02500000       1.27632774      11.27632774
Cu      12.63500000       1.27632774      11.27632774
Cu      16.24500000       1.27632774      11.27632774
Cu      19.85500000       1.27632774      11.27632774
Cu       1.80500000       3.82898322      11.27632774
Cu       5.41500000       3.82898322      11.27632774
Cu       9.02500000       3.82898322      11.27632774
Cu      12.63500000       3.82898322      11.27632774
Cu      16.24500000       3.82898322      11.27632774
Cu      19.85500000       3.82898322      11.27632774
Cu       0.10853915       0.03707844      12.62802755
Cu       1.69992227       3.00819460      14.17271692
Cu       7.07349510       0.00779603      12.57458652
Cu      14.51587526       5.07477337      12.52861364
Cu      10.86074539       5.08802898      12.56489718
Cu      18.03170182       0.15017109      12.49547420
Cu       3.65677845       2.48357322      12.49355971
Cu       3.47293547       5.06785391      12.76301685
Cu       7.18048789       2.54329959      12.53311866
Cu       9.31058569       1.74469995      14.21002118
Cu      16.13812432       1.39048253      13.79286333
Cu      21.59778780       2.61243630      12.44056803
Cu      12.69911553       1.09920788      13.84542261
Cu       7.95500367       3.83339082      14.44870368
Cu      20.06022967       1.39921305      14.07699015
Cu      11.19171146       3.84570714      14.87496194
Cu      11.00903918       2.56959898      12.59431589
Cu       5.47255319       3.69897173      13.86488036
Cu      20.07247867       3.97536209      14.18093719
Cu      14.31919385       3.78355105      14.75088374
Cu      14.34271796       2.54615645      12.51774590
Cu      17.16455745       4.12885570      14.53026900
O        9.54370322       3.17204412      15.31064415
O        1.79821709       1.02159399      13.25788206
O       21.40868385       2.70906443      14.44852076
O       15.90167378       2.87667267      14.94564236
O       12.78706892       4.73343722      15.04842802
O        8.97284459       0.20967973      13.26683729
O       18.69339798       0.11861036      14.40121900
O        3.55171730       3.57274779      14.12934357
