54
Lattice="21.66 0.0 0.0 0.0 5.10531 0.0 0.0 0.0 22.55266" Properties=species:S:1:pos:R:3 trial_index=6 seed_entry_id=4 discovered_entry_id=6 energy=-199.94717407226562 status=accepted pbc="T T F"
Cu       0.00000000       0.00000000      10.00000000
Cu       3.61000000       0.00000000      10.00000000
Cu       7.22000000       0.00000000      10.00000000
Cu      10.83000000       0.00000000      10.00000000
Cu      14.44000000       0.00000000      10.00000000
Cu      18.05000000       0.00000000      10.00000000
Cu       0.00000000       2.55265548      10.00000000
Cu       3.61000000       2.55265548      10.00000000
Cu       7.22000000       2.55265548      10.00000000
Cu      10.83000000       2.55265548      10.00000000
Cu      14.44000000       2.55265548      10.00000000
Cu      18.05000000       2.55265548      10.00000000
Cu       1.80500000       1.27632774      11.27632774
Cu       5.41500000       1.27632774      11.27632774
Cu       9.02500000       1.27632774      11.27632774
Cu      12.63500000       1.27632774      11.27632774
Cu      16.24500000       1.27632774      11.27632774
Cu      19.85500000       1.27632774      11.27632774
Cu       1.80500000       3.82898322      11.27632774
Cu       5.41500000       3.82898322      11.27632774
Cu       9.02500000       3.82898322      11.27632774
Cu      12.63500000       3.82898322      11.27632774
Cu      16.24500000       3.82898322      11.27632774
Cu      19.85500000       3.82898322      11.27632774
Cu      21.63614015       4.98598635      12.52819064
Cu       3.67067915       0.06622079      12.52841780
Cu       7.12323240       5.05079404      12.57270896
Cu      10.80443246       5.06151278      12.60515160
Cu      13.55487222       4.91758664      13.47268752
Cu      18.04564204       0.07942913      12.46421532
Cu       0.00569899       2.45942101      12.51813585
Cu       2.29462431       3.22704777      13.58201990
Cu       7.14566447       2.59696790      12.54645154
Cu      10.78637530       2.56019311      12.60297466
Cu      14.48575310       2.54067929      12.51355612
Cu      18.03177643       2.55246344      12.53217882
Cu       9.59782284       2.49968048      16.20167541
Cu       9.03183720       1.24303853      13.98940078
Cu      19.92486997       1.27161836      13.91078763
Cu       9.02146212       3.80248832      13.87710146
Cu       9.59956725       5.05845658      16.19851607
Cu       1.46672442       1.01596708      14.10582061
Cu       0.20778720       3.16086704      14.79389220
Cu      11.48635398       1.21908634      14.92477529
Cu      19.68360834       3.73047663      13.87077860
Cu      16.42357131       4.13523545      14.02609213
O        8.41444539       3.77987019      15.70191576
O       21.22433803       4.99186505      14.60438559
O       18.11807792       4.80169809      14.35958804
O       12.40960984       1.28375846      13.30932434
O       10.83218467       1.22556246      16.65571515
O        7.11549147       1.28664806      13.87578042
O       14.68209164       3.59855697      14.05764126
O        2.92951405       4.86829543      14.20658490
