54
Lattice="21.66 0.0 0.0 0.0 5.10531 0.0 0.0 0.0 22.55266" Properties=species:S:1:pos:R:3 trial_index=43 seed_entry_id=38 discovered_entry_id=40 energy=-198.18463134765625 status=accepted pbc="T T F"
Cu       0.00000000       0.00000000      10.00000000
Cu       3.61000000       0.00000000      10.00000000
Cu       7.22000000       0.00000000      10.00000000
Cu      10.83000000       0.00000000      10.00000000
Cu      14.44000000       0.00000000      10.00000000
Cu      18.05000000       0.00000000      10.00000000
Cu       0.00000000       2.55265548      10.00000000
Cu       3.61000000       2.55265548      10.00000000
Cu       7.22000000       2.55265548      10.00000000
Cu      10.83000000       2.55265548      10.00000000
Cu      14.44000000       2.55265548      10.00000000
Cu      18.05000000       2.55265548      10.00000000
Cu       1.80500000       1.27632774      11.27632774
Cu       5.41500000       1.27632774      11.27632774
Cu       9.02500000       1.27632774      11.27632774
Cu      12.63500000       1.27632774      11.27632774
Cu      16.24500000       1.27632774      11.27632774
Cu      19.85500000       1.27632774      11.27632774
Cu       1.80500000       3.82898322      11.27632774
Cu       5.41500000       3.82898322      11.27632774
Cu       9.02500000       3.82898322      11.27632774
Cu      12.63500000       3.82898322      11.27632774
Cu      16.24500000       3.82898322      11.27632774
Cu      19.85500000       3.82898322      11.27632774
Cu      21.65093108       0.02656873      12.38730357
Cu       4.61919103       4.95965794      14.41663983
Cu       7.16854668       5.05460800      12.58495398
Cu      10.84630368       5.03717280      12.70163353
Cu      13.50413313       5.01345076      13.50973990
Cu      18.05465221       5.09172176      12.60585585
Cu       4.02375623       2.75166091      13.07518139
Cu       7.46593785       4.81491795      15.17017224
Cu       6.95814340       2.54756665      12.84515535
Cu      10.84926875       2.55443953      12.71459096
Cu      14.38390232       2.54851898      12.55427419
Cu       0.04732896       2.58198962      12.50298689
Cu      10.27326470       2.60039627      15.35853218
Cu       8.89582340       1.24870947      13.79154386
Cu      20.10374937       1.21112122      13.84712999
Cu       9.97643838       5.01423920      15.52969513
Cu       8.97190794       3.75032512      13.69218823
Cu       1.42213927       4.42950350      14.10296957
Cu      19.98423141       3.70799541      13.93996643
Cu      16.02261808       1.03957138      13.65043715
Cu      18.11516785       2.43286103      12.71099542
Cu      16.22070866       3.66923236      14.06163100
O        5.78907569       4.91471015      15.75245357
O       21.33982076       4.92422545      14.56065074
O       18.04785297       3.82786093      14.19332541
O       12.27351726       1.25867316      13.22789526
O       10.63911168       1.26228249      16.48240106
O        5.27158965       1.37521050      13.22893738
O       14.41107495       3.58527257      14.19541422
O        3.11215940       4.31828450      13.43488169
