54
Lattice="21.66 0.0 0.0 0.0 5.10531 0.0 0.0 0.0 22.55266" Properties=species:S:1:pos:R:3 trial_index=91 seed_entry_id=87 discovered_entry_id=88 energy=-201.47882080078125 status=accepted pbc="T T F"
Cu       0.00000000       0.00000000      10.00000000
Cu       3.61000000       0.00000000      10.00000000
Cu       7.22000000       0.00000000      10.00000000
Cu      10.83000000       0.00000000      10.00000000
Cu      14.44000000       0.00000000      10.00000000
Cu      18.05000000       0.00000000      10.00000000
Cu       0.00000000       2.55265548      10.00000000
Cu       3.61000000       2.55265548      10.00000000
Cu       7.22000000       2.55265548      10.00000000
Cu      10.83000000       2.55265548      10.00000000
Cu      14.44000000       2.55265548      10.00000000
Cu      18.05000000       2.55265548      10.00000000
Cu       1.80500000       1.27632774      11.27632774
Cu       5.41500000       1.27632774      11.27632774
Cu       9.02500000       1.27632774      11.27632774
Cu      12.63500000       1.27632774      11.27632774
Cu      16.24500000       1.27632774      11.27632774
Cu      19.85500000       1.27632774      11.27632774
Cu       1.80500000       3.82898322      11.27632774
Cu       5.41500000       3.82898322      11.27632774
Cu       9.02500000       3.82898322      11.27632774
Cu      12.63500000       3.82898322      11.27632774
Cu      16.24500000       3.82898322      11.27632774
Cu      19.85500000       3.82898322      11.27632774
Cu      20.97271448       4.37427087      13.48537675
Cu       1.95007914       4.32099883      13.79931039
Cu       7.18308782       0.02560268      12.54330313
Cu      13.16535466       3.83755427      14.24827121
Cu      13.15649272       1.31134649      14.23790221
Cu      18.04879908       0.03919232      12.58738884
Cu       4.45577744       1.57889545      14.59521962
Cu       5.27274184       4.00984059      13.74095311
Cu       7.16713039       2.58622188      12.59332419
Cu      10.83089507       2.57977835      12.52971544
Cu      14.44606439       2.55960799      12.41043566
Cu       3.64367191       2.63326030      12.40381534
Cu       9.05180503       1.39645203      13.81465567
Cu       7.10314780       0.16272528      15.09714626
Cu      17.90303857       2.55126301      12.60213747
Cu      10.91158255       0.02238727      12.63128178
Cu       9.04049729       3.83416791      13.83751275
Cu       1.87254650       1.76113675      13.98134035
Cu      20.99457821       1.75300205      13.50253515
Cu      14.45388003       0.00660581      12.47383025
Cu      15.97720249       1.31374654      14.12386353
Cu      15.98925528       3.82466799      14.10349225
O        8.90580583       0.08367356      15.15296756
O        0.54514811       0.46897386      14.21868076
O       19.70556185       3.04695751      13.25271756
O       14.56536570       2.57166073      14.68466770
O       11.86675815       0.01822952      14.33818366
O        5.30559570       0.11312014      15.22971697
O       17.28086000       0.02442272      14.33749842
O        3.24643847       3.02136296      14.34305352
