54
Lattice="21.66 0.0 0.0 0.0 5.10531 0.0 0.0 0.0 22.55266" Properties=species:S:1:pos:R:3 trial_index=154 seed_entry_id=146 discovered_entry_id=147 energy=-202.07669067382812 status=accepted pbc="T T F"
Cu       0.00000000       0.00000000      10.00000000
Cu       3.61000000       0.00000000      10.00000000
Cu       7.22000000       0.00000000      10.00000000
Cu      10.83000000       0.00000000      10.00000000
Cu      14.44000000       0.00000000      10.00000000
Cu      18.05000000       0.00000000      10.00000000
Cu       0.00000000       2.55265548      10.00000000
Cu       3.61000000       2.55265548      10.00000000
Cu       7.22000000       2.55265548      10.00000000
Cu      10.83000000       2.55265548      10.00000000
Cu      14.44000000       2.55265548      10.00000000
Cu      18.05000000       2.55265548      10.00000000
Cu       1.80500000       1.27632774      11.27632774
Cu       5.41500000       1.27632774      11.27632774
Cu       9.02500000       1.27632774      11.27632774
Cu      12.63500000       1.27632774      11.27632774
Cu      16.24500000       1.27632774      11.27632774
Cu      19.85500000       1.27632774      11.27632774
Cu       1.80500000       3.82898322      11.27632774
Cu       5.41500000       3.82898322      11.27632774
Cu       9.02500000       3.82898322      11.27632774
Cu      12.63500000       3.82898322      11.27632774
Cu      16.24500000       3.82898322      11.27632774
Cu      19.85500000       3.82898322      11.27632774
Cu      18.85380277       2.85774677      13.46099204
Cu       0.01324175       0.03260615      12.60017298
Cu       7.19468207       2.57889967      12.53999120
Cu      10.84226408       5.08712226      12.56437065
Cu      14.39601392       5.07093212      12.48058880
Cu      16.10860015       1.10295502      14.03464438
Cu       5.14748489       3.98108907      13.82128225
Cu       5.13241334       1.47808418      13.82179946
Cu       7.23319881       0.00646398      12.55783817
Cu      10.85279755       2.53914121      12.57860165
Cu      12.59962858       1.24834941      13.83436452
Cu       0.16260567       2.48317750      12.57997685
Cu      10.80100307       2.45583220      15.39626815
Cu       8.97428763       1.27538070      13.80308386
Cu      17.98282511       0.03048684      12.53704007
Cu      10.82323824       5.01070024      15.35768932
Cu       9.08070813       3.79895389      13.81200198
Cu       2.35681373       1.51992574      13.76745871
Cu       2.38803098       4.03204157      13.75778590
Cu      12.74656149       3.77948400      13.84978080
Cu      16.15746767       3.66027600      14.04599480
Cu      14.43663606       2.50090830      12.50287925
O        9.51769125       1.16519306      15.60770502
O        1.14458521       0.21976649      14.15683569
O       20.47126044       3.66425999      13.23854132
O       14.82789281       4.91857227      14.39605759
O       12.09523034       3.72207614      15.63086852
O        6.35120537       0.18252847      14.27930819
O       17.39375585       2.33230265      14.38874665
O        3.74895879       2.75040058      14.06195108
