54
Lattice="21.66 0.0 0.0 0.0 5.10531 0.0 0.0 0.0 22.55266" Properties=species:S:1:pos:R:3 trial_index=77 seed_entry_id=72 discovered_entry_id=74 energy=-201.30535888671875 status=accepted pbc="T T F"
Cu       0.00000000       0.00000000      10.00000000
Cu       3.61000000       0.00000000      10.00000000
Cu       7.22000000       0.00000000      10.00000000
Cu      10.83000000       0.00000000      10.00000000
Cu      14.44000000       0.00000000      10.00000000
Cu      18.05000000       0.00000000      10.00000000
Cu       0.00000000       2.55265548      10.00000000
Cu       3.61000000       2.55265548      10.00000000
Cu       7.22000000       2.55265548      10.00000000
Cu      10.83000000       2.55265548      10.00000000
Cu      14.44000000       2.55265548      10.00000000
Cu      18.05000000       2.55265548      10.00000000
Cu       1.80500000       1.27632774      11.27632774
Cu       5.41500000       1.27632774      11.27632774
Cu       9.02500000       1.27632774      11.27632774
Cu      12.63500000       1.27632774      11.27632774
Cu      16.24500000       1.27632774      11.27632774
Cu      19.85500000       1.27632774      11.27632774
Cu       1.80500000       3.82898322      11.27632774
Cu       5.41500000       3.82898322      11.27632774
Cu       9.02500000       3.82898322      11.27632774
Cu      12.63500000       3.82898322      11.27632774
Cu      16.24500000       3.82898322      11.27632774
Cu      19.85500000       3.82898322      11.27632774
Cu       0.00156488       0.01134293      12.52157897
Cu       3.10662529       3.89681882      14.65373569
Cu       7.06044137       4.98974700      12.47758798
Cu      14.46793148       5.10217309      12.51679292
Cu      10.91161258       0.07320065      12.47810989
Cu      17.99996471       0.02775435      12.51603983
Cu       3.61908804       2.56196111      12.45974397
Cu       3.24971841       1.32652450      14.76814523
Cu       7.24310943       2.49438312      12.66878659
Cu      10.86058115       2.59552226      12.65163982
Cu      16.17969056       1.29186637      13.80978467
Cu       0.06464946       2.57289070      12.54941106
Cu      12.72824431       1.30428474      13.83605650
Cu       9.00862672       4.68611409      13.93506540
Cu      19.74326489       1.26056452      14.04272858
Cu      11.60597954       4.14909691      14.70492821
Cu      14.41062846       2.58979398      12.53129846
Cu       0.69496091       1.12754393      14.68710711
Cu      19.86492788       3.82166042      13.97517493
Cu      14.37107471       3.94491447      14.81835990
Cu      18.04248163       2.56851861      12.52226966
Cu      17.06990735       3.89218284      14.54677504
O       10.07835644       3.23748358      14.32436712
O        2.02844801       0.07933339      15.34376988
O       21.11342933       2.49325848      14.48719439
O       15.72513357       2.72390681      14.97216042
O       13.04981133       0.03676942      15.21420663
O        7.84848303       1.01217452      13.73864577
O       18.52979742       5.03717601      14.60938459
O        4.36348608       2.64795316      14.18532306
