54
Lattice="21.66 0.0 0.0 0.0 5.10531 0.0 0.0 0.0 22.55266" Properties=species:S:1:pos:R:3 trial_index=45 seed_entry_id=41 discovered_entry_id=42 energy=-200.72149658203125 status=accepted pbc="T T F"
Cu       0.00000000       0.00000000      10.00000000
Cu       3.61000000       0.00000000      10.00000000
Cu       7.22000000       0.00000000      10.00000000
Cu      10.83000000       0.00000000      10.00000000
Cu      14.44000000       0.00000000      10.00000000
Cu      18.05000000       0.00000000      10.00000000
Cu       0.00000000       2.55265548      10.00000000
Cu       3.61000000       2.55265548      10.00000000
Cu       7.22000000       2.55265548      10.00000000
Cu      10.83000000       2.55265548      10.00000000
Cu      14.44000000       2.55265548      10.00000000
Cu      18.05000000       2.55265548      10.00000000
Cu       1.80500000       1.27632774      11.27632774
Cu       5.41500000       1.27632774      11.27632774
Cu       9.02500000       1.27632774      11.27632774
Cu      12.63500000       1.27632774      11.27632774
Cu      16.24500000       1.27632774      11.27632774
Cu      19.85500000       1.27632774      11.27632774
Cu       1.80500000       3.82898322      11.27632774
Cu       5.41500000       3.82898322      11.27632774
Cu       9.02500000       3.82898322      11.27632774
Cu      12.63500000       3.82898322      11.27632774
Cu      16.24500000       3.82898322      11.27632774
Cu      19.85500000       3.82898322      11.27632774
Cu      21.56269736       0.16470374      12.55548745
Cu       1.76740491       4.05296094      14.04983128
Cu       7.27279895       5.07707736      12.58814466
Cu      10.83368684       5.09554434      12.51783944
Cu      15.65593996       4.96628008      13.53719487
Cu      18.09135323       0.06323083      12.47923246
Cu       4.47617461       2.01818871      13.51030555
Cu       3.58847327       4.94620115      12.54923130
Cu       7.12898368       2.59623890      12.58628540
Cu      10.80416685       2.50929253      12.50631262
Cu      14.55148086       2.53586432      12.54124932
Cu       0.00918804       2.69710062      12.53072863
Cu      11.93919430       3.61023107      14.33042237
Cu       8.92703093       1.35821424      13.85667279
Cu      19.59333712       1.88550237      13.63490741
Cu      10.99615345       0.78615659      14.80580603
Cu       9.32160157       4.02717008      14.08505189
Cu       1.81196291       1.50466588      13.99174346
Cu      20.79502656       4.07038212      14.67142719
Cu      13.22705764       0.76214488      13.83885207
Cu      17.10020195       2.50870318      13.24913141
Cu      18.19479967       4.32864959      14.76485300
O        7.88253352       2.83407337      14.32310722
O        0.50414924       0.23583601      14.53807989
O       19.38301531       2.99923696      15.16940465
O       13.95164472       4.21222201      13.36826204
O       12.45704689       1.94771904      15.05303343
O        5.43673454       0.45401349      13.15408543
O       17.17290923       0.69413306      14.24734779
O        3.08446551       2.84648700      14.34052660
