54
Lattice="21.66 0.0 0.0 0.0 5.10531 0.0 0.0 0.0 22.55266" Properties=species:S:1:pos:R:3 trial_index=164 seed_entry_id=155 discovered_entry_id=156 energy=-200.38278198242188 status=accepted pbc="T T F"
Cu       0.00000000       0.00000000      10.00000000
Cu       3.61000000       0.00000000      10.00000000
Cu       7.22000000       0.00000000      10.00000000
Cu      10.83000000       0.00000000      10.00000000
Cu      14.44000000       0.00000000      10.00000000
Cu      18.05000000       0.00000000      10.00000000
Cu       0.00000000       2.55265548      10.00000000
Cu       3.61000000       2.55265548      10.00000000
Cu       7.22000000       2.55265548      10.00000000
Cu      10.83000000       2.55265548      10.00000000
Cu      14.44000000       2.55265548      10.00000000
Cu      18.05000000       2.55265548      10.00000000
Cu       1.80500000       1.27632774      11.27632774
Cu       5.41500000       1.27632774      11.27632774
Cu       9.02500000       1.27632774      11.27632774
Cu      12.63500000       1.27632774      11.27632774
Cu      16.24500000       1.27632774      11.27632774
Cu      19.85500000       1.27632774      11.27632774
Cu       1.80500000       3.82898322      11.27632774
Cu       5.41500000       3.82898322      11.27632774
Cu       9.02500000       3.82898322      11.27632774
Cu      12.63500000       3.82898322      11.27632774
Cu      16.24500000       3.82898322      11.27632774
Cu      19.85500000       3.82898322      11.27632774
Cu      18.01323639       3.25635505      15.33747891
Cu      21.59196029       0.03508919      12.72511804
Cu       7.22907281       2.50750729      12.56166987
Cu      10.85443654       0.01953659      12.64862355
Cu      14.41015988       0.02824933      12.48143917
Cu      16.35439864       1.58575188      14.12316752
Cu       4.74432561       2.45956549      13.26303840
Cu       2.03587340       2.49626116      13.70813026
Cu       7.05578161       0.08921669      12.56854852
Cu      10.72047132       2.58573487      12.67536846
Cu      12.82252051       1.27210921      13.79479644
Cu      21.59386033       2.62167590      12.39550750
Cu      10.77998458       1.26983216      15.16080450
Cu       3.66971361       0.02438711      12.62464955
Cu      18.16638336       2.54305426      12.59473299
Cu      10.91520324       3.78581013      15.36990226
Cu       8.81629846       4.19953717      14.03937081
Cu      20.85354261       2.67510247      14.65568864
Cu      19.03526810       4.79694709      13.52867320
Cu      12.83441105       3.85176772      13.83286410
Cu      16.23419245       4.11286593      13.86938429
Cu      14.51983225       2.58277840      12.52333700
O        9.60862403       5.03776414      15.53853812
O        0.48542207       1.47010696      14.01615805
O       19.69451171       3.97374058      15.16402221
O       17.26037584       0.42337424      12.93576561
O       12.22951175       2.49151461      15.23036257
O        6.98083460       3.81556157      13.87385877
O       16.17937991       2.92548548      15.36908402
O        3.42738281       3.66760990      13.82886833
