54
Lattice="21.66 0.0 0.0 0.0 5.10531 0.0 0.0 0.0 22.55266" Properties=species:S:1:pos:R:3 trial_index=31 seed_entry_id=29 discovered_entry_id=30 energy=-201.42652893066406 status=accepted pbc="T T F"
Cu       0.00000000       0.00000000      10.00000000
Cu       3.61000000       0.00000000      10.00000000
Cu       7.22000000       0.00000000      10.00000000
Cu      10.83000000       0.00000000      10.00000000
Cu      14.44000000       0.00000000      10.00000000
Cu      18.05000000       0.00000000      10.00000000
Cu       0.00000000       2.55265548      10.00000000
Cu       3.61000000       2.55265548      10.00000000
Cu       7.22000000       2.55265548      10.00000000
Cu      10.83000000       2.55265548      10.00000000
Cu      14.44000000       2.55265548      10.00000000
Cu      18.05000000       2.55265548      10.00000000
Cu       1.80500000       1.27632774      11.27632774
Cu       5.41500000       1.27632774      11.27632774
Cu       9.02500000       1.27632774      11.27632774
Cu      12.63500000       1.27632774      11.27632774
Cu      16.24500000       1.27632774      11.27632774
Cu      19.85500000       1.27632774      11.27632774
Cu       1.80500000       3.82898322      11.27632774
Cu       5.41500000       3.82898322      11.27632774
Cu       9.02500000       3.82898322      11.27632774
Cu      12.63500000       3.82898322      11.27632774
Cu      16.24500000       3.82898322      11.27632774
Cu      19.85500000       3.82898322      11.27632774
Cu      18.03794096       0.01638494      12.50763470
Cu       3.52023130       2.47998787      12.78380121
Cu       7.22000629       5.07102728      12.51695735
Cu      10.84400713       0.04523380      12.51114170
Cu      14.37737784       5.10075405      12.55776773
Cu      16.33792188       1.17553361      14.10866596
Cu       6.22496043       3.61851110      14.54477765
Cu      19.91098187       3.91650206      13.72762777
Cu       7.24728228       2.47237415      12.49845269
Cu       8.95911396       1.16794545      13.81949683
Cu      14.47760254       2.54042612      12.53355244
Cu      21.59250181       2.63241679      12.46835899
Cu       8.51340119       2.22857967      16.02493072
Cu       8.87342465       3.71563424      13.83744970
Cu      19.28475575       1.40158206      14.34123443
Cu       8.39773547       4.77771339      16.10664786
Cu      10.85931301       2.54103112      12.69303717
Cu       0.52520851       0.60727853      13.77083815
Cu       3.54904765       5.03647916      12.98532977
Cu      10.76939953       4.95528932      15.00552511
Cu      18.10047193       2.59028845      12.48983122
Cu      16.37096881       3.71963463      14.06556408
O        7.14005429       3.45197196      16.13484160
O       20.66257555       0.22575275      14.69864794
O       17.67254230       2.41919407      14.56161532
O       11.69086390       3.92753353      13.78738940
O        9.78247451       0.89821426      16.18516404
O        4.83844672       3.73837334      13.29973841
O       15.05516581       4.98580510      14.31976524
O        2.23005830       1.18583430      13.33937591
