54
Lattice="21.66 0.0 0.0 0.0 5.10531 0.0 0.0 0.0 22.55266" Properties=species:S:1:pos:R:3 trial_index=79 seed_entry_id=75 discovered_entry_id=76 energy=-199.9805450439453 status=accepted pbc="T T F"
Cu       0.00000000       0.00000000      10.00000000
Cu       3.61000000       0.00000000      10.00000000
Cu       7.22000000       0.00000000      10.00000000
Cu      10.83000000       0.00000000      10.00000000
Cu      14.44000000       0.00000000      10.00000000
Cu      18.05000000       0.00000000      10.00000000
Cu       0.00000000       2.55265548      10.00000000
Cu       3.61000000       2.55265548      10.00000000
Cu       7.22000000       2.55265548      10.00000000
Cu      10.83000000       2.55265548      10.00000000
Cu      14.44000000       2.55265548      10.00000000
Cu      18.05000000       2.55265548      10.00000000
Cu       1.80500000       1.27632774      11.27632774
Cu       5.41500000       1.27632774      11.27632774
Cu       9.02500000       1.27632774      11.27632774
Cu      12.63500000       1.27632774      11.27632774
Cu      16.24500000       1.27632774      11.27632774
Cu      19.85500000       1.27632774      11.27632774
Cu       1.80500000       3.82898322      11.27632774
Cu       5.41500000       3.82898322      11.27632774
Cu       9.02500000       3.82898322      11.27632774
Cu      12.63500000       3.82898322      11.27632774
Cu      16.24500000       3.82898322      11.27632774
Cu      19.85500000       3.82898322      11.27632774
Cu      19.56971360       3.85074655      13.83041019
Cu       5.15876798       3.67261009      13.89881509
Cu       7.15344051       5.07052859      12.51745275
Cu      14.49020038       0.12633187      12.52874349
Cu      12.76220600       4.08828647      13.61589807
Cu      18.06263782       0.04544280      12.47400193
Cu       3.55879986       2.52123357      12.44790616
Cu       5.08677745       1.09521788      13.92189115
Cu       7.33140904       2.50106570      12.58105006
Cu       9.29811895       1.05203946      14.03964255
Cu      16.33568031       1.40485965      13.84857678
Cu      21.59790955       2.55491041      12.52966701
Cu      12.42480375       1.54924719      13.80575029
Cu       9.32180937       3.54975742      13.90094849
Cu      21.34297269       0.40807582      14.79249787
Cu      11.35126794       3.71672834      15.38516550
Cu      14.45126227       2.62132404      12.57732575
Cu       2.32981432       0.71489541      13.74961137
Cu      21.53913767       2.98509113      15.06654741
Cu      14.32205624       0.09863593      15.22495771
Cu      18.03401012       2.57228396      12.48928666
Cu      16.39240579       3.88352612      13.87670397
O       10.61162748       2.28051984      14.43235142
O        3.82544087       4.87991526      14.13784104
O        0.80977846       1.69929495      14.10490378
O       16.13300426       0.11368561      15.20575581
O       12.47415989       0.10707300      15.32648920
O        8.06221909       4.84377166      14.16555859
O       20.30024408       4.23309043      15.55027953
O        6.36248017       2.35324328      14.23389794
