54
Lattice="21.66 0.0 0.0 0.0 5.10531 0.0 0.0 0.0 22.55266" Properties=species:S:1:pos:R:3 trial_index=13 seed_entry_id=12 discovered_entry_id=13 energy=-200.25811767578125 status=accepted pbc="T T F"
Cu       0.00000000       0.00000000      10.00000000
Cu       3.61000000       0.00000000      10.00000000
Cu       7.22000000       0.00000000      10.00000000
Cu      10.83000000       0.00000000      10.00000000
Cu      14.44000000       0.00000000      10.00000000
Cu      18.05000000       0.00000000      10.00000000
Cu       0.00000000       2.55265548      10.00000000
Cu       3.61000000       2.55265548      10.00000000
Cu       7.22000000       2.55265548      10.00000000
Cu      10.83000000       2.55265548      10.00000000
Cu      14.44000000       2.55265548      10.00000000
Cu      18.05000000       2.55265548      10.00000000
Cu       1.80500000       1.27632774      11.27632774
Cu       5.41500000       1.27632774      11.27632774
Cu       9.02500000       1.27632774      11.27632774
Cu      12.63500000       1.27632774      11.27632774
Cu      16.24500000       1.27632774      11.27632774
Cu      19.85500000       1.27632774      11.27632774
Cu       1.80500000       3.82898322      11.27632774
Cu       5.41500000       3.82898322      11.27632774
Cu       9.02500000       3.82898322      11.27632774
Cu      12.63500000       3.82898322      11.27632774
Cu      16.24500000       3.82898322      11.27632774
Cu      19.85500000       3.82898322      11.27632774
Cu      21.61079117       0.11945071      12.58405064
Cu       2.10454579       3.78305223      13.97070585
Cu       4.89003512       3.77941506      13.96811944
Cu       7.17239011       5.08578672      12.59361461
Cu      15.57805044       5.09575601      13.42675181
Cu      18.09414985       0.10560634      12.48490405
Cu       4.91096438       1.30100832      13.93736185
Cu       3.56443714       5.09369132      12.37561188
Cu       7.20930835       2.53342211      12.52449459
Cu      10.85576093       2.40711786      12.57563825
Cu      14.50188537       2.45873611      12.56990227
Cu       0.06757408       2.63987875      12.54097707
Cu      12.60822798       3.32270766      14.07039834
Cu       8.99989863       1.27885362      13.80324515
Cu      19.55032317       2.04987969      13.55799833
Cu      10.85132488       4.95538471      15.16382630
Cu       9.03078349       3.68866541      13.78113798
Cu       2.03389347       1.30039234      13.87834326
Cu      20.98434874       3.97883966      14.69455793
Cu      12.81762305       0.92763161      13.71567313
Cu      17.03810520       2.50032552      13.27228323
Cu      18.22568238       4.34086411      14.74320811
O        9.05954114       5.03273971      15.09168148
O        0.82920772       5.05762107      14.50647183
O       19.46381669       3.06429369      15.16868319
O       13.92974838       4.40353418      12.89581726
O       12.62946714       4.84272349      15.23383414
O        6.13902413       5.08563996      14.24375280
O       17.12063025       0.65953665      14.25326718
O        3.50426058       2.52027395      14.29794796
