54
Lattice="21.66 0.0 0.0 0.0 5.10531 0.0 0.0 0.0 22.55266" Properties=species:S:1:pos:R:3 trial_index=17 seed_entry_id=15 discovered_entry_id=16 energy=-200.73475646972656 status=accepted pbc="T T F"
Cu       0.00000000       0.00000000      10.00000000
Cu       3.61000000       0.00000000      10.00000000
Cu       7.22000000       0.00000000      10.00000000
Cu      10.83000000       0.00000000      10.00000000
Cu      14.44000000       0.00000000      10.00000000
Cu      18.05000000       0.00000000      10.00000000
Cu       0.00000000       2.55265548      10.00000000
Cu       3.61000000       2.55265548      10.00000000
Cu       7.22000000       2.55265548      10.00000000
Cu      10.83000000       2.55265548      10.00000000
Cu      14.44000000       2.55265548      10.00000000
Cu      18.05000000       2.55265548      10.00000000
Cu       1.80500000       1.27632774      11.27632774
Cu       5.41500000       1.27632774      11.27632774
Cu       9.02500000       1.27632774      11.27632774
Cu      12.63500000       1.27632774      11.27632774
Cu      16.24500000       1.27632774      11.27632774
Cu      19.85500000       1.27632774      11.27632774
Cu       1.80500000       3.82898322      11.27632774
Cu       5.41500000       3.82898322      11.27632774
Cu       9.02500000       3.82898322      11.27632774
Cu      12.63500000       3.82898322      11.27632774
Cu      16.24500000       3.82898322      11.27632774
Cu      19.85500000       3.82898322      11.27632774
Cu      18.07505238       0.00364276      12.51813526
Cu       3.57176448       2.55688007      12.59288486
Cu       7.24392530       0.01707886      12.61304416
Cu      10.83426860       5.09247316      12.50281884
Cu      14.48452673       0.08509516      12.45689465
Cu      16.36649974       1.04701834      14.09052919
Cu       6.62652765       3.73453492      14.92365951
Cu       3.61738784       5.04591743      12.55707180
Cu       7.25112405       2.49278338      12.61156512
Cu      10.85853096       2.59417276      12.59521458
Cu      13.39023603       3.91882776      14.20768177
Cu      21.62030232       2.52283275      12.47666533
Cu       8.62274480       2.43475993      16.10398173
Cu       9.10302980       1.21877918      13.84365877
Cu      19.61561956       1.64887571      14.10728586
Cu       8.61666213       4.96355502      16.12675779
Cu       9.03227369       3.78726138      13.87462929
Cu       1.16644825       0.88744942      13.89163909
Cu      20.25205667       4.24007303      13.61033148
Cu      12.62697632       1.15745938      13.78765451
Cu      18.08408171       2.60795155      12.46349318
Cu      16.44669538       3.62248581      14.10304264
O        7.38840511       3.69193226      16.60827032
O       21.11046778       0.58097993      14.46303595
O       17.73850189       2.27665180      14.45288790
O       11.94335491       2.83775106      14.24051953
O        9.80890912       1.13290907      15.63343945
O        5.81620905       3.80745673      13.26666352
O       15.03518291       4.83513466      14.41463135
O        2.96022190       1.21030905      13.79342944
