54
Lattice="21.66 0.0 0.0 0.0 5.10531 0.0 0.0 0.0 22.55266" Properties=species:S:1:pos:R:3 trial_index=148 seed_entry_id=141 discovered_entry_id=142 energy=-200.8227081298828 status=accepted pbc="T T F"
Cu       0.00000000       0.00000000      10.00000000
Cu       3.61000000       0.00000000      10.00000000
Cu       7.22000000       0.00000000      10.00000000
Cu      10.83000000       0.00000000      10.00000000
Cu      14.44000000       0.00000000      10.00000000
Cu      18.05000000       0.00000000      10.00000000
Cu       0.00000000       2.55265548      10.00000000
Cu       3.61000000       2.55265548      10.00000000
Cu       7.22000000       2.55265548      10.00000000
Cu      10.83000000       2.55265548      10.00000000
Cu      14.44000000       2.55265548      10.00000000
Cu      18.05000000       2.55265548      10.00000000
Cu       1.80500000       1.27632774      11.27632774
Cu       5.41500000       1.27632774      11.27632774
Cu       9.02500000       1.27632774      11.27632774
Cu      12.63500000       1.27632774      11.27632774
Cu      16.24500000       1.27632774      11.27632774
Cu      19.85500000       1.27632774      11.27632774
Cu       1.80500000       3.82898322      11.27632774
Cu       5.41500000       3.82898322      11.27632774
Cu       9.02500000       3.82898322      11.27632774
Cu      12.63500000       3.82898322      11.27632774
Cu      16.24500000       3.82898322      11.27632774
Cu      19.85500000       3.82898322      11.27632774
Cu       0.10283620       5.00296739      12.61746897
Cu       2.70022473       0.00590771      13.42220212
Cu       7.24365523       0.11753572      12.44110098
Cu      13.35860298       2.43343405      13.23707747
Cu      10.86311514       0.01257578      12.59486864
Cu      18.03887294       5.08788692      12.50424928
Cu       3.55601585       2.53798841      12.57987237
Cu       5.51633804       4.18893971      13.94886949
Cu       7.15301278       2.59684385      12.49067104
Cu      10.85864797       2.56623039      12.55967157
Cu      15.29552142       1.25201753      14.72236534
Cu      19.46726809       3.46858040      14.05135965
Cu      11.36790131       1.36195413      14.80661160
Cu       8.68846683       3.81150152      14.02613305
Cu      17.73140615       1.50996209      14.62550125
Cu      11.17777622       3.96216943      15.00911559
Cu      14.40144949       0.03512181      12.58861961
Cu      21.64683403       2.51710840      12.62022062
Cu      19.90033981       1.06158104      13.83433799
Cu      13.68737379       4.32339727      15.01517540
Cu      18.02478080       2.50256139      12.44513985
Cu      16.61247008       3.84225614      14.02261040
O       10.03665216       2.61635251      14.45599978
O        1.67359218       1.54044956      13.22585487
O       20.89202382       4.65472956      14.30287625
O       14.80501774       3.00928014      14.36406281
O       12.29217535       0.11908162      15.77337508
O        7.19515538       4.85167804      14.29852487
O       16.63665364       0.15595453      15.34602295
O        3.76192442       3.75068407      14.02459771
