60
Properties=species:S:1:pos:R:3 entry_id=94 rank=80 energy=-496.8620300292969 pbc="F F F"
C       -0.82611427      -2.75345893       0.37672733
C        1.77541301      -0.04040862      -2.17557632
C        1.69982420       1.38449974       1.85423281
C        1.59522609      -2.68421721       0.36038115
C       -3.52324204      -0.13129847       1.86511141
C        2.94488849       0.63633113      -0.14107194
C       -0.75211483      -2.31288145       1.75415742
C        8.17177505      -2.86180780       0.33618055
C       -2.58867214       2.19911631      -4.32229667
C        0.53285048      -1.98691223       2.31320360
C       -1.97734916       1.62590399       2.47869805
C        0.83975081       3.49132342       0.10759180
C        0.50740545      -3.51619609      -1.57908077
C       -1.38283265       3.80854747      -0.41439444
C       -0.06799545       3.21447957      -2.20683072
C        0.72439183      -0.66391195       2.83501858
C        0.82430185       2.10820930      -2.40948161
C       -3.03599262      -1.66451474       0.18048118
C       -3.70121042      -0.51016662      -0.36879767
C        2.58727490       0.88498433      -1.48951318
C       -3.39961971       1.21504328      -2.10221980
C       -1.70132214      -1.83695302      -1.85357031
C       -1.87772120      -1.69249254       2.35237319
C       -3.76657306       0.51747421       0.62201160
C       -3.03065201      -1.45592907       1.57794893
C       -0.42627174       0.06880293       3.21782429
C       -2.60600355      -0.91471720      -2.44198023
C        8.54477406      -3.20265632       1.50131459
C       -1.90014184      -2.26646635      -0.48027414
C        2.41359060       1.69998151       0.65533736
C       -0.49298647      -0.21691889      -3.08984696
C        1.74394658      -1.37781726      -1.69557006
C       -1.69479134      -0.55489374       3.18786875
C       -2.22935667       3.28101416      -1.42239521
C        1.86827844       0.04557469       2.36079382
C       -0.45717027      -1.55708570      -2.51050302
C        1.72912332      -2.55979185       1.77873725
C       -2.67423307       0.43955453       2.82487894
C       -0.58373101       1.42175818       2.80384196
C        0.46363453       2.09596913       2.11854094
C        2.95295694      -2.12821591       2.29787628
C        0.39094586      -3.24016691      -0.21955798
C        1.93776989       2.70607513      -0.24868961
C        2.93387689      -0.67424898       0.36566091
C        2.25539859      -1.67843126      -0.38541971
C       -2.73002450       1.15879561      -3.40179024
C       -1.90672669      -0.00616068      -3.30008149
C        0.64462482       0.64532475      -2.78246215
C        0.05082496       3.14201437       1.25129501
C       -3.11490475       2.20549558      -1.09823539
C       -0.05236569       3.85121854      -0.92582112
C        1.98414103       2.16284220      -1.57196024
C       -1.43812699       3.37352345      -2.64933771
C       -3.22872959       1.81161379       0.31698024
C        0.71427914      -2.26110357      -2.15899832
C        2.87209113      -0.83186249       1.79625020
C       -1.93781257       3.21864039      -3.92992885
C       -1.34290407       3.31018655       0.90013819
C       -3.52880283      -0.16082731      -1.69614860
C       -2.32988222       2.37929201       1.31539376
