60
Properties=species:S:1:pos:R:3 entry_id=46 rank=27 energy=-501.50811767578125 pbc="F F F"
C        0.74043090      -2.81893027       0.69438896
C        1.91362973      -0.00759952      -2.15506752
C        2.07172006       1.63910313       1.72059131
C        2.13141146      -2.65081504       0.48783712
C       -2.75583551      -0.76288763       1.29013926
C        3.23842855       0.81885499      -0.29302484
C        0.47426115      -2.91519083       2.11182899
C        3.58871808      -1.55654190       2.51930276
C       -3.29568357       2.20871092      -4.05611040
C        2.28463167      -1.66341564       3.18126662
C       -1.52982379       1.12446642       2.20500640
C        0.88741568       3.48160186      -0.07422397
C       -0.17657506      -2.46568861      -0.32326287
C       -1.37772522       3.63345069      -0.48511010
C       -0.08275513       3.02178443      -2.30628499
C        1.62701808      -0.40327978       3.07510877
C        0.98066343       2.11221881      -2.54598828
C       -3.53534379      -1.93919447      -0.57115213
C       -3.88489476      -0.57224653      -0.72734464
C        2.78697295       0.96930484      -1.62310125
C       -4.04652788       1.47422696      -1.98735389
C       -1.93937477      -1.54096038      -2.37697626
C       -0.60597758      -2.34274507       2.72740687
C       -3.40508800       0.13647147       0.39015938
C       -2.67591139      -2.03463158       0.62467564
C        0.25515231      -0.06353615       3.10650982
C       -2.64496643      -0.36225568      -2.77308850
C        4.06835853      -2.73630573       1.99017795
C       -2.43627878      -2.37036493      -1.37286177
C        2.67558482       1.90594080       0.45929228
C       -0.36569399       0.00267095      -3.05369973
C        1.69887801      -1.21764561      -1.42560650
C       -0.83757840      -1.01202307       2.91355385
C       -2.24467866       3.03064061      -1.43792860
C        2.50230418       0.44515893       2.34022940
C       -0.54937710      -1.27893746      -2.44197486
C        1.79443118      -2.87989417       2.69852713
C       -1.91180353      -0.24857770       2.28609413
C       -0.16429814       1.22175170       2.63634440
C        0.74001656       2.11848742       1.98969489
C        2.79284765      -3.12405345       1.65303771
C       -1.60112569      -2.55716749      -0.21081098
C        2.07185988       2.82635163      -0.45221669
C        3.35477389      -0.47530425       0.30610152
C        2.56345582      -1.53829201      -0.28843569
C       -4.25706139       2.06342047      -3.24752889
C       -1.67790750       0.54121575      -3.35773716
C        0.83516094       0.69983167      -2.81969644
C        0.17952276       3.08681039       1.11551017
C       -3.26877833       2.14765970      -0.99070549
C       -0.08169721       3.74097192      -1.07251553
C        2.16529400       2.25682091      -1.75875006
C       -1.46795681       2.78259297      -2.63200639
C       -3.05031838       1.51245757       0.29962326
C        0.37305687      -1.79821029      -1.48416591
C        3.49821207      -0.39179225       1.73147045
C       -1.97215445       1.90133368      -3.63395627
C       -1.23669481       3.10143926       0.82145475
C       -3.75029649       0.06790740      -1.98853650
C       -2.06706896       2.01593233       1.22689575
