60
Properties=species:S:1:pos:R:3 entry_id=59 rank=51 energy=-500.149658203125 pbc="F F F"
C       -0.22434709      -2.26667454       0.41910365
C        2.08132853       0.03323081      -2.37265908
C        1.85180161       1.44634384       1.72935141
C        1.26793316      -2.28392453       0.31411506
C       -3.29056019      -0.17784709       1.98233209
C        3.08750206       0.71680128      -0.28271166
C       -0.44252814      -2.17412417       1.84593622
C        4.92041079      -3.49886340       3.35654633
C       -3.31115990       1.84651809      -3.90207647
C        0.79473161      -1.91733465       2.50210193
C       -1.78556480       1.64605183       2.52521058
C        0.87529151       3.48396719      -0.06280386
C        1.06428277      -3.56280214      -2.62547819
C       -1.37948784       3.69057409      -0.51434002
C       -0.09343855       2.95108219      -2.28931416
C        1.00402003      -0.56517570       2.92750355
C        1.00657297       2.10214979      -2.56047829
C       -2.60355553      -1.56447279       0.22698687
C       -3.41594920      -0.49713996      -0.27325961
C        2.82140185       0.98624572      -1.64072436
C       -3.93386596       1.27918165      -1.80375116
C       -1.37651402      -1.53211867      -1.85452865
C       -1.58680888      -1.65037012       2.44738892
C       -3.61147749       0.46745314       0.76718567
C       -2.71160021      -1.44951926       1.63943678
C       -0.16779422       0.15554668       3.27108035
C       -2.27007306      -0.48026696      -2.34454999
C        4.07217410      -2.81798013       2.73478933
C       -1.39112509      -1.95769950      -0.46235001
C        2.52949577       1.76588145       0.51281959
C       -0.18001636      -0.08378602      -3.20752816
C        1.92802303      -1.30036635      -1.89931625
C       -1.42555015      -0.50531710       3.28538504
C       -2.25087742       3.00726391      -1.41238665
C        2.07525897       0.12501379       2.27278248
C       -0.20801477      -1.42381840      -2.67585310
C        1.79769057      -2.43239541       1.65468296
C       -2.44407046       0.44872289       2.91838643
C       -0.37672986       1.47681598       2.78343274
C        0.61758099       2.14972558       2.01996513
C        3.13435490      -2.11474724       2.03115605
C        1.14605083      -4.79170578      -2.85786710
C        2.03125427       2.76495184      -0.39405463
C        3.00352014      -0.59960611       0.19978705
C        2.18111090      -1.53833520      -0.51537433
C       -4.28169521       1.67009494      -3.10975962
C       -1.53178401       0.38150532      -3.21752230
C        0.96187613       0.70261034      -2.97195186
C        0.14894170       3.17296119       1.13814384
C       -3.29267489       2.19865776      -0.89158902
C       -0.07693183       3.72510763      -1.08898498
C        2.16324166       2.25012801      -1.72398593
C       -1.47962409       2.66672261      -2.58497137
C       -3.20825768       1.81022360       0.50331450
C        0.98364954      -2.18462761      -2.54227675
C        3.01513771      -0.73949274       1.61656339
C       -1.95787596       1.70860079      -3.52865230
C       -1.26432274       3.29211822       0.83788018
C       -3.37924585      -0.03481277      -1.60033621
C       -2.21413440       2.38415505       1.38306141
