60
Properties=species:S:1:pos:R:3 entry_id=87 rank=36 energy=-500.9845886230469 pbc="F F F"
C       -0.56091161      -2.66315464       0.14290394
C        2.24201233       0.06144149      -2.38249446
C        1.86927701       1.38538093       1.72226013
C        1.86246617      -2.61351090       0.10826438
C       -3.34016386      -0.30919313       1.88763367
C        3.20542068       0.73488673      -0.26266626
C       -0.47623383      -2.33370317       1.54999654
C        4.99863856      -3.39542833       3.53966831
C       -3.48735365       2.36067965      -3.76215196
C        0.80755180      -2.02116456       2.11621501
C       -1.80730652       1.49415758       2.46716029
C        0.86010962       3.37977272      -0.09120451
C        0.71412361      -3.33293165      -1.87519899
C       -1.37024144       3.45258419      -0.58713537
C       -0.02001778       2.84860149      -2.37816721
C        0.98574018      -0.71242874       2.70025848
C        1.17183301       2.13213104      -2.59801680
C       -2.81192006      -1.66364804       0.06819348
C       -3.59533501      -0.55262805      -0.37914499
C        2.96837881       1.02040335      -1.62791192
C       -4.06101016       1.28749368      -1.89519423
C       -1.44544692      -1.43886549      -1.93259975
C       -1.59784729      -1.78906285       2.21093307
C       -3.70885772       0.37867499       0.70460967
C       -2.78139845      -1.56920012       1.48116973
C       -0.17788677      -0.02079942       3.11653145
C       -2.23779297      -0.24851667      -2.27735285
C        4.15863723      -2.76821651       2.84971946
C       -1.65598553      -2.10314882      -0.65941442
C        2.57119086       1.74166464       0.52901624
C       -0.10766176       0.09980400      -3.03155885
C        2.08800661      -1.26818334      -1.91184963
C       -1.42692656      -0.69101289       3.10182239
C       -2.21748434       2.74942253      -1.44798641
C        2.10195411       0.04726507       2.21384361
C       -0.20457177      -1.26005020      -2.60861096
C        1.97348883      -2.56950086       1.52229024
C       -2.45677248       0.27664323       2.81504249
C       -0.39146202       1.33375260       2.72480604
C        0.60847841       2.04970085       2.00138368
C        3.23103569      -2.12119184       2.08415088
C        0.64408958      -3.10774349      -0.50260087
C        2.06908500       2.73753669      -0.37658789
C        3.21379289      -0.59675105       0.19718215
C        2.56271466      -1.60194135      -0.60140791
C       -4.46261567       1.77824182      -3.12650090
C       -1.35576314       0.74599834      -2.80263598
C        1.13004285       0.75000413      -2.96618046
C        0.12705506       3.05007065       1.10142273
C       -3.33368194       2.10843319      -0.92924735
C       -0.07668088       3.55498361      -1.15282745
C        2.29000879       2.28170043      -1.71182742
C       -1.42898723       2.28931910      -2.71167642
C       -3.26897959       1.70887623       0.46588965
C        0.95309416      -2.05412032      -2.37497031
C        3.13330306      -0.75705297       1.61582309
C       -2.26066136       2.73427433      -3.88142802
C       -1.28019403       3.12780658       0.78381870
C       -3.49221954      -0.02231628      -1.68015746
C       -2.24417880       2.24484019       1.33969639
