60
Properties=species:S:1:pos:R:3 entry_id=63 rank=44 energy=-500.4382629394531 pbc="F F F"
C       -0.53567329      -2.73007183       0.16011346
C        2.04225023       0.06549268      -2.37170301
C        1.89154261       1.36877840       1.72262951
C        1.88515833      -2.64342600       0.09538661
C       -3.29033570      -0.31950535       1.87939288
C        3.14747177       0.72928346      -0.31159575
C       -0.44147236      -2.37258681       1.55898671
C        4.98929723      -3.22607778       3.69496554
C       -3.37228260       2.46276704      -3.85954133
C        0.84757021      -2.04990622       2.11061939
C       -1.76872415       1.46947490       2.49508869
C        0.88435126       3.44537723       0.01291473
C        0.74803676      -3.42441381      -1.85344344
C       -1.35719015       3.64382663      -0.42471944
C       -0.08386671       3.09374074      -2.28244291
C        1.02328269      -0.74105777       2.69271577
C        0.96200180       2.15072854      -2.53314287
C       -2.78171647      -1.70882575       0.08136295
C       -3.52380715      -0.57377877      -0.38363272
C        2.80457567       1.01293491      -1.65502106
C       -3.86251672       1.27456822      -1.92855869
C       -1.47795311      -1.64321725      -1.96197189
C       -1.56403082      -1.82233106       2.21820188
C       -3.62097910       0.37367344       0.68621452
C       -2.74942205      -1.59550175       1.49130919
C       -0.13986475      -0.05710873       3.12297429
C       -2.36993762      -0.58500168      -2.45889259
C        4.15782768      -2.69598827       2.91871300
C       -1.64490789      -2.20631090      -0.64135740
C        2.56589402       1.73827757       0.51725707
C       -0.24526569      -0.07220950      -3.21563848
C        2.00603200      -1.28117454      -1.92331277
C       -1.38954743      -0.72347536       3.10656250
C       -2.23508232       3.06531107      -1.36741363
C        2.12935894       0.02701901       2.19528166
C       -0.24668132      -1.42010499      -2.65000679
C        2.01526380      -2.59044720       1.50759247
C       -2.41736147       0.24893905       2.82460381
C       -0.35545723       1.30099687       2.74910541
C        0.63948798       2.02900079       2.03718449
C        3.27133345      -2.12052237       2.05298080
C        0.66908438      -3.17432015      -0.48726767
C        2.03528127       2.74775437      -0.35766331
C        3.19214036      -0.59902959       0.14907558
C        2.53833721      -1.61145640      -0.63156202
C       -4.20319129       1.74862072      -3.18826043
C       -1.60222099       0.24077488      -3.28268244
C        0.90426100       0.73580772      -2.95027804
C        0.16008907       3.07411990       1.19754593
C       -3.21622413       2.14734840      -0.93745985
C       -0.06333782       3.72645832      -1.00142222
C        2.12857476       2.26475005      -1.70004250
C       -1.51155986       3.05278765      -2.65844925
C       -3.16829009       1.70459053       0.44706733
C        0.93916096      -2.14308522      -2.37549517
C        3.15288907      -0.76472790       1.56868186
C       -2.17414732       2.98024634      -3.85360859
C       -1.25208907       3.19113659       0.90323337
C       -3.46875326      -0.10760452      -1.69788420
C       -2.19968588       2.24976288       1.38170488
