60
Properties=species:S:1:pos:R:3 entry_id=100 rank=33 energy=-501.2222900390625 pbc="F F F"
C       -0.56679723      -2.79240302       0.23433756
C        2.04875129      -0.14426685      -2.42297468
C        1.87746616       1.37490616       1.61194236
C        1.85647768      -2.71979843       0.17905521
C       -3.30217523      -0.26689635       1.82611766
C        3.13292431       0.62611651      -0.38993993
C       -0.47356667      -2.35690562       1.61254427
C        5.04714000      -3.15445578       3.69014946
C       -1.54159747       2.57001537      -2.62902603
C        0.81416893      -2.01522890       2.15372176
C       -1.77829134       1.54726117       2.38493021
C        0.86737567       3.35496330      -0.19814628
C        0.73385171      -3.59223001      -1.73307417
C       -1.37085915       3.71451845      -0.60197673
C       -0.16655132       2.78272401      -2.38232904
C        0.99570473      -0.68120528       2.67619939
C        0.93430931       1.90589663      -2.64787878
C       -2.80575045      -1.75206299       0.09525303
C       -3.52628101      -0.61556278      -0.42518741
C        2.80251371       0.84338512      -1.74935025
C       -3.25930303       1.16732759      -2.02372689
C       -1.50493069      -1.87537173      -1.98185233
C       -1.59345379      -1.76646764       2.24157912
C       -3.63095373       0.37985893       0.60902916
C       -2.77343392      -1.56669885       1.49982888
C       -0.16245636       0.03008835       3.07305655
C       -2.38360611      -0.87813902      -2.51703458
C        4.17128300      -2.65769554       2.94077890
C       -1.67366134      -2.31988895      -0.60216847
C        2.54969186       1.67565474       0.38747911
C       -0.25801621      -0.30729614      -3.22396453
C        1.99638943      -1.46603668      -1.90856814
C       -1.41513074      -0.62825154       3.07911906
C       -2.43255477       3.32172716      -1.55910200
C        2.10737915       0.05576121       2.14719021
C       -0.25783822      -1.64822351      -2.66713169
C        1.98169324      -2.59325219       1.58733291
C       -2.43408891       0.33759345       2.75174455
C       -0.36746240       1.37497785       2.64601283
C        0.62935504       2.05851753       1.89619128
C        3.24151551      -2.10457235       2.10736773
C        0.64136579      -3.27790427      -0.38097945
C        2.01707065       2.63756611      -0.53521606
C        3.16857900      -0.67870215       0.13483594
C        2.51674267      -1.72915514      -0.59668997
C       -2.18093343       1.37567882      -2.95914681
C       -1.61948808       0.10300591      -3.24157874
C        0.89291598       0.49384395      -3.01342516
C        0.15033913       3.05564457       0.99902425
C       -3.22041265       2.14391624      -1.00956019
C       -0.09211458       3.61011377      -1.21073283
C        2.11350736       2.08908548      -1.85119293
C       -3.90321467       5.13637545      -2.93986861
C       -3.18918626       1.72163648       0.34714351
C        0.92777718      -2.34386292      -2.32957035
C        3.12504375      -0.77270636       1.56043296
C       -3.22117463       4.28933827      -2.32342431
C       -1.25925783       3.21484460       0.71630213
C       -3.37061304      -0.22304317      -1.75118683
C       -2.20919879       2.29701277       1.25231402
