60
Properties=species:S:1:pos:R:3 entry_id=26 rank=60 energy=-498.925537109375 pbc="F F F"
C        1.06692604      -3.45104305       0.17447881
C        1.96300457      -0.25906847      -2.28120731
C        2.03953346       1.64288726       1.72202630
C        2.36937468      -2.94730265       0.29898709
C       -3.63167795       0.48891476       1.28588701
C        3.15834258       0.55724742      -0.30360947
C       -0.13636964      -3.18914710       0.92611647
C        3.75573419      -1.13560018       1.50657353
C       -3.43687502       1.75794164      -3.72479031
C        1.74867703      -1.65070820       2.72315696
C       -1.73524030       1.75414863       2.19396817
C        1.02605061       3.41046784      -0.25721847
C        0.30460502      -3.35678076      -1.05433949
C       -1.19299595       3.81920419      -0.68394973
C       -0.03720008       2.79409349      -2.40850624
C        0.36925099      -1.29890413       2.58528517
C        0.99073562       1.84287281      -2.63347255
C       -2.48913986      -1.57379839       0.49094454
C       -3.29564975      -0.41236688       0.19856339
C        2.78293706       0.71341793      -1.67203705
C       -3.91427771       1.40461073      -1.49091093
C       -1.75246517      -1.66243165      -1.81913993
C       -0.49617827      -2.22630382       1.88489451
C       -4.30531125       1.68628378       1.09197969
C       -1.79392810      -1.62937357       1.73796448
C       -0.39141860      -0.06484470       2.78005574
C       -2.48200479      -0.46970852      -2.12497234
C        4.30350933      -2.39974478       1.70276687
C       -1.91888924      -2.31971601      -0.58974876
C        2.64128634       1.70104545       0.39773391
C       -0.36373718      -0.29010221      -3.06578927
C        1.84284255      -1.54417556      -1.68017410
C       -1.75262294      -0.47372993       2.53815138
C       -2.14463917       3.13457386      -1.49047617
C        2.44020723       0.66345530       2.56148252
C       -0.47337316      -1.58149760      -2.44576306
C        2.13253768      -2.96720738       2.56156406
C       -2.56222285       0.61146148       2.24074627
C       -0.35413690       1.38365616       2.47673742
C        0.68317680       2.18674154       1.87678603
C        3.07930801      -3.04056715       1.54027412
C       -0.91989349      -3.26906921      -0.29539716
C        2.12472650       2.60927863      -0.57291309
C        3.35200451      -0.77126287       0.17499500
C        2.65080010      -1.81986636      -0.49904817
C       -4.31458744       1.62845587      -2.83078188
C       -1.68959562       0.28630029      -3.06429278
C        0.84906506       0.42019902      -2.91141930
C        0.29777164       3.20680731       0.96384858
C       -3.24741569       2.51901054      -0.85253097
C        0.08671100       3.67845898      -1.28913001
C        2.18359743       1.98942025      -1.85039705
C       -1.45289920       2.60956168      -2.63889731
C       -3.35059832       2.57941897       0.58352465
C        0.63681054      -2.27785265      -1.91919284
C        2.76775847      -0.62871757       2.47106858
C       -2.05227018       1.60640990      -3.44847780
C       -1.07730513       3.50786129       0.69001652
C       -3.37769686       0.09347279      -1.15363140
C       -2.10766979       2.78436600       1.30664767
