60
Properties=species:S:1:pos:R:3 entry_id=17 rank=25 energy=-501.6296691894531 pbc="F F F"
C        1.39060867      -4.09347412      -0.71511953
C        2.00171296      -0.21134898      -2.30595259
C        2.07335831       1.72762085       1.96742217
C        2.29049739      -3.22504545      -0.15314849
C       -3.13491234      -0.27323983       1.89307981
C        2.94747328       0.39198926      -0.07630814
C       -0.35462058      -2.53262518       1.24105844
C        4.09295822      -1.02565589       2.40964523
C       -3.28154114       1.96909012      -3.93588796
C        1.69098023      -1.46663167       2.35296549
C       -1.64574923       1.57478386       2.48364949
C        0.97935671       3.38510565      -0.06560732
C        0.33943276      -3.26588880      -1.06989177
C       -1.26471659       3.64466609      -0.52729043
C       -0.00533453       2.83143946      -2.28815944
C        1.41288221      -0.27411236       2.98475937
C        1.04581128       1.91085336      -2.51845245
C       -2.85152103      -1.65369392       0.06658561
C       -3.56099796      -0.48213470      -0.34133890
C        2.71148909       0.67410429      -1.47074096
C       -3.95315338       1.38633903      -1.81368699
C       -1.70865382      -1.62313985      -2.04777070
C       -1.32503924      -1.76765644       2.00556638
C       -3.55832349       0.44807158       0.74351509
C       -2.61763999      -1.54016830       1.45040828
C        0.07026110       0.13991393       3.09439247
C       -2.47612147      -0.47761027      -2.48067923
C        3.00611447      -1.69441236       1.62708371
C       -1.85204298      -2.20860310      -0.76044396
C        2.57447157       1.62786595       0.63355932
C       -0.27437064      -0.19173524      -3.18202441
C        1.87060966      -1.55738192      -1.88017270
C       -1.09005003      -0.65322734       2.89204260
C       -2.16343684       2.99660116      -1.41847610
C        2.47754265       0.69455335       2.86602791
C       -0.41970084      -1.49946393      -2.61238265
C        1.00143925      -2.54404801       1.73595326
C       -2.18413887       0.28619143       2.74488487
C       -0.23671711       1.49361064       2.77216971
C        0.73677943       2.28846174       2.11734133
C        2.28139467      -3.03828604       1.25419319
C       -0.69147511      -2.82843210      -0.14506507
C        2.08804552       2.56961506      -0.34676489
C        2.94592303      -0.99201621       0.26589454
C        2.57746962      -1.93528017      -0.71105333
C       -4.23399881       1.84302104      -3.11404857
C       -1.60836866       0.35876150      -3.27314737
C        0.92383349       0.51840098      -2.93368682
C        0.23823044       3.18760417       1.14495628
C       -3.22901871       2.22130334      -0.88750301
C        0.03836449       3.62447549      -1.10189361
C        2.17230868       1.97508145      -1.62848408
C       -1.40550905       2.62520781      -2.59388726
C       -3.11802578       1.78457600       0.49488650
C        0.63956638      -2.23047442      -2.05872042
C        3.76222964       0.11565472       2.86174843
C       -1.94059196       1.71550356      -3.55119169
C       -1.17091873       3.26971814       0.83124123
C       -3.51890779       0.02331876      -1.66448567
C       -2.10857664       2.34337515       1.37345106
