60
Properties=species:S:1:pos:R:3 entry_id=7 rank=91 energy=-494.21429443359375 pbc="F F F"
C        1.61572017      -3.33677598       0.02049731
C        2.13636225       0.04834882      -2.42190614
C        2.25536842       1.54497036       1.64488378
C        2.75065739      -2.50665538       0.17737694
C       -3.61089844       0.35615628       2.47299552
C        3.42656265       0.91250753      -0.55455515
C       -0.78222218      -3.53995860       1.03850211
C        4.59742294      -0.45145424       1.02361676
C       -3.30852400       1.78329288      -4.00065437
C        1.27612057      -1.26141085       3.17455807
C       -1.36477265       1.23190419       2.76854118
C        0.79826884       3.24117477      -0.13527023
C        0.56459709      -3.00999993      -0.87279930
C       -1.49787268       3.07236840      -0.49111854
C       -0.16683304       2.83005322      -2.38427384
C        2.11112057      -0.15320995       3.33105551
C        0.98424854       2.06756855      -2.69788012
C       -2.56984604      -1.48854987       0.33186235
C       -3.27583415      -0.30398625      -0.02597353
C        2.90818248       1.09019845      -1.86277199
C       -4.12868870       1.84064567      -2.84225755
C       -1.52823082      -1.46235518      -1.87043267
C       -1.53929750      -2.86632653       2.02576893
C       -3.77680122       0.49848484       1.01033055
C       -2.43712141      -1.81272623       1.70346086
C        0.71189032       0.01897882       3.44134452
C       -2.28461952      -0.31566519      -2.26286246
C        1.11915427      -2.46571897       2.40524561
C       -1.72876758      -2.12807327      -0.64757264
C        2.75134815       1.84228659       0.31695463
C       -0.17978516      -0.13495250      -3.17658373
C        2.09993461      -1.21889687      -1.75950183
C       -2.79864281      -0.86278288       2.66928161
C       -2.34028614       2.56825107      -1.54911839
C        2.95398927       0.62543727       2.49664697
C       -0.23718275      -1.36769885      -2.45016355
C       -0.15250064      -3.05261623       2.18407681
C       -2.27389362       0.24800741       3.23544560
C        0.05796145       1.13103897       2.84429710
C        0.88052620       1.91425968       1.95195156
C        1.91997852      -2.80483687       1.28237486
C       -0.72877820      -3.08881442      -0.30053556
C        2.03094669       2.74157184      -0.55003865
C        3.87080399      -0.38223971      -0.19703158
C        3.05792010      -1.44221444      -0.70676402
C       -4.65544460       2.06874821      -4.10236160
C       -1.53213261       0.35723567      -3.29851375
C        0.97199755       0.65408892      -3.02223569
C        0.19909194       2.79456352       1.07168248
C       -3.51352874       1.69846883      -1.58504965
C       -0.23466214       3.38091674      -1.08172099
C        2.15494083       2.29406789      -1.89816483
C       -1.51888995       2.52414911      -2.74154213
C       -3.36134651       1.62745330       1.63722813
C        0.87823218      -1.97875295      -1.82210643
C        4.16972783       0.05937681       2.09558914
C       -1.92861209       1.63439565      -3.78812762
C       -1.23411138       2.75797094       0.89342796
C       -3.15657122       0.29750768      -1.32712911
C       -2.00946381       2.04135743       1.81302574
