60
Properties=species:S:1:pos:R:3 entry_id=65 rank=19 energy=-502.38433837890625 pbc="F F F"
C       -0.82562258      -2.73335754       0.22678387
C        1.96190521      -0.17164501      -2.34649487
C        1.81321900       1.01880208       1.86203567
C        1.63625468      -2.69304834       0.19442142
C       -3.50194943      -0.13929239       1.82591547
C        3.13577906       0.36845590      -0.27436968
C       -0.79455951      -2.39088572       1.63822676
C        6.34483107      -0.94088082       2.18755902
C       -2.19893899       1.30836125      -4.00252040
C        0.47196989      -2.10703679       2.22446051
C       -1.87536146       1.51476232       2.53776930
C        1.01772888       3.22571784       0.16635879
C        0.48161488      -3.55882568      -1.71375680
C       -1.17321488       3.75158049      -0.28536076
C        0.03357280       3.02479833      -2.13366641
C        0.66328561      -0.88849585       2.94521873
C        0.98140101       1.98254077      -2.42962404
C       -2.98707772      -1.55052042       0.04536786
C       -3.59701668      -0.34916352      -0.44812749
C        2.75235172       0.71686057      -1.59549419
C       -3.59278471       1.52917101      -1.98337003
C       -1.63534724      -1.64483207      -1.96430537
C       -1.91633758      -1.77675734       2.25429062
C       -3.70430966       0.58949514       0.62695786
C       -3.03129811      -1.45006100       1.45653680
C       -0.44399570      -0.12615481       3.29758672
C       -2.43413107      -0.56071336      -2.51046223
C        5.17269951      -1.06805637       1.76444526
C       -1.86451607      -2.15280320      -0.62488592
C        2.52729082       1.32161350       0.63405507
C       -0.28958960      -0.22548048      -3.25955495
C        1.86667435      -1.52177268      -1.92066603
C       -1.73463240      -0.70086607       3.18366014
C       -2.09208681       3.29783756      -1.26252082
C        1.88687046      -0.28111050       2.48397729
C       -0.38173045      -1.53920648      -2.64561526
C        1.68941864      -2.36573738       1.55628133
C       -2.64802361       0.35642177       2.82749463
C       -0.49510081       1.22264042       2.85390234
C        0.60433942       1.81136466       2.15204271
C        3.89781395      -1.28600056       1.30287466
C        0.40096980      -3.23617543      -0.36082114
C        2.07280041       2.40017817      -0.21239447
C        3.35226972      -0.99464960       0.00084254
C        2.43551478      -1.88891425      -0.66603505
C       -3.27667601       1.94250414      -3.30795076
C       -1.65264167       0.14447819      -3.46147575
C        0.85560005       0.56797664      -2.92694664
C        0.24305147       2.91074724       1.32316763
C       -3.11441849       2.37925293      -0.92636364
C        0.13576414       3.66951445      -0.84821774
C        2.13490035       1.98286165      -1.57470069
C       -1.35587870       3.14831981      -2.48060757
C       -3.16303079       1.89979128       0.44529311
C        0.74182218      -2.32728502      -2.32139170
C        2.66027557      -1.38878434       1.98505110
C       -2.05586345       2.63937426      -3.56959503
C       -1.14193109       3.21575906       1.01923550
C       -3.40443649       0.12808339      -1.75984025
C       -2.19250152       2.35034116       1.43032176
