60
Properties=species:S:1:pos:R:3 entry_id=40 rank=45 energy=-500.2555236816406 pbc="F F F"
C        0.65246030      -2.88416485       0.45226287
C        1.97568804       0.03353813      -2.27567442
C        2.16509755       1.66543719       1.62903692
C        1.74459505      -2.02918356       0.68379597
C       -2.89080782      -0.51165681       1.73614979
C        3.30804900       0.90775928      -0.40683890
C       -0.04193733      -3.01039387       1.75953407
C        3.99957829      -1.57983562       2.31513409
C       -3.40343705       2.00448195      -3.92006205
C        1.62158125      -1.71336048       2.06892774
C       -1.52236571       1.38446093       2.42068940
C        0.90030457       3.51021672      -0.15086866
C        0.12174851      -2.97699329      -0.86039369
C       -1.37490655       3.63124366      -0.49400730
C       -0.13876452       2.97826678      -2.33720561
C        1.56324853      -0.43967548       2.62742985
C        0.94871289       2.11205215      -2.61644118
C       -2.76137539      -1.82471599      -0.14794164
C       -3.47563527      -0.62235672      -0.44680880
C        2.81466460       1.03478349      -1.73016232
C       -4.00598217       1.30683951      -1.79872176
C       -1.77668941      -1.64435729      -2.31444701
C       -1.12035266      -2.04013754       1.98512734
C       -3.43153152       0.24845510       0.67516789
C       -2.33531733      -1.74721708       1.22264071
C        0.24921318      -0.01506651       2.92419747
C       -2.53852327      -0.47681251      -2.65168245
C        3.39034041      -2.56462577       2.87424615
C       -2.10096542      -2.51532992      -1.21605453
C        2.73161037       1.96903216       0.36187539
C       -0.31146281      -0.05784927      -3.15518328
C        1.79558121      -1.19595933      -1.57500500
C       -0.90604189      -0.84372752       2.79559282
C       -2.26729701       2.97354785      -1.38541401
C        2.59578245       0.41874451       2.19105677
C       -0.41631290      -1.37738233      -2.58982268
C        1.09989649      -2.90616926       2.69746774
C       -2.01376580       0.06605161       2.64719606
C       -0.09511268       1.33800312       2.63199803
C        0.82956694       2.16284031       1.92564015
C        2.31342990      -3.34831681       3.19538080
C       -1.16639069      -3.50561102      -0.96372778
C        2.08270830       2.86993492      -0.54449149
C        3.41907835      -0.36895950       0.18964635
C        2.45406562      -1.31087095      -0.29394874
C       -4.32190705       1.81463277      -3.07332966
C       -1.65917057       0.43803496      -3.33232199
C        0.85843150       0.69448162      -2.92315347
C        0.24048160       3.13006052       1.06589486
C       -3.27336114       2.11870430      -0.85949970
C       -0.10224557       3.73385063      -1.12658144
C        2.14384558       2.29129542      -1.84723198
C       -1.53093186       2.69373179      -2.59853462
C       -3.08449004       1.62139365       0.49407709
C        0.60211725      -1.96486499      -1.80434159
C        3.68381594      -0.40177853       1.62258073
C       -2.04299401       1.78489870      -3.56898060
C       -1.18826576       3.16960035       0.82954779
C       -3.54470659      -0.05252845      -1.74511579
C       -2.06567951       2.18462177       1.36668955
