60
Properties=species:S:1:pos:R:3 entry_id=83 rank=28 energy=-501.4228210449219 pbc="F F F"
C       -0.32685834      -3.49125356       1.29993232
C        2.14645235      -0.04421565      -2.11853880
C        1.80457615       1.51704233       1.87768761
C        1.95999451      -2.81333415       0.61102811
C       -3.18467789      -0.28157246       1.62398253
C        3.13433969       0.73728966      -0.04652707
C       -0.42346120      -2.52752215       2.29208528
C        3.37343788      -3.52879460       0.69675567
C       -3.07247594       1.96769425      -4.18038078
C        0.81944639      -1.87981602       2.65342065
C       -1.90363562       1.61619523       2.36914281
C        0.88783583       3.47132596      -0.04415565
C       -0.08495132      -2.67567566      -0.90534911
C       -1.32952530       3.66937332      -0.63791828
C        0.06824240       2.92960782      -2.32698445
C        0.91493800      -0.49712470       2.98074326
C        1.17061524       2.05464554      -2.49697993
C       -2.43323928      -1.64747751      -0.14077222
C       -3.26181913      -0.55021801      -0.62931303
C        2.89268892       0.93169840      -1.42208078
C       -3.81667554       1.29307726      -2.10815927
C       -1.48186283      -1.61504078      -2.38826001
C       -1.57060950      -1.71353506       2.38102714
C       -3.50659690       0.37597780       0.42705378
C       -2.48610065      -1.50159981       1.31016735
C       -0.30302406       0.17997587       3.24022797
C       -2.24394534      -0.48080770      -2.79674202
C        4.03876156      -2.93810242       1.64045152
C       -1.47533314      -2.20253311      -1.07693022
C        2.53028166       1.80648847       0.67966787
C       -0.00831287      -0.08068304      -3.30705510
C        1.90234174      -1.31453376      -1.49260987
C       -1.53247179      -0.52335163       3.16588368
C       -2.14511435       3.00157995      -1.59536700
C        2.04943836       0.22367363       2.47853103
C       -0.14861278      -1.40574533      -2.81352157
C        1.95380661      -2.41983735       2.06732363
C       -2.54019737       0.38062273       2.68144127
C       -0.51567102       1.49941014       2.74628131
C        0.52266017       2.18054730       2.05049831
C        3.26626343      -1.96230472       2.34319991
C        0.53089838      -3.23628479       0.24887892
C        2.06830410       2.76276121      -0.28771778
C        3.10276380      -0.56138394       0.50856101
C        2.43064308      -1.58837640      -0.19059041
C       -4.05691943       1.75344372      -3.41645229
C       -1.35610949       0.42141770      -3.49764146
C        1.11884157       0.65065914      -2.87018965
C        0.09033626       3.15709447       1.10532487
C       -3.21193842       2.18147396      -1.14468130
C        0.00543639       3.70556868      -1.12985678
C        2.27216320       2.20655759      -1.59063576
C       -1.30120044       2.67252718      -2.72284338
C       -3.18271108       1.75095945       0.23912691
C        0.71671865      -1.98830047      -1.87244212
C        3.11814523      -0.61025335       1.93804702
C       -1.73849074       1.77055516      -3.73404478
C       -1.29899165       3.26130965       0.71560697
C       -3.28156523      -0.03494574      -1.95114489
C       -2.27029326       2.34514853       1.19878692
