60
Properties=species:S:1:pos:R:3 entry_id=12 rank=82 energy=-496.4521484375 pbc="F F F"
C        1.83525324      -3.67575251      -0.28728063
C        2.11256760      -0.06044306      -2.40831286
C        2.01925571       1.60885513       1.68633960
C        3.06654592      -2.93502171      -0.28945330
C       -3.33881968       1.45281204       1.57568592
C        3.25908183       0.76155158      -0.42656205
C       -0.69330568      -3.54220011       1.18959773
C        4.10021438      -0.69320985       1.29250453
C       -3.35351904       1.61959550      -4.02555775
C        1.30917860      -1.68455324       3.26444148
C       -1.50819310       2.07732156       2.72860795
C        0.87179360       3.42593122      -0.19735482
C        0.66691352      -3.13429352      -0.83471991
C       -1.44257248       3.40993010      -0.44242431
C       -0.22581315       2.70648363      -2.30738274
C        1.13957601      -0.35039062       2.96827729
C        0.92067750       1.94092011      -2.63704833
C       -2.34201402      -1.40126248       0.36215884
C       -3.16146449      -0.37635692      -0.20715567
C        2.83515069       0.96521747      -1.76820052
C       -4.02976248       0.96295707      -1.93678467
C       -1.50625780      -1.75161843      -1.92160593
C       -1.34839527      -2.68251257       2.08335545
C       -3.43973714       0.94035383       0.28014228
C       -1.89092641      -1.42819760       1.75824478
C       -0.15982690       0.24681697       2.89244871
C       -2.36660247      -0.74830084      -2.46240130
C        0.93040699      -2.88984136       3.23345814
C       -1.62339402      -2.23012610      -0.58902127
C        2.61995383       1.77989171       0.38647460
C       -0.19949439      -0.29010659      -3.14175920
C        2.13544991      -1.35979391      -1.81942583
C       -1.52388621      -0.23724761       2.50148242
C       -2.36158279       2.65055801      -1.28979723
C        2.27265165       0.43072470       2.48382914
C       -0.21088392      -1.54023013      -2.44657341
C       -0.14541620      -3.29937169       2.46572627
C       -2.30658519       0.95622757       2.45060767
C       -0.16522999       1.67726693       2.78449534
C        0.80783576       2.34268570       1.99517035
C        3.01570005      -4.24699391       0.16587548
C       -0.60077295      -3.15172916      -0.17484808
C        2.02118046       2.71465086      -0.54493801
C        3.67736703      -0.54589322      -0.05452392
C        3.13724837      -1.63865481      -0.81668196
C       -4.31713922       1.38125575      -3.23321338
C       -1.57390594       0.13263781      -3.28377874
C        0.92999890       0.53197943      -2.98631320
C        0.28651144       3.31450639       1.09681847
C       -3.46566229       1.80443500      -0.91111211
C       -0.19024590       3.47707479      -1.12624728
C        2.11009073       2.18209724      -1.86231737
C       -1.60981176       2.36473443      -2.51905280
C       -3.38609849       2.88836199       1.69074759
C        0.91950735      -2.11215639      -1.81973159
C        3.49244300      -0.25399310       2.30942922
C       -2.03012458       1.46015928      -3.54118528
C       -1.14381423       3.51383029       0.95273161
C       -3.39553996      -0.28538758      -1.63778144
C       -2.03882361       3.18495462       1.98689367
