60
Properties=species:S:1:pos:R:3 entry_id=71 rank=18 energy=-502.67962646484375 pbc="F F F"
C       -0.57551500      -2.70971674       0.18019365
C        1.95461031       0.07100524      -2.35447078
C        1.85070059       1.39634163       1.74456643
C        1.84279293      -2.62930661       0.12386179
C       -3.32594068      -0.26459174       1.87765014
C        3.08213439       0.74840071      -0.30240892
C       -0.48610262      -2.33908471       1.57593965
C        5.31316137      -3.40696079       2.98171365
C       -2.33206505       1.23573003      -3.99781068
C        0.80144534      -2.02059927       2.13210248
C       -1.80387337       1.51517394       2.52347987
C        0.84875415       3.49071510       0.06041949
C        0.72389177      -3.44118500      -1.81615259
C       -1.39601030       3.79541859      -0.33375811
C       -0.17522504       3.13593920      -2.20089088
C        0.97971389      -0.71223036       2.71357738
C        0.84571203       2.15843915      -2.49100502
C       -2.80559428      -1.65223762       0.08001517
C       -3.50668307      -0.49392931      -0.39288423
C        2.70668123       1.02290110      -1.63908291
C       -3.68167969       1.37008832      -1.93880183
C       -1.50972951      -1.65730643      -1.96825135
C       -1.61093465      -1.78093040       2.22571599
C       -3.62912155       0.44121712       0.68427528
C       -2.79087962      -1.54513058       1.49128469
C       -0.18364199      -0.02581910       3.14247200
C       -2.39376978      -0.63240785      -2.49157362
C        4.32563620      -2.78397204       2.52221689
C       -1.67475805      -2.18530701      -0.63032193
C        2.51597103       1.76166011       0.53321535
C       -0.29083811      -0.14022228      -3.27686280
C        1.94453697      -1.27537518      -1.89968522
C       -1.43602529      -0.68528000       3.11705998
C       -2.29558547       3.24908274      -1.27827605
C        2.08599832       0.05442850       2.21516958
C       -0.27924776      -1.45944938      -2.66940421
C        1.96899893      -2.56537721       1.53655737
C       -2.45804978       0.29281464       2.83502488
C       -0.39319389       1.33492568       2.77664706
C        0.60485288       2.06247711       2.07019356
C        3.24244599      -2.10088729       2.04267864
C        0.63063348      -3.17226421      -0.45532314
C        1.97430397       2.76765097      -0.33640064
C        3.13674501      -0.57663412       0.16534678
C        2.48672634      -1.59534650      -0.60892391
C       -3.43354950       1.79500372      -3.27486426
C       -1.68287716       0.12537127      -3.45788153
C        0.80242522       0.72730739      -2.94666713
C        0.13066930       3.12008064       1.24547953
C       -3.23114340       2.25768609      -0.90110734
C       -0.10027357       3.81918727      -0.93431803
C        2.02394457       2.26781207      -1.67652019
C       -1.58039231       3.14131531      -2.51262927
C       -3.19340297       1.78581318       0.47504660
C        0.90258126      -2.16365481      -2.34995827
C        3.10621291      -0.73721696       1.58734758
C       -2.27447782       2.57693377      -3.57737275
C       -1.28267053       3.28239490       0.97615835
C       -3.38967593      -0.01250971      -1.71398062
C       -2.23237083       2.32269805       1.42717253
