60
Properties=species:S:1:pos:R:3 entry_id=75 rank=35 energy=-500.98583984375 pbc="F F F"
C       -0.56953082      -2.66446411       0.14840705
C        2.24473905       0.05570616      -2.37042309
C        1.86152554       1.38521637       1.73321769
C        1.85474714      -2.61708367       0.12287615
C       -3.35159310      -0.30313706       1.88302676
C        3.20233649       0.72990915      -0.24760809
C       -0.48801927      -2.33247739       1.55501412
C        5.12743589      -3.35732912       3.40633954
C       -3.47753398       2.35776751      -3.77115277
C        0.79445769      -2.02175489       2.12566856
C       -1.81740354       1.49779383       2.46431043
C        0.86195050       3.37886202      -0.08679050
C        0.71116946      -3.33705016      -1.86460229
C       -1.36716668       3.45259490      -0.59034601
C       -0.01280203       2.84589822      -2.37630806
C        0.97220346      -0.71245173       2.70983645
C        1.17860292       2.12758809      -2.59199103
C       -2.81854291      -1.66026836       0.06664045
C       -3.59860962      -0.54873420      -0.38443340
C        2.96968860       1.01421132      -1.61426421
C       -4.05745929       1.28982138      -1.90409404
C       -1.44528758      -1.43857908      -1.92999107
C       -1.61116676      -1.78510566       2.21188779
C       -3.71460380       0.38419972       0.69741206
C       -2.79286541      -1.56457167       1.47945752
C       -0.19199844      -0.01836691       3.12074738
C       -2.23544019      -0.24848455      -2.27921947
C        4.20894783      -2.77662433       2.77870925
C       -1.66094504      -2.10220487      -0.65737743
C        2.56763198       1.73874993       0.54126779
C       -0.10254619       0.09652498      -3.02924344
C        2.08736696      -1.27342775      -1.89836789
C       -1.44161547      -0.68662936       3.10208864
C       -2.21275701       2.74966176      -1.45279008
C        2.08996847       0.04692238       2.22669873
C       -0.20237516      -1.26245733      -2.60289087
C        1.96236825      -2.57310697       1.53815468
C       -2.46990340       0.28192230       2.81223358
C       -0.40264059       1.33636803       2.72698004
C        0.60043061       2.05114507       2.00687993
C        3.22168930      -2.12484217       2.09577939
C        0.63775768      -3.11091431      -0.49225517
C        2.07005869       2.73450299      -0.36773804
C        3.20687308      -0.60104208       0.21275831
C        2.55772072      -1.60687803      -0.58639895
C       -4.45457132       1.77859810      -3.13764454
C       -1.35074946       0.74423356      -2.80381642
C        1.13616544       0.74519565      -2.95989327
C        0.12384844       3.05128903       1.10385950
C       -3.33237079       2.11193932      -0.93726461
C       -0.07186469       3.55385154      -1.15180444
C        2.29445599       2.27666514      -1.70214427
C       -1.42167454       2.28784971      -2.71371161
C       -3.27275868       1.71372933       0.45863672
C        0.95264386      -2.05812226      -2.36340788
C        3.11928190      -0.75960636       1.63094509
C       -2.24917311       2.73103328      -3.88702819
C       -1.28236699       3.12943866       0.78158880
C       -3.49155182      -0.02080829      -1.68611190
C       -2.24919793       2.24841303       1.33468645
