60
Properties=species:S:1:pos:R:3 entry_id=27 rank=86 energy=-494.9147644042969 pbc="F F F"
C        0.76547650      -3.89151134      -0.35045245
C        1.78790348      -0.27936780      -2.30767894
C        2.20725211       1.83331842       1.71838048
C        1.15723882      -2.68744588       0.36853811
C       -3.32735531       0.30775740       1.24797480
C        2.97441230       0.47352270      -0.29467233
C       -0.53383402      -3.87419262       0.36034357
C        3.35540926      -1.14763040       1.59827882
C       -3.54671667       1.91185983      -3.65385545
C        2.15756054      -1.10502143       3.60845917
C       -1.52943368       1.65351964       2.18024508
C        1.05139067       3.43968322      -0.29361390
C        0.08408552      -3.50555733      -1.56037267
C       -1.18739366       3.81816750      -0.63506859
C       -0.07967744       2.83857096      -2.42189850
C        0.89364655      -0.68147887       3.60125739
C        0.92722015       1.86814784      -2.67477004
C       -2.19309524      -1.62339410       0.21786404
C       -3.07564764      -0.48906956       0.08523450
C        2.63751559       0.64091103      -1.67135992
C       -3.90956472       1.39866544      -1.42518111
C       -1.89583720      -1.68116515      -2.15166720
C       -0.15063673      -2.64412816       1.04405410
C       -4.10260132       1.46499647       1.21028116
C       -1.20016092      -1.68533915       1.26911013
C       -0.02723884       0.00875560       2.90641423
C       -2.57993983      -0.43889573      -2.30822210
C        3.44537599      -2.42499226       2.19320689
C       -1.98442428      -2.41242270      -0.94760915
C        2.64886259       1.71890475       0.34329598
C       -0.47328184      -0.21547112      -3.23490016
C        1.54226790      -1.54714052      -1.70823970
C       -1.20142347      -0.62053634       2.23372503
C       -2.15984545       3.14022311      -1.41664975
C        2.82875687       1.07133628       2.63950652
C       -0.62027398      -1.56358658      -2.75860164
C        2.73471514      -2.39313784       3.49501575
C       -2.16204632       0.39765785       2.07761566
C       -0.14998153       1.45860590       2.52207353
C        0.81977329       2.29338576       1.89473592
C        3.53185925      -3.45045049       3.12776831
C       -1.17014524      -3.54181088      -0.88413768
C        2.12876281       2.61741884      -0.63675660
C        2.92065790      -0.84164738       0.28030633
C        1.98301639      -1.76262047      -0.35642827
C       -4.37693767       1.72080512      -2.72573937
C       -1.78969195       0.37980589      -3.19203777
C        0.74113391       0.45525919      -2.98256509
C        0.36785197       3.25774724       0.95642363
C       -3.22197506       2.47726201      -0.75273700
C        0.07328812       3.70142118      -1.28911302
C        2.12176570       1.95028904      -1.88645808
C       -1.50755183       2.66818239      -2.61348296
C       -3.25239726       2.45261901       0.68721696
C        0.44477329      -2.30753113      -2.19766872
C        2.99810137      -0.24626601       2.68329850
C       -2.14875255       1.72740742      -3.46100957
C       -1.02483945       3.49695248       0.73162849
C       -3.35274652       0.07495857      -1.21698606
C       -1.99762714       2.70484570       1.36269062
