60
Properties=species:S:1:pos:R:3 entry_id=90 rank=2 energy=-503.1474304199219 pbc="F F F"
C       -0.58098843      -2.77566786       0.22813650
C        2.02466460      -0.11926765      -2.44390755
C        1.84230285       1.38097945       1.60874759
C        1.84202992      -2.69839413       0.15569602
C       -3.32124790      -0.28133755       1.88972696
C        3.09306213       0.65810009      -0.40514801
C       -0.47905137      -2.35867439       1.61151379
C        5.00317538      -3.11218446       3.72219572
C       -1.44991308       2.68013594      -3.25019279
C        0.81261630      -2.01761171       2.14541576
C       -1.80335639       1.53046528       2.47160025
C        0.72197264       3.28011451      -0.23781186
C        0.70925991      -3.56904528      -1.75158036
C       -1.52364032       3.68214903      -0.52964609
C       -0.21587380       2.81743228      -2.51284574
C        0.99278212      -0.68681356       2.67643783
C        0.90408238       1.92336059      -2.68429187
C       -2.81150219      -1.70957036       0.11302305
C       -3.50947318      -0.54283114      -0.37682992
C        2.76646327       0.87367960      -1.76527005
C       -3.14107886       1.32461633      -1.94282697
C       -1.52570637      -1.82853598      -1.97168604
C       -1.59655033      -1.77802823       2.25434431
C       -3.65979467       0.39785419       0.69237045
C       -2.78021217      -1.56395347       1.52186700
C       -0.16518213       0.01174930       3.09464834
C       -2.38337821      -0.79334369      -2.46619188
C        4.14689641      -2.62663942       2.94375217
C       -1.68871554      -2.28570546      -0.59632971
C        2.48912806       1.69484982       0.37338332
C       -0.27752467      -0.28691946      -3.24427668
C        1.97026643      -1.44045144      -1.92870203
C       -1.41402875      -0.65573893       3.11204500
C       -2.80111514       3.58628060      -1.12726742
C        2.09227984       0.06274477       2.13766120
C       -0.28703271      -1.62502397      -2.68178386
C        1.97820045      -2.58352308       1.56307472
C       -2.44525208       0.30861059       2.82021058
C       -0.38421610       1.36022792       2.68673839
C        0.59383866       2.05128381       1.91527233
C        3.23751895      -2.08777811       2.07857323
C        0.62366983      -3.25626229      -0.39892408
C        1.91416389       2.63377367      -0.55397383
C        3.14610810      -0.65007221       0.11356166
C        2.49563126      -1.70265317      -0.61904666
C       -2.14190475       1.45830842      -2.98914296
C       -1.62323301       0.14881382      -3.21982594
C        0.87020999       0.51409603      -3.03949582
C        0.08254635       3.02640385       1.00981060
C       -3.30405090       2.26569658      -0.88680397
C       -0.29577145       3.49602460      -1.24466295
C        2.05815030       2.10746291      -1.86476805
C       -2.97218945       4.22252798      -2.37516391
C       -3.26362912       1.74934613       0.47343997
C        0.90054216      -2.32081875      -2.34750039
C        3.11261271      -0.75338572       1.53861377
C       -2.29623144       3.80694943      -3.36030122
C       -1.32221467       3.20093448       0.80750291
C       -3.29725841      -0.08521385      -1.67170308
C       -2.26587666       2.30155045       1.36354427
