60
Properties=species:S:1:pos:R:3 entry_id=97 rank=69 energy=-498.1412658691406 pbc="F F F"
C       -0.40652826      -2.66087635       0.41129235
C        2.07853167       0.14039403      -2.24123307
C        1.58464474       1.74881953       1.74021667
C        2.00275177      -2.35607942       0.44282462
C       -3.42136153      -0.36163672       1.86094299
C        2.98264042       1.07535213      -0.18647888
C       -0.39789622      -2.18677870       1.78024903
C        6.31395937      -6.52374670       0.55760075
C       -1.58608774       2.58689726      -3.29730463
C        0.83396999      -1.70593251       2.34857672
C       -2.09851769       1.59824394       2.44058821
C        0.38398894       3.47785657      -0.22032132
C        1.03788127      -3.38422195      -1.47820494
C       -1.87278558       3.66678362      -0.62179078
C       -0.40413128       2.85833819      -2.51353323
C        0.86646840      -0.35072572       2.82390361
C        0.79743260       2.06458956      -2.60438872
C       -2.70865178      -1.79576106       0.16125280
C       -3.48413063      -0.71273528      -0.39952654
C        2.70052715       1.21621991      -1.56784488
C       -3.21198184       1.12932529      -2.01556591
C       -1.32462048      -1.86673065      -1.86103875
C       -1.59067122      -1.68589546       2.35353047
C       -3.76480216       0.24514670       0.62673033
C       -2.75293923      -1.60179048       1.56387476
C       -0.36320855       0.25362849       3.17902224
C       -2.24653212      -0.92812420      -2.42757612
C        6.99768986      -5.92590886       1.44463200
C       -1.50926225      -2.29379853      -0.47812170
C        2.25594500       2.08394016       0.52332177
C       -0.16042411      -0.25882058      -3.13267683
C        2.11208908      -1.16154753      -1.67936352
C       -1.54664401      -0.52236631       3.17365194
C       -3.10841270       3.43744906      -1.26919396
C        1.91967187       0.47090343       2.32048349
C       -0.07829255      -1.57412187      -2.52508630
C        2.09502555      -2.15957910       1.85471434
C       -2.64429818       0.33484021       2.80513994
C       -0.68152657       1.56486780       2.72145639
C        0.26770675       2.31556273       1.96921835
C        3.25061387      -1.56403527       2.37084223
C        0.86788580      -3.04803412      -0.13888563
C        1.64248380       2.93194132      -0.46109889
C        3.11459994      -0.20754482       0.38085659
C        2.58640009      -1.32804443      -0.33498848
C       -2.18066520       1.31805573      -3.02140198
C       -1.53895594       0.05380350      -3.18132641
C        0.90252777       0.64768000      -2.90866519
C       -0.28655098       3.20787022       1.00692438
C       -3.50560736       2.08595159      -1.00264904
C       -0.60182290       3.56823222      -1.27639987
C        1.89226452       2.37715608      -1.74335021
C       -3.27074160       4.01126741      -2.54693043
C       -3.48120995       1.61930577       0.37578509
C        1.14910965      -2.14784487      -2.11642009
C        3.03153845      -0.30511551       1.81454796
C       -2.51937988       3.63196979      -3.49105772
C       -1.69090844       3.24849655       0.73871425
C       -3.25499121      -0.27952231      -1.69987785
C       -2.57682389       2.28748932       1.28637414
