54
Lattice="21.66 0.0 0.0 0.0 5.10531 0.0 0.0 0.0 22.55266" Properties=species:S:1:pos:R:3 entry_id=23 rank=21 energy=-200.7628173828125 pbc="T T F"
Cu       0.00000000       0.00000000      10.00000000
Cu       3.61000000       0.00000000      10.00000000
Cu       7.22000000       0.00000000      10.00000000
Cu      10.83000000       0.00000000      10.00000000
Cu      14.44000000       0.00000000      10.00000000
Cu      18.05000000       0.00000000      10.00000000
Cu       0.00000000       2.55265548      10.00000000
Cu       3.61000000       2.55265548      10.00000000
Cu       7.22000000       2.55265548      10.00000000
Cu      10.83000000       2.55265548      10.00000000
Cu      14.44000000       2.55265548      10.00000000
Cu      18.05000000       2.55265548      10.00000000
Cu       1.80500000       1.27632774      11.27632774
Cu       5.41500000       1.27632774      11.27632774
Cu       9.02500000       1.27632774      11.27632774
Cu      12.63500000       1.27632774      11.27632774
Cu      16.24500000       1.27632774      11.27632774
Cu      19.85500000       1.27632774      11.27632774
Cu       1.80500000       3.82898322      11.27632774
Cu       5.41500000       3.82898322      11.27632774
Cu       9.02500000       3.82898322      11.27632774
Cu      12.63500000       3.82898322      11.27632774
Cu      16.24500000       3.82898322      11.27632774
Cu      19.85500000       3.82898322      11.27632774
Cu      21.65753785       5.08322039      12.41788791
Cu       3.55976277       5.09776632      12.55221151
Cu       7.33459923       0.03815820      12.58807279
Cu      10.84579390       0.04193022      12.58065533
Cu      13.07297095       4.37030151      15.12509082
Cu      14.45078073       0.08870485      12.65861981
Cu       0.05684316       2.55175720      12.51653438
Cu       5.43719884       3.89148775      13.76485053
Cu       7.28092709       2.57187579      12.63215201
Cu      10.72849377       2.57114805      12.47089208
Cu      13.06367850       2.16865788      13.53068646
Cu      17.96168607       2.53039980      12.54776212
Cu       5.36183179       1.41216145      13.82543927
Cu      10.24367221       3.61814491      15.74013510
Cu      20.13286476       1.42956089      14.13009561
Cu       7.55184123       3.89783630      15.18009542
Cu       7.61439273       1.34897323      15.01426531
Cu       3.56449768       2.62464228      12.59770788
Cu       1.52823655       0.88753581      14.09164734
Cu      11.26734770       1.04286482      15.09086113
Cu      20.17053238       3.95238445      14.09033777
Cu      15.47440765       2.48822326      13.15796459
O        6.21088043       0.07214827      15.06987917
O       21.46586002       0.17449739      14.47731127
O       18.82461268       2.70561136      14.20739108
O       11.62270015       4.75838970      16.19405595
O        8.70315581       2.61439609      15.76729395
O       11.24671256       2.68755559      14.29082492
O       14.38521425       3.76623735      14.00637558
O        3.32302619       1.29459572      14.04933515
