54
Lattice="21.66 0.0 0.0 0.0 5.10531 0.0 0.0 0.0 22.55266" Properties=species:S:1:pos:R:3 entry_id=25 rank=32 energy=-200.05496215820312 pbc="T T F"
Cu       0.00000000       0.00000000      10.00000000
Cu       3.61000000       0.00000000      10.00000000
Cu       7.22000000       0.00000000      10.00000000
Cu      10.83000000       0.00000000      10.00000000
Cu      14.44000000       0.00000000      10.00000000
Cu      18.05000000       0.00000000      10.00000000
Cu       0.00000000       2.55265548      10.00000000
Cu       3.61000000       2.55265548      10.00000000
Cu       7.22000000       2.55265548      10.00000000
Cu      10.83000000       2.55265548      10.00000000
Cu      14.44000000       2.55265548      10.00000000
Cu      18.05000000       2.55265548      10.00000000
Cu       1.80500000       1.27632774      11.27632774
Cu       5.41500000       1.27632774      11.27632774
Cu       9.02500000       1.27632774      11.27632774
Cu      12.63500000       1.27632774      11.27632774
Cu      16.24500000       1.27632774      11.27632774
Cu      19.85500000       1.27632774      11.27632774
Cu       1.80500000       3.82898322      11.27632774
Cu       5.41500000       3.82898322      11.27632774
Cu       9.02500000       3.82898322      11.27632774
Cu      12.63500000       3.82898322      11.27632774
Cu      16.24500000       3.82898322      11.27632774
Cu      19.85500000       3.82898322      11.27632774
Cu      21.63443866       5.10118494      12.42634882
Cu       3.57928405       5.03236000      12.59252248
Cu       7.25752921       0.09561693      12.43397860
Cu      10.77536712       0.01417543      12.57430983
Cu      13.55599731       3.96792073      15.35778552
Cu      14.50234895       4.99453964      12.55969450
Cu       0.01985492       2.58083002      12.51038048
Cu       5.61502397       3.72303041      13.70401767
Cu       5.41984877       3.83564152       8.87351633
Cu      10.64358276       2.68122170      12.64510833
Cu      13.73016376       2.47282928      13.27076540
Cu      18.09718146       2.51069662      12.40427989
Cu       5.35761682       1.22216067      13.91785496
Cu      10.73194094       3.43047345      15.36843449
Cu      19.91554512       1.58345962      14.08234452
Cu       8.13885163       3.88448135      14.43321641
Cu       8.03406192       1.31416924      14.51361683
Cu       3.62182901       2.56510261      12.63985595
Cu       1.45475458       0.95489880      14.08982450
Cu      11.89116076       0.58845816      14.95037676
Cu      19.95243949       4.10925585      14.01149266
Cu      16.69413901       3.32288315      14.17149743
O        6.71170866       5.09236839      14.77186236
O       21.29383603       0.34338547      14.41750779
O       18.52351083       2.87754493      14.31291034
O       12.01122518       4.38766979      16.27188757
O        9.42985249       2.53734183      14.37842145
O       12.08033808       1.47639557      13.32569372
O       14.90920154       3.76792259      14.09354615
O        3.29469876       1.22900315      14.07782783
