54
Lattice="21.66 0.0 0.0 0.0 5.10531 0.0 0.0 0.0 22.55266" Properties=species:S:1:pos:R:3 entry_id=7 rank=30 energy=-200.21168518066406 pbc="T T F"
Cu       0.00000000       0.00000000      10.00000000
Cu       3.61000000       0.00000000      10.00000000
Cu       7.22000000       0.00000000      10.00000000
Cu      10.83000000       0.00000000      10.00000000
Cu      14.44000000       0.00000000      10.00000000
Cu      18.05000000       0.00000000      10.00000000
Cu       0.00000000       2.55265548      10.00000000
Cu       3.61000000       2.55265548      10.00000000
Cu       7.22000000       2.55265548      10.00000000
Cu      10.83000000       2.55265548      10.00000000
Cu      14.44000000       2.55265548      10.00000000
Cu      18.05000000       2.55265548      10.00000000
Cu       1.80500000       1.27632774      11.27632774
Cu       5.41500000       1.27632774      11.27632774
Cu       9.02500000       1.27632774      11.27632774
Cu      12.63500000       1.27632774      11.27632774
Cu      16.24500000       1.27632774      11.27632774
Cu      19.85500000       1.27632774      11.27632774
Cu       1.80500000       3.82898322      11.27632774
Cu       5.41500000       3.82898322      11.27632774
Cu       9.02500000       3.82898322      11.27632774
Cu      12.63500000       3.82898322      11.27632774
Cu      16.24500000       3.82898322      11.27632774
Cu      19.85500000       3.82898322      11.27632774
Cu       0.11387420       5.08812524      12.65782373
Cu       3.58721653       5.00936603      12.41336602
Cu       4.23188661       4.19100051      14.54009394
Cu      12.67330652       4.08399037      13.80411820
Cu      12.68946545       1.56157643      13.94714773
Cu      17.94788288       0.05567672      12.56454211
Cu      21.63624289       2.53423992      12.59675432
Cu       3.71566521       2.49698327      12.60661051
Cu       7.34413409       2.63595662      12.59053925
Cu      10.81579471       2.61583563      12.48822641
Cu      14.42427023       2.51299524      12.36617883
Cu      18.02443040       2.57129975      12.57215291
Cu       2.43203820       0.93346413      14.16911804
Cu       7.27128158       5.08759153      12.60920764
Cu      19.73229984       1.33758493      13.76696015
Cu       6.98187193       2.69197885      15.12230098
Cu       6.99554682       0.09605205      15.19678271
Cu       0.14329903       1.19840633      15.08028363
Cu       1.90880387       3.62271438      13.91481185
Cu       9.63027843       0.82998157      13.88776407
Cu      19.85817179       3.82184467      13.89903847
Cu      15.88843232       3.37549456      14.06347078
O        5.73542609       3.94371452      15.58029690
O       20.32179961       0.14026108      15.09626105
O       17.63820288       3.89468045      14.00986014
O       11.39679139       0.26268887      14.03393736
O        8.26495372       1.39335505      14.99697268
O        5.94934980       1.38689016      13.14047706
O       14.06007980       2.87133723      14.27133649
O        1.61637224       2.26113571      15.21053774
