54
Lattice="21.66 0.0 0.0 0.0 5.10531 0.0 0.0 0.0 22.55266" Properties=species:S:1:pos:R:3 entry_id=15 rank=29 energy=-200.27188110351562 pbc="T T F"
Cu       0.00000000       0.00000000      10.00000000
Cu       3.61000000       0.00000000      10.00000000
Cu       7.22000000       0.00000000      10.00000000
Cu      10.83000000       0.00000000      10.00000000
Cu      14.44000000       0.00000000      10.00000000
Cu      18.05000000       0.00000000      10.00000000
Cu       0.00000000       2.55265548      10.00000000
Cu       3.61000000       2.55265548      10.00000000
Cu       7.22000000       2.55265548      10.00000000
Cu      10.83000000       2.55265548      10.00000000
Cu      14.44000000       2.55265548      10.00000000
Cu      18.05000000       2.55265548      10.00000000
Cu       1.80500000       1.27632774      11.27632774
Cu       5.41500000       1.27632774      11.27632774
Cu       9.02500000       1.27632774      11.27632774
Cu      12.63500000       1.27632774      11.27632774
Cu      16.24500000       1.27632774      11.27632774
Cu      19.85500000       1.27632774      11.27632774
Cu       1.80500000       3.82898322      11.27632774
Cu       5.41500000       3.82898322      11.27632774
Cu       9.02500000       3.82898322      11.27632774
Cu      12.63500000       3.82898322      11.27632774
Cu      16.24500000       3.82898322      11.27632774
Cu      19.85500000       3.82898322      11.27632774
Cu      21.65405842       5.08947913      12.41984340
Cu       3.56022525       4.98552237      12.50199171
Cu       7.12272283       0.04592283      12.55926079
Cu      10.86681523       0.08913587      12.50098019
Cu      12.56372228       2.69549841      14.38897833
Cu      14.45848529       0.02536554      12.58136373
Cu       0.07876093       2.57167824      12.51710934
Cu       5.26194657       3.72372605      13.92190560
Cu       7.23272251       2.49260235      12.56661094
Cu      10.86471768       2.56312702      12.49199381
Cu      12.51848154       0.18027520      14.43198744
Cu      18.02194394       2.57945501      12.54196843
Cu       5.00940413       1.04027059      13.94957757
Cu       9.97281511       3.97719406      14.43191790
Cu      20.22877164       1.43156561      14.15424764
Cu       7.59060101       3.35449586      15.64389677
Cu       7.53707402       0.74503931      15.56664731
Cu       3.49577343       2.46990383      12.60662431
Cu       1.75626109       0.98073585      13.78766109
Cu      10.15110310       1.41788873      14.58556369
Cu      20.26198726       3.95765222      14.16028765
Cu      14.52122333       2.62256251      12.56329794
O        6.20610652       4.59835686      15.47420070
O       21.58988785       0.18565409      14.42504373
O       18.90631208       2.70267486      14.20076259
O       11.59753276       3.97175120      15.34692515
O        8.86847007       1.98938761      15.87025359
O        8.48666467       3.95642742      13.27478118
O       13.88795429       1.39241798      13.96385371
O        6.46709646       2.15609566      14.39947685
