60
Properties=species:S:1:pos:R:3 input=/mnt/d/download/trae-research-code/ssw/runs/20260428-c60-mace-production/prerelaxed_c60.xyz system=c60 pbc="F F F"
C        2.60323586      -0.22393854      -2.98613366
C        1.93455129       2.91083611      -0.63241096
C        1.57608898      -0.25217241       2.89225889
C        3.06267109       0.91965093      -2.22377405
C       -2.64611294      -2.35813379       1.36449109
C        2.27775926       1.13991255       1.02571807
C        1.19181768      -2.33221990      -1.81930687
C        3.89207720      -1.56715160       0.51586209
C       -2.98305336       2.20838753      -2.41570712
C        0.34680986      -0.22884934      -1.37571001
C       -1.51872891      -2.33045464       2.68475478
C       -0.07096882       2.03117718       3.09534347
C        1.26839052      -0.44944056      -3.51821630
C       -2.30944956       2.29004530       2.49712524
C       -0.86475710       3.91927347       1.64265896
C        0.20399217      -0.40270739       0.08959757
C        0.41061397       3.77479901       0.97457926
C       -1.56058044      -2.85253818      -2.81678456
C       -2.22657262      -2.59393074      -1.74881661
C        2.33496594       2.53361747       0.69050929
C       -3.17065646       2.32333862      -1.00382234
C       -1.54402732      -0.41008703      -3.16066919
C        1.08885491      -3.16448027      -0.69225912
C       -1.97040175      -1.51846574       0.36530904
C        0.24380984      -3.82310442       0.14959948
C       -0.72795331      -1.09784990       0.88165932
C       -2.30295731      -0.21303501      -1.92493051
C        3.35725208      -1.46972495      -0.76103864
C       -0.84635339      -1.66020890      -3.07864411
C        1.98036477       1.02553858       2.42290152
C       -1.75490009       1.64727852      -4.47110299
C        2.06819909       1.83530671      -1.64840634
C       -0.71544246      -3.88763622       0.95664342
C       -2.97963946       3.16315415       1.45122190
C        2.45802162      -1.23866111       2.51675992
C       -0.89259112       0.59823517      -3.99122421
C        2.26758916      -2.35589693      -1.02100339
C       -1.72615835      -3.45247884       1.75096936
C       -0.48598053      -1.41378765       2.25334253
C        0.12323314      -0.38965553       3.05455658
C        3.31542211      -0.47682174      -1.83224212
C        0.47377658      -1.26328800      -2.48423434
C        1.26055813       2.21266055       2.72152054
C        1.33324760       0.48920507       0.20239865
C        1.16979010       0.87805592      -1.14201411
C       -2.74917276       1.08431188      -1.68343890
C       -2.68836070       2.42438604      -5.14959907
C        0.73994665       3.61476938      -0.36886228
C       -0.68050727       0.76116129       3.26514895
C       -3.36546390       2.80277529       0.19766328
C       -1.06076434       2.89158412       2.60507734
C        1.47227892       3.11437158       1.65873573
C       -2.13732270       4.36193268       1.25791950
C       -2.76694984      -1.55504028       2.64633952
C        0.47665601       0.43239466      -4.17156597
C        3.40001687      -1.62028712       1.72384561
C       -2.73772016       2.39456823      -3.74197475
C       -2.15016339       0.86132253       3.00070874
C       -2.36078375      -1.42489801      -1.00307869
C       -2.94064988      -0.25599417       2.94674445
