60
Properties=species:S:1:pos:R:3 trial_index=4 seed_entry_id=0 discovered_entry_id=4 energy=-477.6531066894531 status=accepted pbc="F F F"
C        1.60123718      -3.22881224      -1.15028183
C        2.56715925       0.39537834      -2.19435915
C        1.69365778       1.88145712       2.35665038
C        2.42319101      -2.09859414      -1.42032582
C       -2.73902926       1.09876743       2.26802759
C        2.22947872       0.67969677       0.25497698
C       -0.02148323      -3.64831694       0.83942479
C        2.54052707      -1.51574564       2.15860450
C       -2.88299426       0.49346198      -3.29462405
C       -0.48958236      -1.08519715      -0.78589419
C       -1.13494713       1.83940940       3.95552728
C        1.38547708       3.83576413       0.30045796
C        0.28310375      -3.54745061      -1.54968220
C       -0.65677946       4.06920861      -0.71744449
C        1.07874302       3.62350991      -2.20365962
C       -0.29805001      -0.54074738       0.52035897
C        2.16335140       2.68727852      -2.27514777
C       -2.94465317      -3.06577734       0.36335209
C       -3.61434046      -2.04175359       0.71291550
C        2.90492739       1.01370838      -0.95586358
C       -2.79431571       1.65900549      -2.49056475
C       -1.72504488      -1.73043074      -1.33681316
C        0.15059401      -2.52798914       2.95717562
C       -2.60295711       0.03468562       1.28916432
C       -0.46940769      -1.56302016       3.46510838
C       -1.25096099      -0.37629882       1.53992853
C       -2.82011868      -0.69753475      -1.05167506
C        2.03676929      -2.46113154       1.31791627
C       -1.86524178      -2.97975651      -0.48883155
C        2.34072681       1.83570395       1.09429650
C       -1.89747090      -1.66518820      -3.92427055
C        1.92765863      -0.89227401      -2.00954140
C       -1.11134965      -0.42925409       2.97515997
C       -1.23184107       3.62298216      -1.98643888
C        1.92583249       0.74343569       3.10149617
C       -1.31585986      -2.20933626      -2.76620448
C        0.73966234      -3.05873233       1.77112170
C       -1.82218533       0.76548633       3.37334530
C       -0.28223313       2.63914200       3.50058419
C        0.64713266       2.89024462       2.48838874
C        2.24374194      -2.65123645      -0.08650874
C       -0.58249334      -3.64362238      -0.36382980
C        2.46081474       2.94935705       0.22115921
C        1.01559237      -0.00973538       0.04184427
C        0.77042766      -0.60433555      -1.23164084
C       -3.05308086       0.30957404      -1.94351339
C       -2.32134275      -1.38450174      -5.21435104
C        2.19298385       1.47834348      -3.01491895
C        0.38309283       3.67998526       1.32156495
C       -2.33180089       2.83139115      -2.18309700
C        0.73419614       4.11505728      -0.90724653
C        2.83366317       2.42434389      -1.04764779
C       -0.12250946       3.55642114      -2.91020130
C       -2.73517340       2.40073331       1.79475505
C       -0.26661029      -3.06700114      -2.69668054
C        2.38871663      -0.44644178       2.84383334
C       -2.54510971      -0.43259652      -4.22440872
C       -0.92079292       3.82527492       0.68466274
C       -3.32941555      -0.71498882       0.31889854
C       -2.08636421       3.30012709       1.22996971
