60
Properties=species:S:1:pos:R:3 trial_index=16 seed_entry_id=15 discovered_entry_id=16 energy=-489.20867919921875 status=accepted pbc="F F F"
C        2.32179271      -4.56734772      -0.21975396
C        2.37636979       0.14344813      -2.39297918
C        2.02325803       1.90369145       1.74626424
C        1.41330863      -3.78199627      -0.93615574
C       -2.45576990       2.26810395       2.65697754
C        3.20997037       1.03953616      -0.04463793
C       -0.56529268      -2.52724316       0.55588310
C        1.11281711      -0.77608935       2.67235274
C       -2.87735501      -0.08299113      -1.53891161
C        0.57221501      -0.33618994      -0.53763132
C       -1.33336393       1.78576401       3.34131130
C        0.77438829       3.51407739      -0.17870838
C        0.49906750      -3.00855530      -1.65429207
C       -1.46005057       3.46909491      -0.80143533
C        0.05082571       2.83126350      -2.41166107
C        2.39380371      -1.15958538       0.68520577
C        1.26938216       2.18073726      -2.61330286
C       -2.80051646      -1.50175673      -0.92240231
C       -2.86809964      -1.70187685       0.48295623
C        2.95724985       1.09826660      -1.46030228
C       -3.89841930       0.99689379      -1.68185245
C       -1.34660867      -1.37900265      -2.69760052
C       -3.96561727      -1.39780931       1.29381072
C       -1.42095538      -0.80140418       2.26886520
C       -3.82954188      -0.75563183       2.38002409
C       -0.17059651      -0.15309321       2.62858884
C       -0.56048238       0.14242020      -0.65914280
C        1.48738995      -1.72471912       1.68253369
C       -1.69670416      -2.08878968      -1.55603518
C        2.64406852       2.21612840       0.52508403
C        0.10949794       0.20350140      -3.34366304
C        2.08923326      -1.19214947      -1.95569833
C       -2.61762395      -0.24061936       2.82514514
C       -2.20149867       2.76688188      -1.82705763
C        2.63043079       0.67983140       2.20163279
C       -0.02740391      -1.17302182      -3.08981709
C        0.68970861      -2.80072972       1.18901977
C       -2.52598570       1.04265677       3.38884148
C       -0.14447541       1.29340859       2.79342339
C        0.64141356       2.18363235       1.95293214
C        1.44748836      -3.72523779       0.45146991
C       -0.66064651      -2.72328785      -0.86233632
C        2.05451773       3.02224125      -0.45186961
C        3.07954835       0.03817717       0.96864973
C        1.72521636      -1.04684985      -0.57596099
C       -1.84955914       0.48265164      -0.52018275
C       -1.16803800       0.85334205      -3.14829327
C        1.30753035       0.83476463      -3.04791889
C        0.02389344       3.07867280       0.97594060
C       -3.45105925       2.17761272      -1.78362472
C       -0.12493162       3.62586308      -1.25789290
C        2.30070187       2.35547356      -1.67817884
C       -1.19446520       2.18385189      -2.68800190
C       -2.32666710       2.27052001       1.21267727
C        0.97983149      -1.96457146      -2.54156589
C        2.15720846      -0.03215300       3.25593012
C       -2.06881958      -0.17468718      -2.77216182
C       -1.37724250       3.15441908       0.59669268
C       -1.60085644      -1.76068956       1.18387920
C       -2.35654871       1.10232397       0.56994534
