60
Properties=species:S:1:pos:R:3 trial_index=27 seed_entry_id=22 discovered_entry_id=23 energy=-496.9153747558594 status=accepted pbc="F F F"
C        2.87869466      -3.30967919      -0.98980510
C        2.26696611       0.13705241      -2.21024005
C        1.76185058       1.87278874       1.72377507
C        1.79450448      -3.99098508      -1.57352758
C       -2.51541095       2.90671958       2.82659766
C        3.08807846       1.02755999       0.01929221
C       -0.07585539      -2.98820724       0.19501307
C        0.67515050      -1.52999030       1.82451164
C       -3.04980735      -0.68294428      -1.61875324
C       -0.48655647      -1.69670692       0.88401300
C       -1.46374171       2.32362304       3.54968929
C        0.75278061       3.62887851      -0.19467970
C        0.69844977      -3.25143262      -2.02311831
C       -1.47423064       3.54476777      -0.74019287
C       -0.03238125       2.81616395      -2.38622862
C        2.66670230      -1.43875352       0.46951788
C        1.21579319       2.19657959      -2.58332263
C       -2.62016340      -1.78787882      -0.81972934
C       -2.85873949      -1.44239098       0.58104730
C        2.88571494       1.11560851      -1.37512582
C       -3.53170798       0.29907896      -0.76252195
C       -1.29528401      -1.56117486      -2.65179340
C       -3.67183074      -0.30308648       0.53655102
C       -1.69141797      -0.30840099       2.51718216
C       -3.48102700       0.71132119       1.50886312
C       -0.42534302       0.35338873       2.76378682
C       -0.63365254      -0.49233174      -0.03836470
C        1.77375765      -2.23186609       1.24702776
C       -1.55594098      -2.40175166      -1.56600213
C        2.54564125       2.22953703       0.60507172
C        0.04401164       0.15709847      -3.24091024
C        2.20063526      -1.28224173      -1.97199871
C       -2.85452922       0.45623303       2.73273751
C       -2.09604605       2.45885531      -1.41546731
C        1.88872889       0.46708175       1.90056514
C        0.00153629      -1.23854411      -3.05314806
C        1.19219825      -3.36670721       0.65040126
C       -2.70344391       1.65076788       3.48104033
C       -0.34646041       1.75875604       2.91803727
C        0.51266247       2.49742428       2.02977416
C        2.02775888      -4.10743685      -0.18105141
C       -0.42991887      -3.17367537      -1.13992499
C        2.01028548       3.04711165      -0.41023063
C        2.73731734      -0.06367942       0.85998001
C        2.87277110      -1.90442686      -0.87192629
C       -1.27679237       0.55966060      -0.25397626
C       -1.25150766       0.72185823      -2.97236460
C        1.23512766       0.81990675      -2.94153339
C        0.00072553       3.39488666       1.02582725
C       -2.49411283       1.35360344      -0.50150786
C       -0.16590334       3.68339529      -1.26971340
C        2.26185751       2.39464131      -1.64563005
C       -1.26469241       2.07202718      -2.51584531
C       -2.44387472       2.94822807       1.41724316
C        1.08284401      -1.98938122      -2.53476034
C        0.80162338      -0.28161367       2.40443638
C       -2.11626599      -0.40687715      -2.64199560
C       -1.38763147       3.53536593       0.69382632
C       -1.79391912      -1.37699153       1.53328285
C       -2.98904720       1.83036161       0.83130841
