60
Properties=species:S:1:pos:R:3 trial_index=31 seed_entry_id=24 discovered_entry_id=25 energy=-495.20050048828125 status=accepted pbc="F F F"
C        3.04173963      -3.39670220      -1.38964509
C        2.27104177       0.01462470      -2.33492433
C        1.81183104       1.83740998       1.85621320
C        1.79011517      -4.12119214      -1.64554775
C       -2.52790400       2.89357182       2.65444206
C        3.01936697       0.88745026       0.09285253
C        0.05939712      -3.04573753       0.28830010
C        0.74323933      -1.63025652       1.99562091
C       -2.95150725      -0.61379162      -1.67394131
C       -0.42105644      -2.10855852       1.32035534
C       -1.46145449       2.34779065       3.35652414
C        0.68005986       3.52048435      -0.16539208
C        0.71096423      -3.30409244      -2.03710617
C       -1.60286057       3.50558911      -0.80112404
C       -0.11581859       2.65240624      -2.31084224
C        3.00802632      -1.49057093       1.14723137
C        1.14147919       2.05851845      -2.54609132
C       -2.52174229      -1.73249146      -0.86805757
C       -2.72999685      -1.40575577       0.51052217
C        2.79285417       0.93233115      -1.33153740
C       -3.50521086       0.34369099      -0.82412527
C       -1.31627116      -1.67839709      -2.79328142
C       -3.59981631      -0.25221320       0.45533006
C       -1.55441006      -0.02826529       2.12995510
C       -3.64398085       0.78423610       1.40459961
C       -0.31442854       0.36754602       2.93102587
C       -1.26582328       0.79831466       0.99157053
C        1.91629804      -2.26248133       1.43229603
C       -1.48737780      -2.39794293      -1.57326815
C        2.47327795       2.09909567       0.63468832
C        0.02962500       0.06583068      -3.36346282
C        2.32334784      -1.44163069      -2.39273194
C       -2.89154348       0.50534464       2.57388578
C       -2.29502419       2.44161220      -1.47435678
C        1.94098595       0.44668804       2.09416605
C       -0.02156989      -1.34308938      -3.21424866
C        1.43026305      -3.30948058       0.58789767
C       -2.69628939       1.67700950       3.30716538
C       -0.20043185       1.79238258       3.15238213
C        0.64264350       2.52852354       2.24454888
C        2.24675358      -3.96535009      -0.33235555
C       -0.36137684      -3.12209232      -1.07283770
C        1.92848861       2.90815197      -0.38010702
C        2.88448925      -0.12884284       1.13218936
C        3.35886809      -2.21102470      -1.89294402
C       -0.87893328       1.94632643       0.65217078
C       -1.27077573       0.62351789      -3.06004916
C        1.21208038       0.71764379      -3.00756896
C       -0.04692537       3.09420067       1.04797118
C       -3.24394159       1.72248925      -0.69415776
C       -0.25025321       3.58023624      -1.25377452
C        2.16825047       2.21647355      -1.59285464
C       -1.34448110       1.91001408      -2.44700115
C       -2.79740299       3.09745642       1.30450772
C        1.06572474      -2.09947139      -2.72039996
C        0.86284940      -0.33193494       2.55409096
C       -2.12920392      -0.49071137      -2.79898320
C       -1.57247267       3.33556707       0.62619788
C       -1.65344458      -1.40019100       1.44940999
C       -3.48340133       2.02091343       0.69961630
