60
Properties=species:S:1:pos:R:3 trial_index=2 seed_entry_id=1 discovered_entry_id=2 energy=-478.7845458984375 status=accepted pbc="F F F"
C        1.64335554      -3.56207325      -0.76534467
C        2.28215085      -0.13886344      -2.21035715
C        1.96160681       1.92889683       2.01028388
C        2.66978090      -2.58153933      -1.03252634
C       -2.85619785       1.09039928       2.33611053
C        2.66647795       0.69730340       0.09928145
C       -0.29911895      -3.37416739       1.15585667
C        2.55866475      -1.62373396       2.35416986
C       -3.21407723       0.79930797      -3.43259433
C        0.06646923      -1.44414732       0.06974602
C       -1.13991519       1.62770189       3.73880063
C        1.05689669       3.49896308      -0.20022391
C        0.38342838      -3.25137342      -1.33632858
C       -1.12095133       3.74736857      -0.94207931
C        0.36268700       2.84376291      -2.43169342
C        0.24101157      -0.36777948       1.00655445
C        1.44673359       1.98282271      -2.51021534
C       -3.01141626      -2.80582018      -0.20493555
C       -3.31231873      -1.70910282       0.37823964
C        2.94438976       0.78519162      -1.31691022
C       -3.68314524       1.73489393      -2.38852328
C       -1.67832945      -1.42476667      -1.78618807
C       -0.45193151      -2.75985462       2.47890965
C       -2.22652264       0.32066755       1.30349018
C       -1.11828647      -1.88114078       3.25150225
C       -0.73569039       0.24879439       1.86630525
C       -2.52888359      -0.36145928      -1.25491829
C        2.14718758      -2.72269884       1.66655775
C       -1.78942828      -2.56598333      -0.90540872
C        2.61971882       1.97380764       0.71763094
C       -0.07388636       0.09973888      -3.06220643
C        1.86462796      -1.47319709      -1.74036420
C       -1.35190218      -0.58985810       3.04828856
C       -1.90311150       3.10443267      -1.99346814
C        2.31096567       0.83412597       2.78066003
C       -0.46676480      -1.23354236      -2.58214218
C        0.80982361      -3.18056555       1.91813476
C       -2.12086345       0.63980756       3.54175233
C       -0.35458475       1.55760337       2.61599975
C        0.60652197       2.44161319       1.99129223
C        2.38857899      -3.05953416       0.28598883
C       -0.50239903      -2.77900407      -0.22119298
C        2.27856453       2.84196719      -0.35444908
C        1.49432965      -0.03690852       0.31435208
C        1.16883911      -1.00540532      -0.57915671
C       -3.32025515       0.41113851      -2.07371409
C       -1.03801993       1.11833107      -3.48495693
C        1.24209297       0.60351687      -2.81651303
C        0.19621476       3.26863986       0.90942840
C       -3.26602268       2.94800650      -2.04369456
C        0.23939298       3.70143946      -1.32840842
C        2.50493130       2.12056186      -1.59093056
C       -0.92628235       2.37960673      -2.80475576
C       -2.99918779       2.41691876       1.92767579
C        0.60522099      -2.14596429      -2.27010947
C        2.59000582      -0.42805833       2.83167748
C       -2.17161201       0.80068784      -4.23862121
C       -1.18419195       3.52259679       0.48560682
C       -2.79931640      -0.41517773       0.23001274
C       -2.30913421       3.19224419       1.22362321
