60
Properties=species:S:1:pos:R:3 entry_id=34 rank=21 energy=-474.0841064453125 pbc="F F F"
C        7.65991203      -2.49446506       3.53757834
C        0.20351916       3.65206751      -2.72797618
C        3.48838875      -0.55715660      -0.31278176
C       -0.42141684       5.51870776      -5.80406124
C       -3.86010708       1.54162377       0.48211825
C        4.56446548      -3.51624800       5.30404541
C       -7.31095032      -3.42149105       6.19270147
C        7.08216572      -0.75153595       0.44028412
C       -5.18604042       2.63939923      -4.51537764
C        0.66272346      -3.39860619       5.34608945
C       -2.16243442      -0.89351490       1.97533880
C        2.11460361      -0.21007009      -0.82200088
C        6.87557525      -3.00443935       4.40405080
C       -0.23339034       0.54099058      -0.97068669
C        3.28743316       2.46657758      -4.53362448
C        2.37354318      -1.87994215       1.93989475
C        2.10655555       3.17774813      -4.23718666
C       -0.28312397      -3.90603909       6.31569387
C       -0.17450406      -2.72302457       4.28351389
C       -0.10435629       4.55722341      -3.57831742
C       -9.83212590       2.77385277      -6.14059659
C       -5.14152342       4.33843338      -5.95815976
C       -5.06293684      -2.84143352       5.09977578
C       -1.56098863      -2.86557581       4.75996383
C       -3.94755067      -2.60096507       4.62503862
C        0.20272670      -2.15521093       3.15162304
C       -5.99126169       3.37631364      -5.39784496
C        7.79267443      -1.25577922       1.37059160
C        2.01951344      -3.47604990       5.35883584
C        1.60577630       1.63122407      -2.35073120
C       -7.33528133       3.17157185      -5.65426422
C       -1.62646542       5.63893865      -6.15077438
C       -2.69151525      -2.34105191       4.09602744
C       -2.25567513       1.33424954      -2.43565372
C        4.78105454      -0.32045937      -0.51742774
C       -4.06393391       4.94543977      -6.17192124
C       -6.29237089      -3.05999627       5.54769912
C       -2.48430293      -1.55967009       2.94848832
C        0.88977766      -1.70891873       2.09771104
C        1.56543261      -1.12241169       0.04595042
C        8.00852412      -1.87694996       2.47076103
C        3.26367456      -3.54403065       5.40701931
C        1.21253223       0.72692110      -1.42887219
C        2.80217685      -1.48789013       0.72563086
C        5.76928534      -3.33799099       4.97572271
C       -8.57237209       2.96885272      -5.88890819
C        0.40622616       4.86919650      -4.90263270
C        1.60607474       4.17650388      -5.02815346
C        0.43418020      -1.04609505       0.82755572
C       -3.26829034       1.70656042      -3.11345414
C       -1.25471215       0.99881016      -1.73205797
C        1.30226551       2.75631871      -3.01636804
C        4.36340151       1.96994920      -4.91929873
C       -2.82828667       0.82779535       0.47440034
C       -2.89238731       5.48412960      -6.32232803
C        5.99912732      -0.44614747      -0.18488587
C       -4.22000100       2.20841204      -3.84409693
C       -0.56279243      -0.20709678       0.26879275
C       -1.52007412      -3.59858376       5.97083941
C       -1.84980331      -0.09080980       0.86493981
