60
Properties=species:S:1:pos:R:3 entry_id=4 rank=25 energy=-473.1749267578125 pbc="F F F"
C        8.05804231      -3.67800102       2.55817362
C        0.54566189       2.45235040      -6.08243717
C        2.60477546      -0.41658302       1.22168357
C       -0.12478768       2.05454381      -7.23534147
C       -4.58709586       1.43808817       0.68230145
C        5.35568873      -4.69954332       4.62789986
C       -7.79436008      -3.44871094       5.46236787
C        6.34287681      -1.11208392       0.68624498
C       -4.43926791       2.96325607      -3.68701385
C        2.13026831      -2.94423369       3.91554059
C       -1.89250774      -0.51235414       2.13915218
C        1.73648718       1.02278153      -0.49000042
C        7.55906313      -4.41671065       3.48721479
C       -0.85027368       2.22831204      -0.00657780
C        0.90643178       4.85458828      -3.28999961
C        1.56448897      -1.97642658       3.07366627
C        0.94449208       3.82410142      -4.19700275
C       -2.16219667      -4.49692332       6.35163543
C       -0.64598764      -2.43441698       3.90266603
C        1.49961891       1.82134814      -5.27622055
C       -7.80975943       2.65916556      -4.12497291
C       -4.55968404       3.14241760      -5.96171409
C       -5.42825560      -2.78316888       4.74250897
C       -1.87248777      -2.73230903       4.38582499
C       -4.32069923      -2.44278391       4.31502095
C        0.11532432      -1.71057828       3.04499553
C       -5.29454271       2.99645244      -4.78844766
C        7.31488879      -1.84173707       1.03555118
C        3.07386450      -3.64083757       4.34849562
C        1.92660927       2.06628162      -2.79768753
C       -2.09136596       4.00231691      -6.28898469
C       -1.27157397       2.23384057      -7.76375321
C       -3.08091491      -2.05449852       3.80580643
C       -1.70008463       2.92495952      -0.98805682
C        3.91495817      -0.31660960       0.72155774
C       -3.41060420       3.30755646      -6.50829243
C       -6.58233719      -3.16391222       5.27795116
C       -2.83723911      -1.12886365       2.85101816
C       -0.43121646      -0.72705934       2.13865529
C        1.47864583       0.32110875       0.63535497
C        7.96172911      -2.75372539       1.68015972
C        4.15438657      -4.30978268       4.66788474
C        1.89082804       1.57396529      -1.63243079
C        2.32415347      -1.27154851       2.22169474
C        6.58310827      -4.77289772       4.23273985
C       -6.68676262       2.85737018      -4.62718524
C       -1.04700942       4.37453790      -5.61723097
C        0.11119051       3.70007494      -5.36713529
C        0.15255606       0.18435870       1.19002056
C       -2.64834450       2.88985792      -1.87042310
C       -0.61096701       3.53553943      -0.24133045
C        1.61756410       2.51399169      -4.04269646
C        0.96054401       5.91746542      -2.62203873
C       -3.39849646       1.08699422       0.88089651
C       -2.28473349       2.99394052      -7.28487571
C        5.12111737      -0.63857891       0.65528414
C       -3.54817053       2.93264784      -2.80000538
C       -0.91702668       1.02754712       0.69534342
C       -2.09318848      -3.66573630       5.42445377
C       -2.16231685       0.57354688       1.19009091
