60
Properties=species:S:1:pos:R:3 entry_id=28 rank=28 energy=-472.0691223144531 pbc="F F F"
C        6.01565986      -1.51804470      -0.31336601
C        0.65771648       1.60451171      -0.76864181
C        1.25737601       7.64612980      -0.58978041
C        3.48097445      -1.74923083      -0.00756635
C       -4.26591033       9.52365324      -2.37795798
C        1.57081924       3.99725271      -0.65649213
C      -10.61269359      -5.83923484       4.79536830
C        9.81012227      -1.71089333      -0.84693619
C       -3.08652865       0.08609658      -1.69957489
C        2.57801384      -4.48446053       1.51083602
C        1.67812097      -6.32097151       2.78790430
C        0.15830111       5.82204988      -1.41394835
C        4.77183692      -1.56606296      -0.13893465
C       -1.96866787       6.46278804      -2.06092148
C       -1.22325725       2.90627975      -2.79119578
C        3.40390310      -5.69089263       1.31461210
C       -0.91351113       1.57389277      -2.43305158
C       -8.15372625      -6.06705284       4.18199682
C       -3.19800477      -6.05963682       2.98997933
C        1.10614491       2.81419495      -0.76006549
C       -4.01438540       3.53206928      -2.60297161
C       -1.00305020      -3.72617391       0.48036945
C       -6.91603686      -6.14995500       3.88013771
C       -5.68364431      -6.11566745       3.54168761
C       -1.92707918      -5.94537791       2.72373367
C        2.81968188      -6.79466510       2.03851894
C       -3.75436228       1.06595550      -2.06780890
C        8.54342093      -1.61783420      -0.70874953
C        0.34089316      -3.53965339       0.73124264
C        2.02116388       6.58025560      -0.35783067
C       -2.54082199      -2.14194189      -0.79952282
C        0.91163100      -2.28104693       0.17205536
C       -0.73313895      -5.75882338       2.43168647
C       -3.20134421       5.99554171      -2.41774557
C       12.33151341      -1.94912558      -1.10876485
C       -1.88518085      -3.03595387      -0.16509228
C       -9.38211754      -6.11871298       4.60867675
C        0.59320735      -5.56399003       2.19905281
C       -0.49090643      11.16557081      -1.01705309
C        0.04821143       7.25257021      -1.22567945
C        7.29460383      -1.48920404      -0.46886931
C        1.15992173      -4.47152407       1.42430741
C        1.37005659       5.32616524      -0.81345097
C        2.85814196      -5.38549239       2.72668698
C        2.28109135      -2.04097080       0.14708454
C       -4.09663342       2.30024448      -2.41079735
C       -0.76759275      -0.48370324      -0.94775551
C       -0.34745014       0.87166762      -1.32761810
C       -0.96954291      10.03724650      -1.26606737
C       -3.10918785       4.57400253      -2.54813343
C       -1.01480577       5.33885666      -1.96916628
C       -1.06983004       1.90170667      -3.76676714
C       -1.67412830       4.16428188      -2.39177504
C       -3.12719737       9.11494145      -2.06006394
C        0.09759405      -1.32369383      -0.36925922
C       11.05696852      -1.92045580      -1.15619239
C       -2.20964594      -0.85949108      -1.21446284
C       -1.25451295       7.64801197      -1.63824116
C       -4.42738737      -6.11363015       3.26372171
C       -1.78669257       8.95205769      -1.64521113
