115
Lattice="13.75323 0.0 0.0 0.0 13.75323 0.0 0.0 0.0 23.89" Properties=species:S:1:pos:R:3 input=/mnt/d/download/trae-research-code/ssw/PdO.xyz system=pdo pbc_mode=slab fixed_bottom_fraction=0.35 pbc="T T F"
Pd       0.00000000       0.00000000      10.00000000
Pd       2.75064538       0.00000000      10.00000000
Pd       5.50129076       0.00000000      10.00000000
Pd       8.25193614       0.00000000      10.00000000
Pd      11.00258152       0.00000000      10.00000000
Pd       0.00000000       2.75064538      10.00000000
Pd       2.75064538       2.75064538      10.00000000
Pd       5.50129076       2.75064538      10.00000000
Pd       8.25193614       2.75064538      10.00000000
Pd      11.00258152       2.75064538      10.00000000
Pd       0.00000000       5.50129076      10.00000000
Pd       2.75064538       5.50129076      10.00000000
Pd       5.50129076       5.50129076      10.00000000
Pd       8.25193614       5.50129076      10.00000000
Pd      11.00258152       5.50129076      10.00000000
Pd       0.00000000       8.25193614      10.00000000
Pd       2.75064538       8.25193614      10.00000000
Pd       5.50129076       8.25193614      10.00000000
Pd       8.25193614       8.25193614      10.00000000
Pd      11.00258152       8.25193614      10.00000000
Pd       0.00000000      11.00258152      10.00000000
Pd       2.75064538      11.00258152      10.00000000
Pd       5.50129076      11.00258152      10.00000000
Pd       8.25193614      11.00258152      10.00000000
Pd      11.00258152      11.00258152      10.00000000
Pd       1.35003978       1.31969718      11.97191988
Pd       4.09824438       1.33688761      11.95839418
Pd       6.82842465       1.38846282      11.93609667
Pd       9.57512057       1.39592898      11.89594876
Pd      12.38684272       1.37174114      11.92044161
Pd       1.36304785       4.10615411      11.92129968
Pd       4.13770581       4.10888253      11.92235754
Pd       6.86506092       4.12014456      11.97606701
Pd       9.56728621       4.13975942      11.94281254
Pd      12.36578195       4.13265160      11.93417299
Pd       1.37110082       6.89256210      11.94010419
Pd       4.13935064       6.87026939      11.96482277
Pd       6.87097415       6.85831372      11.95140951
Pd       9.64205429       6.82915781      11.94515418
Pd      12.39111484       6.85622887      11.94896407
Pd       1.40454124       9.63046397      12.03216501
Pd       4.11777592       9.66324146      11.95099537
Pd       6.89476706       9.64088005      11.95142944
Pd       9.64982872       9.59779534      11.89439304
Pd      12.42487279       9.60955999      11.94161946
Pd       1.41340336      12.34827199      11.99891871
Pd       4.13326990      12.33362018      12.05891831
Pd       6.86816975      12.39901143      11.97280504
Pd       9.63028672      12.36702810      11.91406436
Pd      12.42176527      12.37636523      11.89541074
Pd       2.70780416       0.00783704      14.01169626
Pd       8.46830475      12.64568602      14.47535563
Pd       9.51950428       1.18227060      15.77257099
Pd      10.95903578       0.07506389      13.83889492
Pd      13.71919785      13.74243013      14.10095355
Pd      13.75295263       2.70325616      13.91410358
Pd       2.69483478       2.72745935      13.89455769
Pd       5.38730918       2.78630285      13.98756571
Pd       8.18863480       2.69074680      13.99578948
Pd      10.97057762       2.81709999      13.94748268
Pd      13.72567651       5.42325078      13.90731969
Pd       2.77737330       5.43077899      13.86630830
Pd       5.50448728       5.49744783      13.95882985
Pd       8.34984031       5.46386645      14.02232912
Pd      11.03333999       5.55784822      14.06897904
Pd      13.71606797       8.15582974      14.01223107
Pd       2.71891517       8.20135725      14.06906069
Pd       5.50436383       8.29743464      13.91028350
Pd       8.21426765       8.36843706      13.91038761
Pd      11.00392540       8.28216734      13.93494536
Pd       2.85099123      11.06133751      14.20265898
Pd       5.82405182      11.00438589      14.25762358
Pd       7.75304660       9.95316425      16.11440048
Pd      10.94937082      10.97506981      13.80910827
Pd       0.01669138      10.96163276      13.97936130
Pd      12.50735675       6.64618805      16.62380698
Pd      10.75382110       9.85007539      16.25193141
Pd       1.33374119      12.57964259      16.35323581
Pd       1.47658769       6.49141925      15.83513719
Pd       0.45418967       9.22829154      16.54509850
Pd       8.59194600       1.85860677      18.15124371
Pd       6.99320584       0.33591608      16.49934362
Pd       4.02301649      13.27902230      16.36357956
Pd       5.42316278       0.08215719      14.01480693
Pd      12.18181711       1.13849151      16.39400559
Pd      13.65800850       4.00967768      16.34319629
Pd       3.27064751       3.90805725      16.28993579
Pd      10.13330607       3.65237647      16.61470186
Pd       4.44065518       9.32778510      16.21100093
Pd       6.75097011       7.12659379      16.25823192
Pd       9.23470451      12.66854722      17.28108216
Pd       9.47083844       7.33579386      15.94625601
Pd       6.79606856       3.34122186      16.55359008
Pd       1.36364539       1.64000987      15.98325968
Pd       4.07441758       6.59853838      15.99389381
O        8.42133252       3.73944416      17.58257074
O       12.24127925       8.83100954      16.94919593
O       12.12580809      12.39623613      14.67379296
O       12.27697251      13.17710945      17.39528538
O       11.32253866      12.26553935      17.44839103
O        2.53913961       9.56999468      15.67846982
O        7.52477441       0.53762468      13.78511221
O        2.39086137       0.29705552      17.10459787
O        9.25831632      11.22586098      15.80227158
O        0.20066817      11.06447920      15.97101682
O        5.74696239      12.59639445      15.73639626
O        1.61753168       4.75816272      16.90691628
O        5.32403958       6.34936126      17.41511188
O        6.27002364       8.95476944      16.88038379
O        4.97291924       2.99952373      15.93147760
O       11.93091126       3.09116341      15.91083044
O       10.76660881       5.75550417      16.20937702
O        0.48264098       7.39009900      17.29483387
O        8.97485332       0.10482070      18.76880285
O        6.95832217       5.27735879      15.50859431
