115
Lattice="13.75323 0.0 0.0 0.0 13.75323 0.0 0.0 0.0 23.89" Properties=species:S:1:pos:R:3 input=/mnt/d/download/trae-research-code/ssw/PdO.xyz system=pdo pbc_mode=slab fixed_bottom_fraction=0.35 pbc="T T F"
Pd       0.00000000       0.00000000      10.00000000
Pd       2.75064538       0.00000000      10.00000000
Pd       5.50129076       0.00000000      10.00000000
Pd       8.25193614       0.00000000      10.00000000
Pd      11.00258152       0.00000000      10.00000000
Pd       0.00000000       2.75064538      10.00000000
Pd       2.75064538       2.75064538      10.00000000
Pd       5.50129076       2.75064538      10.00000000
Pd       8.25193614       2.75064538      10.00000000
Pd      11.00258152       2.75064538      10.00000000
Pd       0.00000000       5.50129076      10.00000000
Pd       2.75064538       5.50129076      10.00000000
Pd       5.50129076       5.50129076      10.00000000
Pd       8.25193614       5.50129076      10.00000000
Pd      11.00258152       5.50129076      10.00000000
Pd       0.00000000       8.25193614      10.00000000
Pd       2.75064538       8.25193614      10.00000000
Pd       5.50129076       8.25193614      10.00000000
Pd       8.25193614       8.25193614      10.00000000
Pd      11.00258152       8.25193614      10.00000000
Pd       0.00000000      11.00258152      10.00000000
Pd       2.75064538      11.00258152      10.00000000
Pd       5.50129076      11.00258152      10.00000000
Pd       8.25193614      11.00258152      10.00000000
Pd      11.00258152      11.00258152      10.00000000
Pd       1.36734163       1.40341115      11.97587035
Pd       4.11008669       1.40480067      12.00331741
Pd       6.84736002       1.37524633      11.97708433
Pd       9.57512057       1.39592898      11.89594876
Pd      12.38684272       1.37174114      11.92044161
Pd       1.37311323       4.14930364      11.97642344
Pd       4.11878222       4.12918875      12.00253114
Pd       6.84769763       4.11579613      11.98658203
Pd       9.56728621       4.13975942      11.94281254
Pd      12.36578195       4.13265160      11.93417299
Pd       1.37110082       6.89256210      11.94010419
Pd       4.13935064       6.87026939      11.96482277
Pd       6.87097415       6.85831372      11.95140951
Pd       9.64205429       6.82915781      11.94515418
Pd      12.39111484       6.85622887      11.94896407
Pd       1.36315178       9.64394566      11.97997451
Pd       4.11777592       9.66324146      11.95099537
Pd       6.89476706       9.64088005      11.95142944
Pd       9.64982872       9.59779534      11.89439304
Pd      12.42487279       9.60955999      11.94161946
Pd       1.36240035      12.38662546      11.97162320
Pd       4.10669125      12.42363767      11.96845211
Pd       6.86816975      12.39901143      11.97280504
Pd       9.63028672      12.36702810      11.91406436
Pd      12.37400058      12.34016335      11.96610586
Pd       2.69121907       0.06082047      13.99948438
Pd       8.31097937      13.67566346      13.97459429
Pd       9.82269125       1.17254843      15.92410065
Pd      11.06047945      13.70529505      13.92033202
Pd      13.72735860      13.73010585      13.96826817
Pd      10.95502398       2.68731051      13.93471696
Pd       2.64166508       2.79926949      14.01347568
Pd       5.42143496       2.78036383      14.04687255
Pd       6.90801712       0.91153328      16.21459339
Pd       8.29066876       2.68092077      13.99164288
Pd      13.66534227       2.78110215      13.91752383
Pd       2.76524012       5.54970045      13.99668728
Pd       5.56437884       5.58829459      14.00501124
Pd       8.27546277       5.41985626      14.01359095
Pd      11.06662768       5.42006573      13.92335153
Pd      11.11336445       8.21662492      13.93000618
Pd       0.06740220       5.63692840      13.98148755
Pd       2.70236487       8.28414102      13.90299503
Pd       5.47405152       8.29265160      13.98653889
Pd       8.27936882       8.20081006      13.98688700
Pd      13.68787647      10.91803415      13.96363497
Pd       2.74675375      11.05973040      13.96048380
Pd       5.49180671      11.00431011      13.92134515
Pd       8.22081222      10.96310597      13.88717406
Pd      10.93195732      10.95731042      13.96729529
Pd      12.99505127       6.33029263      16.55594884
Pd      10.55971872       9.05729285      16.59324763
Pd       1.30647817      12.39711552      16.26630756
Pd       2.54835303       7.01242485      16.43754377
Pd       0.18569882       9.09207279      16.66609841
Pd      10.01209867       1.98595590      18.42687467
Pd       5.06587290      12.19587213      16.32533843
Pd       6.91130726       9.80100807      15.90117614
Pd       5.52142417      13.72783431      13.98289896
Pd      11.89482971      12.20081415      16.54375574
Pd       1.07404919       4.31736052      16.36258898
Pd       4.19712120       1.07149395      16.12178897
Pd      11.40031282       3.55085036      16.75075192
Pd       3.99723694       9.57858449      16.46393566
Pd       5.48328312       7.31994789      16.59926655
Pd       8.52978087      11.97937078      16.36018997
Pd       9.71609148       6.71769319      15.95059645
Pd       8.40983370       3.52474639      16.64233919
Pd      13.13544708       1.30717275      16.30536840
Pd       4.23779621       4.17575828      16.08004335
O        9.83891389       3.88746997      17.94431740
O       12.20935214       9.16152438      17.51629806
O       13.42494920      13.31082578      17.08288317
O       10.26541446      13.29907952      17.29068234
O       10.28582987       0.06096685      18.61586085
O        2.14756626       8.88672577      15.83849742
O        3.19000387      11.43517296      15.97018387
O        2.91676150       2.75470171      16.06067467
O       10.33468891      11.04951338      15.99780265
O       13.62397407      10.96237113      16.02648604
O        2.36297686       0.25629792      16.02655655
O        2.71171459       5.18533254      17.08863241
O        5.68412198       5.48681625      16.02187310
O        5.68461596       9.09959630      17.37969331
O        6.89838169       2.78567870      15.58916396
O       13.20274935       3.23574868      15.88545474
O       11.30768651       5.48169591      15.98801943
O        0.69845749       7.31112197      17.35937851
O        6.84166179      12.84543995      16.93441007
O        8.69427251       8.46114738      16.04254962
