115
Lattice="13.75323 0.0 0.0 0.0 13.75323 0.0 0.0 0.0 23.89" Properties=species:S:1:pos:R:3 input=/mnt/d/download/trae-research-code/ssw/PdO.xyz system=pdo pbc_mode=slab fixed_bottom_fraction=0.35 pbc="T T F"
Pd       0.00000000       0.00000000      10.00000000
Pd       2.75064538       0.00000000      10.00000000
Pd       5.50129076       0.00000000      10.00000000
Pd       8.25193614       0.00000000      10.00000000
Pd      11.00258152       0.00000000      10.00000000
Pd       0.00000000       2.75064538      10.00000000
Pd       2.75064538       2.75064538      10.00000000
Pd       5.50129076       2.75064538      10.00000000
Pd       8.25193614       2.75064538      10.00000000
Pd      11.00258152       2.75064538      10.00000000
Pd       0.00000000       5.50129076      10.00000000
Pd       2.75064538       5.50129076      10.00000000
Pd       5.50129076       5.50129076      10.00000000
Pd       8.25193614       5.50129076      10.00000000
Pd      11.00258152       5.50129076      10.00000000
Pd       0.00000000       8.25193614      10.00000000
Pd       2.75064538       8.25193614      10.00000000
Pd       5.50129076       8.25193614      10.00000000
Pd       8.25193614       8.25193614      10.00000000
Pd      11.00258152       8.25193614      10.00000000
Pd       0.00000000      11.00258152      10.00000000
Pd       2.75064538      11.00258152      10.00000000
Pd       5.50129076      11.00258152      10.00000000
Pd       8.25193614      11.00258152      10.00000000
Pd      11.00258152      11.00258152      10.00000000
Pd       1.42766229       1.35262150      11.94401133
Pd       4.13571451       1.36771441      11.98655665
Pd       6.86237173       1.40096747      11.96892865
Pd       9.57512057       1.39592898      11.89594876
Pd      12.38684272       1.37174114      11.92044161
Pd       1.38197465       4.08347517      11.98924980
Pd       4.10581969       4.12679922      12.02360442
Pd       6.85431176       4.15957652      12.00056103
Pd       9.56728621       4.13975942      11.94281254
Pd      12.36578195       4.13265160      11.93417299
Pd       1.37110082       6.89256210      11.94010419
Pd       4.13935064       6.87026939      11.96482277
Pd       6.87097415       6.85831372      11.95140951
Pd       9.64205429       6.82915781      11.94515418
Pd      12.39111484       6.85622887      11.94896407
Pd       1.34151288       9.59229895      12.13304299
Pd       4.11777592       9.66324146      11.95099537
Pd       6.89476706       9.64088005      11.95142944
Pd       9.64982872       9.59779534      11.89439304
Pd      12.42487279       9.60955999      11.94161946
Pd       1.42771175      12.26298067      11.97881547
Pd       4.15763734      12.36656649      11.99515861
Pd       6.86816975      12.39901143      11.97280504
Pd       9.63028672      12.36702810      11.91406436
Pd      12.37720291      12.31880936      11.95730901
Pd       2.80447987      13.62713094      13.96497314
Pd       8.31602286       0.04498270      13.92287123
Pd      11.07440504       0.02238133      13.86879385
Pd      10.95720358      10.93219281      14.01708940
Pd       0.09652270      13.68305187      13.76503932
Pd       0.06193099       2.63706038      13.96936243
Pd       2.76002744       2.60887686      14.11301709
Pd       5.43028631       2.79415127      13.95970011
Pd       8.40038597       2.79300687      13.96703109
Pd      11.05139121       2.77667071      13.99201528
Pd      13.71355488       5.46881464      13.88851324
Pd       2.66215280       5.26746995      14.19407919
Pd       5.55549070       5.64324570      14.05177445
Pd       8.27972275       5.65577172      14.05286186
Pd      10.98973003       5.55228609      13.89843259
Pd       4.60394100       8.33071876      14.21472637
Pd       0.86924327       5.98722477      16.28568077
Pd       7.37065249       8.30099140      14.34620988
Pd      10.28156092       8.20720974      14.11328318
Pd      13.02836164       8.19590078      14.20187657
Pd       1.35264617      11.51356694      16.45541284
Pd       2.82219954      10.81780857      14.08860958
Pd       5.55209447      10.90612525      13.98574285
Pd       8.24835496      10.99817001      13.91434464
Pd      13.63173603      10.99299847      14.16264282
Pd       0.82769998       7.97950908      18.22246242
Pd       1.79248161       8.38430736      15.01926930
Pd       4.68247466      12.38505162      16.17616383
Pd       3.04879552       5.87095288      17.79932982
Pd       3.33361417       9.18963038      17.16702605
Pd       9.87083013       4.52018505      16.39416522
Pd       7.02770662       4.30276228      16.26465482
Pd       9.68277708      12.60447297      16.05059489
Pd       5.58142348       0.01059720      13.99134934
Pd      13.21026084       0.17610275      16.26970350
Pd       1.66439469       3.13936056      16.65375680
Pd       4.36077038       4.25589055      15.95415273
Pd      12.61547433       3.93149519      16.05193150
Pd       6.52409382      10.15859013      16.49574319
Pd       9.28404414       9.70330271      16.14880171
Pd       9.79065027       1.79300042      16.44869810
Pd      12.20208492       7.19384028      16.82861398
Pd       8.60392655       6.95240251      16.59848441
Pd       3.04188285       0.73371086      16.49837122
Pd       5.57775136       7.10613120      16.33405302
O       11.49813148       5.55899719      15.92118927
O        1.35305724       9.45205668      16.67420982
O        1.36269636      13.51444408      16.74174893
O       13.19440712      11.89107407      16.09594863
O        8.99215062       0.20675794      17.27579645
O        5.28131799       8.89194501      17.31527915
O        6.91157661       2.64471776      15.26631751
O        4.92305615       1.32013150      16.55916622
O       11.16819472       0.29531143      15.91263183
O        3.32545265      10.99116900      16.22218282
O        5.76684408       0.27965787      16.11626817
O        3.20680725       3.95471627      17.54488949
O       10.26708756       7.98232958      16.20490992
O        8.13176296      11.30450773      16.02117407
O        7.01811746       6.01661119      17.25437115
O       13.69760488       2.24957930      16.08094364
O       12.76098744       8.44334848      18.12936530
O        2.79351443       7.69971666      18.40219917
O        8.64737038       3.25291327      17.19128429
O        2.63093780       7.24754309      13.65249180
