115
Lattice="13.75323 0.0 0.0 0.0 13.75323 0.0 0.0 0.0 23.89" Properties=species:S:1:pos:R:3 input=/mnt/d/download/trae-research-code/ssw/PdO.xyz system=pdo pbc_mode=slab fixed_bottom_fraction=0.35 pbc="T T F"
Pd       0.00000000       0.00000000      10.00000000
Pd       2.75064538       0.00000000      10.00000000
Pd       5.50129076       0.00000000      10.00000000
Pd       8.25193614       0.00000000      10.00000000
Pd      11.00258152       0.00000000      10.00000000
Pd       0.00000000       2.75064538      10.00000000
Pd       2.75064538       2.75064538      10.00000000
Pd       5.50129076       2.75064538      10.00000000
Pd       8.25193614       2.75064538      10.00000000
Pd      11.00258152       2.75064538      10.00000000
Pd       0.00000000       5.50129076      10.00000000
Pd       2.75064538       5.50129076      10.00000000
Pd       5.50129076       5.50129076      10.00000000
Pd       8.25193614       5.50129076      10.00000000
Pd      11.00258152       5.50129076      10.00000000
Pd       0.00000000       8.25193614      10.00000000
Pd       2.75064538       8.25193614      10.00000000
Pd       5.50129076       8.25193614      10.00000000
Pd       8.25193614       8.25193614      10.00000000
Pd      11.00258152       8.25193614      10.00000000
Pd       0.00000000      11.00258152      10.00000000
Pd       2.75064538      11.00258152      10.00000000
Pd       5.50129076      11.00258152      10.00000000
Pd       8.25193614      11.00258152      10.00000000
Pd      11.00258152      11.00258152      10.00000000
Pd       1.35087253       1.41570024      11.99294815
Pd       4.10709563       1.40709701      11.96888778
Pd       6.82854093       1.36152445      11.96262657
Pd       9.57512057       1.39592898      11.89594876
Pd      12.38684272       1.37174114      11.92044161
Pd       1.35825750       4.15048112      11.98566643
Pd       4.09672691       4.14656134      11.98176987
Pd       6.84191003       4.11786821      11.96330953
Pd       9.56728621       4.13975942      11.94281254
Pd      12.36578195       4.13265160      11.93417299
Pd       1.37110082       6.89256210      11.94010419
Pd       4.13935064       6.87026939      11.96482277
Pd       6.87097415       6.85831372      11.95140951
Pd       9.64205429       6.82915781      11.94515418
Pd      12.39111484       6.85622887      11.94896407
Pd       1.39391853       9.63217454      11.97989425
Pd       4.11777592       9.66324146      11.95099537
Pd       6.89476706       9.64088005      11.95142944
Pd       9.64982872       9.59779534      11.89439304
Pd      12.42487279       9.60955999      11.94161946
Pd       1.37398737      12.39209204      11.97932989
Pd       4.12595252      12.41750700      11.96809439
Pd       6.86816975      12.39901143      11.97280504
Pd       9.63028672      12.36702810      11.91406436
Pd      12.36909348      12.33265704      12.00387171
Pd       2.75380393       0.12331052      13.95119269
Pd       8.21107493       0.00287795      13.95718152
Pd       9.41685297       1.52024034      16.01962166
Pd      10.95411680      13.72871246      13.91658595
Pd      13.66839040       2.76832102      14.02306433
Pd      10.91606676       2.69417898      13.86507087
Pd       2.66180776       2.85540886      13.99646091
Pd       5.44945658       2.65401263      13.98400095
Pd       6.88925997      12.36966393      15.83218776
Pd       8.20002363       2.72972399      13.90445233
Pd       0.08221320       5.50584551      14.04170498
Pd       2.76022700       5.60507001      14.05690729
Pd       5.53801124       5.59259137      13.96143772
Pd       8.30019848       5.44134973      14.03205937
Pd      11.09308598       5.43923004      13.97697296
Pd      11.05820919       8.21179277      13.91989551
Pd      13.74886004       8.17509603      14.01858452
Pd       2.71532526       8.34146692      14.04797889
Pd       5.45732387       8.31234038      13.93559516
Pd       8.28807314       8.18550067      13.83868597
Pd       0.00065111      10.88958007      13.96026126
Pd       2.81871288      11.08717514      13.97788395
Pd       5.56355764      11.05080555      13.92843216
Pd      10.81594994      10.93746327      13.93263872
Pd      12.25663997      12.24227457      15.86791260
Pd      13.09970928       6.48575806      16.60797772
Pd      10.97693460       9.47850288      16.33317583
Pd       1.43874412      12.50319242      16.05088701
Pd       2.75440911       6.94308074      16.89152524
Pd       0.56579783       9.11370566      16.64528419
Pd       7.13423676       0.77852035      17.43117018
Pd       4.28554442      12.81731090      16.50045961
Pd       7.56883319       9.88657640      15.76595911
Pd       5.46462024       0.00879904      14.03484815
Pd       0.00756681      13.72214605      13.99193647
Pd       0.85703335       4.28331286      16.58655970
Pd       4.38164325       1.68647233      16.64712413
Pd      11.16292628       3.56104515      16.42590879
Pd       4.17859335      10.11703573      16.53940053
Pd       6.40126305       6.91962750      16.32208647
Pd       9.66943509      12.65612982      16.01290593
Pd       9.78373641       6.83799101      16.00786856
Pd       7.54918589       3.94907947      16.22346608
Pd      12.27059983       1.15465407      15.92294221
Pd       4.00534493       4.50159827      16.47082114
O        9.28615431       3.37063545      16.94930388
O       12.45047940       8.57866085      17.13055450
O        8.17392209      12.89128784      17.35851456
O        5.92427400       2.24585781      17.92175757
O        6.48893733       3.50388540      17.95282083
O        2.69710124       8.81489625      16.10326839
O        2.84529005      11.46694285      17.21800729
O        2.90015909       2.90479204      15.99513847
O        9.46350729      10.55662008      15.67622867
O        0.16932343      10.99377992      16.05786256
O        2.78918819       0.27326535      16.00127999
O        2.40738643       5.08221261      17.51066024
O        4.69829874       6.28726920      16.99371288
O        5.74100965       8.97610262      15.91461857
O        5.71961317       4.12293575      15.40800320
O       13.09039878       3.16727256      16.01368430
O       11.37370310       5.66134188      16.09121228
O        0.90382839       7.35591637      17.40880857
O        5.56965631      11.46696181      17.13822279
O        8.12043761       7.84050617      15.94362084
