115
Lattice="13.75323 0.0 0.0 0.0 13.75323 0.0 0.0 0.0 23.89" Properties=species:S:1:pos:R:3 input=/mnt/d/download/trae-research-code/ssw/PdO.xyz system=pdo pbc_mode=slab fixed_bottom_fraction=0.35 pbc="T T F"
Pd       0.00000000       0.00000000      10.00000000
Pd       2.75064538       0.00000000      10.00000000
Pd       5.50129076       0.00000000      10.00000000
Pd       8.25193614       0.00000000      10.00000000
Pd      11.00258152       0.00000000      10.00000000
Pd       0.00000000       2.75064538      10.00000000
Pd       2.75064538       2.75064538      10.00000000
Pd       5.50129076       2.75064538      10.00000000
Pd       8.25193614       2.75064538      10.00000000
Pd      11.00258152       2.75064538      10.00000000
Pd       0.00000000       5.50129076      10.00000000
Pd       2.75064538       5.50129076      10.00000000
Pd       5.50129076       5.50129076      10.00000000
Pd       8.25193614       5.50129076      10.00000000
Pd      11.00258152       5.50129076      10.00000000
Pd       0.00000000       8.25193614      10.00000000
Pd       2.75064538       8.25193614      10.00000000
Pd       5.50129076       8.25193614      10.00000000
Pd       8.25193614       8.25193614      10.00000000
Pd      11.00258152       8.25193614      10.00000000
Pd       0.00000000      11.00258152      10.00000000
Pd       2.75064538      11.00258152      10.00000000
Pd       5.50129076      11.00258152      10.00000000
Pd       8.25193614      11.00258152      10.00000000
Pd      11.00258152      11.00258152      10.00000000
Pd       1.39180618       1.42507274      12.05498605
Pd       4.09075793       1.37493901      11.97997271
Pd       6.85912787       1.36691951      11.94288853
Pd       9.57512057       1.39592898      11.89594876
Pd      12.38684272       1.37174114      11.92044161
Pd       1.32748752       4.08813772      12.07704734
Pd       4.05001891       4.15358156      11.95828236
Pd       6.86239717       4.14448070      11.92717613
Pd       9.56728621       4.13975942      11.94281254
Pd      12.36578195       4.13265160      11.93417299
Pd       1.37110082       6.89256210      11.94010419
Pd       4.13935064       6.87026939      11.96482277
Pd       6.87097415       6.85831372      11.95140951
Pd       9.64205429       6.82915781      11.94515418
Pd      12.39111484       6.85622887      11.94896407
Pd       1.37378335       9.65621094      11.95064577
Pd       4.11777592       9.66324146      11.95099537
Pd       6.89476706       9.64088005      11.95142944
Pd       9.64982872       9.59779534      11.89439304
Pd      12.42487279       9.60955999      11.94161946
Pd       1.39213412      12.43116552      11.98255123
Pd       4.15743936      12.41239113      11.97587927
Pd       6.86816975      12.39901143      11.97280504
Pd       9.63028672      12.36702810      11.91406436
Pd      12.39974221      12.36814687      11.96410295
Pd       2.84645979      13.75092930      14.05279158
Pd       8.31949905      13.69898695      13.91526404
Pd       9.64031560      12.04594725      15.95158669
Pd      11.04737630       0.00969534      13.88027971
Pd       0.05956999       0.12502428      13.98921664
Pd      10.99556764       2.69477317      13.95837090
Pd       2.80297373       2.75244763      14.17687208
Pd       5.49011615       2.85883023      13.76832644
Pd       7.57708538       0.15126666      16.48197548
Pd       8.21372121       2.69926694      14.01544825
Pd      13.66657198       5.52664959      13.95823670
Pd       2.68088222       5.52008264      14.00118516
Pd       5.47054306       5.57352885      14.00634737
Pd       8.19089963       5.45912740      13.95786049
Pd      10.95438782       5.37526405      13.97772603
Pd      11.00865473       8.17352265      14.01453033
Pd      13.68175942       8.29213598      13.91164644
Pd       2.80357070       8.26073382      14.01125065
Pd       5.48874331       8.33172834      13.99049559
Pd       8.21722595       8.25008236      13.91313321
Pd      13.69690556      11.11016389      14.01260479
Pd       2.79537757      11.02532387      13.85102012
Pd       5.57011670      11.07340738      14.04083499
Pd       8.27870914      10.98762277      13.88855475
Pd      11.00748920      10.89217222      13.92540288
Pd      12.18310763       6.23211752      16.39646477
Pd      10.36139812       9.39404028      16.49305954
Pd       1.78976859      11.89512042      16.33807002
Pd       1.47162557       6.63592507      16.23682839
Pd      13.43835981       9.20509823      16.67389668
Pd      10.43489084       0.14675603      17.80811788
Pd       5.17739099      12.60296366      16.51284484
Pd       7.63740059      10.41266438      16.49360145
Pd       5.59389040       0.08479520      14.05631834
Pd      12.94867732      13.48979605      16.55871172
Pd       0.81625288       3.89032319      15.75061178
Pd       5.53775634       2.05022666      16.17740775
Pd      12.80746148       2.26011454      17.27675158
Pd       4.62041260       9.82328493      16.34017662
Pd       5.98548242       7.30268417      16.49533209
Pd      10.87035116      11.36932867      18.49810078
Pd       9.46039050       6.83736579      15.98406204
Pd       9.42254708       2.39576595      16.50706255
Pd       2.23733216       1.10342289      16.69414898
Pd       3.85462379       5.08531077      16.44395164
O       10.94173589       2.16319861      17.66971230
O       11.83817071       9.84481101      17.68144261
O        0.97758981      13.43293060      17.30896517
O        9.97188883      12.37937630      19.93673461
O        9.85468661      13.69507570      19.68377401
O        1.21150054       8.42203154      15.49031827
O        2.86761953      10.34459325      15.72871441
O        3.61105020       2.42242226      16.10994636
O       11.10923432      13.52678379      15.89686964
O       13.75081752      11.05073279      16.06175101
O        3.33873771      13.20711921      16.12370625
O        1.99929782       4.93852310      17.02525466
O        5.71261906       5.44467984      16.00541816
O        6.18667038       9.11156700      17.22624586
O        7.54385565       2.10569764      15.94277745
O        0.95856912       2.51271948      17.20468497
O       10.56211744       5.20455295      15.98207250
O       13.53584813       7.30797566      17.29978107
O        6.95561413      12.14712038      17.17475666
O        8.57808510       8.68114650      15.91270672
