115
Lattice="13.75323 0.0 0.0 0.0 13.75323 0.0 0.0 0.0 23.89" Properties=species:S:1:pos:R:3 input=/mnt/d/download/trae-research-code/ssw/PdO.xyz system=pdo pbc_mode=slab fixed_bottom_fraction=0.35 pbc="T T F"
Pd       0.00000000       0.00000000      10.00000000
Pd       2.75064538       0.00000000      10.00000000
Pd       5.50129076       0.00000000      10.00000000
Pd       8.25193614       0.00000000      10.00000000
Pd      11.00258152       0.00000000      10.00000000
Pd       0.00000000       2.75064538      10.00000000
Pd       2.75064538       2.75064538      10.00000000
Pd       5.50129076       2.75064538      10.00000000
Pd       8.25193614       2.75064538      10.00000000
Pd      11.00258152       2.75064538      10.00000000
Pd       0.00000000       5.50129076      10.00000000
Pd       2.75064538       5.50129076      10.00000000
Pd       5.50129076       5.50129076      10.00000000
Pd       8.25193614       5.50129076      10.00000000
Pd      11.00258152       5.50129076      10.00000000
Pd       0.00000000       8.25193614      10.00000000
Pd       2.75064538       8.25193614      10.00000000
Pd       5.50129076       8.25193614      10.00000000
Pd       8.25193614       8.25193614      10.00000000
Pd      11.00258152       8.25193614      10.00000000
Pd       0.00000000      11.00258152      10.00000000
Pd       2.75064538      11.00258152      10.00000000
Pd       5.50129076      11.00258152      10.00000000
Pd       8.25193614      11.00258152      10.00000000
Pd      11.00258152      11.00258152      10.00000000
Pd       1.38108512       1.36526257      11.99223067
Pd       4.12576462       1.39484479      11.95952855
Pd       6.87359811       1.43474017      11.95814891
Pd       9.57512057       1.39592898      11.89594876
Pd      12.38684272       1.37174114      11.92044161
Pd       1.36546003       4.14347575      12.00992627
Pd       4.08261141       4.12803409      11.98487914
Pd       6.86574644       4.15556845      12.00617698
Pd       9.56728621       4.13975942      11.94281254
Pd      12.36578195       4.13265160      11.93417299
Pd       1.37110082       6.89256210      11.94010419
Pd       4.13935064       6.87026939      11.96482277
Pd       6.87097415       6.85831372      11.95140951
Pd       9.64205429       6.82915781      11.94515418
Pd      12.39111484       6.85622887      11.94896407
Pd       1.38988889       9.64438788      11.98497125
Pd       4.11777592       9.66324146      11.95099537
Pd       6.89476706       9.64088005      11.95142944
Pd       9.64982872       9.59779534      11.89439304
Pd      12.42487279       9.60955999      11.94161946
Pd       1.37828592      12.38636701      11.99511879
Pd       4.11799000      12.39207647      11.95788491
Pd       6.86816975      12.39901143      11.97280504
Pd       9.63028672      12.36702810      11.91406436
Pd      12.40157389      12.35694330      11.97294160
Pd       2.80492778       0.04794434      13.95471596
Pd       5.54529583      13.74131506      13.90112698
Pd       9.73007621       1.44618818      15.81268516
Pd      10.93675030      13.70733045      13.90251611
Pd       0.05806383      13.59461221      14.06069336
Pd      13.73481577       2.68546779      13.93958548
Pd       2.74096001       2.83792826      14.05668127
Pd       5.47191832       2.70988474      13.97525206
Pd       8.21997091       2.98773371      14.09875565
Pd      11.01386105       2.77273730      13.92358351
Pd      13.59489996       5.50905130      13.96398242
Pd       2.64277163       5.54782160      14.12367251
Pd       5.43226518       5.48028448      13.90991989
Pd       8.41448585       8.29337323      13.89348226
Pd      10.80439271       5.47104577      13.94361869
Pd       0.09837476       8.18218736      14.03732552
Pd       2.77072002       8.28715311      13.95408214
Pd       5.53759354       8.25781408      13.91048437
Pd       8.23855330      11.16801575      13.96403936
Pd      11.14304700       8.17734316      13.96748629
Pd      13.72103197      10.89290729      14.04685103
Pd       2.70491037      11.04455622      13.99908172
Pd       5.46382152      10.98469867      13.99044899
Pd       8.24319142       0.13735352      13.94802564
Pd      11.00414454      10.96510703      13.92312886
Pd      12.88381937       9.29076681      16.33411508
Pd       1.00133277      11.72985317      16.67048277
Pd       1.43843455       1.23102182      16.00056224
Pd       1.50929212       7.74743695      16.49621289
Pd       3.70037300       9.59051724      16.33076428
Pd       9.01050095       3.94413093      16.70832843
Pd       6.89625104       1.56420084      16.42742331
Pd       7.67595939      12.08160594      17.70229458
Pd       4.15594910       2.20442110      16.44091140
Pd      10.78165584      12.92985542      16.83032030
Pd       0.98282651       4.12159031      15.91835926
Pd       3.27443029       4.88419822      17.02439763
Pd      11.75146880       4.33986576      16.31462614
Pd       4.58468778      12.50450214      16.32445949
Pd       6.44566519       9.60962608      16.43238416
Pd       8.75177186       0.84976935      18.17907686
Pd       9.67975751       9.68802501      15.94296793
Pd       6.44759515       4.21984099      15.94139819
Pd      12.58733706       1.59126543      16.20274368
Pd       4.26375250       6.93629877      15.83176220
O       10.13134667       5.33186374      15.80959578
O        2.86051580      11.38035937      16.05121999
O       12.18480256      13.51892801      15.53376021
O       11.21637081       4.90548104      18.27884206
O        9.95413854       4.67734018      18.48904115
O        4.98769068       8.33139675      17.08511654
O        6.17733578      13.59783293      15.81003310
O       12.09062995      11.39344540      17.45174271
O        9.41921005      12.76393504      18.25332415
O        3.36754984       0.43385891      15.97087341
O       13.20979392      12.04200607      17.84124750
O        1.56441577       5.80587993      17.00547784
O        7.02563331       8.08177381      15.30723229
O        5.88692593      11.29685985      17.39712046
O        4.90712021       3.86830531      17.18336767
O       13.23477820       3.26577319      17.00729370
O       11.16416915       8.47644456      15.96517546
O        0.90409856       9.60928515      17.01891764
O        7.94421618       2.63375594      17.79304549
O        8.06056985      10.79907914      15.99668557
