115
Lattice="13.75323 0.0 0.0 0.0 13.75323 0.0 0.0 0.0 23.89" Properties=species:S:1:pos:R:3 input=/mnt/d/download/trae-research-code/ssw/PdO.xyz system=pdo pbc_mode=slab fixed_bottom_fraction=0.35 pbc="T T F"
Pd       0.00000000       0.00000000      10.00000000
Pd       2.75064538       0.00000000      10.00000000
Pd       5.50129076       0.00000000      10.00000000
Pd       8.25193614       0.00000000      10.00000000
Pd      11.00258152       0.00000000      10.00000000
Pd       0.00000000       2.75064538      10.00000000
Pd       2.75064538       2.75064538      10.00000000
Pd       5.50129076       2.75064538      10.00000000
Pd       8.25193614       2.75064538      10.00000000
Pd      11.00258152       2.75064538      10.00000000
Pd       0.00000000       5.50129076      10.00000000
Pd       2.75064538       5.50129076      10.00000000
Pd       5.50129076       5.50129076      10.00000000
Pd       8.25193614       5.50129076      10.00000000
Pd      11.00258152       5.50129076      10.00000000
Pd       0.00000000       8.25193614      10.00000000
Pd       2.75064538       8.25193614      10.00000000
Pd       5.50129076       8.25193614      10.00000000
Pd       8.25193614       8.25193614      10.00000000
Pd      11.00258152       8.25193614      10.00000000
Pd       0.00000000      11.00258152      10.00000000
Pd       2.75064538      11.00258152      10.00000000
Pd       5.50129076      11.00258152      10.00000000
Pd       8.25193614      11.00258152      10.00000000
Pd      11.00258152      11.00258152      10.00000000
Pd       1.37745940       1.31894706      12.00394364
Pd       4.12040597       1.35682793      11.91309668
Pd       6.86113042       1.34684252      11.96416141
Pd       9.57512057       1.39592898      11.89594876
Pd      12.38684272       1.37174114      11.92044161
Pd       1.37865140       4.12412480      11.93647300
Pd       4.12331444       4.15543669      11.98335472
Pd       6.86072103       4.12463299      12.00212066
Pd       9.56728621       4.13975942      11.94281254
Pd      12.36578195       4.13265160      11.93417299
Pd       1.37110082       6.89256210      11.94010419
Pd       4.13935064       6.87026939      11.96482277
Pd       6.87097415       6.85831372      11.95140951
Pd       9.64205429       6.82915781      11.94515418
Pd      12.39111484       6.85622887      11.94896407
Pd       1.36615980       9.67055367      11.99439035
Pd       4.11777592       9.66324146      11.95099537
Pd       6.89476706       9.64088005      11.95142944
Pd       9.64982872       9.59779534      11.89439304
Pd      12.42487279       9.60955999      11.94161946
Pd       1.38194308      12.37289513      12.02900396
Pd       4.15772743      12.38429490      11.98294784
Pd       6.86816975      12.39901143      11.97280504
Pd       9.63028672      12.36702810      11.91406436
Pd      12.40313497      12.36383079      11.99788880
Pd       2.97097245       0.00882975      13.95411101
Pd       7.57434036      13.48634665      14.33093320
Pd       9.46380166       1.08000595      15.93617563
Pd      10.77898900      13.75008421      13.85711097
Pd      13.64390167       0.06859166      14.07098763
Pd       0.02144769       2.71947472      13.87509915
Pd       2.68860602       2.79245735      13.95732436
Pd       5.32236954       2.65388626      13.84667407
Pd       8.35812199       2.72038172      13.99873629
Pd      11.09040687       2.65684875      14.12692429
Pd       0.03028503       5.43798108      13.96092606
Pd       2.72676692       5.53895661      13.97360199
Pd       5.44465421       5.63916592      14.11471340
Pd       8.27469128       5.52782199      14.02768753
Pd      11.01462972       5.37998801      13.93262762
Pd       0.05350483       8.26548873      13.93215718
Pd       2.74933931       8.25912670      13.93359274
Pd       5.45160842       8.37726451      13.90072393
Pd       8.26771775       8.30988409      13.88636201
Pd      11.05963234       8.22156800      14.02563616
Pd      13.64131821      11.02317490      14.28170202
Pd       2.86364967      10.97010703      13.99755246
Pd       5.65882216      11.15692248      13.96785495
Pd       8.36179490      11.01578336      13.95087254
Pd      11.00323435      10.92380994      13.89143982
Pd      12.54441972       6.68826301      16.04990453
Pd       9.93823105       9.61547830      16.36578798
Pd       2.53598283      12.40272166      16.33636362
Pd       1.36662323       6.23418197      16.39835658
Pd      12.76870114       9.40522849      16.37252363
Pd       8.30504148       2.58592246      18.43717910
Pd       6.66789273       1.40523528      16.73157423
Pd       7.59584536      11.15112620      16.57265977
Pd       5.15396028      13.02610795      15.77384567
Pd      11.03521742      12.47225667      16.16434646
Pd       0.15259029       3.59236842      16.36394870
Pd       3.55664215       4.18482173      16.22283278
Pd      10.52215782       3.44130022      16.78212001
Pd       4.40566646      10.12980644      16.05095174
Pd       6.49500217       7.87534479      16.32472606
Pd       8.22751422      13.50381381      17.99350433
Pd       9.74225313       6.81143611      16.03083479
Pd       7.15174910       4.10972634      16.47903487
Pd       1.55348520       1.26139556      15.84820787
Pd       3.95304101       7.05065785      16.03343484
O        8.84545412       4.24237366      17.51448226
O       11.45382858      10.65102300      17.05448964
O       12.89310244      12.58889279      15.47585446
O       11.07017683       3.12232569      18.87488062
O       10.02174953       2.87158860      19.61099722
O        3.57066869       8.64121218      17.02883085
O        6.75928042       1.57430338      14.78229720
O        3.15039021       1.25667663      17.07830442
O        9.24479213      12.19413566      17.05080070
O        1.52501772      10.96557241      15.51938209
O        3.71305684      13.73194946      17.22057087
O        1.80824770       4.44019347      17.04043359
O        6.93263277       6.02474787      15.62228328
O        6.20490705       9.75829539      16.88599082
O        5.38053787       3.94472650      15.49802263
O       12.16893833       2.70791260      15.97652612
O       11.06220051       5.38034077      16.05356674
O        0.36404999       7.96191281      15.98066239
O        7.00122045       1.10822778      18.70895337
O        8.50296299       8.31205740      15.96293457
