115
Lattice="13.75323 0.0 0.0 0.0 13.75323 0.0 0.0 0.0 23.89" Properties=species:S:1:pos:R:3 input=/mnt/d/download/trae-research-code/ssw/PdO.xyz system=pdo pbc_mode=slab fixed_bottom_fraction=0.35 pbc="T T F"
Pd       0.00000000       0.00000000      10.00000000
Pd       2.75064538       0.00000000      10.00000000
Pd       5.50129076       0.00000000      10.00000000
Pd       8.25193614       0.00000000      10.00000000
Pd      11.00258152       0.00000000      10.00000000
Pd       0.00000000       2.75064538      10.00000000
Pd       2.75064538       2.75064538      10.00000000
Pd       5.50129076       2.75064538      10.00000000
Pd       8.25193614       2.75064538      10.00000000
Pd      11.00258152       2.75064538      10.00000000
Pd       0.00000000       5.50129076      10.00000000
Pd       2.75064538       5.50129076      10.00000000
Pd       5.50129076       5.50129076      10.00000000
Pd       8.25193614       5.50129076      10.00000000
Pd      11.00258152       5.50129076      10.00000000
Pd       0.00000000       8.25193614      10.00000000
Pd       2.75064538       8.25193614      10.00000000
Pd       5.50129076       8.25193614      10.00000000
Pd       8.25193614       8.25193614      10.00000000
Pd      11.00258152       8.25193614      10.00000000
Pd       0.00000000      11.00258152      10.00000000
Pd       2.75064538      11.00258152      10.00000000
Pd       5.50129076      11.00258152      10.00000000
Pd       8.25193614      11.00258152      10.00000000
Pd      11.00258152      11.00258152      10.00000000
Pd       1.36983718       1.38161136      11.99183901
Pd       4.11174246       1.37690126      12.00970029
Pd       6.84942173       1.37923651      11.98636972
Pd       9.57512057       1.39592898      11.89594876
Pd      12.38684272       1.37174114      11.92044161
Pd       1.36832518       4.15553271      11.99088922
Pd       4.09116368       4.11813126      11.99542490
Pd       6.85737548       4.14875151      12.01452785
Pd       9.56728621       4.13975942      11.94281254
Pd      12.36578195       4.13265160      11.93417299
Pd       1.37110082       6.89256210      11.94010419
Pd       4.13935064       6.87026939      11.96482277
Pd       6.87097415       6.85831372      11.95140951
Pd       9.64205429       6.82915781      11.94515418
Pd      12.39111484       6.85622887      11.94896407
Pd       1.39254781       9.66651643      11.95283822
Pd       4.11777592       9.66324146      11.95099537
Pd       6.89476706       9.64088005      11.95142944
Pd       9.64982872       9.59779534      11.89439304
Pd      12.42487279       9.60955999      11.94161946
Pd       1.38952565      12.42271312      12.00018872
Pd       4.13069032      12.40522285      11.99239259
Pd       6.86816975      12.39901143      11.97280504
Pd       9.63028672      12.36702810      11.91406436
Pd      12.40982038      12.35913221      11.99634357
Pd       2.72313450       0.00330855      14.09409381
Pd       6.98892666       1.24633683      15.98940852
Pd       9.56944021       1.39852770      15.87044796
Pd      10.94638325       0.04802161      13.87799537
Pd      13.73200315       0.01992816      14.05207394
Pd      13.73811953       2.80037175      13.94609575
Pd       2.68942800       2.75083618      14.00528535
Pd       5.47791051       2.64595811      14.03747726
Pd       8.23744421       2.75341246      13.93916387
Pd      10.94012304       2.90333168      13.86766716
Pd      13.63082207       5.53427326      13.93184778
Pd       2.62526931       5.49459758      14.16408154
Pd       5.39503793       5.57404604      13.94150772
Pd       7.26596023       6.72475128      15.43735533
Pd       9.21853221       5.33672078      14.29109752
Pd       0.01485015       8.28580272      13.90448728
Pd       2.77148857       8.25932242      13.90699282
Pd       5.57093782       8.31385813      13.88916534
Pd       8.37803358      10.75609191      13.87713111
Pd      10.98840550       8.35326275      13.81107582
Pd       0.11451394      11.07337438      14.03045760
Pd       2.85940471      11.03435045      13.96358438
Pd       5.59286901      11.04056611      14.04053195
Pd       8.24273375      13.59388224      14.01269388
Pd      11.06745954      11.05507844      14.05342327
Pd      11.90078003       7.14288703      16.09225625
Pd      12.54056443       9.69060026      15.99089831
Pd       1.04589311       1.62333705      16.65087921
Pd       1.32897042       7.12721991      15.97418398
Pd       2.25088694       9.73698502      16.21441236
Pd       8.80888606       2.54834567      18.26860847
Pd       6.52979994       0.88122908      18.58361289
Pd       7.90991614      11.78179052      16.23490709
Pd       4.38645421       1.11153069      16.22056654
Pd      11.59930054      12.66748606      16.31345503
Pd       0.69187967       4.41828760      16.30092341
Pd       3.84398986       3.86176829      16.21395535
Pd      10.88741055       4.31598033      16.28586174
Pd       5.50905057      13.71625647      14.00443210
Pd       5.90421054       9.35955584      16.54746108
Pd       9.17349324      13.44200891      17.96072527
Pd       9.06151721       8.59197940      15.79125560
Pd       7.48557536       4.11166302      16.22921826
Pd      12.14124773       1.55465834      15.77391769
Pd       4.07963120       7.01024908      15.95521486
O        9.16562040       4.15872853      17.22610145
O        0.56561950      10.66274781      15.97888099
O       13.40774445      13.71582333      16.15604245
O        9.18669584       3.55437512      20.08096569
O        8.45001417       4.54120405      20.37150372
O        3.91855928       8.90533082      16.74835381
O        4.71778216       0.96665985      18.12046006
O       12.17496904       2.76080887      17.48994720
O        9.83402064      11.96898148      16.88883508
O        2.50817712       0.41928809      16.05118465
O       13.50988784       2.97672993      17.67986265
O        2.17202579       3.34604357      17.04285767
O        5.97825655       7.36630402      16.79958947
O        5.94606154      11.28783962      16.01534274
O        5.65476096       4.17859431      15.45290785
O       12.63966980       5.14100122      15.75235615
O       10.12125409       7.02554268      15.13844610
O       13.48625145       7.88529361      16.94178196
O        8.36963872       0.90207521      19.27201909
O        7.87641376       9.77411579      16.76792593
