115
Lattice="13.75323 0.0 0.0 0.0 13.75323 0.0 0.0 0.0 23.89" Properties=species:S:1:pos:R:3 input=/mnt/d/download/trae-research-code/ssw/PdO.xyz system=pdo pbc_mode=slab fixed_bottom_fraction=0.35 pbc="T T F"
Pd       0.00000000       0.00000000      10.00000000
Pd       2.75064538       0.00000000      10.00000000
Pd       5.50129076       0.00000000      10.00000000
Pd       8.25193614       0.00000000      10.00000000
Pd      11.00258152       0.00000000      10.00000000
Pd       0.00000000       2.75064538      10.00000000
Pd       2.75064538       2.75064538      10.00000000
Pd       5.50129076       2.75064538      10.00000000
Pd       8.25193614       2.75064538      10.00000000
Pd      11.00258152       2.75064538      10.00000000
Pd       0.00000000       5.50129076      10.00000000
Pd       2.75064538       5.50129076      10.00000000
Pd       5.50129076       5.50129076      10.00000000
Pd       8.25193614       5.50129076      10.00000000
Pd      11.00258152       5.50129076      10.00000000
Pd       0.00000000       8.25193614      10.00000000
Pd       2.75064538       8.25193614      10.00000000
Pd       5.50129076       8.25193614      10.00000000
Pd       8.25193614       8.25193614      10.00000000
Pd      11.00258152       8.25193614      10.00000000
Pd       0.00000000      11.00258152      10.00000000
Pd       2.75064538      11.00258152      10.00000000
Pd       5.50129076      11.00258152      10.00000000
Pd       8.25193614      11.00258152      10.00000000
Pd      11.00258152      11.00258152      10.00000000
Pd       1.34768608       1.35581512      12.00436055
Pd       4.07422197       1.36556891      11.96220352
Pd       6.85198307       1.39960906      11.93200906
Pd       9.57512057       1.39592898      11.89594876
Pd      12.38684272       1.37174114      11.92044161
Pd       1.36181703       4.12066264      11.96167847
Pd       4.11328940       4.11890978      11.95422638
Pd       6.87292651       4.13745225      11.97501820
Pd       9.56728621       4.13975942      11.94281254
Pd      12.36578195       4.13265160      11.93417299
Pd       1.37110082       6.89256210      11.94010419
Pd       4.13935064       6.87026939      11.96482277
Pd       6.87097415       6.85831372      11.95140951
Pd       9.64205429       6.82915781      11.94515418
Pd      12.39111484       6.85622887      11.94896407
Pd       1.37317918       9.65424293      11.99829026
Pd       4.11777592       9.66324146      11.95099537
Pd       6.89476706       9.64088005      11.95142944
Pd       9.64982872       9.59779534      11.89439304
Pd      12.42487279       9.60955999      11.94161946
Pd       1.38606524      12.37489148      12.02573337
Pd       4.12158843      12.38972193      11.98795032
Pd       6.86816975      12.39901143      11.97280504
Pd       9.63028672      12.36702810      11.91406436
Pd      12.42123171      12.35107518      11.97930934
Pd       2.77155441       0.04788780      14.07222110
Pd      10.97759863      13.75158818      13.89569134
Pd      12.14419227       1.55667564      15.97621496
Pd      13.70597524      13.72319633      13.98883370
Pd      13.62358058       2.82208711      14.00424756
Pd      10.85307414       2.76085780      13.93601266
Pd       2.67037706       2.75702216      13.96792872
Pd       5.35052028       2.68981770      13.91443791
Pd       8.20827188      13.72996536      13.88508327
Pd       8.09494282       2.80258959      14.11352827
Pd       0.10605020       5.50058413      13.98166990
Pd       2.80906366       5.50458587      13.95685368
Pd       5.53997948       5.50285987      13.94792863
Pd       8.34196294       5.48667422      14.05504449
Pd      11.12429465       5.44533040      13.98616815
Pd      11.02376656       8.23782991      13.90008702
Pd      13.70989458       8.19427864      14.02495148
Pd       2.68584058       8.26239873      13.95167481
Pd       5.46851157       8.21549790      14.04888032
Pd       8.25253077       8.28393335      13.93108596
Pd       0.03353428      10.90651309      14.16266924
Pd       2.80668646      11.02387306      13.98060852
Pd       5.60677545      11.04317525      14.00660293
Pd       8.33079853      11.04521730      13.92209662
Pd      11.03879566      10.96504194      13.86404367
Pd      13.25844667       6.14260613      16.54361047
Pd      11.52021732       9.34225559      16.39404751
Pd       1.44082191      12.23445667      16.40845172
Pd       3.16268169       6.69699875      16.50377178
Pd       0.76647372       8.65992567      16.70445771
Pd      10.07870494       1.84202446      18.19240709
Pd       4.49434320      12.81544483      16.15843369
Pd       7.29914086      10.00121842      16.16374346
Pd       5.53161438       0.03409988      13.93247899
Pd      12.07980735      12.46769214      16.13993721
Pd       1.57714841       4.17664550      15.97580726
Pd       9.52156459       1.23527540      15.73558275
Pd      13.35269682       2.79104546      18.10398819
Pd       4.39034233       9.66291757      16.24718940
Pd       6.84725178       6.62945002      16.37339829
Pd       9.10046200      12.27093647      16.42910796
Pd       9.92914614       7.14605233      16.13390390
Pd      11.25873151       4.16338172      17.28576111
Pd       1.09468279       1.40326884      15.93621069
Pd       5.04067175       4.00015675      16.22302492
O       11.53392647       2.95880620      18.83959854
O       12.69610099       8.10017778      17.28146853
O       13.66061612      13.42986830      16.84671444
O        8.00014114      13.46305716      17.55141097
O        8.38384151       1.04849367      17.44433887
O        2.71128895       8.57516792      16.03761539
O        3.14392905      11.23603406      16.05918087
O        6.52491548       2.89280240      15.50227282
O       10.60974815      11.06336579      15.87237384
O        0.29704383      10.58390850      16.22675645
O        2.73421263       0.07899103      16.28170213
O        3.34897367       4.78355199      16.87873992
O        6.04973925       5.18756517      17.34431207
O        5.13133500       7.67845961      16.16759973
O        8.51512907       5.63474220      16.08688357
O        1.38669304       2.75347183      17.42277011
O       11.35791569       5.72297930      16.05739078
O        1.24633777       6.78498710      17.25873138
O        5.78174961      11.23277699      16.22324494
O        8.24420366       8.26798807      16.04161586
