115
Lattice="13.75323 0.0 0.0 0.0 13.75323 0.0 0.0 0.0 23.89" Properties=species:S:1:pos:R:3 input=/mnt/d/download/trae-research-code/ssw/PdO.xyz system=pdo pbc_mode=slab fixed_bottom_fraction=0.35 pbc="T T F"
Pd       0.00000000       0.00000000      10.00000000
Pd       2.75064538       0.00000000      10.00000000
Pd       5.50129076       0.00000000      10.00000000
Pd       8.25193614       0.00000000      10.00000000
Pd      11.00258152       0.00000000      10.00000000
Pd       0.00000000       2.75064538      10.00000000
Pd       2.75064538       2.75064538      10.00000000
Pd       5.50129076       2.75064538      10.00000000
Pd       8.25193614       2.75064538      10.00000000
Pd      11.00258152       2.75064538      10.00000000
Pd       0.00000000       5.50129076      10.00000000
Pd       2.75064538       5.50129076      10.00000000
Pd       5.50129076       5.50129076      10.00000000
Pd       8.25193614       5.50129076      10.00000000
Pd      11.00258152       5.50129076      10.00000000
Pd       0.00000000       8.25193614      10.00000000
Pd       2.75064538       8.25193614      10.00000000
Pd       5.50129076       8.25193614      10.00000000
Pd       8.25193614       8.25193614      10.00000000
Pd      11.00258152       8.25193614      10.00000000
Pd       0.00000000      11.00258152      10.00000000
Pd       2.75064538      11.00258152      10.00000000
Pd       5.50129076      11.00258152      10.00000000
Pd       8.25193614      11.00258152      10.00000000
Pd      11.00258152      11.00258152      10.00000000
Pd       1.37051460       1.43393016      12.00723934
Pd       4.08481974       1.39103636      11.96126318
Pd       6.85419999       1.40914206      11.93601312
Pd       9.57512057       1.39592898      11.89594876
Pd      12.38684272       1.37174114      11.92044161
Pd       1.36531115       4.15817300      12.03753290
Pd       4.09417050       4.14069057      11.99809938
Pd       6.87696180       4.15278572      11.96603094
Pd       9.56728621       4.13975942      11.94281254
Pd      12.36578195       4.13265160      11.93417299
Pd       1.37110082       6.89256210      11.94010419
Pd       4.13935064       6.87026939      11.96482277
Pd       6.87097415       6.85831372      11.95140951
Pd       9.64205429       6.82915781      11.94515418
Pd      12.39111484       6.85622887      11.94896407
Pd       1.38958431       9.67333981      11.96442765
Pd       4.11777592       9.66324146      11.95099537
Pd       6.89476706       9.64088005      11.95142944
Pd       9.64982872       9.59779534      11.89439304
Pd      12.42487279       9.60955999      11.94161946
Pd       1.36830618      12.42735623      11.96868123
Pd       4.10870704      12.39620024      11.93909889
Pd       6.86816975      12.39901143      11.97280504
Pd       9.63028672      12.36702810      11.91406436
Pd      12.39615770      12.35254212      11.97363534
Pd       2.70215018       0.14128412      14.03207594
Pd       5.43408295      13.71753599      13.88864191
Pd       9.49764512       1.44273072      15.83314731
Pd      10.89465984      13.65849889      13.94837155
Pd      13.73593506      13.74285437      13.94767923
Pd       0.02390341       2.77923275      14.03219856
Pd       2.76766964       2.83345410      14.11382853
Pd       5.50976400       2.71848429      13.90519018
Pd       8.19546360       2.91605960      14.01846482
Pd      10.96269597       2.68482638      13.88101100
Pd      13.70602755       5.53127244      14.07056716
Pd       2.73485526       5.55312061      14.10915679
Pd       5.57176356       5.51151516      13.90904449
Pd       8.34624164       8.27502364      13.95067363
Pd      10.88490597       5.47340230      13.88692768
Pd       0.05530729       8.23988159      13.91289014
Pd       2.76615491       8.33361255      13.93691224
Pd       5.48421952       8.24479258      13.91780436
Pd       8.23765863      11.13070827      13.99202427
Pd      11.09327016       8.17548033      13.99987686
Pd       0.02286986      10.97011401      14.09627757
Pd       2.81319822      11.16556604      13.95134860
Pd       5.49086623      10.99723204      13.97827829
Pd       8.16655813       0.09334366      13.93591449
Pd      10.99566770      10.91726659      13.85822741
Pd      13.07150538       8.85010923      16.43605506
Pd      12.06222661      11.24008145      16.21668590
Pd       0.97884990      13.03900691      16.61447570
Pd       1.48059902       7.15387473      15.98556276
Pd       2.92270414       9.95091109      16.34889468
Pd       8.81565673       4.02614228      16.50667088
Pd       6.48217621       1.75588565      16.29093656
Pd       7.91190001      12.23055519      17.47286183
Pd       3.50457004       1.77094767      16.69245078
Pd      10.38488778      13.28134137      17.54855957
Pd       0.51309609       4.60175243      16.69799058
Pd       2.87732708       4.91091282      17.73793594
Pd      11.67436351       4.09021919      16.08503083
Pd       4.42545056      12.36966138      16.53686702
Pd       6.26769817       9.73804251      16.39997714
Pd       8.22646468       1.31750978      18.20784088
Pd       9.72589939       9.65097225      16.00203701
Pd       4.54196278       4.18658214      15.83886808
Pd      12.49182314       1.16986035      16.04922495
Pd       4.22341076       6.96999072      15.96082769
O       10.14353401       5.25495580      15.73300318
O        1.54494116      11.21350073      15.61875989
O       11.49334794      13.22608221      15.91881916
O       11.16198400       4.47318094      18.14496501
O        9.87251370       4.50818015      18.29791635
O        4.49171596       8.82934082      16.84907423
O        5.80356277      13.75057020      15.81205186
O       12.37337720      12.99570257      18.44033959
O        8.87985532      13.34598657      18.83556162
O        2.87112194      13.69282522      16.08506890
O       13.18899131      12.19599589      17.68463896
O        1.33002508       6.08343896      17.70342278
O        6.88213942       8.14389017      15.37212654
O        5.92946870      11.41548634      17.38673037
O        4.08418585       3.40461346      17.64413045
O       13.34141282       2.95773526      16.08989417
O       11.21725672       8.40027104      16.02604217
O        1.18764858       8.88004185      16.99032040
O        7.45346219       2.99916295      17.50537660
O        8.05123729      10.74610596      16.04508642
