115
Lattice="13.75323 0.0 0.0 0.0 13.75323 0.0 0.0 0.0 23.89" Properties=species:S:1:pos:R:3 input=/mnt/d/download/trae-research-code/ssw/PdO.xyz system=pdo pbc_mode=slab fixed_bottom_fraction=0.35 pbc="T T F"
Pd       0.00000000       0.00000000      10.00000000
Pd       2.75064538       0.00000000      10.00000000
Pd       5.50129076       0.00000000      10.00000000
Pd       8.25193614       0.00000000      10.00000000
Pd      11.00258152       0.00000000      10.00000000
Pd       0.00000000       2.75064538      10.00000000
Pd       2.75064538       2.75064538      10.00000000
Pd       5.50129076       2.75064538      10.00000000
Pd       8.25193614       2.75064538      10.00000000
Pd      11.00258152       2.75064538      10.00000000
Pd       0.00000000       5.50129076      10.00000000
Pd       2.75064538       5.50129076      10.00000000
Pd       5.50129076       5.50129076      10.00000000
Pd       8.25193614       5.50129076      10.00000000
Pd      11.00258152       5.50129076      10.00000000
Pd       0.00000000       8.25193614      10.00000000
Pd       2.75064538       8.25193614      10.00000000
Pd       5.50129076       8.25193614      10.00000000
Pd       8.25193614       8.25193614      10.00000000
Pd      11.00258152       8.25193614      10.00000000
Pd       0.00000000      11.00258152      10.00000000
Pd       2.75064538      11.00258152      10.00000000
Pd       5.50129076      11.00258152      10.00000000
Pd       8.25193614      11.00258152      10.00000000
Pd      11.00258152      11.00258152      10.00000000
Pd       1.35340318       1.40307485      12.01789295
Pd       4.09310702       1.39344052      12.00623962
Pd       6.83643246       1.37806230      11.98763578
Pd       9.57512057       1.39592898      11.89594876
Pd      12.38684272       1.37174114      11.92044161
Pd       1.35994712       4.12269842      11.99771423
Pd       4.10002667       4.11278382      12.00397651
Pd       6.86079069       4.14165214      11.98144802
Pd       9.56728621       4.13975942      11.94281254
Pd      12.36578195       4.13265160      11.93417299
Pd       1.37110082       6.89256210      11.94010419
Pd       4.13935064       6.87026939      11.96482277
Pd       6.87097415       6.85831372      11.95140951
Pd       9.64205429       6.82915781      11.94515418
Pd      12.39111484       6.85622887      11.94896407
Pd       1.39303834       9.63318186      11.92491618
Pd       4.11777592       9.66324146      11.95099537
Pd       6.89476706       9.64088005      11.95142944
Pd       9.64982872       9.59779534      11.89439304
Pd      12.42487279       9.60955999      11.94161946
Pd       1.38599159      12.40496371      11.94736014
Pd       4.15188571      12.43499352      11.97450167
Pd       6.86816975      12.39901143      11.97280504
Pd       9.63028672      12.36702810      11.91406436
Pd      12.39404475      12.34864071      11.97742126
Pd       2.70364386       0.02835406      13.94895719
Pd       5.58712598      13.68064975      14.09979604
Pd       9.59611897       1.51648766      15.98327364
Pd      10.95344446      13.73407067      13.94574324
Pd      13.74146391      13.72479433      14.00384139
Pd      13.65589601       2.71560291      13.96865918
Pd       2.62124137       2.80155306      14.17283150
Pd       5.44691271       2.74021313      13.96172351
Pd       8.24444633       2.81380166      13.95423250
Pd      10.92105129       2.72206855      13.86025946
Pd      13.70652277       5.48912273      14.02388145
Pd       2.70039447       5.53621904      13.96058639
Pd       5.54333505       5.59561293      13.95740814
Pd       8.30869074       8.19254609      13.97317954
Pd      10.96160487       5.48879203      13.86890901
Pd       0.03105461       8.19797481      13.98884560
Pd       2.70611723       8.31648449      13.91955887
Pd       5.47709072       8.30147244      13.85819066
Pd       8.23520177      11.07837891      14.01284904
Pd      11.06169704       8.17988297      13.99917594
Pd       0.15572123      10.92990935      13.93646782
Pd       2.85417847      11.05130171      13.93673789
Pd       5.50234798      11.03882388      13.95219672
Pd       8.28614357       0.03684502      14.00169813
Pd      10.98813538      10.95194297      13.94148142
Pd      12.93849030       8.42706641      16.55322478
Pd      12.59196475      10.98256154      16.23323500
Pd       1.41625327       1.34487825      16.76496936
Pd       1.43826947       6.79411082      15.99916530
Pd       2.43913335       9.88056884      16.31704961
Pd       8.91871176       3.62440385      17.93491465
Pd       7.01799991       1.89010859      17.15974708
Pd       7.35555671      12.11563840      17.32514145
Pd       4.02255994       1.20714679      16.07252344
Pd      10.52505128      12.66521037      16.48608264
Pd       0.57314496       4.08680591      16.32282088
Pd       3.74652687       4.46425269      16.25436756
Pd      10.96480915       4.13849141      16.13213665
Pd       3.97724550      12.25853570      16.30280901
Pd       6.03387441       9.66699437      16.31860762
Pd       8.81841165       0.40826032      18.40174896
Pd       9.64968435       9.57413128      16.00202909
Pd       7.46340163       4.52982767      15.90107914
Pd      12.51047572       0.88410168      16.84846654
Pd       4.13436129       7.08951875      15.84708241
O        9.24528088       5.02511648      16.57993997
O        0.85524846      11.01000449      15.86126875
O       12.31762392      13.12688177      15.56410538
O       11.53472711       4.73611878      18.10428527
O       10.61729447       4.37583369      18.96294973
O        4.16717447       8.90301712      16.72317799
O        5.92399984       1.47251171      15.60358530
O       12.99158174       2.17582057      18.25460586
O        9.22096409      12.33701408      17.90079161
O        2.45892817      13.58491882      16.00510619
O        0.50540556       2.67455801      17.95417209
O        2.07998588       5.09769345      17.03989410
O        6.78976795       8.06959588      15.38345181
O        5.51228701      11.39935777      17.14072037
O        5.55913641       4.19303430      15.47337806
O       12.67271517       3.16316598      15.75518935
O       11.07996893       8.24692455      16.03308737
O        1.04800061       8.44316989      17.09943409
O        8.04738450       2.14297770      18.87732466
O        7.89693332      10.55904583      16.02973459
