115
Lattice="13.75323 0.0 0.0 0.0 13.75323 0.0 0.0 0.0 23.89" Properties=species:S:1:pos:R:3 input=/mnt/d/download/trae-research-code/ssw/PdO.xyz system=pdo pbc_mode=slab fixed_bottom_fraction=0.35 pbc="T T F"
Pd       0.00000000       0.00000000      10.00000000
Pd       2.75064538       0.00000000      10.00000000
Pd       5.50129076       0.00000000      10.00000000
Pd       8.25193614       0.00000000      10.00000000
Pd      11.00258152       0.00000000      10.00000000
Pd       0.00000000       2.75064538      10.00000000
Pd       2.75064538       2.75064538      10.00000000
Pd       5.50129076       2.75064538      10.00000000
Pd       8.25193614       2.75064538      10.00000000
Pd      11.00258152       2.75064538      10.00000000
Pd       0.00000000       5.50129076      10.00000000
Pd       2.75064538       5.50129076      10.00000000
Pd       5.50129076       5.50129076      10.00000000
Pd       8.25193614       5.50129076      10.00000000
Pd      11.00258152       5.50129076      10.00000000
Pd       0.00000000       8.25193614      10.00000000
Pd       2.75064538       8.25193614      10.00000000
Pd       5.50129076       8.25193614      10.00000000
Pd       8.25193614       8.25193614      10.00000000
Pd      11.00258152       8.25193614      10.00000000
Pd       0.00000000      11.00258152      10.00000000
Pd       2.75064538      11.00258152      10.00000000
Pd       5.50129076      11.00258152      10.00000000
Pd       8.25193614      11.00258152      10.00000000
Pd      11.00258152      11.00258152      10.00000000
Pd       1.36893575       1.38844574      12.02691086
Pd       4.10336372       1.36646857      12.00129765
Pd       6.83659338       1.35824091      11.95829876
Pd       9.57512057       1.39592898      11.89594876
Pd      12.38684272       1.37174114      11.92044161
Pd       1.36083836       4.10001104      11.97628205
Pd       4.12719651       4.09988714      11.99073407
Pd       6.85325216       4.13298831      11.99171769
Pd       9.56728621       4.13975942      11.94281254
Pd      12.36578195       4.13265160      11.93417299
Pd       1.37110082       6.89256210      11.94010419
Pd       4.13935064       6.87026939      11.96482277
Pd       6.87097415       6.85831372      11.95140951
Pd       9.64205429       6.82915781      11.94515418
Pd      12.39111484       6.85622887      11.94896407
Pd       1.39212306       9.62381009      11.97764034
Pd       4.11777592       9.66324146      11.95099537
Pd       6.89476706       9.64088005      11.95142944
Pd       9.64982872       9.59779534      11.89439304
Pd      12.42487279       9.60955999      11.94161946
Pd       1.38886646      12.38712842      11.97983392
Pd       4.15430026      12.42407449      12.01408529
Pd       6.86816975      12.39901143      11.97280504
Pd       9.63028672      12.36702810      11.91406436
Pd      12.38160810      12.37012331      11.97140244
Pd       2.74096115       0.03764007      14.02324893
Pd       7.87495433      13.72076533      14.16581086
Pd       9.37207838       1.16730833      16.01598974
Pd      10.80423294       0.05779014      13.93890457
Pd      13.68252165      13.73472810      13.95352325
Pd      13.59301968       2.71187060      13.99866255
Pd       2.66601435       2.78603578      14.11011726
Pd       5.43852948       2.65966319      13.93257267
Pd       8.25015906       2.70754693      13.95717291
Pd      10.89313377       2.72805646      13.91395784
Pd       0.01894864       5.47083089      13.95852032
Pd       2.79321071       5.47438858      13.89390221
Pd       5.52291525       5.63139795      14.06615368
Pd       8.25984558       5.52138730      14.01491940
Pd      11.01457965       5.44754381      13.91921434
Pd      13.73099882       8.18613992      14.09684448
Pd       2.76530373       8.25344823      13.96809507
Pd       5.53016920       8.32815425      13.94266694
Pd       8.27398440       8.25639162      13.88419510
Pd      11.02162967       8.18315360      13.97551197
Pd       0.07846978      11.05252169      13.98163058
Pd       2.83815358      11.06034581      13.95792249
Pd       5.62306849      11.01220489      13.93697692
Pd       8.35904043      11.04133007      13.86754640
Pd      11.09969449      10.91626882      13.97739046
Pd      12.76802573       6.60534585      16.40452715
Pd       9.60873794       9.61822821      15.80441613
Pd       2.63901730      12.78224715      16.79391440
Pd       1.67490836       6.51742742      15.95595912
Pd       1.55727987       9.19767153      16.50386612
Pd       8.44515532       2.37136543      18.38652500
Pd       6.46297969       1.35724488      16.80908244
Pd       7.08306525      11.30541956      16.20821700
Pd       4.94125706      13.07984365      15.42682032
Pd       9.80013424      12.19734378      16.40393654
Pd       0.74846951       3.93897855      16.33770092
Pd       3.99014705       4.43807613      16.20214448
Pd      11.10089753       3.47941398      16.61843410
Pd       4.47676284      10.22221911      16.34455012
Pd       6.94514346       7.84794361      16.34433479
Pd       7.71310010      13.36035081      18.27927950
Pd       9.96684958       6.89346556      16.42122875
Pd       7.60190359       3.99751893      16.41175892
Pd       1.23724539       1.22387228      15.91001511
Pd       4.28853506       7.21350760      16.04600053
O        9.30849938       3.91133327      17.46862117
O       13.71298115       9.71616852      15.46774938
O       11.38330895      12.44894663      15.30418399
O       10.96045532       1.62503452      17.42068270
O       10.40363302       1.70873754      18.66985433
O        3.39480017       8.65189910      17.20905654
O        6.11182980       0.94433675      14.93592770
O        1.86868233       1.45184793      17.79688222
O        8.42454769      11.67644821      17.71280713
O        2.60507585      10.92908385      16.00406226
O        2.80497652       0.52798458      18.04481432
O        2.29988502       4.86721730      17.04890738
O        7.93466746       6.06086513      15.99482311
O        6.23062254       9.59930661      16.93854910
O        5.80574750       4.06616754      15.49435279
O       12.91160003       2.88407570      15.94426350
O       11.22091764       5.41171046      15.96351554
O        0.50458286       7.61504204      17.19815951
O        6.84401056       1.30309231      18.77869008
O        8.85627108       8.32607011      17.10835073
