115
Lattice="13.75323 0.0 0.0 0.0 13.75323 0.0 0.0 0.0 23.89" Properties=species:S:1:pos:R:3 input=/mnt/d/download/trae-research-code/ssw/PdO.xyz system=pdo pbc_mode=slab fixed_bottom_fraction=0.35 pbc="T T F"
Pd       0.00000000       0.00000000      10.00000000
Pd       2.75064538       0.00000000      10.00000000
Pd       5.50129076       0.00000000      10.00000000
Pd       8.25193614       0.00000000      10.00000000
Pd      11.00258152       0.00000000      10.00000000
Pd       0.00000000       2.75064538      10.00000000
Pd       2.75064538       2.75064538      10.00000000
Pd       5.50129076       2.75064538      10.00000000
Pd       8.25193614       2.75064538      10.00000000
Pd      11.00258152       2.75064538      10.00000000
Pd       0.00000000       5.50129076      10.00000000
Pd       2.75064538       5.50129076      10.00000000
Pd       5.50129076       5.50129076      10.00000000
Pd       8.25193614       5.50129076      10.00000000
Pd      11.00258152       5.50129076      10.00000000
Pd       0.00000000       8.25193614      10.00000000
Pd       2.75064538       8.25193614      10.00000000
Pd       5.50129076       8.25193614      10.00000000
Pd       8.25193614       8.25193614      10.00000000
Pd      11.00258152       8.25193614      10.00000000
Pd       0.00000000      11.00258152      10.00000000
Pd       2.75064538      11.00258152      10.00000000
Pd       5.50129076      11.00258152      10.00000000
Pd       8.25193614      11.00258152      10.00000000
Pd      11.00258152      11.00258152      10.00000000
Pd       1.38823093       1.36612951      11.95725540
Pd       4.15207515       1.41289673      11.99636212
Pd       6.88373462       1.39699353      12.01201699
Pd       9.57512057       1.39592898      11.89594876
Pd      12.38684272       1.37174114      11.92044161
Pd       1.39113831       4.11978111      11.97395535
Pd       4.12444736       4.13489640      12.00244438
Pd       6.86415989       4.10674278      11.99465207
Pd       9.56728621       4.13975942      11.94281254
Pd      12.36578195       4.13265160      11.93417299
Pd       1.37110082       6.89256210      11.94010419
Pd       4.13935064       6.87026939      11.96482277
Pd       6.87097415       6.85831372      11.95140951
Pd       9.64205429       6.82915781      11.94515418
Pd      12.39111484       6.85622887      11.94896407
Pd       1.37604674       9.62704318      11.98161748
Pd       4.11777592       9.66324146      11.95099537
Pd       6.89476706       9.64088005      11.95142944
Pd       9.64982872       9.59779534      11.89439304
Pd      12.42487279       9.60955999      11.94161946
Pd       1.35777837      12.37570821      11.99918020
Pd       4.12235470      12.39619587      11.96443720
Pd       6.86816975      12.39901143      11.97280504
Pd       9.63028672      12.36702810      11.91406436
Pd      12.39794283      12.36904481      12.03669694
Pd       5.55407109      13.74214500      13.98149984
Pd       8.33426192       0.00267700      13.97534552
Pd      10.10110718       2.70316068      14.82680105
Pd      11.09946855      13.57383050      14.29871845
Pd       2.79309091       0.03870808      13.94751517
Pd       0.13386902       0.03488959      14.09437155
Pd       2.67994124       2.75378210      14.03384857
Pd       5.54128243       2.70633797      14.02808970
Pd      13.63752899       2.73062218      13.86051917
Pd       0.93799410       4.17995521      15.69018058
Pd      13.70796296       5.55243439      13.82894686
Pd       2.72069507       5.52530406      14.03018797
Pd       5.49898221       5.63506395      14.00977279
Pd       8.28587291       5.48995188      13.91649935
Pd      11.01531742       5.21885326      13.98718420
Pd      13.72013331       8.21842983      14.09618755
Pd       2.77565493       8.23224470      13.94428656
Pd       5.52186175       8.30994033      14.00729455
Pd       8.24621755       8.24026009      13.87835480
Pd      10.99990511       8.08442767      13.98961317
Pd       0.00836175      11.02858713      14.06648619
Pd       2.72970356      11.02068160      13.95170310
Pd       5.49905185      11.00598653      13.99971364
Pd       8.26276988      11.00251091      13.96174019
Pd      10.97982806      10.81974822      13.97232379
Pd      13.08571077       6.47203869      16.37094605
Pd       9.49837556       9.51324563      15.85444491
Pd       4.12276567      12.47163665      15.98803599
Pd       1.87750682       5.76689345      17.42089656
Pd       1.75302029       8.97587717      16.47696868
Pd       9.87528492       1.85475798      17.63455687
Pd       6.94390473       1.24227165      15.93276361
Pd       7.63603230      10.39538455      17.67547046
Pd       6.90158182      12.26951976      15.93592384
Pd      10.25828368      11.82476613      16.92337017
Pd       1.44164733       1.83155457      16.63190737
Pd       3.91887123       4.03946072      16.34266153
Pd      12.25027355      13.74203317      16.75590218
Pd       4.70560847       9.80725951      16.37031117
Pd       7.01459433       7.45705246      16.34479632
Pd       8.32090953      13.34767284      18.03234393
Pd      10.17545551       6.73585308      16.37840879
Pd       7.58979222       3.80598388      16.02456766
Pd       4.20044009       1.37664228      15.97026521
Pd       4.12639188       6.86379634      16.01424703
O        9.45295808       3.47682171      16.49415859
O        0.13305435       9.62801312      15.53126380
O       11.65233462      12.09815624      15.57132862
O       12.67782207       1.51855764      17.91796573
O       11.70399898       2.41857347      18.08226409
O        3.49102410       8.33084823      17.23254065
O       10.89598342       1.58700739      13.42536959
O        3.07212094       0.74097911      17.62224599
O        9.00531198      11.56494783      18.42528700
O        2.91171265      10.61074488      15.93693456
O        3.06965429      13.15367631      17.60357195
O        2.23284251       3.70536770      17.32972393
O        8.07938514       5.81796922      15.92152358
O        6.29785166       9.06910192      17.20868057
O        5.70256537       4.19404003      15.49066320
O        0.41835385       0.23661749      16.07424018
O       11.50804800       5.41575613      15.92369459
O        0.80706065       7.41470876      17.29322594
O        7.91603460       1.44825284      17.67829963
O        8.92443261       8.04401153      17.08885636
