60
Properties=species:S:1:pos:R:3 input=/mnt/d/download/trae-research-code/ssw/runs/20260428-c60-mace-production/prerelaxed_c60.xyz system=c60 pbc="F F F"
C        2.34616413      -2.09008469       2.07376027
C        3.01284757       1.11928830      -0.00330872
C       -0.80004424       3.05767038       1.98697669
C        2.90209854      -0.77293558       1.91926181
C       -4.34160268      -0.19164208      -0.51032921
C        1.29503157       2.04146023       1.48592286
C       -0.32004783      -2.75281022       2.16669216
C        0.18746359       0.31624635       4.02831130
C        0.52920807      -0.83606890      -4.07440020
C        0.21443589      -1.06410738       0.69149852
C       -3.97659529       1.49209887       1.20188461
C       -0.23533165       3.81276585      -0.65015451
C        1.81225607      -2.79702802       0.96916485
C       -1.03943135       2.98729041      -2.65742556
C        1.28478594       3.19867440      -2.54461284
C       -0.59438874       0.08422721       1.22956947
C        2.18138571       2.70209000      -1.54578106
C       -1.50662306      -3.53943429      -0.61503191
C       -2.73739880      -3.38608555      -0.77359734
C        2.45994114       2.23830178       0.66830826
C       -0.26871309       0.13004063      -4.68421682
C        0.63572164      -2.95070802      -1.56091360
C       -1.55899212      -2.21657412       2.64926735
C       -4.39377892      -1.52511703      -0.85973611
C       -2.73515874      -1.77659439       2.19515027
C       -1.95106235       0.37748140       1.42257861
C        0.17123122      -2.94112336      -2.87892895
C        0.67103657      -0.88130440       3.62239623
C       -0.19154725      -3.22017697      -0.43284486
C        0.53350215       3.24861832       1.49144776
C        2.21648667      -1.19425596      -2.13074469
C        2.68667353      -0.14010611       0.62475755
C       -2.98474132      -0.61032491       1.56003837
C       -0.43683777       2.45737056      -3.88552557
C       -0.86420457       2.40833480       3.19724916
C        1.94556150      -2.33781272      -1.34371680
C       -0.24455134      -1.92237486       3.22767892
C       -4.11243716       0.11950199       0.90270173
C       -2.60575829       1.66660741       1.26099457
C       -1.76799279       2.80633141       0.95218284
C        1.89233897      -1.12163875       2.91335977
C        0.32759188      -2.56267534       0.84905781
C        0.83606490       3.84185678       0.23572573
C        0.59774749       0.88401006       1.12945402
C        1.28561657      -0.19263640       0.50164755
C        0.16568579      -2.18746466      -3.88011659
C        2.35961477       0.21389718      -2.20398911
C        2.69116854       1.34339540      -1.40824687
C       -1.48829720       3.19596649      -0.37531910
C       -0.73987769       1.28374210      -4.58866637
C        0.03011887       3.61885063      -2.00195140
C        2.05339364       3.24040146      -0.24640336
C        0.96801777       2.75919552      -3.83276212
C       -3.87452869       0.85314150      -1.32922704
C        2.53159261      -2.69895676      -0.16495086
C       -0.39393932       1.44846804       3.91379839
C        1.57654718      -0.50064244      -3.15681048
C       -2.04800219       2.67420460      -1.64263477
C       -3.83200253      -2.64143619      -0.89090031
C       -3.10929112       1.76781512      -1.67933973
