60
Properties=species:S:1:pos:R:3 input=/mnt/d/download/trae-research-code/ssw/runs/20260428-c60-mace-production/prerelaxed_c60.xyz system=c60 pbc="F F F"
C        1.04946382      -2.68913355      -3.01659012
C        0.30786879       1.00064279      -3.05773294
C        2.86914903       1.73926939       0.77770894
C        1.31321797      -1.34361062      -3.36887000
C       -1.45819876       0.63771326       3.43515504
C        2.20541225       1.07794175      -1.38564055
C        0.83848472      -4.83746812       1.65155665
C        3.86099726      -1.32102162      -0.71489094
C       -3.91731757       0.97154110      -0.75747653
C        0.46501252      -1.64227234      -0.51200185
C        0.73336192       1.14504775       3.66517906
C        1.05753643       3.77826432      -0.02118170
C       -0.24328581      -2.73759221      -2.40955230
C       -1.05199664       4.31188356       0.58104940
C       -0.78450981       4.07979496      -1.65298719
C        1.17824051      -0.74821576       0.47021494
C       -0.07793505       3.21239998      -2.52630120
C       -1.40345025      -3.52667972       0.95891990
C       -1.73982160      -2.62326906       1.97774315
C        1.51843180       1.58975635      -2.53163948
C       -3.44333557       1.70124375       0.31916304
C       -2.29032955      -1.76920906      -0.57396423
C       -0.07105348      -3.82271402       1.61543225
C       -1.33620894      -0.59902469       2.75190448
C       -0.38322705      -2.62674437       2.39690620
C        0.99550719      -0.45482081       1.87669629
C       -2.73245042      -0.95654843       0.56365464
C        3.23680053      -1.86937958      -1.66242313
C       -1.44714189      -2.90189478      -0.29754646
C        2.69276984       2.15060114      -0.59176136
C       -3.24327510      -0.51624113      -2.51585006
C        0.17718115      -0.49678032      -2.82317520
C       -0.03167975      -1.23650559       2.55866306
C       -2.31298731       3.91909976       0.00817174
C        3.67250396       0.59469881       0.89690114
C       -2.21064744      -1.28108081      -1.96382279
C        1.68480005      -5.75999407       1.63816287
C       -0.34758413       1.05620340       4.30503220
C        1.27610634       0.86998004       2.41164147
C        1.68605158       1.97119157       1.55551113
C        2.27715743      -2.07157906      -2.57461076
C       -0.19869094      -2.82299455      -0.98823383
C        1.91751973       3.27645711      -0.99406843
C        1.46313753       0.10813975      -0.70517490
C        0.51802870      -0.59496518      -1.42046271
C       -3.34535891       0.29510398       0.33545181
C       -4.22790951       0.04570104      -3.32678948
C       -0.59991999       2.04742810      -3.14510924
C        0.78769184       3.04156922       1.18197220
C       -2.78904192       2.83812354       0.80625186
C       -0.10823126       4.45066491      -0.44543570
C        1.29265618       2.95370421      -2.23034983
C       -2.16764966       3.96490804      -1.37023230
C       -2.04209145       1.59285676       2.71716632
C       -0.99918234      -1.54603631      -2.71210493
C        4.05326422      -0.42625889       0.24142042
C       -4.06453042       0.53771809      -2.03838847
C       -0.59871115       3.36171066       1.52905958
C       -2.26073218      -1.32194831       1.88033997
C       -1.80304727       2.58385261       1.86233971
