60
Properties=species:S:1:pos:R:3 system=runs/20260728-safe-lbfgs-strict-quench-200-production/output-c60-seed42 state_id=plateau_accepted pbc="F F F"
C        0.36440000       2.32763957       2.79046234
C       -0.42213934      -0.32284532      -1.97737600
C       -1.51767736      -1.78020129       1.33144094
C        2.13599329      -0.35742162      -2.66493425
C        3.56203982      -0.39800598      -0.59631004
C       -1.53715604      -1.85202562      -3.17085697
C        1.15275285       1.18354378       3.08766794
C       -1.05556040       0.78006270       3.79886991
C       -0.31708975      -2.62037374      -3.02499428
C        1.23423295       0.35405949      -3.51440672
C        1.92572264      -2.32577821      -0.14409064
C       -2.11094842      -2.33564563      -0.86154456
C        0.25523225       2.96152140       1.50185856
C        0.79536265      -1.94282449      -3.65720186
C       -3.08230246      -0.45667477      -1.75397475
C        0.11236949      -1.03261753       2.95237995
C       -2.83711527      -0.31174227      -0.32045100
C        1.24754022       2.17759642      -1.93565692
C        2.27883195       1.51827950      -1.20157167
C       -1.93483441       2.80649537       2.49657102
C       -0.80859162       1.80492712      -3.18749544
C       -0.80593166       3.24108903      -1.16243073
C        3.84199944       0.18878473       0.69104803
C        2.26157960       0.66807479       2.34676965
C        2.40408597      -0.76464245       2.24567401
C        1.21201728      -1.52226892       2.15859679
C       -1.45166399       2.60592265      -2.25440056
C        0.25540402       0.20581146       3.63216979
C        0.54826075       2.98245042      -0.97815747
C       -0.92102102      -0.54719034      -3.43198493
C       -2.53621753       2.02572541      -0.39840676
C       -0.82144068       0.38833232      -1.02121121
C        3.46688863      -1.04030019       1.35248096
C        0.37568023      -0.64563906      -4.11763899
C       -1.27162922      -1.17915766       2.61049366
C       -1.67928147       3.15272326      -0.02768521
C        2.94014677       1.19500737       1.17902489
C        3.14862108      -1.59851128       0.08676778
C        0.94299382      -2.25439246       0.95823463
C       -0.43464476      -2.47034512       0.67021430
C       -0.97120521       2.11774191       3.32863059
C        1.08589565       2.76401076       0.35536471
C       -2.50850034      -1.57408617       0.26694500
C       -3.40359627       0.15456061       3.30642430
C       -3.75333474       1.37735669       2.98107648
C       -2.65681116       1.97716851      -1.83935956
C        0.11037994      -2.94613187      -1.71625379
C       -1.87683863       0.74348948      -0.19442650
C       -0.82369154      -2.84422663      -0.64522724
C        0.63188794       1.58795546      -3.06994338
C       -2.47119282      -1.71603792      -2.07755421
C       -3.29365059       2.51823541       2.55148488
C       -1.68103669       0.67548270      -3.38678526
C        2.79641255       0.27680007      -1.57515992
C       -1.16476206       3.23469583       1.30535095
C       -2.05791197      -0.18093636       3.36573101
C       -2.81881243       0.73604256      -2.53882279
C        1.47242739      -2.52814338      -1.51898541
C        2.25251532       1.92148211       0.18524584
C        1.82037973      -1.75138699      -2.68647833
