60
Properties=species:S:1:pos:R:3 system=runs/20260728-safe-lbfgs-strict-quench-200-production/output-c60-seed42 state_id=intermediate_accepted pbc="F F F"
C       -1.88083099      -1.55640439       1.04641601
C        2.66816352      -3.44071065       2.04764367
C        1.04295120       0.00485282       2.59497718
C       -1.29962762       3.23296868      -2.46471416
C       -2.90604475       3.22009735      -0.50637995
C        2.81471403      -1.72758200       3.08863396
C       -2.69159269      -0.67091559       1.82578096
C       -1.52136455      -2.00119177       3.30024411
C        1.79289895       1.97476301      -1.58625342
C       -0.91023614       2.67209288      -3.73617472
C       -0.78407259       2.88384484       0.79799232
C        2.43384432       0.27579718       0.00517508
C       -1.34516312      -1.43414640      -0.29942452
C        1.01101480       2.80182977      -2.47520894
C        2.22312435      -0.10348858      -2.70630320
C       -1.24366283       0.25197791       3.42443346
C        3.88486373      -1.69586327       1.02096321
C       -2.20874948       0.73038736      -3.12758902
C       -2.88935634       1.42526279      -2.08731758
C        0.03414917      -2.80604009       1.80265920
C       -0.36373728       0.61436786      -4.64275977
C       -0.61545572      -1.13391012      -3.02113713
C       -3.83052043       2.46799274       0.30961387
C       -3.18626314       0.59902231       1.47076319
C       -2.76286973       1.69168746       2.24590921
C       -1.43408245       1.48792097       2.73945427
C       -0.17115953      -0.76642430      -4.32126974
C       -2.21162227      -0.76536104       3.18358569
C       -1.73213219      -0.46762491      -2.54091064
C        2.24115301      -0.70946826       2.28684506
C        1.57633448      -1.38269898      -2.87743506
C        0.75536869      -2.73585158       0.55339526
C       -3.14240985       2.86856253       1.55337403
C        0.54220263       2.51559162      -3.76676015
C        0.01712709      -0.41281390       3.49846739
C        0.35354719      -1.71154243      -2.12682083
C       -3.60178549       1.04198467       0.21075478
C       -2.10620984       3.35809656       0.68305311
C       -0.42776575       1.94533361       1.85356532
C        0.76591098       1.13938323       1.75841701
C       -1.30344961      -2.42741652       1.96298609
C       -2.11539291      -0.57851339      -1.18033109
C        2.90805340      -0.70100599       0.99221434
C        1.98953024      -2.88303172       3.21209384
C        2.00695761      -3.25140788       0.85488951
C        1.26978294      -1.00756068      -4.28440784
C        1.24927067       2.24210612      -0.31252080
C        3.73644647      -2.44198930       2.17323162
C        1.55655834       1.24202655       0.60004287
C       -1.44730039       1.39298389      -4.11181374
C        2.40089312       0.64402836      -1.50033203
C        0.61255446      -2.73313735       3.08247594
C        0.86098100       1.28780884      -4.40534056
C       -2.52763408       2.77924051      -1.81538222
C       -0.02553052      -2.01056087      -0.68519781
C       -0.19458635      -1.80500237       3.82265900
C        1.85099769       0.32634437      -4.04485092
C        0.08813832       3.02001603      -0.31057280
C       -3.04823010       0.52835377      -0.96213649
C       -0.11814918       3.33524325      -1.69517658
