60
Properties=species:S:1:pos:R:3 entry_id=21 rank=66 energy=-494.3819885253906 pbc="F F F"
C        2.63814876      -3.69963641       0.32939221
C        1.94716285       0.46499507      -2.24140800
C        2.08003170       2.00587900       2.06257940
C        3.10578432      -4.68295136       0.95815828
C       -3.40500579       0.45331964       0.94046108
C        2.96876928       0.84675259      -0.04539553
C        0.17330946      -3.93561281       2.07293813
C        2.33809141      -0.76008031       1.64576793
C       -3.57529009       1.22828507      -3.47848686
C        1.84392559      -2.73536896      -0.22813249
C       -1.66154919       1.45742900       1.99011557
C        1.07175687       3.75000748       0.10785064
C       -0.31350149      -2.07484184      -1.07270174
C       -1.11517219       4.11184946      -0.58267074
C        0.45054876       3.70028411      -2.26263311
C        1.18881211      -0.68060151       2.43033054
C        1.40188190       2.69131085      -2.44518639
C       -2.34647050      -2.20439862       0.22455742
C       -3.72105974      -1.88938307       0.22609429
C        2.82963427       1.20681105      -1.42163291
C       -3.44397584       1.87811700      -1.14756303
C       -2.09315004      -0.89076819      -1.90792308
C       -0.29207535      -2.99818189       1.19265561
C       -4.21725356      -0.58887956       0.48777607
C       -1.47912639      -2.12457715       1.37230910
C       -0.13091916      -0.19567987       2.43270538
C       -3.44485166      -0.50783958      -1.83435410
C        1.90214988      -5.61725544       2.70536983
C       -1.69311271      -1.88984612      -0.97690342
C        2.64590476       2.00657584       0.73507134
C       -0.41070810       1.02500505      -3.03723406
C        1.58514996      -0.82911007      -1.83016414
C       -1.39174333      -0.85261863       2.02613636
C       -1.80918315       3.74434264      -1.75579187
C        2.68084573       1.32923039       3.13458024
C       -0.83607278      -0.29484219      -2.50851054
C        0.80814570      -4.85942511       2.64781643
C       -2.33175393       0.21596379       1.83156905
C       -0.31157887       1.24207705       2.35908900
C        0.64768325       2.23661520       2.00900458
C        2.97043617      -5.58131280       1.94868131
C        0.40580247      -2.71193467      -0.05701901
C        2.25356551       3.04576564      -0.17709362
C        2.73097499      -0.51382927       0.30443820
C        2.28553132      -1.42696989      -0.72084505
C       -3.76195539       0.83018031      -2.13925701
C       -1.22065336       2.18106817      -3.36749750
C        0.98676817       1.36245115      -2.81712564
C        0.19530601       3.25829748       1.11732544
C       -2.89112424       2.88733657      -1.97036499
C        0.27979277       4.25454711      -0.95332875
C        2.46349569       2.58200852      -1.50443540
C       -0.83544625       3.41789415      -2.76002172
C       -3.15310373       1.69200908       0.23943111
C        0.22394948      -1.16644183      -1.99139600
C        2.36145540       0.08896117       2.78575153
C       -2.66123759       2.20927614      -3.26909450
C       -1.16770292       3.38590609       0.64346633
C       -4.25507843      -1.09970510      -0.83197105
C       -2.09801303       2.38269601       1.00970369
