60
Properties=species:S:1:pos:R:3 entry_id=83 rank=51 energy=-497.7939453125 pbc="F F F"
C       -1.10172643      -2.57510351      -0.69294163
C        3.03474255       0.77963406      -2.05756209
C        2.40342740       2.26082793       2.33099188
C       -0.57329727      -3.31641570       0.37426514
C       -4.31050468       0.41603658       0.70392339
C        3.55742649       1.37018343       0.29750937
C        0.81913035      -1.14658169       2.57652057
C        2.93236287      -0.52998887       1.84454937
C       -6.41973187       1.03592344      -0.42057451
C        2.80353156      -2.17826160       0.22838950
C       -2.22619429       0.76774879       1.62935899
C        0.73618850       3.28095215       0.17285883
C        1.20160812      -2.40206407      -1.59008170
C       -1.28298235       3.02713890      -0.97747120
C        0.60404566       3.36760390      -2.32334870
C        2.74724664      -1.93874181       1.62916727
C        1.87753429       2.78532469      -2.36343616
C       -2.56103318      -1.47275732       0.99292423
C       -2.23135650      -1.69384300      -0.41964885
C        3.47174565       1.70882100      -1.07538342
C       -4.81059541       2.62676111      -0.19838084
C       -0.45857392      -1.12320083      -2.58703653
C       -0.23566828      -3.88147210       2.62355577
C       -5.55306339      -0.00485543       0.28579850
C       -1.07490753      -3.20926831       1.73280373
C       -0.57512531      -0.88173418       2.35916005
C       -6.82472272      -0.25296751      -0.15625387
C        0.95935242      -3.54594835       1.96970238
C       -0.21522041      -2.25072087      -1.74692124
C        2.89771838       2.42241943       1.07605596
C        0.94325847       0.74510449      -3.39168162
C        2.90269760      -0.59793522      -1.71018655
C       -1.53661140      -1.87512479       1.93012512
C       -1.57166894       2.44427555      -2.26330216
C        1.38605458       1.33144140       2.48982891
C        0.80493393      -0.61605328      -3.02410637
C        1.57438489      -2.33124060       2.32694477
C       -3.17394167      -0.23658387       1.30831683
C       -0.93164840       0.50966804       2.12426585
C        0.03396115       1.58338893       2.02479247
C        0.80768929      -3.53082562       0.52021934
C        1.72843139      -2.89997077      -0.36381935
C        2.13638690       3.17009322       0.08023891
C        3.48200741       0.01497630       0.64068537
C        3.30460513      -0.98481100      -0.39097883
C       -6.00087834       2.30376651      -0.62642070
C       -0.27433880       1.46357741      -3.53720804
C        2.05009994       1.45351463      -2.87225312
C       -0.21796733       2.62912237       1.06889192
C       -1.61149217      -0.28511995      -2.33539743
C        0.04132951       3.52819026      -1.04435522
C        2.69664798       2.89933850      -1.20304757
C       -0.42976215       2.82433277      -3.14110790
C       -3.92722678       1.78952852       0.45297245
C        1.83481666      -1.33294999      -2.31057911
C        1.76662204      -0.05089869       2.50158223
C       -1.43947685       1.08016665      -2.78537161
C       -1.51309088       2.67879021       0.39453364
C       -2.48319908      -0.73655616      -1.37142238
C       -2.57701416       1.94451531       0.92432657
