60
Properties=species:S:1:pos:R:3 entry_id=7 rank=107 energy=-489.4361572265625 pbc="F F F"
C        1.46986729      -3.69029574      -1.32012354
C        2.22247477      -0.02065573      -2.03450800
C        2.13435465       2.13348707       1.92543831
C        2.60756413      -2.81368964      -1.43118519
C       -3.43349684       0.69440417       1.27070939
C        3.19403625       0.84179308       0.09883499
C       -0.11200351      -3.43784262       1.52917675
C        2.25603207      -0.32071045       2.08540742
C       -3.46778482       0.74885840      -3.27938272
C        0.77481461      -1.50461061       0.72317728
C       -1.59934490       1.75873614       2.10258354
C        1.16262623       3.64849196      -0.22901735
C        0.26349035      -2.98783936      -1.14849673
C       -1.02724976       3.90144671      -0.93915989
C        0.45415733       3.07771087      -2.48720095
C        0.86190079      -0.75561358       1.96767573
C        1.48423315       2.12811431      -2.52246840
C       -2.43868043      -2.05675162       1.01335214
C       -3.78592238      -1.72379018       0.82777469
C        3.03353606       0.91701032      -1.32412112
C       -3.45249705       1.78772377      -1.02996390
C       -1.81037452      -1.20940107      -1.24893552
C       -0.93362296      -2.97901311       2.51951198
C       -4.23498713      -0.37671704       0.87216291
C       -1.76339070      -1.91123875       2.29556636
C       -0.18020505       0.01537260       2.54353654
C       -3.13461168      -0.66265439      -1.33779465
C        2.22298161      -4.13554475       0.96677570
C       -1.57190003      -1.99206256      -0.07395605
C        2.81271306       2.10903454       0.66580354
C       -0.18018848       0.33295861      -2.80163638
C        1.89179603      -1.36185065      -1.51024057
C       -1.53403019      -0.50778924       2.56686300
C       -1.82779674       3.33641610      -2.00755729
C        2.49396973       1.08003479       2.75927870
C       -0.59265544      -0.87778984      -2.09176999
C        1.12336140      -4.07495537       1.59087618
C       -2.38431620       0.57276207       2.20688583
C       -0.24295618       1.48471363       2.38848976
C        0.73083674       2.40057394       1.86238284
C        2.46137550      -3.73226489      -0.32572850
C       -0.21073881      -2.55406490       0.20632877
C        2.36650526       2.94406366      -0.40290972
C        2.73630176      -0.32690819       0.71129284
C        1.87697629      -1.16436468      -0.03158666
C       -3.54148665       0.59430024      -1.86235645
C       -1.06774893       1.34436208      -3.33729435
C        1.18280113       0.73598163      -2.65999098
C        0.29451540       3.30611228       0.84887504
C       -3.07553155       2.90868517      -1.74167887
C        0.34462255       3.92488814      -1.35624598
C        2.56962573       2.23875700      -1.62231612
C       -0.84844554       2.67673425      -2.88066553
C       -3.11905575       1.76807448       0.38441879
C        0.47033900      -1.77475765      -1.85908738
C        2.98414551       0.03829980       3.37575682
C       -2.33987943       1.00571497      -3.75969171
C       -1.06764411       3.38315491       0.38214330
C       -4.08988179      -1.03176669      -0.36602164
C       -2.01657036       2.50733636       0.96699310
