60
Properties=species:S:1:pos:R:3 entry_id=46 rank=93 energy=-492.3643798828125 pbc="F F F"
C        0.54439584      -4.18769037      -0.96337310
C        1.91974799       0.41733278      -1.91411862
C        2.12729947       2.75409198       1.91186555
C        0.82797468      -5.35499093      -0.65472838
C       -3.21240456       0.38399602       1.03238798
C        3.09213663       1.42126986       0.04553616
C       -0.05209729      -4.29485109       2.39453139
C        2.62774586       0.12626005       2.14973613
C       -1.71678558       0.76649385      -3.06528626
C        1.53588394      -1.55033093       1.07065680
C       -1.48175300       1.55811065       1.92671884
C        0.86731488       4.04532431      -0.15855350
C        0.19732386      -2.79648643      -0.63774638
C       -1.35533849       4.14542257      -0.77063422
C        0.07954802       3.61118676      -2.46822693
C        1.40523156      -0.64546017       2.19773726
C        0.99661668       2.51625295      -2.49223965
C       -2.02938634      -2.40082864       0.62850198
C       -3.37761422      -2.01282259       0.43491008
C        2.71331650       1.43012020      -1.33628493
C       -3.24394488       1.61646224      -1.22986253
C       -1.62252938      -1.57187093      -1.60673786
C       -0.17311077      -3.03565320       1.90452331
C       -3.92334779      -0.72840662       0.58101136
C       -1.28219121      -2.08536240       1.83160035
C        0.14486317      -0.01360929       2.42488084
C       -2.83397518      -0.85907713      -1.65685189
C        0.80110599      -6.38938207       1.43178772
C       -1.31117990      -2.47916917      -0.57859388
C        2.71707393       2.69715240       0.60104612
C       -0.39580389       0.25187177      -2.74125006
C        1.80830530      -0.84377947      -1.24702349
C       -1.13730067      -0.71267594       2.19952082
C       -2.16221696       3.76315369      -1.90599690
C        2.82781537       2.33619491       3.07280593
C       -0.41029620      -1.04336122      -2.14289152
C        0.35486594      -5.49229147       2.30806533
C       -2.10903623       0.29108375       1.91019680
C       -0.10078387       1.45544922       2.24120307
C        0.69349525       2.59117030       1.82165398
C        1.02578202      -6.41822976       0.16148059
C        0.66245327      -2.57079587       0.80113232
C        2.09958045       3.45363103      -0.45586094
C        2.94686955       0.21257985       0.74332912
C        2.31848483      -0.89106397       0.07731779
C       -2.76969655       0.47493687      -2.08490735
C       -1.58352715       2.99966430      -4.23570857
C        0.80586372       1.04011326      -2.61649292
C        0.08898385       3.50573594       0.89878038
C       -3.15470883       2.87975214      -1.75238696
C       -0.01373868       4.31803715      -1.22424338
C        2.14664834       2.68727048      -1.64884164
C       -1.22595302       3.67381058      -3.04717466
C       -3.05141167       1.56524168       0.23647244
C        0.69773594      -1.66518199      -1.54352017
C        2.98694996       1.07809924       3.07589269
C       -1.78335453       1.78295075      -3.97653479
C       -1.28629601       3.46162385       0.46628371
C       -3.80544897      -1.28685470      -0.71054513
C       -2.05921984       2.37955167       0.92002161
