60
Properties=species:S:1:pos:R:3 entry_id=15 rank=92 energy=-492.4165344238281 pbc="F F F"
C        0.47200851      -3.90112932      -1.20988192
C        2.21343309       0.52775572      -1.87920773
C        2.12040396       2.77063546       2.00649168
C        0.72042172      -5.09929822      -1.00791188
C       -3.21789872       0.34797564       1.13500873
C        3.22214218       1.48811585       0.17434989
C       -0.02681072      -4.33369002       2.13383127
C        2.65931216       0.13526000       2.21458607
C       -3.39377791       0.78899476      -3.37669013
C        1.57049530      -1.48664675       1.04614331
C       -1.47269337       1.54525336       1.97654288
C        0.90088936       3.99976742      -0.16158818
C        0.17996281      -2.52937055      -0.75790115
C       -1.30770543       3.99656224      -0.84884657
C        0.24987103       3.42238601      -2.43422082
C        1.43582517      -0.63201937       2.21103656
C        1.37786971       2.59424768      -2.48989430
C       -1.97802039      -2.29728118       0.57481741
C       -3.36105913      -2.03827377       0.51174715
C        2.99891546       1.52639366      -1.24042636
C       -3.49418110       1.63023139      -1.05204148
C       -1.66892354      -1.20442437      -1.61454558
C       -0.12233754      -3.03262190       1.75949162
C       -3.94562968      -0.76900509       0.71593323
C       -1.21739480      -2.07278212       1.78524202
C        0.17432160      -0.01190883       2.46037940
C       -3.02743584      -0.76167072      -1.59056390
C        0.71467953      -6.35699186       0.96113294
C       -1.29913137      -2.17296865      -0.64883478
C        2.76471257       2.73972308       0.72283534
C       -0.09391964       0.62110437      -2.86013529
C        1.89897486      -0.69341428      -1.23199197
C       -1.09691231      -0.72336462       2.23751954
C       -2.04404192       3.39001689      -1.94119188
C        2.78521104       2.32470895       3.17734567
C       -0.39735887      -0.64621901      -2.19973696
C        0.32790151      -5.53457706       1.93772658
C       -2.08842156       0.27013991       1.98220189
C       -0.09034161       1.45408320       2.28790675
C        0.69703354       2.59169123       1.86062721
C        0.89944225      -6.24630059      -0.31108676
C        0.68674087      -2.46988471       0.68674589
C        2.19748914       3.49897630      -0.35921393
C        3.01742155       0.25941747       0.82168499
C        2.37895790      -0.80477223       0.09922135
C       -3.50963982       0.50906540      -1.98656550
C       -1.07034555       1.56175258      -3.38102808
C        1.19909265       1.18145464      -2.63769772
C        0.10616059       3.46713773       0.88900841
C       -3.24068561       2.82836683      -1.68982863
C        0.04527100       4.21277788      -1.27369444
C        2.44580497       2.80214996      -1.57266103
C       -1.00029066       2.88413516      -2.84348608
C       -3.09648603       1.53258118       0.34425537
C        0.68816991      -1.35310289      -1.58234479
C        2.97987666       1.07285378       3.17261697
C       -2.29695334       1.13734632      -3.86756796
C       -1.25810837       3.39065333       0.43422815
C       -3.86139659      -1.31564472      -0.58685693
C       -2.05395767       2.34481564       0.95196780
