60
Properties=species:S:1:pos:R:3 entry_id=53 rank=38 energy=-499.4405822753906 pbc="F F F"
C       -1.41601326      -2.45807359      -0.47812206
C        2.90042200       0.86774709      -2.14506961
C        2.55141771       2.23549948       2.32996532
C       -0.70860293      -3.22006931       0.48104968
C       -4.05655077       0.18095229       0.68027939
C        3.56790657       1.38047164       0.20462993
C        0.95191106      -1.14142203       2.63719643
C        2.99867425      -0.54678734       1.73523440
C       -6.19205415       0.56042235      -2.14795021
C        2.66820148      -2.12392600       0.07976940
C       -2.15137680       0.79271511       1.86286872
C        0.78974746       3.38407531       0.33109826
C        0.80644259      -2.10550370      -1.51171940
C       -1.31939253       3.39151356      -0.66281173
C        0.48098649       3.46312440      -2.13639045
C        2.76040770      -1.94312738       1.49013872
C        1.75941912       2.90204379      -2.29699855
C       -2.55166639      -1.51174558       1.45392866
C       -2.71355972      -2.06856042       0.10316266
C        3.40418282       1.75693956      -1.15039177
C       -3.66824951       1.45607400      -1.33159908
C       -0.78949818      -0.63565494      -2.45855844
C       -0.12014366      -3.94137682       2.67782638
C       -4.71386472      -0.78315574      -0.18966299
C       -1.02316864      -3.20234443       1.91711583
C       -0.44952369      -0.85505768       2.56064119
C       -5.49215722      -0.12860691      -1.17931157
C        0.97460283      -3.51497333       1.91903643
C       -0.63153238      -1.82871449      -1.53282145
C        2.98041683       2.42004807       1.05515859
C        0.76374805       0.92576065      -3.37039966
C        2.70116558      -0.50778950      -1.80883703
C       -1.41801612      -1.86451555       2.23122049
C       -1.74898836       2.85559636      -1.90243654
C        1.52797053       1.32330503       2.53414497
C        0.54498204      -0.41117531      -2.98388261
C        1.65137817      -2.33357182       2.28412690
C       -3.09893889      -0.24403015       1.64387496
C       -0.83435644       0.54730377       2.33629266
C        0.15086108       1.59879968       2.15513496
C        0.67272341      -3.41463913       0.49832912
C        1.47654110      -2.72309894      -0.42293898
C        2.17505478       3.21308877       0.13597073
C        3.46903003       0.01967367       0.50990200
C        3.17892686      -0.93698429      -0.53360558
C       -4.89238648       0.97484494      -1.81468480
C       -0.49777640       1.55052762      -3.28241326
C        1.91123970       1.59881705      -2.90149014
C       -0.13118038       2.66969229       1.22519981
C       -2.44510898       1.61697147      -2.04959388
C        0.04536276       3.78688905      -0.81863614
C        2.64082111       2.96155201      -1.18804925
C       -0.62296270       2.85842808      -2.79592263
C       -3.54242333       1.35699675       0.09469109
C        1.52196177      -1.15983573      -2.30338046
C        1.90084586      -0.06197647       2.49532351
C       -1.48243390       0.67522161      -2.67958891
C       -1.44140197       2.74705348       0.59734738
C       -3.94058514      -1.86141567      -0.46836207
C       -2.43647502       1.81715409       0.91995177
