60
Properties=species:S:1:pos:R:3 entry_id=16 rank=82 energy=-493.09271240234375 pbc="F F F"
C        2.58973189      -3.14920478       0.95336503
C        1.96354166       0.50624834      -2.16479183
C        2.24249012       2.16436222       1.94944633
C        3.02510974      -4.20412542       1.44339305
C       -3.33641981       0.35126112       1.00630569
C        3.15653548       1.06031170      -0.08250325
C       -0.17231283      -4.38727937       1.84032902
C        2.56680449      -0.52861401       1.78830349
C       -3.63185790       1.45500276      -3.36145488
C        1.56701803      -2.19601965       0.48619251
C       -1.42371068       1.23114549       1.86993855
C        1.06807405       3.79172133       0.03959810
C       -0.36549025      -2.09744691      -1.01419204
C       -1.15740043       4.08972006      -0.52837947
C        0.28080514       3.62135906      -2.25455593
C        1.29876001      -1.21353444       1.70687804
C        1.31553742       2.69968109      -2.46710564
C       -2.47833225      -2.30583625       0.11989809
C       -3.82677159      -1.91078544       0.12404635
C        2.87996158       1.32573570      -1.46262045
C       -3.57826023       1.97018271      -0.95514775
C       -2.10982513      -0.85834962      -1.91427490
C       -0.55097547      -3.30870009       1.10604322
C       -4.22577904      -0.60555671       0.51127404
C       -1.64187748      -2.35630681       1.29777677
C        0.08407056      -0.53630940       1.98671294
C       -3.43507480      -0.36354214      -1.81748296
C        1.75363569      -5.79830035       2.45350114
C       -1.76291896      -1.92117422      -1.02264397
C        2.83848292       2.25780510       0.64908596
C       -0.37742593       0.95625641      -3.00424635
C        1.55985108      -0.73443283      -1.62138412
C       -1.28753857      -1.07373725       1.81757875
C       -1.98878288       3.72202142      -1.65833391
C        2.89817506       1.51744867       3.02914962
C       -0.80761191      -0.31513142      -2.45875285
C        0.51676269      -5.33038506       2.31970578
C       -2.17164168       0.03732063       1.74481808
C       -0.04808379       0.96881972       2.07213478
C        0.80912066       2.10329619       1.81858398
C        2.93427841      -5.39379108       2.09943955
C        0.26244164      -2.73689998       0.04665339
C        2.30787379       3.21553710      -0.28685095
C        2.89474246      -0.24851581       0.40093584
C        2.19003402      -1.16911216      -0.43767226
C       -3.78044547       0.99673112      -2.02743499
C       -1.25736147       2.04917111      -3.38227913
C        0.98343575       1.34623980      -2.77798901
C        0.26448465       3.16969449       1.02886269
C       -3.20894902       3.20939397      -1.42812476
C        0.19532893       4.24760228      -0.98458179
C        2.44323861       2.68261486      -1.59500339
C       -1.03162191       3.27320947      -2.68075941
C       -3.13051810       1.62437976       0.38419394
C        0.22288565      -1.14259703      -1.86519548
C        2.97514970       0.27095596       2.83624511
C       -2.53694921       1.79779990      -3.85686187
C       -1.11582383       3.28066324       0.63720037
C       -4.27264663      -0.98035654      -0.85004286
C       -1.97900229       2.23352223       1.02806437
