60
Properties=species:S:1:pos:R:3 entry_id=36 rank=36 energy=-499.77484130859375 pbc="F F F"
C       -1.57232045      -2.85954387      -0.19324685
C        2.35336816       0.75529196      -2.08693273
C        1.72779306       1.77772947       2.14525506
C       -0.80668076      -3.48250738       0.80103307
C       -3.93140089       0.27021735       0.63778016
C        3.21242317       1.19808574       0.15905956
C        1.12571567      -1.19232645       2.68990891
C        3.15062840      -0.81291156       1.65812936
C       -3.04035504       0.63135896      -3.62556728
C        2.48904156      -2.32164992       0.02147935
C       -1.97908777       0.91503947       1.77424727
C        0.72968409       3.64066181       0.31107590
C        0.51015831      -2.37107420      -1.39361147
C       -1.40803596       3.82833993      -0.58349813
C        0.36172499       3.71178337      -2.09823461
C        2.76020774      -2.15962701       1.40903565
C        1.47096877       2.87516047      -2.24206844
C       -2.45207579      -1.42591709       1.55090415
C       -2.66340845      -2.10395225       0.31498584
C        3.08274585       1.60597419      -1.20567922
C       -3.42399230       1.50045348      -1.41093042
C       -1.41158108      -1.21237395      -2.04250808
C       -0.08148223      -3.85079330       2.99666623
C       -4.56540348      -0.69550234      -0.10966823
C       -0.99525071      -3.15046801       2.21635383
C       -0.24730173      -0.75034262       2.54161188
C       -2.77404571      -0.87767532      -1.74822657
C        0.97082329      -3.61714491       2.09094182
C       -0.90285087      -2.34619818      -1.32919036
C        2.49721204       2.14060648       0.96204852
C       -0.00387829       0.96666485      -3.00500378
C        2.17138971      -0.60764809      -1.76731462
C       -1.28275303      -1.74598240       2.31977161
C       -1.92844988       3.47287988      -1.85571421
C        2.27582437       1.00251254       3.14016533
C       -0.23819241      -0.43930004      -2.57727773
C        1.70594497      -2.44632958       2.30928434
C       -2.92708888      -0.11239648       1.60116844
C       -0.62430644       0.68824496       2.23297482
C        0.27344967       1.81361804       1.95783558
C        0.57662418      -3.65083516       0.68844767
C        1.28364982      -2.97445641      -0.35172050
C        2.03304349       3.17602221       0.10343065
C        3.30747307      -0.18514501       0.40391607
C        2.86322460      -1.10278686      -0.61797381
C       -3.32688463       0.31841999      -2.27943380
C       -0.95485756       1.99818581      -3.36341115
C        1.29672029       1.51348877      -2.67533926
C       -0.16382977       2.90535633       1.14715804
C       -2.87638280       2.51482381      -2.22043446
C       -0.00884910       4.14748151      -0.78674327
C        2.46586771       2.89389267      -1.22638442
C       -0.81181687       3.27289388      -2.73457507
C       -3.41377516       1.45351667       0.00935189
C        0.92711289      -1.20826763      -2.11072160
C        2.28842689      -0.27627897       2.69224970
C       -2.37935241       1.80376287      -3.41908757
C       -1.47420406       3.00997427       0.58556836
C       -3.48218013      -1.42473041      -0.63531616
C       -2.36221800       1.96289753       0.85895723
