60
Properties=species:S:1:pos:R:3 entry_id=13 rank=91 energy=-492.4189453125 pbc="F F F"
C        0.47760636      -3.89580691      -1.21831635
C        2.20635229       0.51083369      -1.88104170
C        2.12266033       2.74892222       2.00617555
C        0.78535575      -5.07806187      -1.00420787
C       -3.23188679       0.36379277       1.13469239
C        3.21902273       1.46292976       0.17396986
C       -0.01734122      -4.32134752       2.16383408
C        2.64618965       0.11091814       2.21312378
C       -3.39852808       0.80569059      -3.37646470
C        1.54971412      -1.50299255       1.04210746
C       -1.47760437       1.54789255       1.97612619
C        0.91314670       3.98752155      -0.16143715
C        0.15265496      -2.53246904      -0.76398126
C       -1.29409666       3.99895012      -0.85037586
C        0.26095856       3.41819879      -2.43625683
C        1.41767211      -0.64800120       2.20688211
C        1.38393677       2.58284054      -2.49155258
C       -2.00482688      -2.29299450       0.56865953
C       -3.38580279      -2.02216531       0.50774121
C        2.99765672       1.50420289      -1.24131605
C       -3.49665303       1.65025704      -1.05195627
C       -1.68896695      -1.19805027      -1.61728462
C       -0.15303224      -3.03395264       1.75710201
C       -3.96373255      -0.74987987       0.71390599
C       -1.24642059      -2.07362841       1.78134911
C        0.15893835      -0.02177351       2.45671990
C       -3.04306352      -0.74416903      -1.59014195
C        0.83985878      -6.29298448       0.98486722
C       -1.32537278      -2.17405183      -0.65626855
C        2.76776266       2.71608663       0.72300936
C       -0.10194057       0.62084311      -2.86078460
C        1.88440692      -0.70900800      -1.23466975
C       -1.11737050      -0.72416494       2.23335079
C       -2.03383285       3.39963665      -1.94406023
C        2.78324432       2.29491206       3.17524237
C       -0.41457097      -0.64296284      -2.19928340
C        0.40402847      -5.50082814       1.96136644
C       -2.10211206       0.27695003       1.98065105
C       -0.09582491       1.44612224       2.28616253
C        0.69863907       2.57869463       1.85919348
C        1.02597638      -6.20072164      -0.28732948
C        0.65627502      -2.47626654       0.68092142
C        2.20677808       3.47996425      -0.35878563
C        3.00702003       0.23493946       0.82085731
C        2.36390979      -0.82566090       0.09661985
C       -3.51653109       0.52931936      -1.98623266
C       -1.07161254       1.56670531      -3.38369820
C        1.19555205       1.17142517      -2.63864190
C        0.11416769       3.45808476       0.88752434
C       -3.23349158       2.84521782      -1.69167608
C        0.06038098       4.20725868      -1.27410279
C        2.45275184       2.78380253      -1.57332224
C       -0.99286925       2.88873188      -2.84696695
C       -3.10265443       1.54877905       0.34520374
C        0.66644886      -1.35589798      -1.58320675
C        2.97432499       1.04239602       3.17538015
C       -2.30020284       1.14747370      -3.86953123
C       -1.25012023       3.39149526       0.43237036
C       -3.88234092      -1.29517774      -0.58937871
C       -2.05363613       2.35239623       0.95214458
