60
Properties=species:S:1:pos:R:3 entry_id=103 rank=42 energy=-499.01220703125 pbc="F F F"
C       -1.48148174      -3.47096804      -0.50281139
C        2.32699910       0.53631537      -1.88257712
C        1.89363992       2.39495015       2.28505766
C       -0.78950866      -4.64108977      -0.22664558
C       -3.23091923       0.11626255       0.79264008
C        3.03631210       1.16926904       0.37931161
C        1.12367645      -2.24277271       2.47569393
C        2.46545611      -0.28727113       2.25856663
C       -3.14607196       0.28230608      -2.96736561
C        2.08422129      -2.53125324       0.27370867
C       -1.73268202       1.34328103       2.01574420
C        0.85129872       3.82925865       0.15290799
C        0.47536956      -2.59266534      -1.54038260
C       -1.30351513       3.88224819      -0.69882625
C        0.41953512       3.51262381      -2.24044220
C        1.16671464      -0.85195172       2.57319981
C        1.53368908       2.66328391      -2.30106192
C       -2.09345138      -2.79865973       0.69485993
C       -3.32057330      -2.27367148       0.51351223
C        3.00742247       1.42436266      -1.02611805
C       -3.64361587       1.64200753      -1.10300772
C       -1.35744735      -1.42000872      -2.27315620
C       -0.04322081      -2.99637772       2.15778573
C       -3.64687272      -1.03330603       0.06362644
C       -1.19852477      -2.29952684       1.73761539
C       -0.08386768      -0.17245639       2.57569778
C       -2.68818232      -0.92153401      -2.33201879
C        0.75965676      -3.99941517       1.52224139
C       -0.92571145      -2.61229304      -1.54885914
C        2.56304775       2.36857498       1.01723441
C        0.08015673       0.72066917      -3.03186796
C        2.07520598      -0.78009955      -1.45845850
C       -1.27129180      -0.92477183       2.16741301
C       -1.86146265       3.34241678      -1.87317915
C        2.57504947       1.84120680       3.39729960
C       -0.13670289      -0.67027155      -2.66744764
C        1.91289283      -3.05776698       1.61015723
C       -2.26820089       0.04183423       1.82911585
C       -0.37857581       1.26666786       2.45598291
C        0.46502836       2.38372839       2.12126858
C        0.45987966      -4.25296821       0.16485954
C        1.17459739      -3.24004471      -0.53209340
C        2.13456192       3.27925284      -0.00030006
C        2.81834308      -0.16523592       0.85903412
C        2.46295247      -1.20361235      -0.10982976
C       -4.10631343       0.48708581      -1.86002801
C       -0.97451667       1.68154183      -3.26599302
C        1.36438725       1.27443427      -2.65838267
C       -0.03443382       3.29404236       1.13509255
C       -2.82894533       2.33930744      -2.02758532
C        0.09117015       4.14843050      -0.99616456
C        2.50218909       2.73835282      -1.25946261
C       -0.78544840       3.02147389      -2.77927295
C       -3.21746464       1.44024262       0.22921330
C        0.97142398      -1.40063861      -2.09577852
C        2.86756763       0.62257953       3.23162317
C       -2.36829007       1.43928506      -3.04063390
C       -1.37003704       3.25673671       0.58754443
C       -3.74640362      -0.79205691      -1.34306676
C       -2.23175199       2.20982709       0.99979302
