60
Properties=species:S:1:pos:R:3 entry_id=14 rank=75 energy=-493.7014465332031 pbc="F F F"
C       -0.39082270      -3.48695776      -1.08782186
C        2.30323414       0.56129351      -1.84396367
C        2.11124314       2.86790921       1.98137822
C       -0.31589569      -4.83355379      -1.03597149
C       -3.20318840       0.33472631       1.22545090
C        3.27564909       1.59623132       0.18333274
C        0.07493230      -4.35186954       2.06774125
C        2.73849474       0.25483730       2.24456546
C       -3.21144901       1.32248176      -2.96465490
C        1.78427106      -1.45832834       1.09961289
C       -1.43600144       1.53285257       2.00863195
C        0.85074305       4.00267228      -0.21609664
C        0.62182561      -2.54593485      -0.68601516
C       -1.36758065       3.85932911      -0.91311372
C        0.25389663       3.36448258      -2.48761171
C        1.55052814      -0.57816139       2.22095613
C        1.39914583       2.56584300      -2.51053660
C       -1.93406804      -2.40562023       0.56301856
C       -3.29588726      -2.06092716       0.56785088
C        3.05953166       1.59918303      -1.23498510
C       -3.48748063       1.54237233      -0.89466536
C       -1.58894719      -1.35400820      -1.64976839
C        0.04768171      -3.04317087       1.70834813
C       -3.87229590      -0.79143271       0.74786426
C       -1.07409511      -2.09511793       1.67243232
C        0.25874112       0.00081744       2.40509523
C       -2.93975250      -0.84245254      -1.58305298
C        0.22664625      -6.46060113       0.75786542
C       -1.41496005      -2.51662032      -0.78981867
C        2.75942697       2.83664227       0.70118506
C       -0.02027471       0.50903471      -2.81108486
C        2.05018446      -0.64515790      -1.17300883
C       -0.99238222      -0.74139301       2.15351586
C       -1.99717710       3.18470465      -2.00773128
C        2.78022134       2.46845299       3.16739588
C       -0.28533621      -0.78214635      -2.13841584
C        0.22195197      -5.57367534       1.76086938
C       -2.02020309       0.24102487       1.99511793
C       -0.04368457       1.46459453       2.27107848
C        0.69682945       2.63272832       1.83476854
C       -0.04742469      -5.91493148      -0.43091995
C        0.96300626      -2.50421232       0.69540945
C        2.16850959       3.55032597      -0.39912179
C        3.12379312       0.37315995       0.85649824
C        2.54608249      -0.73665622       0.14729166
C       -3.43996036       0.44570271      -1.82802878
C       -1.03201705       1.39292783      -3.37750664
C        1.24989617       1.14185497      -2.60632202
C        0.07682679       3.47811339       0.85309555
C       -3.17934201       2.43921118      -1.98975971
C       -0.01310550       4.15179996      -1.33055477
C        2.45599023       2.84085282      -1.59789948
C       -0.96442760       2.74513733      -2.87416594
C       -3.14152664       1.55568440       0.47214980
C        0.86447020      -1.38649782      -1.48874915
C        3.00324257       1.22094200       3.18831072
C       -2.26674617       1.02535974      -3.88300037
C       -1.29362212       3.36515430       0.42849013
C       -3.78151908      -1.35469705      -0.54670422
C       -2.06886765       2.35685543       1.03671506
