60
Properties=species:S:1:pos:R:3 pbc="F F F"
C        0.99301503      -3.53534603       1.23851781
C        1.05521519      -2.25475540      -1.98983334
C        1.97263792       2.16926056      -2.48312657
C        1.96946654      -3.32189571       0.28798325
C       -1.98497345       3.08774303       1.24892131
C        2.37826504      -0.19094805      -2.57197704
C        1.29467863      -0.88959194       1.94536125
C        3.39941318       0.36602860       3.12076843
C       -3.93081144      -0.48531490      -1.46013316
C        1.99854092      -0.48647373       0.65678439
C        0.17697541       3.82363693       0.25840864
C       -0.37801372       1.53976820      -3.59021799
C       -0.21741972      -2.79310862       1.30230898
C       -2.53982861       1.99162541      -3.35123706
C       -1.99213558      -0.27715638      -3.25856383
C        2.19279286       0.74975624      -0.07511600
C       -0.84583474      -1.15412329      -3.02786760
C       -0.41264244       0.49535003       2.77932837
C       -1.34434286       1.48337985       3.18150849
C        1.49411117      -1.26333725      -2.90338580
C       -4.00112220       0.72149599      -0.68654282
C       -2.31022340      -0.83506250       1.73274087
C        2.17884557       1.16710172       2.68525247
C       -2.08333518       2.51478255       2.55493043
C        0.99530316       0.34363132       2.69528512
C        1.90311420       2.10311748       0.38117880
C       -3.10981895       0.37411749       1.74434958
C        3.40388345      -1.01505529       3.00364831
C       -0.99951062      -0.65609824       2.20244430
C        1.94359951       1.02290161      -3.22251680
C       -3.70370829      -2.17086777       0.20317195
C        1.92408316      -2.48645782      -0.86835686
C        2.14832063       2.16740880       1.75535601
C       -3.66479867       1.30816192      -2.87725381
C        5.49000188       1.82774474       3.84962826
C       -2.54867275      -2.01766806       0.94817483
C        2.48289519      -1.78001578       2.37390001
C       -0.91117454       3.88178045       0.86554696
C        1.09396852       3.03596739      -0.41527106
C        0.87904418       2.70054612      -1.82999954
C        2.28357597      -3.05125253       1.67115270
C        0.00171218      -1.56546313       1.86179001
C        0.67817707       0.67570338      -3.80564708
C        2.60860940      -0.07861284      -1.21462022
C        2.41712325      -1.26307571      -0.42287971
C       -3.38316892       1.10818599       0.54309997
C       -1.15456183      -2.66598676      -0.93505318
C       -0.44324026      -2.20587619      -1.99313713
C       -0.42602708       2.46686806      -2.50331561
C       -3.87528316       1.81007636      -1.58528024
C       -1.65996641       1.00748455      -3.83147501
C        0.38516789      -0.68478885      -3.55610063
C       -3.32657170      -0.09093270      -2.71495281
C       -2.70386556       2.36553023       0.27586402
C       -1.35939663      -2.73531013       0.40241123
C        4.50891263       1.13450131       3.51877389
C       -4.20474957      -1.70162193      -0.84788068
C       -1.86099602       2.68223249      -2.25703093
C       -2.69734738       1.27855064       2.77841425
C       -2.78068007       2.61156348      -1.15112362
