60
Properties=species:S:1:pos:R:3 entry_id=22 rank=0 energy=-499.8297119140625 pbc="F F F"
C        2.12105752      -3.91588459       0.08207902
C        2.54634238       0.33421954      -2.24881952
C        1.85758333       1.32832549       1.40776316
C        3.18068996      -2.14623712       0.98329855
C       -4.27552528       0.96032837       2.17589000
C        3.57397397       1.21914279      -0.39683875
C        2.33695035      -4.23841277       1.41351871
C        2.91239258      -0.73657969      -1.40113380
C       -2.95213913       1.53900971      -3.95970763
C       -0.09200060      -3.45221217       0.72682555
C       -1.86231485       1.50476102       2.15569156
C        0.91866213       3.57283453      -0.11141786
C        0.82649055      -3.45465154      -0.31707732
C       -1.31481308       3.82842125      -0.64157792
C        0.03556912       2.98670572      -2.29735874
C        1.12064197      -0.85245476       2.39928041
C        1.15570126       2.14969248      -2.47667971
C       -2.87606364      -1.01829681       0.73225349
C       -3.63468642      -0.07307487       0.02433401
C        3.24480415       1.49060340      -1.76967133
C       -3.85220782       1.38819053      -1.88277836
C       -1.47924415      -1.47537879      -1.23839467
C       -1.14706662      -2.53993029       2.22976164
C       -4.07903477       1.05891964       0.80094301
C       -1.32595379      -1.19623752       2.60696451
C       -0.20599573      -0.30989536       2.58069102
C       -2.19025470      -0.42386624      -1.91977918
C        1.31010008      -2.28558127       2.41732004
C       -2.01563712      -1.91899400       0.00612508
C        2.67133380       1.96309744       0.40773956
C        0.06674888      -0.19387639      -2.46833891
C        2.35425702      -2.02206049      -1.26043842
C       -2.55049514      -0.70509854       2.08209421
C       -2.15153685       3.12345875      -1.56759021
C        2.12913718      -0.04772540       1.75431726
C       -0.08761883      -1.44138852      -1.68060222
C        0.18128144      -3.06197839       2.08697205
C       -2.95752704       0.61712490       2.45557568
C       -0.48535847       1.07697619       2.27694611
C        0.55491768       1.89039391       1.69135258
C        2.46718840      -2.92048129       1.93015026
C       -1.39713301      -2.85917471       0.84831146
C        2.12937131       2.97197950      -0.43807760
C        3.51472805      -0.17094163      -0.23817254
C        2.98208803      -2.81099898      -0.25607513
C       -4.01121855       1.53103902      -3.27116335
C       -1.27794916       0.26675861      -2.76855475
C        1.20497209       0.69602682      -2.57891889
C        0.15443647       3.06317530       0.97869436
C       -3.27881929       2.42649154      -1.07082544
C        0.01067847       3.85779286      -1.16937052
C        2.34543469       2.57697800      -1.79591972
C       -1.30952625       2.63625510      -2.62029579
C       -3.34420592       2.21379382       0.35080511
C        0.95932475      -2.32447546      -1.21309821
C        3.14568804      -0.73930692       1.00896288
C       -1.65455788       1.49477869      -3.40930566
C       -1.21467746       3.32296202       0.67758549
C       -3.37256568       0.13197164      -1.36391057
C       -2.21948099       2.47411449       1.17464960
60
Properties=species:S:1:pos:R:3 entry_id=25 rank=1 energy=-498.7334899902344 pbc="F F F"
C        1.79708388      -3.89526128      -0.13008498
C        2.56358052       0.34352488      -2.24287608
C        1.84655189       1.26720294       1.58245006
C        2.75235126      -2.36187886       0.83629719
C       -4.20555999       0.62704902       2.11270352
C        3.47605103       1.06454696      -0.25955871
C        1.74230648      -1.54316413       4.16323688
C        2.83574119      -0.79556843      -1.43870562
C       -2.91746404       1.79079625      -3.95394649
C       -0.53685132      -3.90275420      -0.38372394
C       -1.86273898       1.38261839       2.23050500
C        0.94568597       3.53295802       0.07911787
C        0.64654749      -3.59512518      -0.94994537
C       -1.27997868       3.80068537      -0.47088731
C        0.09016153       3.04069790      -2.15609425
C        1.23766483      -0.68909487       2.98472579
C        1.20805858       2.20590110      -2.37469605
C       -2.71452770      -1.11848793       0.50866540
C       -3.53105632      -0.16597557      -0.11955670
C        3.24753391       1.44064281      -1.62542462
C       -3.80470671       1.44709066      -1.89305220
C       -1.44142416      -1.47023750      -1.54566897
C       -0.53583227      -2.52304335       1.68993163
C       -3.99079547       0.88305901       0.76059159
C       -1.04039839      -1.31551432       2.27655909
C       -0.16700035      -0.30620826       2.77034923
C       -2.15518089      -0.36421339      -2.12799198
C        0.73322715      -2.99814191       2.11407052
C       -1.87173593      -1.96059926      -0.28775900
C        2.64889463       1.86449964       0.56026796
C        0.10286598      -0.10694714      -2.67936681
C        2.30781009      -2.08771985      -1.49925931
C       -2.32952608      -0.87801060       1.84265793
C       -2.10723431       3.15088887      -1.44130807
C        2.08873097      -0.11371366       1.93149847
C       -0.06813155      -1.42696756      -2.03265783
C        1.28924170      -2.26521178       3.18258103
C       -2.86512128       0.35279871       2.36842493
C       -0.48484407       1.05582331       2.46459948
C        0.56472099       1.87075751       1.89679130
C        1.75058325      -3.30253263       1.18209553
C       -1.09986454      -2.94565079       0.42760363
C        2.14678986       2.91305548      -0.25837434
C        3.29507244      -0.32451580      -0.17559949
C        2.84095629      -2.95256257      -0.49076248
C       -3.97171003       1.71719296      -3.26215534
C       -1.24126922       0.39331754      -2.91953045
C        1.25029946       0.76888586      -2.63161677
C        0.16569982       3.03385922       1.16977902
C       -3.23429476       2.41798112      -0.99718643
C        0.05129909       3.84438817      -0.97901858
C        2.37946099       2.55372000      -1.62418968
C       -1.25813743       2.73786362      -2.52364576
C       -3.30224546       2.10179767       0.40474004
C        0.93567024      -2.36506988      -1.65123460
C        2.82570782      -0.94788932       1.01977438
C       -1.61517634       1.68460291      -3.41922858
C       -1.20913661       3.26726012       0.83959034
C       -3.31386624       0.15335476      -1.49424011
C       -2.21360480       2.37436384       1.27474239
60
Properties=species:S:1:pos:R:3 entry_id=20 rank=2 energy=-497.9552001953125 pbc="F F F"
C        2.40017160      -3.60949757      -0.01686089
C        2.59651745       0.53249031      -2.41630667
C        1.91103227       1.29541740       1.23531435
C        3.49794363      -2.03628750       0.65073110
C       -4.17148787       0.81695887       2.27087476
C        3.63250293       1.38766215      -0.56468399
C       -1.41527526      -4.76617803       4.03798120
C        3.05248500      -0.55914046      -1.63458713
C       -3.01241616       1.49021302      -3.87689656
C        0.38562014      -2.97078397       0.74417752
C       -1.76364854       1.38998700       2.17122861
C        0.88229997       3.60406540      -0.12024354
C        1.07205754      -3.25976156      -0.45722558
C       -1.37275585       3.80416232      -0.57788839
C       -0.03803951       3.06556771      -2.29610030
C        1.20759028      -0.98709436       2.00980264
C        1.11754685       2.29202050      -2.53653459
C       -2.68430144      -1.09283282       0.79852249
C       -3.50586082      -0.19005405       0.10482953
C        3.25606803       1.70145261      -1.91523537
C       -3.83519383       1.27417438      -1.78479074
C       -1.25961298      -1.42392893      -1.18133906
C       -1.21505589      -2.71373312       2.40807230
C       -3.99738927       0.91524730       0.89398405
C       -1.18642013      -1.29997761       2.67738037
C       -0.07269767      -0.43573327       2.42778146
C       -2.06955908      -0.43348476      -1.85392675
C        1.34158563      -2.36252571       1.62206792
C       -1.70015246      -1.88203449       0.10172447
C        2.69654490       2.03255823       0.28326883
C        0.13747232      -0.08792406      -2.52169276
C        2.55279251      -1.86664628      -1.52229646
C       -2.41918142      -0.80514369       2.15864097
C       -2.20845709       3.08734959      -1.49612134
C        2.22438788      -0.09688636       1.48025738
C        0.08758946      -1.32560915      -1.72927641
C       -1.29813790      -3.79406079       3.25650645
C       -2.83974308       0.50802863       2.52552496
C       -0.38587618       0.95169265       2.18472834
C        0.61063805       1.80901018       1.58728149
C        2.59086212      -2.91749934       1.24328170
C       -0.97114075      -2.73979501       0.96410649
C        2.10818050       3.06730554      -0.49725397
C        3.65383474      -0.01098793      -0.46673089
C        3.30681779      -2.67966101      -0.62436753
C       -4.05299196       1.41432284      -3.16544761
C       -1.23995752       0.30262409      -2.75012427
C        1.22931159       0.84778866      -2.67578786
C        0.16566826       3.01109390       0.95790082
C       -3.29495174       2.33763150      -0.98188173
C       -0.06380646       3.89899704      -1.14117882
C        2.30905417       2.74724131      -1.87513973
C       -1.37757963       2.66011408      -2.58299252
C       -3.32155069       2.10572851       0.43907359
C        1.18925280      -2.18400298      -1.37992541
C        3.31959264      -0.65248787       0.74918910
C       -1.69746358       1.51211653      -3.37463208
C       -1.21435397       3.25938926       0.71850565
C       -3.27345047       0.04457281      -1.28120683
C       -2.17997560       2.37789648       1.23093929
60
Properties=species:S:1:pos:R:3 entry_id=27 rank=3 energy=-497.873779296875 pbc="F F F"
C        1.53939287      -3.62881597       0.32050495
C        2.47430160       0.32033025      -2.31737062
C        1.90991017       1.27379495       1.48968334
C        2.93434445      -2.27270722       0.87283775
C       -4.16818658       0.60852276       2.14881953
C        3.51533968       1.08459788      -0.41134035
C        0.72999479      -2.93734723       5.10500182
C        2.75796000      -0.81329104      -1.49111168
C       -3.05322859       1.80592837      -3.92157156
C        0.22112318      -3.60137012      -0.22565368
C       -1.80155081       1.39290811       2.25058174
C        0.95469311       3.52371261      -0.00726184
C        0.25687066      -3.61548129      -1.61098894
C       -1.28442460       3.78380333      -0.49489691
C        0.03997075       3.04895536      -2.23168236
C        1.19879257      -0.84307435       2.53080407
C        1.16063745       2.22359025      -2.48604557
C       -2.57158109      -1.13663060       0.52564613
C       -3.44626102      -0.21621307      -0.08959202
C        3.19813111       1.42497726      -1.76246848
C       -3.83630262       1.41020458      -1.84131855
C       -1.36596172      -1.43272931      -1.58079844
C       -0.38307038      -2.38904888       1.82134081
C       -3.92442618       0.83086149       0.79490635
C       -1.05590336      -1.28403033       2.39827371
C       -0.09716936      -0.28241104       2.74091673
C       -2.15976470      -0.35916400      -2.13900099
C        0.98853425      -2.37485787       2.46470857
C       -1.61634826      -1.91201512      -0.25213173
C        2.68912687       1.87037404       0.44112716
C        0.04337540      -0.05865083      -2.85524411
C        2.17736890      -2.10011661      -1.48117735
C       -2.29792779      -0.88399553       1.88943025
C       -2.13835485       3.13867219      -1.44370358
C        2.16275954      -0.12760457       1.79220875
C       -0.07928093      -1.37704942      -2.24249658
C        0.87343278      -2.73322300       3.88083657
C       -2.82104229       0.36375221       2.38829383
C       -0.40873933       1.08367374       2.46276298
C        0.63197680       1.87802180       1.84166667
C        1.92782558      -3.00669044       1.54058052
C       -0.66337822      -2.73096509       0.48219842
C        2.14868464       2.90700214      -0.37380111
C        3.38238118      -0.30863291      -0.30025150
C        2.54685224      -2.89359680      -0.36619443
C       -4.08189901       1.69169532      -3.19697480
C       -1.31761959       0.42147156      -2.99554380
C        1.19317130       0.79171141      -2.76080549
C        0.20787770       3.03147832       1.10987177
C       -3.24192344       2.38929657      -0.96833024
C        0.03058738       3.83429292      -1.04028046
C        2.34600490       2.55021288      -1.74605671
C       -1.32427058       2.75061713      -2.56265191
C       -3.26755836       2.06804101       0.43034798
C        0.88243207      -2.40841601      -2.00953975
C        3.05560441      -0.86973012       0.94737206
C       -1.72534534       1.71365033      -3.45895516
C       -1.17714743       3.25494184       0.81460506
C       -3.30364179       0.12370265      -1.46586897
C       -2.17021398       2.36419983       1.28078825
60
Properties=species:S:1:pos:R:3 entry_id=19 rank=4 energy=-497.7679443359375 pbc="F F F"
C        2.07063711      -3.60256955       0.13729295
C        2.57388540       0.44911974      -2.35057815
C        1.94684054       1.42782175       1.37462122
C        3.20046406      -2.05984346       0.84170233
C       -4.11543228       0.71956017       2.26741984
C        3.59559271       1.33086301      -0.49165190
C       -0.78826360      -4.62939306       3.86223213
C        2.98831408      -0.63476149      -1.52559909
C       -3.03244454       1.53396470      -3.90472867
C       -0.27450418      -3.77804390      -0.07905707
C       -1.76720132       1.47230485       2.23305742
C        0.89564574       3.63262724      -0.12228405
C        0.89447756      -3.43839299      -0.66665787
C       -1.35987928       3.79993103      -0.58725780
C       -0.02635341       3.02765322      -2.29583075
C        1.22073603      -0.75777426       2.24089660
C        1.12308012       2.23851220      -2.52498749
C       -2.60674525      -1.09687084       0.74456710
C       -3.45106957      -0.20033039       0.07691099
C        3.23547556       1.61617110      -1.85020000
C       -3.83863987       1.28788180      -1.78668447
C       -1.30859625      -1.46130346      -1.30412952
C       -0.39289190      -2.55247284       2.16890546
C       -3.94158333       0.88257397       0.89609935
C       -1.01491017      -1.22629617       2.55189771
C       -0.04687115      -0.20787782       2.59001528
C       -2.10047943      -0.44239468      -1.94038378
C        1.07520125      -2.14450467       2.01133700
C       -1.68309613      -1.90073174      -0.00472351
C        2.70987899       2.06886683       0.34176029
C        0.11528825      -0.12804540      -2.60678852
C        2.47960831      -1.93590968      -1.42365475
C       -2.28729370      -0.83336670       2.09925804
C       -2.19841135       3.07880029      -1.49523366
C        2.24145030       0.03880976       1.65493335
C        0.03794621      -1.39244590      -1.85365775
C       -0.59363835      -3.68260772       3.07485092
C       -2.77085793       0.46634913       2.51407629
C       -0.37038872       1.15545878       2.34888221
C        0.64205580       1.97799160       1.72071209
C        2.09693283      -2.81054423       1.34272695
C       -0.91159519      -2.87852639       0.70355147
C        2.11597625       3.06573088      -0.48503572
C        3.57418210      -0.06849493      -0.35219426
C        3.10873071      -2.74685842      -0.41624394
C       -4.05207613       1.45741937      -3.16315018
C       -1.25891424       0.29273150      -2.82715823
C        1.22300966       0.79070978      -2.68336505
C        0.17743469       3.11752560       0.99971119
C       -3.28464623       2.33571705      -0.97179308
C       -0.05231730       3.87803109      -1.15206675
C        2.31012370       2.68127449      -1.84975522
C       -1.37346102       2.64627702      -2.58890381
C       -3.30245815       2.09876449       0.44864343
C        1.10715560      -2.25223071      -1.45881474
C        3.22415900      -0.65344178       0.88369752
C       -1.71174703       1.52430850      -3.40583765
C       -1.21483598       3.30993020       0.73364410
C       -3.27288889       0.04879458      -1.31739015
C       -2.18285491       2.42468852       1.25740044
60
Properties=species:S:1:pos:R:3 entry_id=24 rank=5 energy=-497.4601745605469 pbc="F F F"
C        1.87197662      -3.71689787       0.01559515
C        2.54934414       0.38735654      -2.32169939
C        1.90534386       1.27077038       1.44841364
C        3.03089447      -2.23514493       0.78489186
C       -4.18455375       0.70603770       2.17906904
C        3.56646836       1.16797466      -0.41352679
C        0.68606570      -3.08864455       4.80917643
C        2.90149252      -0.73597626      -1.52497813
C       -2.98414532       1.73211826      -3.92589441
C       -0.47439769      -3.87345014      -0.28188973
C       -1.80820281       1.39982837       2.23257475
C        0.94904236       3.54784380      -0.00675335
C        0.71007665      -3.50479760      -0.80915032
C       -1.28942529       3.80360483      -0.50346000
C        0.04555314       3.05031639      -2.21832275
C        1.15793572      -0.90178289       2.35667740
C        1.16745826       2.22782835      -2.45508529
C       -2.74461403      -1.11142831       0.58562996
C       -3.55247899      -0.15636596      -0.05086730
C        3.24473801       1.51111232      -1.76839572
C       -3.83468902       1.42829955      -1.84756915
C       -1.43367675      -1.45071814      -1.45121459
C       -0.52258402      -2.44380955       1.74916422
C       -3.99057980       0.91538024       0.81515179
C       -1.11210481      -1.30198137       2.34258620
C       -0.11571619      -0.32745773       2.63012788
C       -2.16981557      -0.36860515      -2.05455498
C        0.93786451      -2.43734317       2.18344602
C       -1.87024544      -1.94302575      -0.19625675
C        2.69751816       1.90748289       0.43438120
C        0.07528796      -0.09992373      -2.64764014
C        2.35117122      -2.02193152      -1.49336852
C       -2.38547666      -0.86170536       1.92744063
C       -2.13433313       3.14498093      -1.45283923
C        2.15457401      -0.13900299       1.70927491
C       -0.06371617      -1.39719874      -1.95560629
C        0.88359303      -2.85659145       3.59560732
C       -2.84902801       0.40751489       2.42552167
C       -0.41631499       1.05287399       2.39925725
C        0.62192066       1.86008256       1.79746542
C        1.94983724      -3.00556656       1.25836056
C       -1.06311990      -2.91616606       0.52037942
C        2.15200272       2.94896104      -0.36968921
C        3.48375833      -0.23076010      -0.32068262
C        2.94141072      -2.87742851      -0.49890753
C       -4.02883270       1.66991152      -3.21842091
C       -1.27799887       0.37844442      -2.87969584
C        1.21703932       0.78400979      -2.66607239
C        0.20028986       3.03091237       1.09420544
C       -3.24878210       2.41344886      -0.97817077
C        0.02821133       3.85736576      -1.04324071
C        2.35615539       2.60568023      -1.74419851
C       -1.30713459       2.72795440      -2.54990940
C       -3.29058582       2.11743358       0.42956905
C        0.97023110      -2.30214437      -1.56776382
C        3.10944882      -0.83445605       0.89396541
C       -1.67216290       1.65024065      -3.41382595
C       -1.18161857       3.26723955       0.80339143
C       -3.33456368       0.14338468      -1.42933381
C       -2.17887236       2.38504289       1.27266997
60
Properties=species:S:1:pos:R:3 entry_id=26 rank=6 energy=-497.316162109375 pbc="F F F"
C        1.87979835      -3.87790229      -0.05727751
C        2.37863793       0.34341382      -2.27685188
C        1.84466605       1.38564377       1.55423410
C        2.73119529      -2.26027976       0.87488294
C       -4.16303944       0.54018864       2.16413972
C        3.37790891       1.14242703      -0.35959181
C        1.31812368      -2.84432379       3.51482356
C        2.73268412      -0.76514068      -1.45738413
C       -2.42420271       2.98510366      -5.06928177
C       -0.43844872      -3.97871680      -0.25317554
C       -1.85487370       1.35329870       2.24324840
C        0.82552472       3.56546493       0.03372946
C        0.70984408      -3.66228271      -0.87952840
C       -1.41172542       3.87201538      -0.41876854
C       -0.13192262       3.05510671      -2.17572992
C        1.32321869      -0.51028962       3.00186892
C        0.97016547       2.18140954      -2.41068481
C       -2.68342010      -1.23301671       0.60673945
C       -3.52653666      -0.29156842      -0.04398620
C        3.06384515       1.46874946      -1.72207382
C       -3.22865852       1.29992352      -1.88843485
C       -1.46775432      -1.71548405      -1.48406465
C       -0.45862741      -2.58523707       1.81228292
C       -3.99456440       0.78169487       0.80171481
C       -0.95220322      -1.34155541       2.35916364
C       -0.08848890      -0.26942771       2.79086972
C       -2.24543167      -0.71347533      -2.08185526
C        0.77585908      -3.16063154       2.22752499
C       -1.84816685      -2.11605967      -0.16952461
C        2.58993682       1.96172010       0.48071097
C       -0.05552818      -0.21536263      -2.67993481
C        2.28763934      -2.08626071      -1.47755429
C       -2.25745036      -0.93452517       1.92148313
C       -2.28953785       3.33409890      -1.37228124
C        2.14360523       0.02940629       1.95185367
C       -0.11276086      -1.56890642      -2.02020520
C        1.63695807      -1.64972561       3.74793257
C       -2.81418166       0.29573032       2.42594374
C       -0.46777809       1.07885145       2.45542780
C        0.54596744       1.93282161       1.88443951
C        1.79500211      -3.26820433       1.24669855
C       -1.02591319      -3.03502605       0.55915105
C        2.01761107       2.96459144      -0.34930282
C        3.22417441      -0.24621330      -0.22237084
C        2.86004426      -2.88164067      -0.43709842
C       -2.11306184       2.56206507      -3.86429222
C       -1.44096895       0.17673862      -2.83576775
C        1.04672990       0.72677053      -2.64819411
C        0.09084176       3.07493594       1.15642306
C       -3.23308337       2.36357889      -0.96081388
C       -0.10331870       3.85959874      -0.99125742
C        2.16827499       2.55766284      -1.71193683
C       -1.51967512       2.91817968      -2.53860472
C       -3.34791228       2.02372895       0.43016201
C        0.93834389      -2.44670789      -1.63297907
C        2.82692531      -0.84224951       1.01089767
C       -2.17111633       1.42171317      -2.90165288
C       -1.29902792       3.28902151       0.87723947
C       -3.27465923      -0.02871256      -1.40957374
C       -2.26256120       2.34439055       1.30345377
60
Properties=species:S:1:pos:R:3 entry_id=21 rank=7 energy=-497.21734619140625 pbc="F F F"
C        2.23642707      -3.69088640      -0.00624519
C        2.60936860       0.46522682      -2.34865226
C        1.80925440       1.19478699       1.29927480
C        3.29084188      -2.18852198       0.72668977
C       -4.28335830       0.84513984       2.17781309
C        3.59010646       1.25589474      -0.43876432
C        0.38032210      -3.82906562       4.05959900
C        3.02964703      -0.65593086      -1.58168912
C       -2.94917247       1.57910724      -3.93543886
C        0.22350402      -3.01063145       0.62583339
C       -1.87021366       1.38304797       2.15727049
C        0.89555270       3.55378057      -0.04316810
C        0.95063618      -3.27906160      -0.51227120
C       -1.34188720       3.80907429      -0.55995240
C        0.02350381       3.05891720      -2.25079357
C        1.01944868      -1.05734289       2.03732245
C        1.17040258       2.26435904      -2.47204946
C       -2.78675270      -1.06788925       0.73185371
C       -3.57326500      -0.14139595       0.02332093
C        3.27186329       1.60808220      -1.79395856
C       -3.82636485       1.35005432      -1.85910336
C       -1.31985891      -1.40250442      -1.22933557
C       -1.11184216      -2.65570262       2.34187308
C       -4.07020011       0.96282172       0.80799434
C       -1.35499508      -1.30919184       2.65914625
C       -0.21666000      -0.46813568       2.45661851
C       -2.09226085      -0.38687468      -1.90701751
C        1.08310993      -2.56731976       1.79593235
C       -1.81113013      -1.86444693       0.04334237
C        2.64737643       1.91753905       0.38695620
C        0.13413212      -0.08374298      -2.53475188
C        2.51397495      -1.95685020      -1.52725363
C       -2.56742082      -0.81284715       2.10667720
C       -2.16862651       3.12294353      -1.50790479
C        2.05139982      -0.22086926       1.50928532
C        0.04423176      -1.32806525      -1.76660868
C        0.14013899      -3.18547457       2.91154099
C       -2.96852762       0.50864865       2.47033504
C       -0.50141244       0.92795755       2.20783997
C        0.52767107       1.75478160       1.63701136
C        2.38493242      -3.08691854       1.31610956
C       -1.09265834      -2.73213591       0.89906497
C        2.11743653       2.98624406      -0.39155162
C        3.57110358      -0.14566103      -0.36730524
C        3.19663259      -2.79543503      -0.57756072
C       -4.00277450       1.51193192      -3.24227689
C       -1.22955995       0.34192112      -2.78027402
C        1.25574491       0.82093836      -2.63945799
C        0.13306337       2.97436240       1.01099323
C       -3.28470020       2.39201171      -1.03065641
C       -0.01572924       3.87758026      -1.08608286
C        2.35179976       2.67878855      -1.76762227
C       -1.31917816       2.69346446      -2.58014993
C       -3.35856625       2.14551869       0.38610402
C        1.12871332      -2.21238574      -1.42546909
C        3.15214930      -0.80016234       0.81515118
C       -1.64750136       1.56753653      -3.39791691
C       -1.23532248       3.25266345       0.73666909
C       -3.30137456       0.10447598      -1.35492693
C       -2.23623956       2.38697698       1.21359034
60
Properties=species:S:1:pos:R:3 entry_id=23 rank=8 energy=-496.94232177734375 pbc="F F F"
C        2.36999204      -3.61218518      -0.04497539
C        2.59678890       0.53980299      -2.44377437
C        2.02275592       1.27860566       1.25122062
C        3.52378749      -2.07781084       0.59692143
C       -4.50210876       0.59683700       2.13941813
C        3.67118601       1.37225446      -0.60162113
C       -1.47010603      -4.61955643       4.05363532
C        3.05223902      -0.56450690      -1.67403866
C       -3.00939171       1.53442489      -3.89215916
C        0.39346185      -2.91772361       0.80082395
C       -1.62577579       1.05044854       1.94174167
C        0.89476594       3.57171015      -0.08689242
C        1.03902785      -3.20805383      -0.42860376
C       -1.37569298       3.70745812      -0.50689374
C       -0.04514690       3.06751922      -2.26345192
C        1.33436546      -1.01804480       2.06867031
C        1.11685270       2.30865693      -2.52879579
C       -2.59143393      -0.87366563       0.79524642
C       -3.52349687      -0.16256418       0.05286418
C        3.26149273       1.70234105      -1.93740049
C       -3.85305111       1.28611818      -1.82199991
C       -1.24605672      -1.35221119      -1.17426537
C       -1.26155150      -2.53141980       2.46834588
C       -4.16301811       0.89710361       0.79766752
C       -1.14390344      -1.14286372       2.74245092
C        0.07328155      -0.45373030       2.48082088
C       -2.06589449      -0.39848769      -1.88317021
C        1.40743670      -2.38609495       1.66258448
C       -1.63514982      -1.70921097       0.15856700
C        2.76588567       2.02275262       0.27481626
C        0.13837820      -0.06028182      -2.54914302
C        2.53450446      -1.86807559      -1.55278000
C       -2.27856281      -0.30234430       2.20571500
C       -2.21531926       3.04751837      -1.45584413
C        2.33111772      -0.12406183       1.49138879
C        0.08679226      -1.27852682      -1.73347009
C       -1.33753399      -3.61980513       3.31029217
C       -3.62052390      -0.01314996       2.81107310
C       -0.23477863       0.88621395       2.12979548
C        0.72267867       1.78061027       1.59489916
C        2.62739004      -2.95560076       1.21952996
C       -0.94339523      -2.58085928       1.03467231
C        2.12981894       3.05333263      -0.48395305
C        3.68224777      -0.03109959      -0.51432372
C        3.28510613      -2.70582758      -0.67588690
C       -4.06311516       1.45624157      -3.20129235
C       -1.23919387       0.32611580      -2.78597841
C        1.23081027       0.86875648      -2.69886611
C        0.19838844       2.94525737       0.98244082
C       -3.32569800       2.32304666      -0.97662315
C       -0.07507872       3.86460046      -1.08495428
C        2.31339103       2.74813014      -1.86699752
C       -1.38595271       2.66612268      -2.56125620
C       -3.38392134       2.04665328       0.45110747
C        1.16938651      -2.15034451      -1.36868269
C        3.37647417      -0.69011253       0.70373086
C       -1.69562072       1.54470815      -3.39406711
C       -1.20472852       3.09443052       0.75399177
C       -3.28252440       0.05595148      -1.33843114
C       -2.15514334       2.12562177       1.19116525
60
Properties=species:S:1:pos:R:3 entry_id=18 rank=9 energy=-496.76214599609375 pbc="F F F"
C        2.26487461      -3.66469081      -0.08386582
C        2.62850952       0.47923316      -2.40616124
C        1.73874115       1.12671924       1.21813774
C        3.33224773      -2.29663196       0.64201239
C       -4.33151421       0.90712333       2.18223736
C        3.55510225       1.20466926      -0.45444105
C       -0.42565023      -3.40818146       3.35661817
C        3.06134155      -0.66544288      -1.67416266
C       -2.96135865       1.53457084      -3.90547419
C        0.51182413      -2.51752096       1.01503642
C       -1.91744064       1.42393827       2.16116590
C        0.89061477       3.54018925      -0.05754756
C        1.02634323      -2.95291968      -0.27551114
C       -1.34546423       3.81598425      -0.57782355
C        0.02601768       3.06797175      -2.26875852
C        0.75071478      -1.07657881       1.65113378
C        1.18437812       2.28490069      -2.49169257
C       -2.76440356      -1.04066306       0.80823442
C       -3.55225813      -0.13266248       0.07189639
C        3.27704922       1.60380884      -1.80493176
C       -3.82539178       1.32852467      -1.84152805
C       -1.24974067      -1.31831011      -1.08987683
C       -1.23646231      -2.65065864       2.51929369
C       -4.08290793       0.98446312       0.81736316
C       -1.45100725      -1.26813839       2.76466782
C       -0.33113988      -0.46541445       2.35775110
C       -2.05589307      -0.35883417      -1.81801647
C        1.41873906      -3.23593913       2.00221857
C       -1.70681483      -1.80922902       0.19233747
C        2.60892544       1.86337982       0.36000555
C        0.14385552      -0.03765154      -2.51015201
C        2.53242138      -1.95940062      -1.63357928
C       -2.64444279      -0.77264489       2.18922588
C       -2.17199662       3.12496121      -1.52183221
C        1.90342377      -0.32149899       1.31265824
C        0.07879696      -1.21825321      -1.67554972
C        0.81800453      -3.68046358       3.15490548
C       -3.02263488       0.56961414       2.49404774
C       -0.56691947       0.93119814       2.16612115
C        0.48331080       1.72369144       1.58598495
C        2.63913319      -3.39750469       1.29871729
C       -0.95856707      -2.63703222       1.09804405
C        2.11291641       2.96541874      -0.39739240
C        3.53162441      -0.20102796      -0.42311746
C        3.23469160      -2.82547464      -0.71689556
C       -4.02347027       1.45519280      -3.22644229
C       -1.22581483       0.35550219      -2.73597274
C        1.26969594       0.84732406      -2.66711209
C        0.11580555       2.95971282       0.98612758
C       -3.28991822       2.39460457      -1.04025695
C       -0.01602533       3.87703236      -1.09962320
C        2.36376098       2.68227894      -1.77307126
C       -1.32073484       2.69819761      -2.59491192
C       -3.38057293       2.17077894       0.37887918
C        1.15435640      -2.07686916      -1.33799070
C        3.05255659      -0.92193890       0.71718007
C       -1.65574276       1.55718723      -3.38942038
C       -1.24868865       3.26564589       0.72093687
C       -3.28241589       0.10378601      -1.30372842
C       -2.26745141       2.42510573       1.20890641
60
Properties=species:S:1:pos:R:3 entry_id=13 rank=10 energy=-496.6900939941406 pbc="F F F"
C        2.60355064      -3.10420228       0.46458915
C        2.31485869       0.17694711      -2.45153311
C        1.79723403       1.23821021       1.31791198
C        3.55130575      -2.06960921       0.58764115
C       -4.60358454       1.86013287       1.00473190
C        3.50222945       1.06131161      -0.50524666
C       -0.57566005      -3.71417047       3.15787615
C        4.18804235      -1.44402921      -0.60239082
C       -3.21731183       1.51545340      -3.80491616
C        0.56057881      -2.07021327       0.98512969
C       -1.94647206       1.46089996       2.08048897
C        0.89791310       3.49121616      -0.18880098
C        1.44338250      -2.43787452      -0.10253100
C       -1.33165645       3.82360667      -0.64339049
C       -0.05744830       2.98335465      -2.37336031
C        0.84964382      -0.96561358       1.85743806
C        1.05878107       2.14535541      -2.61488600
C       -2.75967723      -1.23456323       0.84043958
C       -3.60342696      -0.27658412       0.21821077
C        3.06111731       1.21653486      -1.84745590
C       -3.93191806       1.36364046      -1.63316498
C       -1.32763976      -1.35625936      -1.10824246
C       -1.10177247      -2.64077316       2.47826977
C       -4.03873921       0.64787755       1.23964139
C       -1.37516225      -1.25947092       2.79649706
C       -0.30577430      -0.36084047       2.48314162
C       -2.20637813      -0.39497707      -1.76023717
C        1.53469338      -4.59174320       2.14404823
C       -1.69592250      -1.87551124       0.16378541
C        2.62281186       1.85253455       0.31542598
C       -0.08294432      -0.10535296      -2.59941330
C        2.44429395      -1.19420868      -2.01916818
C       -2.56868409      -0.83947619       2.19099267
C       -2.21451749       3.13743092      -1.53073065
C        2.00157900      -0.16108537       1.58386576
C       -0.01177891      -1.20100075      -1.68574476
C        0.44169098      -4.41766074       2.86178602
C       -2.98521242       0.51515000       2.24490077
C       -0.56351331       1.01843744       2.20112863
C        0.50189320       1.81496090       1.61259630
C        2.39182820      -4.16922479       1.32277717
C       -0.78830085      -2.51630736       1.03997103
C        2.08658160       2.85673111      -0.54201980
C        3.90572466      -0.15037405       0.01762539
C        3.71551215      -1.70874920      -1.83118301
C       -4.19643023       1.44491340      -3.01492339
C       -1.44961176       0.29809068      -2.75102222
C        1.03596431       0.72010154      -2.80834422
C        0.14270379       3.00505091       0.92303495
C       -3.34616284       2.49884514      -0.96734669
C       -0.02603968       3.82031391      -1.21691784
C        2.26280831       2.41971139      -1.88868535
C       -1.43431269       2.65178589      -2.63475625
C       -3.49696450       2.52058593       0.47794500
C        1.28997539      -1.70083962      -1.29677344
C        3.16908346      -0.75314043       1.04177417
C       -1.87470112       1.51098474      -3.37707033
C       -1.22091379       3.32762660       0.67809901
C       -3.38124306       0.11829666      -1.11834233
C       -2.25897363       2.55890014       1.22183819
60
Properties=species:S:1:pos:R:3 entry_id=12 rank=11 energy=-496.6315002441406 pbc="F F F"
C        2.48969530      -3.21596033       0.40767106
C        2.33029999       0.12589000      -2.25674044
C        1.80585163       1.22065341       1.25553887
C        3.32189097      -2.10692083       0.18203960
C       -4.59658653       1.88700891       1.01481333
C        3.59127399       1.19050676      -0.42897896
C       -0.57380327      -3.68996756       3.19593290
C        4.72082748      -0.82163292      -0.99267380
C       -3.20661783       1.50023520      -3.80140339
C        0.47502392      -2.14244304       0.95071737
C       -1.92784661       1.46556422       2.06238502
C        0.90518597       3.52092745      -0.18710304
C        1.30828867      -2.58596796      -0.12413364
C       -1.32326190       3.82890045      -0.65256454
C       -0.04521332       2.95224325      -2.35937768
C        0.83051120      -0.99514032       1.72343660
C        1.06758845       2.09745955      -2.56204712
C       -2.79859650      -1.23460462       0.85340760
C       -3.62725524      -0.26542489       0.23008456
C        3.06871240       1.22469874      -1.74424436
C       -3.93289220       1.36988189      -1.62791341
C       -1.38426048      -1.41035719      -1.11060291
C       -1.13535664      -2.64481843       2.49913475
C       -4.03880688       0.67167285       1.24997739
C       -1.36340582      -1.24781161       2.77465397
C       -0.28691018      -0.37283518       2.40482961
C       -2.23466778      -0.41692847      -1.75333810
C        1.54115284      -4.58851606       2.20706233
C       -1.76738910      -1.91692744       0.16782397
C        2.66492464       1.93699140       0.37036274
C       -0.08908280      -0.14602851      -2.56435295
C        2.42047874      -1.21660674      -1.79392128
C       -2.57065440      -0.82423766       2.19392917
C       -2.20598935       3.13477234      -1.53494812
C        1.99818097      -0.21738191       1.34714723
C       -0.06417037      -1.27896490      -1.69385987
C        0.44995578      -4.39250800       2.91730780
C       -2.97431092       0.53282984       2.24330473
C       -0.54692483       1.00918509       2.15123063
C        0.51726969       1.80199421       1.57209056
C        2.39192652      -4.21889258       1.34616402
C       -0.87371821      -2.56480614       1.05409517
C        2.10709659       2.91015095      -0.51954181
C        4.09550852      -0.02565141      -0.00298840
C        3.63956179      -1.68454112      -1.18740792
C       -4.18661069       1.44559534      -3.01197862
C       -1.45242374       0.27650305      -2.72806043
C        1.05545652       0.66340263      -2.70697319
C        0.15673422       3.01393707       0.91599936
C       -3.34036957       2.50391366      -0.96761816
C       -0.01783163       3.82197661      -1.22558460
C        2.26415181       2.41550131      -1.84782937
C       -1.42211864       2.62936131      -2.62629628
C       -3.48840267       2.53573628       0.47802444
C        1.21190229      -1.81422465      -1.30730226
C        3.16205352      -0.79841937       0.77330940
C       -1.86612300       1.48786789      -3.36295429
C       -1.20841773       3.33573357       0.66980695
C       -3.39930264       0.11957149      -1.10869162
C       -2.24524961       2.56899095       1.21415228
60
Properties=species:S:1:pos:R:3 entry_id=17 rank=12 energy=-495.39105224609375 pbc="F F F"
C        2.45029390      -3.38146264       0.17813390
C        2.63160435       0.52197224      -2.47675620
C        1.74550598       1.14213983       1.18303633
C        3.41993908      -2.19594218       0.44541883
C       -4.31249247       0.92553682       2.19734450
C        3.54108933       1.25401652      -0.52036771
C       -0.69456965      -3.57280824       3.36618223
C        3.07442894      -0.62364720      -1.75062925
C       -2.96589579       1.50721489      -3.92381467
C        0.54535366      -2.50241775       1.15280252
C       -1.89726985       1.44343419       2.16234719
C        0.87751837       3.56045071      -0.09027730
C        1.20148150      -2.74935428      -0.11177170
C       -1.36097032       3.82251246      -0.59564066
C        0.00256091       3.08213330      -2.29549447
C        0.82250382      -1.08514762       1.77590088
C        1.16494365       2.31123823      -2.53229500
C       -2.73204403      -1.01167019       0.83272241
C       -3.53391933      -0.12410591       0.09137403
C        3.26624836       1.65086157      -1.86754944
C       -3.82422742       1.31328046      -1.83390885
C       -1.21215912      -1.28926714      -1.06388741
C       -1.27742988      -2.61806493       2.53315047
C       -4.07606696       0.99175649       0.82992079
C       -1.42534910      -1.23359350       2.80300764
C       -0.29004621      -0.43470070       2.41455245
C       -2.03349789      -0.35297391      -1.80085429
C        1.22728026      -3.65072098       2.01399747
C       -1.66381850      -1.76218735       0.21915872
C        2.59855777       1.89214884       0.30961371
C        0.15795492      -0.02730019      -2.50843228
C        2.57793648      -1.93982794      -1.70854862
C       -2.61230004      -0.73963821       2.21554892
C       -2.18863195       3.12247147      -1.53222762
C        1.93191277      -0.30112900       1.31057123
C        0.11857023      -1.18146403      -1.63560640
C        0.46550560      -4.04923569       3.11305270
C       -3.00217366       0.59898165       2.51280973
C       -0.54314979       0.94996533       2.17233227
C        0.49472623       1.74130941       1.56567049
C        2.36933979      -4.09069395       1.41861888
C       -0.93474661      -2.58537021       1.12684419
C        2.09803136       2.99321857      -0.44164654
C        3.50856619      -0.14613288      -0.49689223
C        3.37997982      -2.80930744      -0.82231785
C       -4.01038742       1.42567374      -3.21856820
C       -1.21695278       0.35270472      -2.73394987
C        1.26432529       0.87309754      -2.70449216
C        0.11695638       2.97460851       0.96038850
C       -3.29969937       2.39087363      -1.04039696
C       -0.03648038       3.89167718      -1.12661201
C        2.34514922       2.72189420      -1.82333772
C       -1.34105519       2.69520833      -2.60814277
C       -3.37853792       2.17574970       0.38147613
C        1.22628002      -1.98682839      -1.25558082
C        3.07065084      -0.87260551       0.64646991
C       -1.66285969       1.54480281      -3.39466367
C       -1.24865096       3.27507532       0.70297194
C       -3.26470188       0.10064308      -1.28723205
C       -2.25817661       2.43208174       1.20148057
60
Properties=species:S:1:pos:R:3 entry_id=15 rank=13 energy=-495.17315673828125 pbc="F F F"
C        2.48671139      -3.13265218       0.47259931
C        2.35564631       0.11689694      -2.26528936
C        1.82813347       1.15347009       1.21570744
C        3.38013739      -2.11525474       0.16156235
C       -4.21313145       0.87673726       2.31622475
C        3.62599426       1.17554520      -0.45000961
C       -1.34169250      -3.44288387       2.02290645
C        4.73693806      -0.84258728      -1.02863033
C       -3.16256596       1.51783487      -3.89816056
C        0.44747288      -2.42374035       0.98458724
C       -1.80964848       1.42926515       2.19295517
C        0.91569785       3.48403108      -0.17286661
C        1.31873532      -2.63117830      -0.17543383
C       -1.33149504       3.74920241      -0.62038158
C       -0.03758288       2.93062809      -2.34702675
C        0.81258882      -1.06480764       1.63513752
C        1.08514021       2.08895410      -2.56275844
C       -2.71239932      -1.07223941       0.87811150
C       -3.53732074      -0.16025866       0.17775914
C        3.09642890       1.21790125      -1.76184069
C       -3.91886974       1.29623780      -1.73132111
C       -1.36737005      -1.39240631      -1.17134781
C       -1.09186408      -2.59344026       3.12475194
C       -4.01624956       0.96139404       0.94433733
C       -1.27796944      -1.22364430       2.91425092
C       -0.20687981      -0.44174779       2.39902582
C       -2.20506134      -0.43504942      -1.84684052
C        0.97396625      -3.39103806       2.05228027
C       -1.77429135      -1.86726097       0.11853076
C        2.68758570       1.89615649       0.35598288
C       -0.05492473      -0.15628119      -2.61423657
C        2.44113590      -1.22672611      -1.80515353
C       -2.48410786      -0.80370808       2.26328656
C       -2.20913818       3.05661420      -1.51267797
C        1.99100981      -0.29770068       1.26651353
C       -0.04092477      -1.28086475      -1.73161521
C       -0.12374121      -3.61091627       2.91969890
C       -2.88713737       0.54986873       2.55787927
C       -0.45614950       0.96602465       2.18740409
C        0.56838591       1.74952883       1.56957226
C        2.21848332      -3.78374361       1.70719355
C       -0.96977019      -2.75927392       0.82719863
C        2.12168174       2.88331737      -0.51619817
C        4.13345352      -0.03807830      -0.03234485
C        3.66480127      -1.71915603      -1.22133202
C       -4.14182466       1.43847554      -3.10414129
C       -1.41846643       0.26281248      -2.81254662
C        1.08631105       0.65825665      -2.72587166
C        0.18027533       2.96125808       0.93076319
C       -3.31601767       2.35390926      -0.96498543
C       -0.02429013       3.77709125      -1.19831125
C        2.28073810       2.40482363      -1.84868643
C       -1.41339525       2.60058742      -2.62129700
C       -3.33860550       2.14378773       0.45862536
C        1.23015140      -1.82186429      -1.31757140
C        3.20715436      -0.82132785       0.74235878
C       -1.83490466       1.48808498      -3.41365786
C       -1.19517273       3.24738955       0.69467619
C       -3.37051075       0.05892374      -1.22353565
C       -2.19435192       2.41595500       1.23919555
60
Properties=species:S:1:pos:R:3 entry_id=10 rank=14 energy=-495.0862731933594 pbc="F F F"
C        2.50614981      -3.11043666       0.49729115
C        2.34560675       0.11817758      -2.26033059
C        1.86958395       1.19454759       1.22516862
C        3.38996743      -2.09198442       0.16575452
C       -3.87833021       1.12738681       1.37050592
C        3.64306331       1.19111960      -0.46716291
C       -1.31275056      -3.43162738       2.03699774
C        4.74600083      -0.83370999      -1.03931844
C       -3.22934328       1.55832944      -3.73062201
C        0.46877443      -2.39625234       0.98631004
C       -1.73373543       1.49387090       2.21435903
C        0.95831227       3.52535722      -0.15395381
C        1.33990888      -2.62581199      -0.16784099
C       -1.30254500       3.78556635      -0.54227417
C       -0.05823888       2.92348092      -2.28878491
C        0.81757894      -1.02397165       1.61926462
C        1.06201878       2.08582388      -2.53447132
C       -2.78591093      -1.28161451       0.79438203
C       -3.78439351      -0.56336402       0.05037903
C        3.08970999       1.22255544      -1.76860042
C       -3.91698312       1.26340856      -1.55676058
C       -1.36689381      -1.46628602      -1.20710758
C       -1.11211337      -2.51773177       3.09215678
C       -4.70966357       0.22772436       0.76202115
C       -1.32049939      -1.16041580       2.83276581
C       -0.20420891      -0.39493132       2.37312674
C       -2.20859131      -0.48596095      -1.83829756
C        0.99808773      -3.32001504       2.09413879
C       -1.76929504      -1.98451223       0.06369454
C        2.72258497       1.92347304       0.34941509
C       -0.06726120      -0.16840580      -2.60698562
C        2.44601423      -1.22775329      -1.81023129
C       -2.51622209      -0.77518774       2.11259854
C       -2.20076135       3.02946431      -1.36909990
C        2.00601983      -0.26265367       1.26014635
C       -0.03762796      -1.32043753      -1.75649368
C       -0.10985271      -3.52051524       2.95817278
C       -2.83070043       0.60322979       2.22298545
C       -0.38826981       1.03119633       2.22702923
C        0.63533508       1.82023151       1.61836065
C        2.24145972      -3.72110643       1.75537264
C       -0.92809445      -2.79588577       0.81787698
C        2.14638137       2.90510445      -0.52115737
C        4.14913483      -0.02155139      -0.04569773
C        3.67192220      -1.70915854      -1.22173267
C       -4.19231144       1.49185962      -2.91935518
C       -1.43538443       0.25266716      -2.78044478
C        1.06815935       0.65535678      -2.70580820
C        0.26309482       3.06096249       1.00322847
C       -3.28798469       2.30413200      -0.76672543
C       -0.01320626       3.78905976      -1.15747757
C        2.27217179       2.40794747      -1.85000118
C       -1.43963154       2.58561733      -2.50968992
C       -3.27463235       2.22116039       0.66255891
C        1.23991992      -1.84067230      -1.32925327
C        3.21950487      -0.79426973       0.73569963
C       -1.87927855       1.49468425      -3.32205699
C       -1.11986401       3.38441557       0.80375289
C       -3.40539462      -0.05698493      -1.22301313
C       -2.09955259       2.58642937       1.38023667
60
Properties=species:S:1:pos:R:3 entry_id=16 rank=15 energy=-495.06085205078125 pbc="F F F"
C        2.51128020      -3.20702759       0.58434905
C        2.63230028       0.58768604      -2.54494202
C        1.76129276       1.08185918       1.13574837
C        3.47423839      -2.25703319       0.18521431
C       -4.30206521       0.93230161       2.20659784
C        3.55050008       1.27927483      -0.57248523
C       -0.93458703      -3.65736461       3.37557542
C        3.04292280      -0.56358211      -1.83477325
C       -2.93891382       1.48859951      -3.90223088
C        0.47103370      -2.55346501       1.18303480
C       -1.88029574       1.42328388       2.15795098
C        0.87988173       3.55577313      -0.08390404
C        1.28884432      -2.75015343      -0.01387410
C       -1.35975773       3.82583857      -0.57650254
C       -0.00529224       3.10938884      -2.28545967
C        0.82584313      -1.13135957       1.75774308
C        1.15173452       2.34296170      -2.53386001
C       -2.74746007      -1.01431191       0.83448658
C       -3.53779724      -0.11962693       0.09646411
C        3.27326978       1.70448239      -1.91387570
C       -3.80804531       1.31101642      -1.82730468
C       -1.19736439      -1.30088332      -1.04296885
C       -1.35755524      -2.63393765       2.52377731
C       -4.07679535       0.99628309       0.83726188
C       -1.42771657      -1.24508372       2.79664276
C       -0.27860554      -0.46512065       2.39590553
C       -2.01092466      -0.36004028      -1.78079501
C        1.07844630      -3.67601360       2.14445079
C       -1.69067163      -1.77290343       0.21725124
C        2.59963419       1.87316803       0.27588965
C        0.18613810      -0.03333869      -2.46988989
C        2.58001249      -1.90539070      -1.80324664
C       -2.61518892      -0.74301605       2.21712130
C       -2.18680718       3.12598802      -1.51666128
C        1.96174713      -0.38145271       1.24388407
C        0.15612261      -1.20365262      -1.58271524
C        0.24046320      -4.12183875       3.15504310
C       -2.99366248       0.59611725       2.51963855
C       -0.52869092       0.91562313       2.14974773
C        0.51359246       1.69050660       1.53265089
C        2.33515250      -3.97028700       1.72410406
C       -0.99010180      -2.60977178       1.12183521
C        2.09651513       2.99340914      -0.44683440
C        3.50664807      -0.11436461      -0.58328600
C        3.62709891      -2.60005578      -1.15913300
C       -3.99532556       1.41732183      -3.21385142
C       -1.18811448       0.34309723      -2.70301921
C        1.25541952       0.90858622      -2.71221306
C        0.13029078       2.93836829       0.95170975
C       -3.29577395       2.39104214      -1.02956763
C       -0.03793744       3.91089592      -1.11123721
C        2.33686285       2.75846351      -1.83596206
C       -1.33917841       2.69887208      -2.58975265
C       -3.37368403       2.17631288       0.39216066
C        1.26871308      -2.02815767      -1.20647502
C        3.12526376      -0.90226190       0.52588964
C       -1.63878983       1.53482109      -3.36919661
C       -1.23403781       3.25393372       0.70999053
C       -3.24768345       0.10038424      -1.27773411
C       -2.24550436       2.41696916       1.20663857
60
Properties=species:S:1:pos:R:3 entry_id=8 rank=16 energy=-494.938720703125 pbc="F F F"
C        2.40254033      -3.11897862       0.39670130
C        2.26497340       0.16587692      -2.49731144
C        1.96222727       1.05401856       1.14071562
C        3.30290469      -2.05046478       0.27313051
C       -3.81584134       1.12137962       1.42325875
C        3.64940397       1.08339963      -0.79228197
C       -1.15991675      -3.44083712       1.92256860
C        4.53539038      -0.25876688       0.94446226
C       -3.34123515       1.65705530      -3.69861887
C        0.40919005      -2.10559705       0.76660077
C       -1.64966349       1.45460377       2.22762839
C        1.00214231       3.41558757      -0.23377380
C        1.26616304      -2.55477171      -0.26889401
C       -1.25551301       3.76682487      -0.52424779
C       -0.09854409       2.95120995      -2.35456560
C        0.86285736      -1.09767769       1.68315198
C        1.00377603       2.12362903      -2.69446917
C       -2.76414576      -1.28072799       0.76718306
C       -3.77895668      -0.54205986       0.06554419
C        3.08762581       1.24548249      -2.09553287
C       -3.94811001       1.31516016      -1.49995231
C       -1.42142529      -1.44550824      -1.30025807
C       -1.04413319      -2.60436379       3.06171681
C       -4.67337569       0.24210019       0.82177960
C       -1.28672633      -1.22402792       2.82743805
C       -0.16929995      -0.43908347       2.43461807
C       -2.27780920      -0.45241971      -1.88847009
C        1.23472001      -3.88756398       2.51229579
C       -1.77850603      -1.96901596      -0.01545918
C        2.73293373       1.70806213       0.10343296
C       -0.15842523      -0.12885153      -2.73106974
C        2.37388231      -1.06088068      -1.77897217
C       -2.46244835      -0.81086670       2.09849794
C       -2.19802452       3.04902600      -1.33526013
C        2.10680012      -0.34733910       1.47512126
C       -0.10353071      -1.29286353      -1.89328125
C       -0.03781278      -3.55889575       2.85025072
C       -2.75410552       0.57220760       2.24067263
C       -0.30779855       0.97205712       2.22709595
C        0.72256010       1.71634124       1.55186197
C        2.10032267      -3.76027347       1.60843881
C       -0.86026839      -2.72919987       0.73085386
C        2.14615366       2.76762570      -0.67353538
C        4.22822763      -0.12593336      -0.42376822
C        3.46925952      -1.25378770      -0.90424586
C       -4.26682057       1.58182887      -2.84463672
C       -1.53018586       0.29920872      -2.84615205
C        0.98226409       0.69297514      -2.87106051
C        0.34380233       2.95265565       0.93860493
C       -3.27633416       2.33014076      -0.70993755
C        0.00856697       3.76245515      -1.18758689
C        2.25568075       2.41234739      -2.04816964
C       -1.49027509       2.62630291      -2.51836426
C       -3.21802151       2.21985010       0.71691882
C        1.17847353      -1.78903757      -1.46487938
C        3.36110090      -0.99109486       1.26223635
C       -1.97876007       1.56012600      -3.33739842
C       -1.03341838       3.32794712       0.80369547
C       -3.44193041      -0.01882158      -1.21407511
C       -2.01564266       2.55335516       1.40475346
60
Properties=species:S:1:pos:R:3 entry_id=11 rank=17 energy=-494.5177001953125 pbc="F F F"
C        2.54113629      -3.11443068       0.64251456
C        2.30665436       0.08245595      -2.16421774
C        1.78964637       1.38587428       1.23418046
C        3.33968146      -1.99088703       0.37914393
C       -4.59572998       2.02808333       0.99715497
C        3.58051653       1.26709249      -0.42647461
C       -0.54763004      -4.79979431       2.18408620
C        4.71001369      -0.76741660      -0.87305646
C       -3.22230457       1.34862503      -3.80225016
C        0.46354915      -2.05902927       1.23725157
C       -1.93062217       1.67877386       2.03695764
C        0.88955228       3.60501214      -0.33239949
C        1.29829046      -2.54126618       0.16053954
C       -1.34217025       3.87927526      -0.80787826
C       -0.06571908       2.89839294      -2.45872718
C        0.80525332      -0.79936714       1.80831853
C        1.04781685       2.03208542      -2.60695654
C       -2.80668422      -1.09575982       1.01639248
C       -3.62624395      -0.15835089       0.34621856
C        3.05142913       1.21284269      -1.73820514
C       -3.95146360       1.35957741      -1.61539683
C       -1.39287817      -1.35323374      -0.91947270
C       -1.22368907      -3.80750818       1.76276849
C       -4.03683595       0.82923834       1.31002961
C       -1.34054637      -0.93362145       2.93104700
C       -0.29949595      -0.13594321       2.46807680
C       -2.24352031      -0.41199801      -1.62624483
C        1.78021623      -5.00799178       1.93529618
C       -1.79062347      -1.80167136       0.35568702
C        2.65195645       2.05840867       0.32309865
C       -0.10071374      -0.20804496      -2.44910816
C        2.39380276      -1.22606098      -1.60942352
C       -2.54459683      -0.62737652       2.35062658
C       -2.22628313       3.12940440      -1.64169260
C        1.96957772      -0.05029255       1.39440851
C       -0.07055497      -1.27276713      -1.49091634
C        0.60686590      -5.39285724       2.34108753
C       -2.96572841       0.74992720       2.29669384
C       -0.55256593       1.24720621       2.14021465
C        0.50644588       1.99315673       1.51851513
C        2.64543097      -4.26602526       1.37533094
C       -0.91638067      -2.58329837       1.21022082
C        2.09252825       2.97516256      -0.62603252
C        4.08450301       0.08099296       0.07426981
C        3.63332056      -1.64576399      -1.01272340
C       -4.19570626       1.34279544      -3.00245560
C       -1.46250609       0.20578188      -2.64576948
C        1.03650014       0.59193415      -2.65139563
C        0.14435421       3.16734394       0.79984461
C       -3.35973589       2.53521054      -1.03167450
C       -0.03766418       3.83887999      -1.38382291
C        2.24712519       2.39578287      -1.91928733
C       -1.44299603       2.55700766      -2.70054559
C       -3.50316683       2.65659438       0.41077253
C        1.19491576      -1.79096400      -1.05842987
C        3.15195510      -0.65337142       0.88916919
C       -1.88128690       1.36931395      -3.36307013
C       -1.22300632       3.46987739       0.54222366
C       -3.40968012       0.14892068      -1.01598563
C       -2.25737456       2.73519970       1.13647616
60
Properties=species:S:1:pos:R:3 entry_id=9 rank=18 energy=-494.2086486816406 pbc="F F F"
C        2.58440072      -3.07277983       0.48431216
C        2.31726241       0.18575178      -2.40026006
C        1.85713235       1.18166681       1.19860067
C        3.56370289      -2.06811358       0.30634548
C       -3.87918558       1.12136596       1.37998937
C        3.61782157       1.12682696      -0.58845037
C       -1.28252300      -3.44039370       2.01418477
C        4.84415954      -1.54874571      -0.46913742
C       -3.25662746       1.56770995      -3.73936209
C        0.49961427      -2.39721509       0.97635570
C       -1.73473469       1.48797276       2.22025955
C        0.95620614       3.50327245      -0.17768407
C        1.41098451      -2.56670897      -0.16731572
C       -1.30934310       3.78582492      -0.54055100
C       -0.08149740       2.95675473      -2.31457634
C        0.79928085      -1.03378839       1.65767832
C        1.04280145       2.13941300      -2.59963513
C       -2.78021627      -1.28480945       0.79951380
C       -3.78343810      -0.56852370       0.05852485
C        3.09565604       1.26174968      -1.90016315
C       -3.92918816       1.26472937      -1.54527632
C       -1.35148117      -1.43240952      -1.19512589
C       -1.09503128      -2.53773952       3.07764730
C       -4.70992055       0.21923402       0.77369489
C       -1.33197397      -1.17792664       2.84712680
C       -0.22187830      -0.40397265       2.39669882
C       -2.21046855      -0.46853542      -1.82872449
C        1.03072751      -3.32598719       2.06924991
C       -1.75050507      -1.96935871       0.06746851
C        2.70729253       1.85220157       0.25528340
C       -0.08140029      -0.12999950      -2.61591995
C        2.43086372      -1.12444233      -1.85823253
C       -2.52244195      -0.78617174       2.12361924
C       -2.21386516       3.03482317      -1.36488966
C        1.97351091      -0.26587923       1.31965281
C       -0.02490097      -1.26976806      -1.74342415
C       -0.08042632      -3.53101859       2.93474414
C       -2.83162006       0.59585029       2.23215088
C       -0.38966296       1.02552860       2.23688795
C        0.63250029       1.81119592       1.60653630
C        2.28485477      -3.70275622       1.72809109
C       -0.90116748      -2.79190058       0.80035769
C        2.13644429       2.87582721      -0.57123510
C        3.98601612      -0.16095066      -0.16968454
C        3.60397135      -1.32691066      -1.12270674
C       -4.20039509       1.49305759      -2.90615785
C       -1.45392635       0.27315238      -2.78000526
C        1.03693381       0.71107794      -2.77664672
C        0.26310079       3.04721302       0.98562161
C       -3.29667102       2.30532026      -0.75815042
C       -0.02430913       3.79219622      -1.16478916
C        2.27150175       2.44534091      -1.92379032
C       -1.46289491       2.60555495      -2.51850532
C       -3.27652861       2.21571237       0.67079277
C        1.27128209      -1.76945032      -1.31932223
C        3.18220835      -0.78063694       0.82827446
C       -1.90577811       1.51050566      -3.32589909
C       -1.11938129       3.37683305       0.80151061
C       -3.41169583      -0.05485255      -1.21361623
C       -2.09821320       2.57921376       1.38306462
60
Properties=species:S:1:pos:R:3 entry_id=14 rank=19 energy=-493.3110656738281 pbc="F F F"
C        2.55694075      -3.11532945       0.59601336
C        2.34398441       0.04190262      -2.22536157
C        1.89536829       1.20211473       1.20679984
C        3.43222069      -2.10220918       0.22826668
C       -3.83437116       1.18010367       1.14621029
C        3.66920899       1.16628267      -0.48360466
C       -1.27147990      -3.43960972       2.12076668
C        4.78297506      -0.86381430      -1.01032449
C       -3.39258218       1.43057902      -3.41134466
C        0.50388627      -2.41353387       1.03604367
C       -1.72590891       1.51346362       2.08095703
C        1.01181421       3.52585561      -0.18381344
C        1.39057627      -2.67607208      -0.09983275
C       -1.22210879       3.91993055      -0.53680971
C       -0.09024822       2.81859205      -2.22911573
C        0.82914130      -1.00997518       1.61220744
C        1.03088547       1.98733624      -2.49529972
C       -2.75657819      -1.38105108       0.70203387
C       -3.78432155      -0.76646491      -0.15459365
C        3.08937537       1.16080895      -1.77446303
C       -4.51771352       2.51898997      -1.52444504
C       -1.31172003      -1.73641396      -1.26397287
C       -1.11292230      -2.45529700       3.11470781
C       -4.54884885       0.29254519       0.39230697
C       -1.33959526      -1.11988364       2.77172649
C       -0.20788840      -0.36534663       2.32808549
C       -2.23872056      -0.91075495      -2.01143876
C        1.03807600      -3.26698258       2.19765401
C       -1.72808248      -2.14491480       0.04409746
C        2.75993553       1.91552933       0.33063077
C       -0.07782667      -0.27666849      -2.55668557
C        2.48388144      -1.29773074      -1.76902303
C       -2.50425178      -0.77176756       1.97533576
C       -2.19188104       3.23823707      -1.32597527
C        2.02277314      -0.25566865       1.25412031
C        0.00989985      -1.46264640      -1.74560627
C       -0.07914049      -3.43838779       3.06148036
C       -2.80998735       0.61490050       2.00037505
C       -0.38373483       1.05778136       2.15269159
C        0.66398399       1.84290457       1.58682943
C        2.28891070      -3.66557654       1.88221915
C       -0.87709946      -2.86341515       0.87685465
C        2.18294203       2.88129223      -0.55468812
C        4.17842233      -0.03501116      -0.03708982
C        3.71589570      -1.75114314      -1.16869492
C       -4.30822055       2.00818816      -2.70753808
C       -1.45588745       0.05697110      -2.75927776
C        1.05202865       0.56081537      -2.65387202
C        0.31360093       3.09475972       0.98333767
C       -3.44417203       2.84790729      -0.69930443
C        0.03873321       3.78049350      -1.18477707
C        2.26322945       2.33856640      -1.86868714
C       -1.49610897       2.51314986      -2.35515386
C       -3.30400835       2.45024137       0.67545431
C        1.29450187      -1.93302248      -1.28914628
C        3.24651589      -0.79128950       0.75821366
C       -2.04387184       1.34579486      -3.04212353
C       -1.06156160       3.47240193       0.80368713
C       -3.49919472      -0.78930171      -1.51041300
C       -2.07273319       2.68197870       1.34837297
60
Properties=species:S:1:pos:R:3 entry_id=5 rank=20 energy=-492.6927185058594 pbc="F F F"
C        1.63700438      -3.77436080      -0.41777840
C        2.01058860      -0.09037684      -2.11729753
C        2.12210508       1.65585082       1.70881508
C        2.88902657      -3.07422749      -0.30959769
C       -3.73575379       1.09157503       1.92029801
C        3.34764033       0.81748308      -0.33355346
C       -0.61040199      -3.44296196       1.39230158
C        4.34157675      -0.37702722       1.39154864
C       -3.33918426       1.73340869      -3.88566750
C        1.92230884      -1.66445239       1.33932806
C       -1.53038718       1.44960210       2.46491141
C        0.84218257       3.36362402      -0.15783754
C        0.42963977      -3.14368065      -0.73785020
C       -1.45780196       3.29339919      -0.51199160
C       -0.14214672       2.76597863      -2.36313765
C        1.55790122      -0.56411376       2.18829827
C        0.98095530       1.94042975      -2.61383681
C       -2.54330983      -1.23711600       0.64523901
C       -3.54316828      -0.30578631       0.09209439
C        2.84004041       0.93962486      -1.65468195
C       -4.13212965       1.87854119      -2.71095980
C       -1.61805043      -1.45346594      -1.56973179
C       -0.57501635      -2.57000162       2.48709158
C       -4.39235019       0.34341264       0.98751674
C       -0.84919382      -1.20702136       2.52311825
C        0.19784979      -0.23717934       2.54082060
C       -2.35784307      -0.32261906      -2.04041687
C        1.79848716      -2.97401417       1.76874570
C       -1.73578792      -2.02416644      -0.27329972
C        2.70612832       1.86598526       0.42523704
C       -0.27018406      -0.24163523      -3.00884554
C        1.86090436      -1.26660067      -1.34864022
C       -2.11176036      -0.82658859       1.96035248
C       -2.31780756       2.63822212      -1.49283763
C        2.53416061       0.48006096       2.40489678
C       -0.37488178      -1.43215942      -2.22726398
C        0.54588775      -3.36594478       2.21632708
C       -2.51110852       0.46066205       2.38352665
C       -0.14826710       1.15208620       2.48292916
C        0.76421956       2.10250028       1.92722902
C        2.34054342      -3.84890027       0.78865141
C       -0.75446972      -3.04729419       0.04244869
C        2.04338528       2.74072308      -0.51285940
C        3.69970230      -0.46946166       0.15633274
C        2.66356345      -1.54634218      -0.07104480
C       -4.66499068       2.09887674      -3.97090514
C       -1.60568035       0.27768318      -3.12568011
C        0.90693484       0.51272657      -2.84220570
C        0.20237574       3.10426843       1.09256452
C       -3.51066312       1.76607773      -1.45319621
C       -0.17902636       3.45179909      -1.12525132
C        2.15310028       2.17190010      -1.81263343
C       -1.50883632       2.47094086      -2.68056962
C       -3.49669268       2.49525233       1.84960696
C        0.71833972      -2.04145921      -1.58091449
C        3.90824709       0.10973851       2.47739918
C       -1.96561626       1.54082650      -3.67184312
C       -1.22982861       3.22296927       0.90798530
C       -3.25010374       0.33725275      -1.17101332
C       -2.10543112       2.63661559       1.86272886
60
Properties=species:S:1:pos:R:3 entry_id=6 rank=21 energy=-489.9886474609375 pbc="F F F"
C        1.67338551      -3.77851894      -0.32449924
C        2.03420205      -0.09984431      -2.29054334
C        2.04644577       1.55650434       1.65496779
C        2.79181738      -2.98474657      -0.01911235
C       -3.77522451       1.06754243       2.09084476
C        3.27910972       0.77979646      -0.39137259
C       -0.30725619      -3.09687812       1.44762577
C        4.17344951      -0.57594165       1.32541371
C       -3.35599185       1.67721560      -3.91514158
C        1.27579133      -1.37015530       0.71315427
C       -1.58565258       1.44746291       2.52921564
C        0.80226134       3.32929015      -0.18263614
C        0.54231354      -3.10953044      -0.82277329
C       -1.49631098       3.30212529      -0.55748053
C       -0.17133048       2.76814690      -2.40016135
C        1.31265169      -0.63869480       1.89679771
C        0.94886489       1.93986167      -2.65969609
C       -2.27362521      -0.97652092       0.76391249
C       -3.33267966      -0.15889651       0.18129113
C        2.80177738       0.92806248      -1.71832464
C       -4.14938293       1.81669123      -2.74450839
C       -1.38274542      -1.26507534      -1.46983133
C       -0.53080721      -2.61337797       2.70850065
C       -4.28821151       0.36587694       1.04316604
C       -0.90569153      -1.24642289       2.80721564
C        0.09698593      -0.27333178       2.58907709
C       -2.20853357      -0.21612656      -1.97775531
C        1.85557908      -3.93255249       2.28714008
C       -1.28127562      -1.53911646      -0.09893442
C        2.65226746       1.81593358       0.38985857
C       -0.23589234      -0.26017153      -3.15755371
C        1.92794086      -1.34326729      -1.62937490
C       -2.13197156      -0.82140033       2.18998821
C       -2.35612288       2.69666477      -1.56216012
C        2.38199534       0.30582954       2.26621620
C       -0.29810995      -1.44915358      -2.35593531
C        0.60091271      -3.47358013       2.43953518
C       -2.57070466       0.46337964       2.62026396
C       -0.21553810       1.12090266       2.50458338
C        0.70111836       2.02960503       1.88645856
C        2.21958165      -3.78525984       0.99709227
C        0.00990459      -2.25999156       0.29902266
C        2.00643678       2.71670714      -0.53883712
C        3.55317135      -0.52035420       0.08733903
C        2.48658384      -1.50494154      -0.23126514
C       -4.70653190       1.93657223      -4.00808727
C       -1.56535164       0.30330586      -3.15531010
C        0.91850616       0.51962583      -2.97068598
C        0.14600538       3.02533753       1.04847161
C       -3.51125724       1.79271644      -1.49306750
C       -0.20889749       3.45031212      -1.15777731
C        2.10957016       2.15805014      -1.84430255
C       -1.53861798       2.50775153      -2.74138577
C       -3.54258022       2.46067537       1.88945126
C        0.81764351      -2.16651018      -1.87536015
C        3.70413067      -0.15502734       2.43079176
C       -1.97368768       1.54935080      -3.71483219
C       -1.28194860       3.15666127       0.86191741
C       -3.13666502       0.41979303      -1.12954784
C       -2.15488491       2.56877265       1.82394033
60
Properties=species:S:1:pos:R:3 entry_id=7 rank=22 energy=-489.8642578125 pbc="F F F"
C        1.75434233      -3.61241985      -0.23513433
C        2.12032884      -0.07121824      -2.41061905
C        2.01043606       1.45224494       1.63659828
C        2.93357445      -2.87994641      -0.08344453
C       -3.82123107       1.08176498       2.06748582
C        3.29794998       0.74197849      -0.45554085
C       -0.43701066      -3.20990835       1.53254829
C        4.21818991      -0.72610145       1.20419942
C       -3.33309353       1.68795719      -3.91969358
C        0.89202334      -1.35226068       0.91084449
C       -1.63622094       1.44618062       2.55273889
C        0.80623335       3.27863465      -0.16192297
C        0.60334737      -3.00663893      -0.74108179
C       -1.48850968       3.28717953      -0.54916549
C       -0.15600164       2.76985549      -2.39221090
C        1.18666961      -0.69133046       2.03022104
C        0.97447446       1.96097220      -2.67087212
C       -2.35562792      -1.00078515       0.77655243
C       -3.38845124      -0.16610063       0.17515732
C        2.85489750       0.94940282      -1.78482038
C       -4.13325150       1.83399624      -2.75276416
C       -1.39686252      -1.27091336      -1.44254702
C       -0.62088464      -2.63109252       2.78193015
C       -4.34154502       0.37888588       1.02511641
C       -1.02345854      -1.27076440       2.87863278
C       -0.00773794      -0.28341467       2.75177523
C       -2.21429096      -0.22431257      -1.96589745
C        1.89311701      -3.62219643       2.34575188
C       -1.38307421      -1.59759557      -0.07652550
C        2.63367607       1.72617161       0.37188082
C       -0.21237520      -0.22942809      -3.10282220
C        2.11333333      -1.36735957      -1.80423742
C       -2.21009965      -0.83256017       2.20232709
C       -2.34430117       2.68795039      -1.55882435
C        2.33894148       0.20512722       2.25198319
C       -0.25055524      -1.38826742      -2.26931126
C        0.57557668      -3.39561590       2.51907788
C       -2.63101354       0.46811182       2.61699064
C       -0.27110070       1.11009622       2.57947930
C        0.67643756       1.95950855       1.90315451
C        2.30640258      -3.46670967       1.06834278
C       -0.11114211      -2.28492912       0.39308422
C        2.00577168       2.66393842      -0.52767258
C        3.71268432      -0.56753407      -0.10074497
C        3.08802123      -1.64633000      -0.77967326
C       -4.66665606       2.02563760      -4.01820716
C       -1.55136689       0.30589348      -3.13162573
C        0.95506122       0.54622229      -3.00187242
C        0.13862388       2.96102384       1.06103873
C       -3.50658524       1.79222637      -1.49670022
C       -0.19657025       3.43403097      -1.14030365
C        2.13770402       2.17409378      -1.85881249
C       -1.52290213       2.50678984      -2.73599994
C       -3.56792501       2.46969496       1.85987523
C        0.88419035      -2.08074168      -1.79826109
C        3.63646810      -0.31390233       2.25090694
C       -1.95534501       1.54506013      -3.70696265
C       -1.28357239       3.12410377       0.86875317
C       -3.15441904       0.41313983      -1.12979795
C       -2.17837388       2.56363746       1.82262429
60
Properties=species:S:1:pos:R:3 entry_id=4 rank=23 energy=-488.9739990234375 pbc="F F F"
C        1.64583512      -3.86725202      -0.41788472
C        2.02006842      -0.13844240      -2.26900184
C        2.17000685       1.86567951       1.81705617
C        2.75470973      -3.06607588      -0.08898916
C       -3.70283293       1.05255950       2.06285162
C        3.14660568       0.73971921      -0.26114599
C       -0.37642913      -3.20056778       1.39537822
C        3.96036581      -0.64910530       1.50715365
C       -3.35688234       1.68074752      -3.90307336
C        1.14323628      -1.47086869       0.56158920
C       -1.51487013       1.47284132       2.55101003
C        0.79855334       3.35680763      -0.16876595
C        0.50301944      -3.22809427      -0.93919659
C       -1.49483171       3.28102819      -0.53482722
C       -0.17117327       2.74540591      -2.38049694
C        1.04327800      -0.63540695       1.55670084
C        0.94708110       1.91362825      -2.63592907
C       -2.25506326      -1.04722077       0.72639418
C       -3.32132272      -0.21716537       0.16313256
C        2.74067350       0.87370792      -1.61517616
C       -4.14636192       1.80698387      -2.72698736
C       -1.41228147      -1.33578418      -1.53285752
C       -0.48327668      -2.59863151       2.62569454
C       -4.24327177       0.33178771       1.04349450
C       -0.82065526      -1.23218895       2.77086272
C        0.19449162      -0.21348425       2.52247602
C       -2.21997820      -0.25886393      -2.01105867
C        1.82768332      -4.01547085       2.20284625
C       -1.33575910      -1.66963254      -0.17674097
C        2.62763880       1.87494530       0.44342260
C       -0.23517575      -0.27668735      -3.16867369
C        1.92171807      -1.41280516      -1.67017172
C       -2.04165883      -0.82169018       2.13701516
C       -2.35446386       2.66198866      -1.53549630
C        2.95002723       1.19579307       2.74403440
C       -0.30786065      -1.48783937      -2.39963059
C        0.58918779      -3.52279784       2.36473136
C       -2.47792874       0.46243377       2.56320449
C       -0.12971724       1.21506277       2.57888144
C        0.75338862       2.19490890       1.99569780
C        2.18020459      -3.88646518       0.90761266
C       -0.08521836      -2.43854838       0.18257255
C        1.99348428       2.73064540      -0.51913815
C        3.37301704      -0.56638043       0.26721949
C        2.42747469      -1.60959647      -0.27033648
C       -4.69949537       1.98329376      -3.98548387
C       -1.56494544       0.28682777      -3.16901348
C        0.91928349       0.49443807      -2.96236377
C        0.15784481       3.09520162       1.07940489
C       -3.50860401       1.75374868      -1.47677527
C       -0.21451695       3.43688448      -1.14266047
C        2.08979593       2.11682529      -1.79675070
C       -1.53862343       2.48405869      -2.71909756
C       -3.50190352       2.45407544       1.91473344
C        0.80158920      -2.22890010      -1.94456025
C        3.72860968       0.20089799       2.46447946
C       -1.97496734       1.54180871      -3.70586031
C       -1.26902851       3.18182333       0.88832334
C       -3.13642063       0.36994427      -1.14530833
C       -2.11643227       2.60059872       1.87047797
60
Properties=species:S:1:pos:R:3 entry_id=3 rank=24 energy=-485.6726379394531 pbc="F F F"
C        1.47494323      -3.65565921      -0.61233338
C        2.23725925      -0.23526124      -2.27318867
C        2.18071758       1.76103030       1.93446730
C        2.62145466      -2.89552472      -1.07178714
C       -3.67314532       1.17430124       2.24310064
C        3.20155285       0.61768794      -0.08021088
C       -0.15682808      -3.11755865       1.37752605
C        2.97568717      -1.32973349       1.63977929
C       -3.10680903       1.18879829      -3.87468674
C        0.61166296      -1.14594600       0.29424921
C       -1.48835098       1.56459100       2.70180096
C        0.90350659       3.28067787      -0.07227059
C        0.23914700      -3.10693153      -1.01708886
C       -1.39633097       3.20220945      -0.47813872
C       -0.02343276       2.62032213      -2.27500407
C        0.62928234      -0.33987929       1.32954133
C        1.13309674       1.83008045      -2.51499665
C       -2.38919847      -0.98736426       0.81064732
C       -3.45092102      -0.09831130       0.38657667
C        2.91982213       0.77077383      -1.49496784
C       -3.95298580       1.42247834      -2.78116350
C       -1.71400739      -1.26087184      -1.61891049
C       -0.21497206      -2.43561098       2.59574069
C       -4.33717930       0.46124731       1.29853456
C       -0.80178373      -1.16447551       2.79671983
C        0.13515267      -0.08755807       2.53035336
C       -2.83134786      -0.43357254      -1.95507509
C        2.35281172      -2.65409569       1.62591576
C       -1.62235890      -1.64681261      -0.21628774
C        2.68189214       1.77985089       0.59577772
C       -0.06896529      -0.21872141      -3.32048840
C        1.91368338      -1.60993417      -1.74958600
C       -2.05854175      -0.76819889       2.21594064
C       -2.25375281       2.57005732      -1.51763178
C        2.78873439       0.80243379       2.74536139
C       -0.49431639      -1.31828109      -2.43940822
C        1.03980104      -2.90711484       2.08671068
C       -2.44666554       0.53984653       2.67654353
C       -0.10466187       1.32480585       2.78036185
C        0.81638982       2.24067706       2.14694431
C        2.36055861      -3.20847587       0.32668611
C       -0.35162281      -2.37322217       0.09820959
C        2.10025835       2.63158381      -0.38592084
C        2.92990440      -0.69606952       0.35549148
C        1.80414149      -1.14823947      -0.37874855
C       -3.49560316       0.04460785      -3.13864394
C       -0.88985163       0.56193478      -4.05778132
C        1.15459517       0.44353283      -2.91346897
C        0.24174339       3.09380569       1.17733770
C       -3.43952837       1.75061254      -1.47088281
C       -0.09864681       3.31845733      -1.05272320
C        2.25580199       2.01448836      -1.65604964
C       -1.39186262       2.36543617      -2.64417605
C       -3.44119169       2.56399537       2.05056360
C        0.54375005      -2.15622358      -2.03880111
C        3.13997247      -0.40649269       2.67885691
C       -1.72000690       1.56841244      -3.75962408
C       -1.18980709       3.17909237       0.95595873
C       -3.32865370       0.40457509      -0.93092699
C       -2.05707226       2.67487064       1.97026992
60
Properties=species:S:1:pos:R:3 entry_id=2 rank=25 energy=-480.7950439453125 pbc="F F F"
C        1.71641602      -3.55375058      -0.63583043
C        2.19982811      -0.18694524      -2.26998029
C        2.15376564       1.95794983       1.91204341
C        2.69576225      -2.55573976      -0.97157418
C       -3.09993908       0.95493285       1.94827723
C        2.80822654       0.68471266      -0.01220874
C       -0.14316892      -3.46570068       1.26254140
C        2.73394829      -1.55770143       2.40995196
C       -3.05840872       1.25953145      -3.33915013
C        0.19280254      -1.43614707       0.23856096
C       -1.32053905       1.73467686       3.34603197
C        1.08854284       3.50916360      -0.22947446
C        0.42813651      -3.30001015      -1.16402647
C       -1.09591458       3.91777641      -0.82523730
C        0.17901602       2.87082684      -2.44409305
C        0.59765237      -0.43028846       1.23861060
C        1.21868369       1.90963746      -2.55343465
C       -2.93439589      -2.95034631      -0.04800277
C       -3.87237150      -2.13376631       0.22455893
C        2.89369595       0.77456474      -1.45811425
C       -3.69090208       1.87534206      -2.17787594
C       -1.76147712      -1.54040809      -1.65115451
C       -0.40306627      -2.81599835       2.53919322
C       -3.47835722       0.13179229       0.94453603
C       -1.22159092      -1.88764314       3.01526846
C       -0.05696534       0.12484835       2.33262847
C       -2.86378857      -0.58586211      -1.41761898
C        2.24893325      -2.65538309       1.75939508
C       -1.73183617      -2.57489873      -0.64500134
C        2.72945234       1.97955696       0.58114851
C       -0.14427904      -0.16340825      -3.17832599
C        1.83737815      -1.51307335      -1.72373987
C       -1.22984798      -0.54670238       2.85985339
C       -2.01095313       3.39107322      -1.80711327
C        2.59435296       0.91726184       2.71075496
C       -0.53667592      -1.40213500      -2.46138871
C        0.93010346      -3.15655499       2.04126831
C       -2.13244409       0.61146279       3.01392854
C       -0.10686495       1.53526947       2.67946384
C        0.78624057       2.44461124       1.97556453
C        2.45945376      -2.98672905       0.37733419
C       -0.39966243      -2.79119791      -0.04347624
C        2.26260879       2.80801074      -0.47329643
C        1.70969911      -0.09542460       0.34794281
C        1.19222699      -0.97923759      -0.55471661
C       -3.29641264       0.47780366      -2.21335919
C       -0.97474485       0.63313858      -3.87809311
C        1.11989856       0.50583412      -2.87474683
C        0.30768348       3.32834820       0.95386868
C       -3.33994106       3.05066391      -1.65019296
C        0.21898082       3.73656830      -1.31299850
C        2.35366201       2.07043252      -1.70593905
C       -1.19584076       2.75923302      -2.81980337
C       -3.00278225       2.36153844       1.68294126
C        0.57051766      -2.24152675      -2.14295949
C        2.88091609      -0.34077653       2.81128323
C       -1.71756958       1.72852434      -3.65557491
C       -1.08584805       3.66451594       0.59223564
C       -3.57019500      -0.73409091      -0.06386168
C       -2.23487453       3.23298256       1.23817051
60
Properties=species:S:1:pos:R:3 entry_id=1 rank=26 energy=-477.3401794433594 pbc="F F F"
C        1.69680332      -3.54960584      -0.70001552
C        2.16197643      -0.13366056      -2.24750735
C        2.08334058       1.91655251       1.97620684
C        2.67762456      -2.53793307      -0.99930693
C       -3.06415529       1.10471180       2.18780549
C        2.74160490       0.67060984       0.03837335
C       -0.20561726      -3.45698003       1.18377876
C        2.65164616      -1.60452625       2.40947513
C       -3.09634574       0.99813970      -3.24724234
C        0.09618476      -1.42243204       0.15252583
C       -1.22549335       1.70099350       3.64283040
C        1.12180503       3.52248868      -0.14864112
C        0.41642548      -3.28696018      -1.24319907
C       -1.03319912       3.95236138      -0.81229834
C        0.30705413       3.04103253      -2.47121683
C        0.41975481      -0.37865852       1.14821364
C        1.28808531       2.00322811      -2.53703077
C       -2.95235858      -3.12577386      -0.21456281
C       -3.45601176      -2.10082131       0.35322676
C        2.87051983       0.78458753      -1.40321072
C       -3.47364582       1.90546930      -2.21652027
C       -1.73131577      -1.52437665      -1.68864865
C       -0.48368108      -2.74768308       2.47440202
C       -2.76483895      -0.07398614       1.47004874
C       -1.28234295      -1.82209071       2.90625989
C       -0.33304993       0.20817622       2.13915475
C       -2.65555347      -0.50062585      -1.16306285
C        2.17879962      -2.68149185       1.71964804
C       -1.74510720      -2.67715596      -0.81747360
C        2.69654512       1.95091810       0.65941936
C       -0.13926467      -0.09582996      -3.21103379
C        1.81905256      -1.48172767      -1.74303833
C       -1.62916370      -0.48019019       2.54597316
C       -1.90116740       3.56976652      -1.91409181
C        2.48978399       0.86232260       2.77159255
C       -0.52072727      -1.34514777      -2.49820664
C        0.84994028      -3.15293236       1.96638662
C       -2.19673844       0.78176435       3.32897738
C       -0.21015815       1.51055435       2.69618760
C        0.72672951       2.42082546       2.02235777
C        2.42190812      -3.00199676       0.33600641
C       -0.44488525      -2.79701191      -0.13033699
C        2.29114261       2.81589484      -0.38967713
C        1.61077306      -0.08667926       0.34520415
C        1.15788902      -0.98973436      -0.56789100
C       -3.14631359       0.53485808      -1.93979062
C       -1.07130588       0.41423835      -4.07371013
C        1.10950997       0.59093033      -2.87118390
C        0.29470650       3.31281160       0.99542589
C       -3.23815837       3.16879554      -1.83905747
C        0.29415128       3.79131135      -1.24514966
C        2.38136814       2.09852774      -1.63913007
C       -1.01192499       3.10410586      -2.93658219
C       -3.04818277       2.39088377       1.67373191
C        0.57816252      -2.21116718      -2.19974102
C        2.75735486      -0.39967929       2.84906632
C       -2.26653518       0.77158234      -4.31103149
C       -1.08794001       3.64898057       0.59226171
C       -3.12746715      -0.73916023       0.27119484
C       -2.25107079       3.21973332       1.19885058
60
Properties=species:S:1:pos:R:3 entry_id=0 rank=27 energy=-474.66943359375 pbc="F F F"
C        1.73384250      -3.37258962      -0.91559398
C        2.05035298       0.14987768      -2.30052532
C        1.91428797       1.86856155       2.12916511
C        2.52934189      -2.20675584      -1.15211575
C       -2.92183159       1.05252517       2.39606219
C        2.47175242       0.67205112       0.13226486
C       -0.04060698      -3.76421099       0.95394126
C        2.54682084      -1.61425550       2.33237844
C       -2.62129153       0.78837304      -3.27671158
C       -0.06665235      -1.52268631       0.07094368
C       -1.20696721       1.61939559       3.80294365
C        1.12432956       3.57899011       0.02840563
C        0.41974095      -3.26521389      -1.41288751
C       -0.98261365       3.98391887      -0.79204081
C        0.59071814       3.45765145      -2.41976116
C        0.13121275      -0.46045260       1.05566298
C        1.59384007       2.42774515      -2.51760155
C       -2.92861461      -2.99302014       0.17145122
C       -3.25077304      -1.86968332       0.68371554
C        2.73077442       0.89482117      -1.26179816
C       -3.00551967       1.85955609      -2.43016578
C       -1.87746781      -1.71711626      -1.63099211
C       -0.05130759      -2.59219149       2.92478699
C       -2.28491291       0.26052324       1.38876771
C       -0.86742932      -1.79386198       3.48346268
C       -0.81679237       0.19457953       1.94171832
C       -2.52236606      -0.54190222      -1.09454518
C        2.06859577      -2.60139822       1.54484269
C       -1.83443996      -2.81527216      -0.70556169
C        2.56815995       1.90570587       0.84556466
C       -1.21468508      -1.06815680      -3.92637413
C        1.56616111      -1.24201963      -1.89596664
C       -1.35608627      -0.55273607       3.18117272
C       -1.68221025       3.76990933      -2.04549091
C        2.27118054       0.79299810       2.90932132
C       -0.89602364      -1.68141201      -2.71219528
C        0.74166612      -3.16644218       1.91192169
C       -2.18555033       0.62108723       3.62396059
C       -0.41475422       1.52504400       2.68521404
C        0.56520460       2.39207337       2.09875171
C        2.35984086      -2.78617787       0.16146854
C       -0.44033321      -2.96554496      -0.22583199
C        2.32589490       2.90011743      -0.14533390
C        1.27965754      -0.03264925       0.29055269
C        0.83998444      -0.87222062      -0.71796043
C       -2.77677397       0.52408167      -1.93738271
C       -1.42261569      -0.70026623      -5.25025181
C        1.47048518       1.13838900      -3.09444044
C        0.19707309       3.27919032       1.06267994
C       -2.92512921       3.15313392      -2.15339818
C        0.38702256       3.94302234      -1.09683190
C        2.49872324       2.28633337      -1.42318896
C       -0.65784536       3.58272998      -3.03849753
C       -2.98768593       2.36985964       1.93601430
C        0.40338439      -2.20378737      -2.38066897
C        2.57742482      -0.45712999       2.88082279
C       -2.02711949       0.05607483      -4.24670062
C       -1.16025962       3.57259498       0.58824268
C       -2.82110308      -0.57570928       0.36638521
C       -2.31278721       3.17508193       1.25322684
