60
Properties=species:S:1:pos:R:3 system=runs/20260728-safe-lbfgs-strict-quench-200-production/output-c60-seed42 state_id=plateau_accepted pbc="F F F"
C       -1.09018702       2.57919000       1.79688326
C       -1.13209939      -1.08222850       2.41991158
C        2.24909835      -0.86894183       1.55709941
C        0.04513688       0.42070194      -3.83855873
C        1.11346557       2.46129514      -2.97151612
C        1.19578767      -1.77468839       1.90060204
C        0.23141485       2.97628811       1.42352670
C        0.38214433       2.04606765       3.51475648
C        1.17825816      -2.56243742      -2.43670644
C       -1.15096744      -0.33951684      -3.97914152
C        2.57611662       0.70290103      -1.80118549
C        1.54116301      -2.91229654      -0.19740118
C       -2.05103916       1.96220027       0.92846906
C        0.49600594      -1.83319756      -3.42419938
C       -0.70687686      -3.09813227      -0.78260914
C        2.16495702       1.55242480       1.86496471
C       -0.60966853      -2.78074089       0.63466086
C       -2.37273289       1.25420173      -2.62510399
C       -1.23339835       2.11792382      -2.63868929
C       -1.76168435       1.01901187       3.66813906
C       -2.95067330      -1.11429522      -2.81302838
C       -3.52292971       0.13648215      -0.77829202
C        1.05357811       3.58566717      -2.08346794
C        0.74420302       3.28496346       0.15307616
C        2.08618455       2.90504996      -0.13065780
C        2.56795535       1.71625243       0.48328015
C       -3.53403318      -1.06962512      -1.53933132
C        1.15307108       2.42804209       2.37232519
C       -2.93041593       1.29654923      -1.31176106
C        0.27617242      -1.10381489       2.80193362
C       -2.69537583      -1.58153638       0.56336361
C       -1.96465651       0.10548314       2.61359726
C        2.32720674       3.16953594      -1.49548792
C       -0.88798853      -1.71781587      -3.64326030
C        2.11329626       0.25477994       2.40497134
C       -3.13864939      -0.22577163       0.54652087
C        0.04321785       3.47994887      -1.06005989
C        2.31202806       1.99614326      -2.31819583
C        2.79779520       0.56469474      -0.37015320
C        2.71799431      -0.76547496       0.21859933
C       -0.98096759       2.09855287       3.14982777
C       -2.15449168       2.20290178      -0.49374958
C        0.76942045      -2.71605190       0.96939378
C        0.70173600       0.90538559       4.31326380
C       -0.22837009       0.54965542       5.32705328
C       -2.91961061      -2.09616285      -0.74220952
C        2.27405594      -1.73050431      -1.99100709
C       -1.54994412      -1.95560083       1.32425629
C        2.47468164      -1.90430485      -0.60776004
C       -2.37588735       0.06270306      -3.38144704
C        0.63735268      -3.20112803      -1.28964256
C       -1.45704231       0.58971663       4.98526579
C       -1.95115735      -2.16999539      -2.82471148
C       -0.04442549       1.74980837      -3.33248067
C       -2.54863193       0.69558460       1.42124880
C        1.09501151      -0.06307172       3.38337325
C       -1.87496111      -2.71675049      -1.49479275
C        2.17308700      -0.43748880      -2.56943033
C       -1.15615338       2.80966407      -1.37763429
C        1.08887301      -0.50456909      -3.51165288
