60
Properties=species:S:1:pos:R:3 trial_index=36 seed_entry_id=16 discovered_entry_id=20 energy=-486.9875793457031 status=accepted pbc="F F F"
C       -2.63069678      -0.17538078       2.28170026
C        3.75650877       8.69366726      -0.86743018
C        2.71908588       3.17944097       2.49945152
C       -1.90432634      -0.03715049       1.05520214
C        0.11506093       6.14150129       3.28731796
C        0.32797322       0.17603112       1.39406168
C       -1.83243590      -0.70368253       3.30638128
C        1.32078111       1.13082264       3.44652905
C       -2.32442955       3.27829645      -0.76461373
C       -0.92014159       2.80412525      -0.96439133
C        1.45747156       4.85239762       4.82366552
C        3.78100107       5.13040213       0.82810897
C       -3.34732438       0.89638249       2.77358304
C        3.94994521       7.44202899       0.99299140
C        3.33703964       6.48394837      -1.21370986
C        0.14644301       3.63157230      -1.29188934
C        2.32354958       5.45269352      -1.51827219
C        1.59207923       2.30444382       0.26135470
C       -1.98475657       4.24753137       3.46364107
C        1.42980603       3.19569099      -0.88693074
C       -1.03755842       5.45778075      -0.23807120
C       -3.52529524       3.57848229       1.87538933
C       -1.33805372       1.57741151       3.94485809
C       -0.82761938       6.00944690       2.16869577
C       -0.45050547       2.62212254       4.36249693
C       -0.57333602       6.19038407       0.82946549
C       -2.72024059       4.63388607       1.33171832
C        0.39086778       0.30216769       2.82519029
C       -2.93147574       3.23937549       3.12800361
C        2.63092210       2.96234157       1.08809315
C       -5.09075267       3.15985153      -0.01903894
C       -1.93448561       1.21910395       0.38086986
C       -0.81289795       4.00306601       4.21524808
C        3.98794931       8.72103960       0.43817718
C        1.99760752       2.33431164       3.35843395
C       -4.06220813       2.72300992       0.85521762
C       -0.85719267       0.27704620       3.55342929
C        0.17416141       5.05109282       4.24734766
C        2.62276225       4.75559024       4.34887639
C        3.14049894       4.45316801       3.06510673
C       -0.68539616      -0.68996516       0.95266813
C       -2.66052208       1.88507348       3.45070315
C        3.19468494       3.99466366       0.27394666
C        0.53095046       1.34765140       0.49165735
C       -0.69372933       1.68578115      -0.15276191
C       -2.14987495       4.58445022       0.05744334
C       -4.53196745       3.57596003      -1.12963093
C        1.02204579       5.81118558      -1.72206328
C        3.66369489       5.43836192       2.19653377
C       -0.06839934       5.07395202      -1.33090886
C        3.87821938       6.32494482       0.09235470
C        2.48208652       4.14046293      -0.92069607
C        3.41763312       7.78072415      -1.75738414
C        1.21532379       6.97639815       3.17435444
C       -2.90208575       2.20598694       0.15364463
C        0.91075101       2.24244061       4.22753066
C       -3.39190872       3.74569915      -1.73296930
C        3.54466251       6.89095255       2.29734796
C       -1.94465519       5.16470160       2.40367142
C        2.38572727       7.32975529       2.92597973
