60
Properties=species:S:1:pos:R:3 trial_index=30 seed_entry_id=15 discovered_entry_id=18 energy=-489.680419921875 status=accepted pbc="F F F"
C       -0.63063580      -1.45665412       0.52556905
C        4.65287782       6.77861521      -4.20893286
C        4.39048404       2.01854855       1.19508061
C        0.58387309      -1.37483654      -0.18111311
C        1.44275405       5.37264588      -0.15069504
C        3.46921663       0.87555835      -0.99361822
C       -0.77660177      -0.30927897       1.36533467
C        2.64920435       0.35455471       2.37694286
C       -0.68120749       2.95505238      -4.57997545
C        1.50693464       0.53171247      -3.11756000
C        1.80336312       3.82339017       1.90336024
C        4.96559674       4.27044268      -1.09995428
C       -1.60705354      -0.90190814      -0.42328775
C        4.86469549       6.45028476      -1.98470771
C        4.52129235       4.58360602      -3.57190488
C        2.53610673       1.41479115      -3.28881345
C        2.12087617       6.55948217       0.13188092
C       -0.33204322       2.30476032       0.70202638
C        0.12405681       3.51877733       0.18507241
C        3.60191316       1.30427168      -2.33987141
C        1.51880039       3.67210260      -3.53801740
C       -1.05366514       1.66641024      -1.61387164
C        0.33887997       1.78307874       1.84225083
C        1.00146262       4.84097885      -1.47900992
C        1.43334283       2.53615550       2.40092167
C        1.63117884       4.74676964      -2.68274722
C       -0.37893631       2.83409488      -2.13617660
C        1.59887798      -0.26065285       1.66823474
C       -1.06761226       1.48098176      -0.19850171
C        4.28580942       1.85324933      -0.20779458
C       -2.16037210       0.59883431      -3.53732964
C        0.33184729      -0.96283120      -1.48058322
C        4.25014807       4.66478774       1.15815911
C        4.80369908       7.37039663      -3.03552704
C        3.64627939       1.28423885       2.14253296
C       -1.44671049       0.47124424      -2.38260988
C        0.33235603       0.34766102       1.91608325
C        1.06717856       4.36685777       0.81495228
C        3.19598160       4.14053719       1.94082303
C        4.30803038       3.35186863       1.64250050
C        1.71847105      -0.70251436       0.32743391
C       -1.55858293       0.29074246       0.35132485
C        4.74619522       2.87095874      -1.15001340
C        2.37129805      -0.03395338      -0.79507180
C        1.45272416      -0.21304234      -1.96932806
C        0.12678574       3.10010116      -3.49779758
C       -2.37922425       1.31375283      -4.55900942
C        3.97781293       3.25978284      -3.49854002
C        4.73455391       5.18458138      -0.04094172
C        2.63749106       2.79453895      -3.79551298
C        4.95230068       5.05240739      -2.29650285
C        4.41861616       2.42661834      -2.44856440
C        4.47917772       5.53490700      -4.61626268
C        2.43409277       7.85107714       0.58881001
C       -1.02781037      -0.74361759      -1.71244483
C        2.49512858       1.69295811       2.84267511
C       -1.70874534       2.37490573      -5.05411355
C        4.55113696       6.50648581      -0.57342917
C        0.08663663       3.76507597      -1.18180142
C        3.41572975       7.13359116      -0.06415705
