60
Properties=species:S:1:pos:R:3 trial_index=5 seed_entry_id=1 discovered_entry_id=3 energy=-480.02020263671875 status=accepted pbc="F F F"
C        1.98215405      -4.29084898      -1.22634857
C       -3.34853338       5.96907021      -1.19151527
C        1.22508044       1.97780127       1.36613458
C        2.71020285      -3.15325493      -1.65365407
C       -2.50719315       0.51334202       1.97637572
C        1.17159862       1.28443989      -1.16160381
C        1.19478365      -4.10132759      -0.06496258
C        3.03249037      -1.24819824       1.33089752
C       -1.93089023      -0.34243150      -4.02135659
C       -0.02965234      -1.70070197      -1.17413626
C       -0.91810141       1.14652308       3.76692198
C       -0.09990307       4.23110056       0.24687542
C        0.77449258      -4.39317858      -1.99892503
C       -2.24930441       5.04691053       0.55097810
C       -1.33889656       5.04505051      -1.77512830
C        0.08394943      -0.74348399      -0.13084496
C       -0.60181744       4.04475477      -2.53068439
C       -2.33508493      -3.54288473       0.06517043
C       -2.95297938      -2.44175355       0.25568200
C        0.56165275       2.01358035      -2.25937496
C       -1.28771778       0.63958670      -3.31767688
C       -1.15784561      -2.41651990      -1.76345110
C        0.86068776      -2.72424322       1.99079624
C       -2.18560023      -0.25459506       0.75298761
C        0.17593838      -1.89917580       2.64157492
C       -0.79211690      -0.49516903       0.93349313
C       -2.18524875      -1.27335041      -1.60911596
C        2.81272376      -2.38244843       0.56800734
C       -1.25822328      -3.58668580      -0.82032536
C        1.23831438       2.22682116      -0.05887637
C       -1.24955491      -2.63345483      -4.31627728
C        1.76836053      -2.45157332      -2.48286033
C       -0.60349851      -0.80278331       2.32790494
C       -3.40908201       5.67703908       0.10247935
C        1.97733905       0.96685476       1.85814759
C       -0.59303477      -2.85632641      -3.12800103
C        1.60393460      -3.15466934       0.90855987
C       -1.48539856       0.14064310       2.95878798
C       -0.29102879       2.13608911       3.30626768
C        0.18983781       2.71831709       2.14218755
C        3.42117073      -2.59427950      -0.65527407
C       -0.02916266      -4.30304136      -0.82433119
C        0.77586684       3.48459185      -0.52561780
C        1.13124712      -0.14015790      -0.94823963
C        1.16024006      -1.39053225      -1.79763411
C       -2.06070279      -0.30414021      -2.59639939
C       -1.90705353      -2.60120695      -5.55594086
C       -1.10162951       3.12178693      -3.45591919
C       -0.53238261       3.75459475       1.50090710
C       -0.53285756       1.83167097      -3.21080514
C       -1.13949087       4.96078031      -0.36025353
C        0.48674147       3.37426066      -1.88475298
C       -2.50199921       5.73614711      -2.17818551
C       -2.93945429       1.82333668       2.05087470
C        0.73094073      -3.35709666      -2.93106281
C        2.68494604      -0.10045034       1.73557607
C       -1.89888816      -1.44703349      -4.80869675
C       -1.94342113       4.09196329       1.63339256
C       -2.76254169      -1.14720762      -0.25572987
C       -2.79983884       3.06613732       2.02161608
