60
Properties=species:S:1:pos:R:3 trial_index=33 seed_entry_id=11 discovered_entry_id=19 energy=-491.0013122558594 status=accepted pbc="F F F"
C       -1.68915950      -0.21194657       2.84767179
C        3.83933677       6.81367098      -2.53631815
C        3.68718250       2.95658838       2.63249963
C       -0.68153944       0.06059366       1.91361260
C        1.23069212       6.54883004       3.08170934
C        2.35389380       1.81953709       0.69377862
C       -1.54720201       0.64869148       3.97276274
C        2.03888340       1.39511976       4.03047475
C       -1.20103480       3.43697527      -0.92927946
C       -0.06972808       2.54507026      -0.69811449
C        2.85980845       5.49835774       4.57254343
C        5.01725838       4.22810268       0.48238724
C       -2.82315818       0.58083099       2.36930197
C        4.31975880       6.26061778      -0.25239067
C        4.87174547       4.73512654      -1.97009832
C        1.17781046       3.13228453      -0.98953952
C        3.58211343       4.13286089      -1.72691350
C       -1.25820176       3.35567885       4.02796762
C       -0.64362928       4.58940427       3.72688703
C        2.32548101       2.38841096      -0.63017825
C        0.26656000       5.23540362      -0.18486798
C       -2.36274712       3.34907954       1.84879066
C       -0.33698808       2.54270400       4.73395214
C        0.24213750       6.11709919       2.08988156
C        0.83167468       3.34625056       5.00059713
C        0.56718276       6.16644175       0.76311442
C       -1.49153473       4.42961686       1.41204866
C        0.86157433       0.73818862       3.62446231
C       -2.20431359       2.81692971       3.15397260
C        3.54838229       2.40783317       1.32231856
C       -4.08531900       2.92319779       0.04672784
C       -1.17944523       0.85717896       0.88529222
C        0.56468661       4.66742444       4.48058826
C        3.28119898       6.39995134      -1.27882292
C        2.93930770       2.39933779       3.69668665
C       -3.11881654       2.47944677       0.96788225
C       -0.29712227       1.17298257       4.35539183
C        1.49428412       5.68715144       4.20579686
C        3.84189432       4.99907752       3.97335875
C        4.19106656       4.30152069       2.79877509
C        0.63183985       0.45613258       2.25197298
C       -2.56286186       1.48719931       3.43378492
C        4.30269674       3.04168451       0.26934693
C        1.11731635       1.23342690       1.10269295
C       -0.05696009       1.52055027       0.27645652
C       -0.96278036       4.49495254       0.07770669
C       -3.44169106       3.20583601      -1.03824517
C        2.57727914       5.08867652      -1.37890301
C        4.62258495       4.97862458       1.62289494
C        1.29799296       4.56316612      -1.00745915
C        5.11756764       5.14179145      -0.61536056
C        3.57255676       2.97251459      -0.92809450
C        4.67263929       5.86538599      -2.77961804
C        2.32422717       7.26036450       2.57405741
C       -2.54497647       1.15331882       1.08925121
C        2.02027190       2.64428029       4.72130038
C       -2.33868320       3.33205144      -1.69438125
C        4.18618870       6.26937775       1.18469679
C       -0.76402366       5.14612265       2.44743104
C        3.37286703       7.11604909       1.92911031
