60
Properties=species:S:1:pos:R:3 trial_index=24 seed_entry_id=10 discovered_entry_id=14 energy=-490.1211853027344 status=accepted pbc="F F F"
C       -2.11095648      -1.63247280       0.78041774
C        3.38612673       8.00923290      -1.78523447
C        1.77751572       2.68906094       1.76137688
C       -0.84400632      -1.32862774       0.19063223
C       -1.34819892       5.22962862       0.81145615
C        1.34594889      -0.54388947       0.58781120
C       -2.29289063      -1.85944067       2.11761506
C        0.27173280       0.62450636       2.81396477
C       -1.02297568       1.56617602      -3.31883921
C        0.16015118       1.19199762      -2.52329701
C       -0.62977755       4.47260877       3.00175934
C        3.20419182       4.71537817       0.37766687
C       -2.97111659      -0.72200385       0.10913949
C        2.91611992       7.00759641       0.17400320
C        3.52624484       5.73733947      -1.87008400
C        1.15683342       2.19922052      -2.60222160
C        2.95434549       4.46705632      -2.37332912
C        2.14602349       1.42299369      -0.54384029
C       -2.91489013       2.90901249       0.50725161
C        2.28892126       2.12993474      -1.77042119
C       -0.58918674       3.88210849      -2.60840086
C       -3.30237093       1.59329989      -1.35185694
C       -2.38064612       0.60167081       2.04573715
C       -1.63136164       4.72761350      -0.54251289
C       -1.84948627       1.89324276       2.42388286
C       -0.81331389       4.82938602      -1.64529002
C       -2.61747430       2.78258495      -1.78708569
C       -0.29754979      -0.57980434       2.38301712
C       -3.36006487       1.63976774       0.07725656
C        2.47709707       2.35608271       0.53114751
C       -3.86247252       0.05465077      -3.28754969
C       -0.98397296      -0.58210544      -1.01050914
C       -2.26126210       3.09696952       1.74401658
C        2.99939132       8.20784336      -0.53239923
C        0.83654270       1.84289155       2.42045648
C       -3.30476321       0.33255389      -2.01679406
C       -1.73594625      -0.62291202       2.45367847
C       -1.56074981       4.33225751       1.93113111
C        0.62978223       4.46780325       3.03604268
C        1.68736852       4.09999070       2.17721588
C        0.19071737      -1.05269729       1.12294990
C       -3.12532683       0.48142144       0.84633102
C        3.15521348       3.42833130      -0.14195016
C        1.28549407       0.27066025      -0.50571498
C        0.15634515       0.22914287      -1.46013237
C       -1.54685272       2.80600911      -2.71377080
C       -2.87859534       0.37287037      -4.07847997
C        1.82606534       4.45985591      -3.13486043
C        2.39703442       5.09961090       1.46092754
C        0.80203840       3.54242940      -3.05382231
C        3.43973427       5.82635555      -0.45150013
C        3.06811922       3.29178444      -1.53665044
C        3.63134514       6.96411775      -2.55348736
C       -0.43407539       6.25717116       0.99156249
C       -2.43524692      -0.49613666      -1.21450532
C       -0.50453899       1.80024293       2.86017042
C       -1.69697812       0.83423132      -4.25338459
C        2.03759848       6.50046101       1.24126189
C       -2.54202892       3.64216890      -0.63545541
C        0.67777274       6.77544716       1.21340807
