60
Properties=species:S:1:pos:R:3 trial_index=27 seed_entry_id=16 discovered_entry_id=17 energy=-489.65093994140625 status=accepted pbc="F F F"
C       -1.96507067      -1.45648518       2.26176536
C        2.05425148       7.60085029      -3.24783161
C        2.16467376       2.91590613       1.31730237
C       -1.39676832      -1.58511357       0.93851020
C       -0.89959125       5.43318527       1.66910763
C        0.42027672      -0.61485892       1.00063075
C       -1.21903020      -1.58319218       3.39800923
C        1.31133562       0.89152206       2.76662637
C       -2.95932782       1.71819460      -1.81742528
C       -1.61270666       1.20636937      -1.64583614
C        0.72963553       4.78854459       3.32762854
C        2.77254920       4.57217761      -0.81857662
C       -2.93859542      -0.42110651       2.16501247
C        2.51376437       6.85575163      -1.17355591
C        2.03038200       5.33036699      -3.07229898
C       -0.66426812       2.10166534      -2.19671830
C        1.19686844       4.10981800      -3.06765484
C        1.03101597       1.41271743      -0.56288665
C       -2.51636673       3.21037843       2.32438142
C        0.68369502       1.97805019      -1.84611943
C       -2.05537074       3.97741231      -1.58490668
C       -3.88975881       1.91923169       0.98628594
C       -1.35013430       0.89277158       3.39725790
C       -1.85428910       4.92229589       0.67563384
C       -0.69273422       2.16910748       3.52676133
C       -1.70332672       4.95085092      -0.69356169
C       -3.46597432       3.06335132       0.21410083
C        0.54846757      -0.19601206       2.36087253
C       -3.19678849       1.97190127       2.24433946
C        2.01439142       2.37124352       0.00498647
C       -4.87763817       0.60161593      -0.81994641
C       -2.06175242      -0.61094465       0.10921227
C       -1.32087504       3.38082797       3.05823280
C        2.30478793       7.96197169      -1.99615897
C        1.70560879       2.16629290       2.40591446
C       -4.27097847       0.67864948       0.43829896
C       -0.59097160      -0.34853980       3.23748095
C       -0.58027616       4.59115234       2.81264371
C        1.87449096       4.81862612       2.79539551
C        2.37240153       4.33335004       1.55825277
C       -0.08020697      -1.90114443       0.73035556
C       -2.64082984       0.80369097       2.81552456
C        2.35835645       3.26277618      -1.06034886
C        0.16662110       0.36724043      -0.08189863
C       -1.17351027       0.25307486      -0.64770234
C       -3.02676557       3.00277405      -1.13602723
C       -5.44141235       0.47345701      -2.08357597
C       -0.14746451       4.19713506      -3.26986663
C        2.65606553       5.16529301       0.45384419
C       -1.08602263       3.44452208      -2.60415147
C        2.62715834       5.56758190      -1.80192250
C        1.57783011       3.02073878      -2.19221654
C        1.86790386       6.46503862      -3.89236219
C        0.00796906       6.41525436       1.29707362
C       -3.28999771      -0.28932196       0.78656815
C        0.71146480       2.03721050       3.36999124
C       -4.14422202       1.00199521      -1.93664614
C        2.26254630       6.55568588       0.24672773
C       -2.74536265       3.90966727       1.12240589
C        1.07039882       6.91162650       0.86819596
