60
Properties=species:S:1:pos:R:3 system=runs/20260728-safe-lbfgs-strict-quench-200-production/output-c60-seed42 state_id=plateau_accepted pbc="F F F"
C       -2.92799500       1.32806289       0.99482051
C       -1.74222802      -1.28980348       0.43901363
C        0.73298684      -1.28839190       2.11171122
C        2.17757108       1.83432205      -2.28975537
C        1.61062277       3.50293669      -0.60112955
C       -0.10272955      -0.04876116      -1.00511111
C       -1.91389956       2.03748254       1.73436500
C       -2.43004662       0.14011578       2.89454578
C        3.22468201      -1.26249287      -1.07626122
C        1.72258576       1.02382450      -3.36020030
C        2.61649616       1.65660929       0.88480761
C        2.19552149      -2.29864783       0.65943685
C       -2.91751112       1.12204080      -0.42671196
C        3.05515858      -0.31203106      -2.08525557
C        1.02130789      -2.54545763      -1.28939407
C       -0.25328692       0.74724785       2.98821586
C        0.09963003      -2.67334342      -0.17890269
C       -0.54471970       1.78640902      -3.07349929
C       -0.08014816       2.72353121      -2.11146974
C       -3.97144390      -0.96701152       1.48355095
C        0.07183211      -0.37431875      -3.98123487
C       -2.08154047      -0.08244922      -2.88582942
C        0.59477687       4.16491718       0.15088426
C       -0.88847724       2.93925844       1.35297085
C        0.34825704       2.87257735       2.05695091
C        0.77102003       1.59443172       2.50846340
C       -1.13351142      -0.88814429      -3.54654378
C       -1.56109602       1.22911015       2.84948291
C       -1.77775600       1.25100158      -2.60112127
C       -0.84920940      -0.28110395       0.00397167
C       -1.79303781      -2.05931912      -1.69809266
C       -3.17695187      -1.09751898       0.33737990
C        1.26822749       3.72655220       1.39060970
C        2.19308968      -0.31973483      -3.17887476
C       -0.30521190      -0.68971178       2.88938147
C       -2.63876060      -0.87623103      -1.88138704
C       -0.68916354       3.51973562       0.09477117
C        2.22731231       2.99028744       0.58725470
C        1.90013073       0.96196286       1.92506062
C        1.93447173      -0.47098343       1.96938986
C       -3.39264966       0.27269358       1.89134495
C       -2.11198139       1.86175375      -1.34519756
C        0.83168329      -2.33112089       1.06597229
C       -2.52553320      -2.17252273       3.10201398
C       -3.57879406      -3.08672977       3.24058480
C       -0.86643328      -2.02533187      -2.73855398
C        3.51433483      -0.52360521       0.13426917
C       -1.30769336      -2.40571542      -0.39673891
C        2.87394821      -1.17588273       1.19401469
C        0.37256447       0.98923559      -3.76367829
C        2.32277102      -2.30696148      -0.75582008
C       -3.76003678      -2.01244668       2.39815000
C        1.12878541      -1.19319269      -3.44393832
C        1.30088030       2.82887341      -1.79259840
C       -3.26313402      -0.23083152      -0.80163321
C       -1.70110139      -1.05430964       3.11960734
C        0.53806503      -2.15795888      -2.56143127
C        3.27329114       0.86760496      -0.10205804
C       -1.07663695       2.87107935      -1.09326717
C        3.04613642       1.01197641      -1.50228045
