60
Properties=species:S:1:pos:R:3 trial_index=16 seed_entry_id=0 discovered_entry_id=1 energy=-474.6683654785156 status=accepted pbc="F F F"
C        1.73465421      -3.37303628      -0.91504127
C        2.05268280       0.15071904      -2.29732778
C        1.91642728       1.87070488       2.13156561
C        2.53095148      -2.20786549      -1.15034018
C       -2.92498965       1.05494171       2.39109491
C        2.47148014       0.67463613       0.13465771
C       -0.03887951      -3.76605523       0.95084874
C        2.54459568      -1.61308129       2.33268573
C       -2.62239371       0.78459533      -3.27470464
C       -0.06685983      -1.52168445       0.07027198
C       -1.20924603       1.62140655       3.80034833
C        1.12832484       3.58127281       0.03047387
C        0.42091009      -3.26404281      -1.41400529
C       -0.97899995       3.98929023      -0.78948676
C        0.59407365       3.45954074      -2.41619530
C        0.13033354      -0.45837021       1.05447680
C        1.59499011       2.42790668      -2.51314932
C       -2.92920890      -3.00099528       0.16717244
C       -3.24608416      -1.87707823       0.68164871
C        2.73288286       0.89599967      -1.25875062
C       -3.00060389       1.85843121      -2.42877033
C       -1.87684137      -1.71879244      -1.63219392
C       -0.05524273      -2.58971452       2.91909813
C       -2.28648836       0.26034729       1.38677141
C       -0.87299022      -1.79276374       3.47708881
C       -0.81793963       0.19809289       1.93894220
C       -2.52219445      -0.54494704      -1.09369059
C        2.06747014      -2.60085538       1.54542635
C       -1.83343694      -2.81756178      -0.70772495
C        2.57075083       1.90793173       0.84806992
C       -1.22329875      -1.07719742      -3.92913208
C        1.56919835      -1.24171813      -1.89422825
C       -1.36038110      -0.55076229       3.17619569
C       -1.67803718       3.77465121      -2.04317128
C        2.27350974       0.79480469       2.91127392
C       -0.89477797      -1.68165122      -2.71319254
C        0.74038381      -3.16543136       1.90988329
C       -2.18828152       0.62400359       3.61955243
C       -0.41561514       1.52758298       2.68357990
C        0.56728384       2.39427582       2.10027762
C        2.35987878      -2.78704341       0.16228225
C       -0.43958073      -2.96496870      -0.22705551
C        2.33054728       2.90309758      -0.14300942
C        1.27974979      -0.03112685       0.29123545
C        0.84179875      -0.87203760      -0.71707044
C       -2.77498639       0.52277074      -1.93478817
C       -1.45604797      -0.72335971      -5.25270568
C        1.46895801       1.13851578      -3.08855811
C        0.20052184       3.28225892       1.06447995
C       -2.91674203       3.15145689      -2.15282859
C        0.39068923       3.94625371      -1.09424439
C        2.50180896       2.28758111      -1.42051880
C       -0.65338545       3.58708154      -3.03588304
C       -2.98994579       2.37252055       1.93139690
C        0.40564280      -2.20195346      -2.38113157
C        2.57765436      -0.45563941       2.88019453
C       -2.03932642       0.04563673      -4.24624523
C       -1.15723565       3.57643625       0.59010914
C       -2.81990366      -0.58145700       0.36725075
C       -2.31128639       3.17758465       1.25179141
