60
Properties=species:S:1:pos:R:3 trial_index=38 seed_entry_id=11 discovered_entry_id=23 energy=-477.807861328125 status=accepted pbc="F F F"
C        2.93889799      -3.28430460      -0.62944988
C        1.96299356       1.08638484      -2.52650864
C        2.32588279       2.58758533       2.22984532
C        1.44387995      -3.40768531      -2.55708029
C       -4.41098074       2.12189053       0.22841018
C        2.50234932       1.49199506      -0.08255460
C       -0.42243232      -3.68115084       1.52518994
C        2.21556178      -3.01726422       0.69972367
C       -2.38307816      -0.39898108      -3.17161305
C        1.60142032      -1.89023542       1.36430970
C       -0.20146242       1.00935214       4.35222466
C        0.41764455       3.93148763       0.66404755
C        2.47679340      -2.79190329      -1.87249605
C       -0.36763869       4.29653873      -0.46821419
C       -0.41976828       3.42432316      -3.79333982
C        1.74236073      -0.42353018       1.50326912
C        0.40345096       2.46961917      -3.94189750
C       -2.35426248      -3.56888031      -0.22475723
C       -4.61600213      -1.08762098      -1.28388841
C        2.10992246       2.00346206      -1.44864603
C       -2.78682080       1.90366274      -2.00558912
C       -2.84330848      -1.74415932      -2.93327168
C       -0.93138522      -3.27434849       4.04140521
C       -5.04154278       1.10924732      -0.13310886
C       -1.05081176      -2.37156545       4.99108779
C        1.11328574       0.23643327       2.53606774
C       -3.72394746      -2.03021047      -1.78196784
C        0.85173035      -3.00993144       1.24264941
C       -3.23953308      -3.04882886      -0.99225401
C        2.44086187       2.63699577       0.82267957
C        0.35003577      -3.57247728      -3.12429818
C        2.43586833      -0.23049313      -2.36928236
C       -0.97465393      -1.16540681       5.34462561
C       -1.46427962       3.82761850      -1.30901913
C        3.35303463       2.15793265       3.06126884
C       -1.99997701      -2.75356862      -3.35850684
C       -0.73456257      -3.71010811       2.88567713
C       -0.66233910       0.07551175       5.05387212
C        0.58993495       1.29010857       3.23229495
C        0.92930866       2.59257823       2.61282615
C        3.46322120      -3.78767953       0.47380301
C       -1.39163729      -3.84725638       0.56932349
C        1.68618842       3.59318813       0.16125770
C        2.33709615       0.25960370       0.43931765
C        2.64620550      -1.43088122      -2.18035718
C       -2.84263966       0.78622008      -2.55573294
C        0.04152423       0.23341063      -3.84930486
C        0.97559376       1.27257215      -3.57980741
C       -0.02576751       3.37172086       1.88384203
C       -2.58454888       2.96450081      -1.09832100
C        0.51536266       4.15392314      -1.63623386
C        1.62280400       3.34351872      -1.25194256
C       -0.58733435       3.92548052      -2.49780235
C       -3.27859135       2.92323630       0.20080887
C       -0.92651112      -3.38223474      -3.46598806
C        4.31701690       1.90895948       3.83055671
C       -1.10341934      -0.23921861      -3.75406418
C       -1.44000720       3.33602682       1.96788318
C       -5.10892465      -0.10118064      -0.70944746
C       -2.49514557       3.28714034       1.30346905
