60
Properties=species:S:1:pos:R:3 trial_index=28 seed_entry_id=16 discovered_entry_id=17 energy=-476.3520202636719 status=accepted pbc="F F F"
C        2.62352674      -5.29056729      -2.21938891
C        1.47834071      -0.51074564      -2.70205650
C        0.63737280       4.39244341       3.83931074
C        1.54618629      -2.78153754      -2.37936321
C       -4.69155032       5.47444289       0.23594073
C        1.67977603       1.13096981      -0.00000903
C       -0.02761415      -5.30721210       2.36166615
C        1.90978738      -5.12991024      -1.06072340
C       -1.18019853       0.86854842      -3.85894411
C        2.34849074      -0.06328309       0.12610124
C        1.33783291      -2.45091114       6.61576540
C       -0.16214530       3.18650535      -0.44015063
C        1.92924792      -4.07847672      -2.00290148
C       -2.42649215       4.35597384      -0.94732956
C       -2.98772766       2.63691994      -3.54322024
C        1.83785178       0.10540761       2.59390138
C       -0.93723663       2.66899502      -2.28644095
C       -1.01608130      -6.63811157       0.45291280
C       -5.97518145       4.84883593      -1.93567101
C        1.30396411       1.48366783      -1.39398690
C       -4.96482035       3.46745661      -3.52616278
C       -1.22116761      -5.69183891      -3.05801481
C        1.08865131      -3.28045877       3.42635110
C       -4.87325611       4.99544622      -1.04901631
C        1.56739706      -2.11393008       4.00584671
C        1.75642699       1.50362374       2.38449605
C       -1.36990022      -6.41363257      -2.02028397
C        2.64788900      -1.22693838      -0.57342832
C       -1.30020648      -6.74825317      -0.78045435
C        1.25915068       1.98001606       1.12327721
C        0.52034655      -2.49853606      -3.40586483
C        1.99933323      -1.54161091      -1.84673810
C        1.79283196      -0.93821799       3.26824239
C       -3.63835524       4.34865056      -1.57412259
C        3.07749829       1.72515445       4.45016283
C       -0.81393170      -4.62261103      -3.67525738
C        0.54871848      -4.31008453       2.98706043
C        1.57474641      -2.15627625       5.42512280
C        1.54493520       3.50060053       3.83978390
C       -0.39580856       4.51350899       2.94907060
C        4.30537994      -2.91848797       0.62116846
C       -0.56132507      -6.07253236       1.52175626
C        0.26016752       3.02279528       0.88994581
C        2.16361139       2.30435015       3.54147924
C        3.47407107      -2.20306085       0.01928033
C       -4.21070990       2.56227778      -4.32661803
C        0.45701754      -1.06334059      -3.57018209
C        1.66959182       0.80417005      -2.49913224
C       -0.48183982       3.82733549       1.76449838
C       -3.73691889       3.56899004      -2.75705803
C       -1.34855089       3.63067138      -1.17235072
C        0.24957280       2.39583190      -1.51887320
C       -1.69252792       2.06424162      -3.32170918
C       -3.81942473       5.41254636       1.17152567
C       -0.30453939      -3.48316900      -3.86268169
C        3.87957188       1.25566575       5.28731998
C       -0.55144741      -0.20329975      -3.98252535
C       -1.56899239       4.71118631       2.17662839
C       -6.04830757       4.18168287      -3.04202038
C       -2.76615081       5.16931558       1.88907852
