60
Properties=species:S:1:pos:R:3 trial_index=31 seed_entry_id=26 discovered_entry_id=27 energy=-487.6313781738281 status=accepted pbc="F F F"
C        0.34613569      -2.73616504      -1.47405319
C        2.20988431       0.26062299      -2.50785755
C        4.84943854      -2.32862757       0.48790817
C       -1.05230141      -2.46551108      -1.41003623
C       -1.51025455       1.83392275       3.18486436
C        3.39981019      -0.97581548      -0.77279277
C       -0.82639324      -3.13389631       0.95078491
C        2.33720959      -3.26049203      -0.35440994
C       -0.10681019       1.09079233      -3.52437739
C       -0.76563213      -2.00990158       1.89336143
C       -5.08076997       2.19544432      -2.68909245
C        0.27781556       3.87785080       2.25944596
C       -2.49763101      -1.62420761       0.38611337
C       -1.44517637       3.52356525       0.59707211
C        1.76704723       2.24119588      -1.65760469
C        0.29284655      -1.18554294       2.17818960
C        0.85782185       3.09415919       0.16061613
C       -3.05866324       0.78849279       0.17124915
C       -2.88647973       0.97432176       1.56047113
C        2.81711746       0.27392265      -1.20664364
C        1.85300565       1.59336278      -2.90965995
C       -2.10164471       0.93351188      -1.93813292
C        1.06763721      -4.75727122       1.59083070
C       -1.10217056       0.50723307       2.92475910
C        2.34741216      -4.73486371       1.52232661
C        0.23022256       0.19187925       2.43621754
C        0.07226276      -0.38033667      -3.49864961
C        0.94986698      -3.54581254      -0.46305971
C       -2.52321213       1.68525620      -0.78360036
C        4.57121435      -1.18825012      -0.06642203
C       -1.64340784      -1.50631277      -2.33507089
C        1.28819597      -0.75319982      -2.80419749
C        0.99675581       1.44900051       1.98840651
C        0.66567266       2.99889296      -1.25603013
C        4.46355731      -3.50269072       0.86362034
C       -2.38465115      -0.43328029      -1.71635902
C        0.27153084      -3.98792719       0.69778894
C       -5.41326074       1.06228418      -2.16296611
C       -4.52167121       3.27495679      -3.10901878
C       -0.53666667       2.73120950       3.58938078
C       -1.64557956      -2.65423677      -0.13266343
C       -2.04496759      -1.34214233       1.69061822
C        0.61326061       2.58234364       2.76116854
C        2.55500939      -2.09168973      -1.13956120
C        1.38537698      -1.90544115      -1.98492588
C        0.98464689       1.85563310      -3.94041420
C       -0.99606125      -1.23036752      -3.52222543
C       -0.65952007       2.70272070      -1.65348107
C       -0.83122436       4.08945926       3.16423476
C       -1.67923392       2.80043004      -0.62476007
C       -0.10583585       3.77699458       0.91652573
C        1.52622796       1.92215286       0.65674472
C        2.26659752       1.45073507      -0.56536206
C       -2.47908222       2.19744358       2.23910568
C       -2.93357392      -0.54249907      -0.40165977
C        3.13889411      -3.89612298       0.67815453
C       -0.99578597       1.60693692      -2.54023394
C       -2.03174718       4.47222550       2.72313913
C       -2.19870240      -0.08207898       2.23495952
C       -2.30633719       3.51817724       1.74451650
