60
Properties=species:S:1:pos:R:3 trial_index=3 seed_entry_id=1 discovered_entry_id=2 energy=-481.0809326171875 status=accepted pbc="F F F"
C        1.85744871      -1.93547906      -1.76085797
C        1.89671957       0.83451227      -1.86262082
C        1.95801255       2.13432077       2.48049179
C        2.70983998      -2.47206758      -0.83381586
C       -2.83935323       1.08586669       1.71329785
C        2.71392532       0.93331034       0.44762239
C        0.92318743      -3.39691870       0.53731860
C        2.32635014      -1.02016342       1.90261505
C       -3.05025508      -0.46889766      -2.67127984
C       -0.03029714      -1.56478378       0.06277943
C       -1.31408654       1.91452920       3.52050349
C        1.64692295       4.01168139       0.41734742
C        0.63432632      -2.75792834      -1.90429414
C       -0.25066491       4.11103304      -0.87430511
C       -3.23568784       4.40506152      -2.87010471
C       -0.71813163      -1.57647479       1.28884628
C        1.83763006       3.17327355      -1.69769803
C       -2.47806926      -3.41756297       0.30749179
C       -3.30268061      -2.45944349       0.48466415
C        2.84226529       1.31563492      -0.90853852
C       -1.23720813       1.34760650      -2.80899740
C       -2.04845951      -2.46508755      -1.76124273
C       -0.11651857      -2.11645693       2.43154207
C       -2.81899683      -0.20957613       0.97753097
C       -0.60982924      -1.37288188       3.54328979
C       -1.82831985      -0.84971970       1.70298122
C       -2.88021146      -1.34032227      -1.49166718
C        2.21189636      -2.43538744       1.70081976
C       -1.49616602      -3.21968132      -0.67709920
C        2.71458021       2.09102892       1.26068888
C       -2.28765283      -2.28054055      -4.13349675
C        1.47436096      -0.51849799      -1.56354438
C       -1.58114027      -0.46817658       3.04173836
C       -0.88338921       3.54668033      -2.02390440
C        2.17867986       0.99872451       3.27564259
C       -1.44256794      -2.66659941      -3.06743343
C        0.92527707      -2.98526072       1.94123437
C       -2.09154915       0.88550330       3.00833812
C       -0.31386993       2.62557568       3.28633640
C        0.76969275       2.96949478       2.46584604
C        2.27386336      -2.96254486       0.33058155
C       -0.02593266      -2.93241819      -0.54795941
C        2.79755910       3.21291080       0.40331096
C        1.99585276      -0.26555008       0.75481073
C        1.01997517      -0.67123719      -0.19841633
C       -2.25921647       0.64604981      -2.77696175
C       -3.24031436      -1.90571245      -5.07461193
C        1.12058432       2.05881168      -2.20987666
C        0.56685766       3.76478894       1.29050557
C       -0.27679884       2.29246429      -2.47550902
C        1.15133105       4.10879316      -0.90536761
C        2.94778726       2.72388662      -0.93553683
C       -2.14840935       3.94329176      -2.44738532
C       -2.65154645       2.33252619       1.14542718
C       -0.10618649      -2.89836373      -3.02315992
C        2.42096692      -0.22615984       3.04867502
C       -3.15302201      -1.20435071      -3.88050435
C       -0.66208581       3.86482632       0.50818506
C       -3.27734396      -1.15115391      -0.08548961
C       -1.86299337       3.24434360       0.82620377
