60
Properties=species:S:1:pos:R:3 trial_index=6 seed_entry_id=3 discovered_entry_id=4 energy=-486.4212341308594 status=accepted pbc="F F F"
C        1.18627481      -2.64959984      -1.12669406
C        0.97611949       0.95488088      -2.16688865
C        1.96436055       2.05851265       2.01198077
C        2.20898492      -3.46932704      -0.62806663
C       -2.23597418       1.33610296       2.77524120
C        2.31902795       0.74958976      -0.14336638
C        0.58364329      -3.69753923       1.40193640
C        1.97808807      -1.15493750       1.46402589
C       -1.14578216      -0.46447431      -4.09132608
C       -0.63484873      -3.00638132       1.08041009
C       -0.28767858       2.22310357       4.00654298
C        1.57713529       4.03741496       0.09241034
C       -0.00960001      -3.48331801      -1.30143288
C       -0.57305399       4.14769179      -0.74881035
C       -4.01899491       4.39737675      -1.91131797
C       -0.95998138      -2.14777987       2.22486482
C        1.31126595       3.25501611      -2.03450998
C       -3.04175572      -1.72882528      -0.34569497
C       -3.72588802      -1.11704765       0.52172940
C        2.18173484       1.23796417      -1.46477245
C       -1.65279604       1.95392762      -3.60659598
C       -1.47148003      -2.00844056      -2.32219706
C        0.15628840      -2.24842321       3.11472006
C       -2.69566429       0.00550590       2.32325924
C        0.55711037      -0.94642095       3.48236503
C       -1.58766950      -0.89851315       2.61763760
C       -0.68668178      -0.90064125      -2.74527008
C        2.04977721      -2.53174954       1.72306976
C       -1.95681633      -2.25490262      -0.96482031
C        2.49483369       1.90439111       0.68808213
C       -1.33796843      -2.87790556      -4.55284912
C        0.42657153      -0.37591639      -1.99088183
C       -0.67195623      -0.21346074       3.46426428
C       -1.47703364       3.69076582      -1.76879638
C        1.81639285       0.94321863       2.74177624
C       -1.17091487      -3.16048421      -3.18253449
C        1.11396614      -3.12694333       2.62541790
C       -1.05733494       1.14354715       3.61001762
C        0.43136162       3.12976768       3.52578774
C        1.15784855       3.24155858       2.32800600
C        1.79122931      -3.45897810       0.65561300
C       -0.96161613      -3.01749718      -0.29200416
C        2.56702769       3.06017497      -0.12813059
C        1.88580842      -0.59286906       0.12392757
C        1.14943579      -1.21548858      -1.00283201
C       -1.53785235       0.84463750      -4.18077267
C       -1.56966613      -2.57765209      -5.88568372
C        0.41251765       2.25179018      -2.46933411
C        0.71177682       3.98338979       1.20349044
C       -0.95060800       2.67217358      -2.64915910
C        0.79728624       4.14728363      -1.07966921
C        2.46017254       2.62978369      -1.48458014
C       -2.82137347       4.03605255      -1.84395505
C       -2.29922244       2.52210515       2.06235322
C       -0.43364055      -4.06570807      -2.48875646
C        1.63814696      -0.38505275       2.66824505
C       -1.38488601      -1.53238586      -4.97317353
C       -0.66921021       4.02292016       0.71277058
C       -3.76620976      -0.32535103       1.55039047
C       -1.71308831       3.41449897       1.40952799
