60
Properties=species:S:1:pos:R:3 trial_index=24 seed_entry_id=12 discovered_entry_id=20 energy=-486.33782958984375 status=accepted pbc="F F F"
C        1.66413691      -3.27715290      -0.48232465
C        2.25636904      -0.04126496      -1.94917723
C        1.37580795       1.87943233       1.98459285
C        1.40315552      -4.13846684       0.52080190
C       -1.48982421       0.69813707       2.53525028
C        2.68373674       0.35317016       0.37326263
C        0.33996427      -3.92446421       2.89307520
C        1.96984681      -1.35872059       2.14416853
C       -5.19440984       3.52001610      -7.63107452
C       -0.92339892      -3.19861290       2.87398103
C       -0.61966263       2.52701546       3.89252218
C        1.45255502       3.51379327      -0.25909562
C       -1.60818299      -3.43578822       0.44966876
C       -0.51974584       3.37838578      -1.49942413
C       -2.93654633       3.59606714      -4.55539593
C       -0.87312947      -2.34247257       3.99277883
C        1.70090055       2.20428898      -2.10651427
C       -1.36483888      -0.73855444      -0.75917573
C       -1.77738461      -0.43230475       0.47693216
C        3.00731443       0.65139446      -0.98903971
C       -3.68036826       3.58997830      -5.56808178
C       -0.19182138      -2.00510904      -2.46036371
C        0.45848587      -2.22409717       4.45172846
C       -1.90093782      -0.60396758       2.78682189
C        0.76416717      -0.86314655       4.29693317
C       -1.44628650      -1.05972571       4.01999443
C        1.22135487      -2.21412654      -2.51937184
C        1.87658748      -2.70537707       2.56174616
C       -0.70288420      -0.71899634      -1.95874733
C        2.32546500       1.62110622       0.95258641
C        1.01250720      -3.44123334      -1.77422289
C        2.04295593      -1.38740694      -1.71473744
C       -0.45510894      -0.11758038       4.46650863
C       -1.38566833       3.47520697      -2.53573340
C        0.91478021       0.89401966       2.86314170
C       -0.41861455      -3.26493230      -1.77833578
C        1.23094326      -3.15039193       3.76775945
C       -0.44196112       1.08668366       3.57123620
C       -0.15274825       3.37910012       3.08827632
C        0.65979951       3.13005102       1.97537287
C        1.28836763      -3.81305862       1.79788376
C       -1.59975076      -2.75361379       1.66671094
C        2.53047228       2.64958891      -0.01040531
C        2.32430926      -1.00611262       0.74577512
C        2.13261103      -1.90389228      -0.39540949
C       -4.48729440       3.61358985      -6.58516940
C       -6.56321513       3.24055820      -9.75672686
C        1.20873301       0.86812201      -2.43113703
C        0.41936233       3.62490496       0.67305332
C       -0.06822727       0.43117058      -2.44690783
C        0.90932708       3.22679699      -1.54348869
C        2.83675033       2.03057052      -1.24508175
C       -2.14099150       3.55140618      -3.52677204
C       -1.61669759       1.00328581       1.13813359
C       -1.27351682      -3.53246534      -0.74283686
C        1.39934874      -0.42555136       3.09581384
C       -6.02386037       3.53657168      -8.64215091
C       -0.80035485       3.19875579      -0.02583898
C       -1.94330475      -1.35717532       1.61137099
C       -1.45202136       2.15409391       0.48239219
