60
Properties=species:S:1:pos:R:3 trial_index=18 seed_entry_id=15 discovered_entry_id=16 energy=-494.26727294921875 status=accepted pbc="F F F"
C        0.53165543      -2.44475574      -0.71468654
C       -0.17216223       0.72349301      -2.42350297
C        2.11946026       2.20674375       0.88509344
C       -0.71142885      -3.15543043      -0.63239304
C       -1.39833872       1.48655330       3.07359642
C        1.89631357       0.94236529      -1.34421867
C       -0.25148355      -3.37913877       1.80639749
C        2.10179276      -1.04267597       0.34499968
C       -0.37024455      -1.61490123      -4.92310581
C       -0.82658819      -2.66610504       2.92357440
C        1.92107216       2.54176093       3.69892091
C        0.28954617       3.81817983      -0.43609417
C       -2.28336971      -2.54382163       1.15208285
C       -1.83121085       2.61712401      -0.54449612
C        0.04861917       2.11696330      -4.35867959
C        0.18773259      -1.91318914       3.53608254
C       -0.48664924       3.46041008      -2.51100222
C       -2.96438272      -0.32302985       0.33040145
C       -2.56923527       0.23054870       1.56550595
C        1.14677393       1.18674034      -2.55828065
C       -0.07353876       0.92049713      -5.02940075
C       -2.66235113      -0.88459880      -1.83365622
C        1.39962360      -2.17220434       2.82085921
C       -1.13317808       0.14796079       3.42795763
C        2.10773537      -0.97153498       2.76340361
C        0.09404986      -0.51349781       3.82140177
C       -1.51540769      -1.16458581      -2.57745286
C        1.41946900      -2.31728251       0.41650719
C       -2.79053957       0.25935166      -0.98498095
C        2.01842796       2.14710826      -0.56024702
C       -1.74067228      -3.02945731      -1.63570129
C       -0.28390627      -0.62237554      -2.18617213
C        1.44620258      -0.00845624       3.60704182
C       -1.05564956       2.57794965      -3.45921916
C        2.30795686       1.09367171       1.76533419
C       -2.78560905      -2.12119595      -1.14637579
C        1.08644351      -2.91189713       1.64463685
C        1.92448205       1.25649809       3.16434052
C        1.80258840       3.55639559       2.92950982
C        1.57400603       3.39770194       1.55149998
C       -1.16595478      -3.32579084       0.72018121
C       -1.98303413      -2.00556347       2.44684202
C        1.37512307       3.29069016      -1.16987612
C        1.76030890      -0.41979523      -0.89651938
C        0.74544807      -1.26850291      -1.49112741
C       -0.16905611      -0.33427042      -5.20687400
C       -1.35812611      -2.53936229      -2.96716012
C       -1.35524943       1.48536051      -2.60172607
C        0.32010119       3.84298411       0.97510233
C       -2.20905439       1.50965161      -1.38980502
C       -0.89462770       3.52402948      -1.14790145
C        0.91896517       3.30310253      -2.52305792
C        1.22801207       2.28016560      -3.45402876
C       -2.11771893       1.57498491       1.86527117
C       -2.95167036      -1.76393202       0.20670503
C        2.42344573      -0.33541139       1.52442088
C       -0.74857862      -2.63237717      -4.21267683
C       -0.89573608       3.52334070       1.51354905
C       -2.06028716      -0.61864754       2.60464096
C       -1.81728884       2.65748537       0.92616537
