60
Properties=species:S:1:pos:R:3 trial_index=34 seed_entry_id=28 discovered_entry_id=30 energy=-493.9657897949219 status=accepted pbc="F F F"
C       -0.25937946      -2.16974503      -1.62287074
C        1.58690164       0.86965764      -2.71361550
C        4.49262891      -2.04643130      -0.21210021
C       -1.63319028      -1.88854903      -1.39319721
C       -0.73492683       1.30557151       3.59856912
C        2.98643771      -0.54680450      -1.27723050
C       -1.37150485      -3.07957893       0.81424690
C        1.81406633      -2.79985943      -0.76171242
C       -0.81940046       1.84734766      -3.24068583
C       -1.54985004      -2.53268427       2.13859432
C       -2.44102792      -1.95056002      -5.57234573
C        1.01111209       3.66926187       2.68648343
C       -2.84734760      -1.28752489       0.63452651
C       -1.01450891       3.65553258       1.38654584
C        1.57571991       2.86612705      -1.77955882
C       -0.66626996      -2.42664894       3.22878244
C        1.13791681       3.50638502       0.32952928
C       -2.99742296       1.16129979       0.87479999
C       -2.58251610       1.04169540       2.21400677
C        2.51963027       0.77823380      -1.63688932
C        1.26249900       2.23886614      -3.00872201
C       -2.43641820       1.61376951      -1.32607840
C        0.72719360      -4.54251390       1.08807478
C       -1.06302474      -0.11908214       3.58039196
C        1.99844527      -4.50319526       0.91759060
C       -0.43012547      -1.33531111       3.89406159
C       -0.68653173       0.39993393      -3.35895462
C        0.41841217      -3.06723871      -0.74592130
C       -2.54390702       2.17740517      -0.00520855
C        4.20170998      -0.88188026      -0.71074469
C       -2.25980234      -0.79286289      -2.08703999
C        0.56200684      -0.07976341      -2.87121961
C        2.22322554       1.79731504       1.66767881
C        0.59070211       3.49636301      -0.99045917
C        4.05134767      -3.20209004       0.16368479
C       -2.79264559       0.24007783      -1.27272542
C       -0.18001627      -3.71315620       0.37273893
C       -2.13467388      -1.27850685      -4.52900526
C       -2.73920250      -2.65502178      -6.60655951
C        0.45663861       2.06396162       3.75553238
C       -2.11697089      -2.25804596      -0.10214734
C       -2.44453808      -1.40631874       1.99450612
C        1.51776100       2.30014418       2.73127904
C        1.99145380      -1.58473542      -1.50388859
C        0.73412118      -1.30312552      -2.17074720
C        0.21512603       2.60312106      -3.80995872
C       -1.80438919      -0.53504728      -3.45819396
C       -0.79355482       3.21249208      -1.08819716
C        0.13759383       3.50515042       3.80786396
C       -1.55457543       3.17437482       0.14859473
C        0.37275039       3.90240632       1.44282167
C        2.11066279       2.43176537       0.44535540
C        2.39555314       2.03107637      -0.93959408
C       -1.77431456       1.98991844       2.91228606
C       -3.15408480      -0.03546999       0.08684540
C        2.70771314      -3.55672652       0.10372953
C       -1.41365447       2.30221289      -2.02894998
C       -1.09316730       4.04580827       3.79600218
C       -2.20738013      -0.23741976       2.71950644
C       -1.58840206       3.37321463       2.67039209
