54
Lattice="21.66 0.0 0.0 0.0 5.10531 0.0 0.0 0.0 22.55266" Properties=species:S:1:pos:R:3 entry_id=2 rank=11 energy=-198.67559814453125 pbc="T T F"
Cu       0.00000000       0.00000000      10.00000000
Cu       3.61000000       0.00000000      10.00000000
Cu       7.22000000       0.00000000      10.00000000
Cu      10.83000000       0.00000000      10.00000000
Cu      14.44000000       0.00000000      10.00000000
Cu      18.05000000       0.00000000      10.00000000
Cu       0.00000000       2.55265548      10.00000000
Cu       3.61000000       2.55265548      10.00000000
Cu       7.22000000       2.55265548      10.00000000
Cu      10.83000000       2.55265548      10.00000000
Cu      14.44000000       2.55265548      10.00000000
Cu      18.05000000       2.55265548      10.00000000
Cu       1.80500000       1.27632774      11.27632774
Cu       5.41500000       1.27632774      11.27632774
Cu       9.02500000       1.27632774      11.27632774
Cu      12.63500000       1.27632774      11.27632774
Cu      16.24500000       1.27632774      11.27632774
Cu      19.85500000       1.27632774      11.27632774
Cu       1.80500000       3.82898322      11.27632774
Cu       5.41500000       3.82898322      11.27632774
Cu       9.02500000       3.82898322      11.27632774
Cu      12.63500000       3.82898322      11.27632774
Cu      16.24500000       3.82898322      11.27632774
Cu      19.85500000       3.82898322      11.27632774
Cu      21.60978959       0.00093845      12.57800205
Cu       3.74577291       0.08093230      12.67419786
Cu       6.17818592       4.67187339      13.40117114
Cu      10.68190269       5.01453394      12.63975999
Cu      14.51772847       0.02033008      12.59583681
Cu      18.05124638       0.04796019      12.43662986
Cu      21.60850587       2.51187844      12.58725258
Cu       3.62580680       2.69955540      12.58884530
Cu       7.17659258       2.56365985      12.39003612
Cu      10.67402614       2.45554204      12.87456345
Cu      14.58620663       2.51639421      12.71885920
Cu      17.99954329       2.57245166      12.52612983
Cu       5.51973712       2.61083761      14.66239850
Cu       8.66499612       0.96793405      13.64822188
Cu      19.73959854       1.24268758      13.85285284
Cu       8.79379607       3.58776619      13.94367907
Cu       8.14904373       4.97866541      15.90310262
Cu       2.06871336       1.27502752      14.17933348
Cu       1.72867973       3.80535172      13.81238241
Cu      10.08880977       1.88636306      15.29440036
Cu      19.79946459       3.67811509      13.82514725
Cu      16.86517792       4.29579683      14.28465075
O        7.01706660       3.79330798      15.01692431
O        0.61956502       0.15100312      14.42194503
O       18.59067288       4.94561201      14.59406157
O       12.58224757       2.53310609      12.80532224
O        9.34239089       0.95900149      16.63244816
O        6.74888667       1.32434122      13.81132304
O       15.12650653       3.92055449      13.93684815
O        3.92155570       1.62976114      14.19125948
