60
Properties=species:S:1:pos:R:3 system=runs/20260728-safe-lbfgs-strict-quench-200-production/output-c60-seed42 state_id=intermediate_accepted pbc="F F F"
C       -0.88499029      -2.70824891       1.35974055
C        2.72664485       0.21254311       2.41461231
C       -0.89622987       1.90313797       2.33596316
C       -1.13732116       0.90984453      -3.58227975
C       -3.17521580      -0.14179990      -2.62206282
C        1.57118154       1.71349082       3.20766789
C       -2.20707084      -2.14977316       1.31217902
C       -1.34379067      -1.60844648       3.37459450
C        0.17616767       3.51814710      -1.70366281
C        0.23547207       0.74968130      -3.92437174
C       -2.86319003       1.78342939      -0.96181300
C        0.42449359       3.69625460       0.52711029
C        0.05958008      -2.84789591       0.26865038
C        0.06400780       2.77548389      -2.88941502
C        2.19896184       2.43200130      -0.38186900
C       -2.52649923       0.03432282       2.30285253
C        2.25364293       2.42388228       1.08354618
C        0.22569526      -1.54866184      -3.13969822
C       -1.17348190      -1.44852282      -2.89850878
C        0.86464906      -1.85703619       2.87221006
C        2.17612999      -0.08937484      -3.12596789
C        2.11646046      -2.09244929      -1.69305584
C       -3.74316314      -1.22861096      -1.87797202
C       -2.98366192      -1.75559611       0.20775915
C       -3.73844904      -0.54959589       0.32993028
C       -3.15551461       0.48621776       1.11573358
C        2.74482175      -0.86741858      -2.11956605
C       -2.41177319      -1.36961327       2.49633202
C        0.78607442      -2.33061046      -2.08594883
C        0.44668412       2.38785866       2.60854147
C        2.97767366      -0.93684518       0.14970684
C        1.80073824      -1.95774623       1.84655658
C       -4.30180476      -0.26454152      -0.92853945
C        0.99381618       1.83726339      -3.34928596
C       -1.40143644       0.67582091       2.90589478
C        2.37709029      -2.16463229      -0.31995873
C       -2.78708657      -2.03789896      -1.16367881
C       -3.63196743       0.79376695      -1.62498540
C       -2.65733701       1.66599681       0.47540984
C       -1.60021855       2.42647904       1.14498330
C       -0.40910697      -2.44188870       2.68505224
C       -0.25672885      -2.67776213      -1.13674992
C        1.08817559       3.08854410       1.56062386
C        1.70584782       0.32399012       3.44038877
C        2.71328961      -0.88561744       1.54938215
C        3.02716757      -0.02044283      -0.95842024
C       -1.12998306       3.47218003      -1.05167674
C        2.67262804       1.62897456       2.17991946
C       -0.95742243       3.43014412       0.35042956
C        0.93258199      -0.46770915      -3.71545720
C        1.16790462       3.42431704      -0.68407541
C        0.69708768      -0.62188906       3.56834926
C        2.11133472       1.27666367      -2.66899309
C       -1.89763564      -0.25460131      -3.22513266
C        1.44394408      -2.63755989       0.63142328
C       -0.69631672      -0.34678960       3.64006808
C        2.57117827       1.35360752      -1.28638399
C       -1.96684729       2.57109538      -1.74336534
C       -1.51347305      -2.22502705      -1.73796998
C       -1.26292473       2.17969990      -2.93662553
