60
Properties=species:S:1:pos:R:3 trial_index=60 seed_entry_id=78 discovered_entry_id=79 energy=-499.5802307128906 status=accepted pbc="F F F"
C        1.26838615      -2.17506838       1.07402689
C        2.08647510      -0.09112219      -2.41371800
C        2.67583978       2.26233029       0.74469748
C        2.23891723      -1.16119224       1.01172180
C       -2.58188704      -0.99022279       2.81868982
C        3.68234372       1.24956667      -1.11061150
C       -0.02901338      -5.82830221      -1.28045763
C       -1.61384472      -1.96969233       3.12883348
C       -3.61294352       1.52327180      -2.56773248
C       -0.25594828      -1.53113502       3.00123744
C       -0.72867468       1.96139919       2.46496161
C        1.23800884       3.79074450      -1.11705333
C        0.79208668      -2.74470568      -0.12384459
C       -0.98164917       4.23569636      -1.30099499
C       -0.10131440       2.80672284      -2.89646089
C        0.04532951      -0.14218065       3.09625167
C        0.92683304       1.83990014      -3.07113270
C       -1.78256966      -3.01384983       2.14711294
C       -2.98558730      -1.18909116       1.46848400
C        2.97800636       1.01175249      -2.31103812
C       -3.40249327       1.58545125      -1.16008731
C       -1.50510000      -1.68161202      -1.20010072
C       -0.60517816      -4.79615453      -0.56496993
C       -2.74099939       1.06175870       1.79387971
C       -2.41200361      -2.39401383       1.01401389
C        1.13441112       0.58802275       2.47989657
C       -2.30935572      -0.51858636      -1.49827254
C       -0.52442051      -3.46907046       1.69714283
C       -0.45954367      -3.53462187       0.18041536
C        3.19334052       2.49536468      -0.56641737
C       -0.34404431      -0.35914779      -2.73495274
C        2.10835590      -1.14114337      -1.44889755
C       -2.33895687       0.37769480       2.99660532
C       -2.01925293       3.41807505      -1.80678282
C        3.09718320       0.94967496       1.09259804
C       -0.26785159      -1.54551524      -1.92118453
C       -1.43466540      -5.70068768      -1.20042762
C       -1.01980908       0.78432634       3.24836963
C        0.66787445       1.92340065       2.11661354
C        1.36395369       2.71213780       1.12637080
C        0.37788204      -2.46537898       2.13398638
C       -1.62134175      -2.56951932      -0.12504537
C        2.38187682       3.10962816      -1.53991820
C        3.59938777       0.30049648      -0.08525107
C        2.86531793      -0.90075881      -0.25609946
C       -3.09240589       0.28719459      -0.60234165
C       -1.68680789       0.14641284      -2.60950166
C        0.83266111       0.39626692      -2.95384025
C        0.67147955       3.56292638       0.18646672
C       -2.65975415       2.73973665      -0.73861208
C        0.18352691       3.93839722      -2.05269453
C        2.23564223       2.19597450      -2.62443388
C       -1.51189375       2.58501750      -2.83614976
C       -1.85430927       2.16504358       1.59112403
C        0.94505941      -1.99245274      -1.32751997
C        2.25156247       0.04952274       1.78984769
C       -2.26438502       1.38364641      -3.00887827
C       -0.74112506       3.79798919       0.04544415
C       -3.12111679       0.07363893       0.81742903
C       -1.83455647       2.95716273       0.42418829
