60
Properties=species:S:1:pos:R:3 trial_index=40 seed_entry_id=56 discovered_entry_id=58 energy=-500.0122375488281 status=accepted pbc="F F F"
C        1.02415052      -1.56413259       1.09553034
C        2.29382270       0.43819441      -2.36661505
C        2.73842627       2.58516044       0.96974529
C        2.19329781      -0.76958245       1.05358142
C       -2.20806299      -1.15615055       1.74000213
C        3.82768196       1.65656434      -0.88319212
C       -1.82089660      -6.98674286       2.05058668
C       -1.14728335      -2.04084604       2.05780529
C       -3.30267657       2.25396297      -3.04381652
C        0.09656530      -1.35021362       2.17696134
C       -0.82235457       1.98857194       2.27200955
C        1.41447674       4.21515400      -0.89111281
C        0.52001677      -2.05050497      -0.15321330
C       -0.77905255       4.68916636      -1.21083306
C        0.23751496       3.42647090      -2.87087889
C        0.10833022      -0.07195025       2.81851508
C        1.26068923       2.44703459      -3.03269271
C       -1.11185055      -3.24126347       1.22974333
C       -2.56459953      -1.06610143       0.36824912
C        3.20691527       1.50411264      -2.13928258
C       -3.26408434       2.12800048      -1.62281872
C       -1.48615430      -1.10087940      -1.78311055
C       -1.59276437      -5.73006516       1.77222404
C       -2.68398833       1.06150158       1.24846184
C       -1.37305833      -4.52878661       1.52887508
C        1.16728979       0.84815507       2.54848232
C       -2.20907415       0.05587311      -2.17258213
C       -2.26864703      -9.45766515       2.57737754
C       -0.78528277      -2.63731378      -0.05860606
C        3.32242230       2.87623218      -0.30072679
C       -0.07875846       0.26534607      -3.02318580
C        2.15982315      -0.62132352      -1.41027268
C       -2.24808005       0.15678053       2.27258838
C       -1.76824901       3.95448847      -1.89854262
C        3.19597551       1.27097163       1.29011779
C       -0.14265247      -0.94887506      -2.22022064
C       -2.06233611      -8.20246286       2.24986264
C       -1.08519568       0.68141987       2.83704051
C        0.61692896       2.12925029       2.15724357
C        1.37952797       2.98124902       1.27231638
C       -2.62684363     -10.67506511       2.50278165
C       -1.79250555      -1.77443769      -0.58450947
C        2.58917703       3.56532802      -1.28350916
C        3.69067536       0.65187268       0.08094842
C        2.87704487      -0.48973758      -0.17830391
C       -3.01956493       0.76254499      -1.24564246
C       -1.42251570       0.80101456      -3.10065298
C        1.12766890       0.99986008      -3.02948369
C        0.74057412       3.87465472       0.33582596
C       -2.51624432       3.17346379      -0.98129724
C        0.44553923       4.46181307      -1.89036569
C        2.52786515       2.73250588      -2.44164788
C       -1.17617650       3.24195335      -2.97558985
C       -1.86892523       2.24647701       1.30823840
C        0.92119306      -1.36685044      -1.37017547
C        2.32273606       0.36265457       1.91736973
C       -1.92357042       2.10279973      -3.39536475
C       -0.66570562       4.10215705       0.09638505
C       -3.00444908       0.28340895       0.09334952
C       -1.78778055       3.21596391       0.27103404
