60
Properties=species:S:1:pos:R:3 trial_index=190 seed_entry_id=47 discovered_entry_id=215 energy=-499.7135009765625 status=accepted pbc="F F F"
C        0.58716069      -2.23262859       1.59742355
C        1.95767080      -0.11673544      -2.15011327
C        2.55205715       1.96012896       1.21598764
C        1.66543497      -1.37597584       1.33643052
C       -2.78898576      -1.22193870       1.65906746
C        3.57573169       0.89673962      -0.60702493
C        0.79092181      -5.95545484       1.90225755
C       -1.82659783      -2.22551178       1.98039877
C       -3.31760569       2.40712941      -3.06581101
C       -0.52767208      -1.72530557       2.32905881
C       -1.11880333       1.75378011       2.34572542
C        1.50813384       3.73152689      -0.68009746
C       -0.19260497      -2.80633059      -0.48496438
C       -0.59563978       4.47323249      -1.07977361
C        0.33029623       3.11839253      -2.71964937
C       -0.44363189      -0.40489219       2.90089581
C        1.22885838       2.01818290      -2.85055209
C       -1.79515680      -3.38359144       1.13179734
C       -3.11465435      -1.05161495       0.28538427
C        2.98586900       0.82640267      -1.87867238
C       -3.35422095       2.24573364      -1.64759317
C       -1.98513478      -1.17448813      -1.84439071
C       -0.42945248      -5.45738625       1.96156442
C       -3.02419616       1.05479516       1.21983082
C       -0.68008628      -4.25314681       1.35830806
C        0.71520815       0.39940039       2.70568491
C       -2.54059095       0.07650879      -2.21715918
C        1.76828898      -4.22330312       0.62352932
C       -1.57308229      -2.83670488      -0.18562344
C        3.22000096       2.17547668      -0.03084905
C       -0.36650690       0.03142201      -2.96922984
C        1.65315539      -1.19335071      -1.23540351
C       -2.72894903       0.07534505       2.23099251
C       -1.63675572       3.87986136      -1.82321519
C        2.81688237       0.59390177       1.52510865
C       -0.61676399      -1.19477064      -2.23864872
C        1.83440587      -5.36500420       1.24005612
C       -1.54885072       0.47022761       2.86221443
C        0.33354641       1.74279119       2.30878945
C        1.23303318       2.50402329       1.46781370
C        0.48776075      -3.46164177       0.70024554
C       -2.41579475      -1.81518173      -0.67330986
C        2.61199857       2.94936726      -1.03473812
C        3.25099311      -0.08226903       0.33303110
C        2.32190782      -1.14113871       0.05286156
C       -3.29158955       0.85419232      -1.29469541
C       -1.62699492       0.73762413      -3.08840530
C        0.91823723       0.59961029      -2.87476491
C        0.74508447       3.46234346       0.51080036
C       -2.51093735       3.17742500      -0.95475612
C        0.62021542       4.10701028      -1.71306073
C        2.49045477       2.13323642      -2.19942046
C       -1.08908161       3.12007543      -2.89111158
C       -2.08355188       2.13899856       1.33989141
C        0.35744856      -1.85401990      -1.40678878
C        1.84654645      -0.19953546       2.14402964
C       -1.95354510       2.09443513      -3.36847440
C       -0.61226880       3.85397406       0.21659351
C       -3.38387588       0.34669732       0.03272654
C       -1.83677332       3.10305131       0.32479047
