60
Properties=species:S:1:pos:R:3 trial_index=98 seed_entry_id=119 discovered_entry_id=120 energy=-499.6636657714844 status=accepted pbc="F F F"
C        1.89318211      -2.21195608       0.31343100
C        2.04193238       0.83381543      -2.62632146
C        2.78151762       2.13792346       1.02888134
C        2.87258590      -1.19510889       0.34321312
C       -1.10098970      -2.44825355       3.95280450
C        3.57471432       1.94652002      -1.14139703
C       -2.36655508       0.33003151       0.99248881
C       -0.13747863      -3.11250173       3.17627353
C       -6.75409818       0.93538035      -8.15473218
C        1.10605293      -2.50903814       2.77771150
C        0.19769452       0.76090800       3.45151749
C        0.61967332       3.49236897      -0.19265002
C        0.91824785      -2.19191368      -0.74299438
C       -1.48097235       2.60206605      -0.23319933
C       -0.59407633       3.02353975      -2.31536426
C        1.41647849      -1.21332026       3.27425481
C        0.67875872       2.71209987      -2.83571091
C       -0.78702029      -3.64419130       2.01465487
C       -2.33156007      -2.46563663       3.20986371
C        2.82061041       1.98719948      -2.32780986
C       -4.92567396       1.07310045      -6.38131000
C       -1.50965752      -0.82356550      -1.01067559
C       -2.29647856      -2.12275326       0.93006020
C       -1.82934823      -0.27961797       3.69611137
C       -2.08461797      -3.10098477       1.94783601
C        2.10582897      -0.17482124       2.53156391
C       -2.19046194       0.32928776      -0.45112697
C        0.08497475      -3.49884081       0.93204742
C       -0.28766670      -2.81816304      -0.26184484
C        2.92884688       2.81355738      -0.20783246
C       -0.43709720       0.69409539      -2.61730582
C        2.11971459      -0.36120582      -1.86590356
C       -0.83777210      -1.11458234       4.29708756
C       -3.24448428       1.42776284      -4.46816084
C        3.53685030       0.92771867       0.91576270
C       -0.41024322      -0.52519151      -1.91830031
C       -5.74251191       0.84244731      -7.39496948
C        0.41513261      -0.54272943       4.04090530
C        1.33695911       1.05324634       2.64238523
C        1.51935649       2.12752627       1.70620467
C        1.31212393      -2.91486862       1.41043322
C       -1.48341564      -2.04620436      -0.24586877
C        1.85707035       3.47594815      -0.85061278
C        3.82945236       0.73082818      -0.48221468
C        3.15036027      -0.46143096      -0.87326131
C       -2.70942994      -0.91923613       1.56662429
C       -2.02195823       1.60167447      -1.03433978
C        0.75608730       1.30716457      -2.99121281
C        0.41009507       2.79699739       1.06701054
C       -4.09416099       1.20854946      -5.46908598
C       -0.56680540       3.39189807      -0.96678493
C        1.89890510       3.11388984      -2.23584860
C       -2.46640900       1.63773759      -3.54370897
C       -1.18735304       0.84619796       3.09369270
C        0.89396826      -1.12091697      -1.66931159
C        3.02855541      -0.28852742       1.45349405
C       -1.53212517       1.78434844      -2.46175793
C       -0.97677698       2.34627308       1.07760407
C       -2.70863173      -1.10704372       2.96942487
C       -1.61299706       1.28159282       1.79321489
