60
Properties=species:S:1:pos:R:3 trial_index=156 seed_entry_id=178 discovered_entry_id=180 energy=-499.2413330078125 status=accepted pbc="F F F"
C        1.13895343      -2.53442310       0.09116873
C        2.61058216       0.41583235      -2.58268193
C        3.31534203       1.20022642       1.24702944
C        2.38958259      -1.91613443       0.29018636
C       -2.14127912      -1.97489151       3.41886534
C        4.24060322       0.87062098      -0.85401675
C       -2.01854838       1.17037131       0.60045471
C       -1.36726507      -2.88424939       2.68011278
C       -0.27410930       2.36175692      -2.40364220
C        0.04214133      -2.70714983       2.44430891
C        0.18898575       0.63926762       3.32656369
C        1.86817231       3.28358196      -0.02406200
C        0.34201496      -2.11253691      -1.02287765
C       -0.40338488       3.21941206      -0.28685221
C        0.82667532       3.28651962      -2.23729373
C        0.70106993      -1.61525673       3.07252574
C        1.97659400       2.64206070      -2.73037206
C       -2.02114761      -3.10151195       1.42172828
C       -3.21035196      -1.53834643       2.56188988
C        3.68562775       1.22093022      -2.09621939
C       -6.85434586       1.26762339      -5.47411106
C       -1.67309157      -0.07856611      -1.69477561
C       -2.84064453      -1.12589079       0.31515282
C       -2.07916832       0.32312022       3.28405875
C       -3.05722716      -2.16225575       1.28265461
C        1.76967040      -0.82713013       2.48732748
C       -1.73017738       1.23235855      -0.79216714
C       -1.03691765      -3.18290701       0.43940002
C       -1.04006311      -2.34099994      -0.70871127
C        3.80514295       1.85121170       0.08973438
C        0.23306633       1.10724464      -2.84988000
C        2.18926057      -0.74923428      -1.89115328
C       -1.49493778      -0.82554751       3.89829741
C       -4.73500711       0.75537092      -4.13224210
C        3.65167837      -0.18254494       1.10116309
C       -0.23303603      -0.11161010      -2.29780250
C       -8.06820237       1.43817992      -5.80127005
C       -0.10325906      -0.69290583       3.80649925
C        1.43873157       0.57888985       2.64177478
C        2.05486282       1.57758771       1.81134147
C        0.25121973      -3.07604171       1.06590092
C       -1.97684995      -1.29518621      -0.81269490
C        3.08721890       2.86574520      -0.58293244
C        4.01205434      -0.39221639      -0.28117602
C        3.01410815      -1.24951501      -0.83051536
C       -2.85268411       0.10666736       1.02736488
C       -1.06697082       2.38386187      -1.23351139
C        1.62279300       1.30327200      -3.07246206
C        1.30972457       2.62222604       1.14336977
C       -5.79307634       0.99308032      -4.73642491
C        0.81117453       3.68479857      -0.87945154
C        3.16821742       2.57973740      -1.98318947
C       -3.67060604       0.48477241      -3.37843535
C       -1.03941015       1.20349626       2.85269787
C        0.76041133      -1.05236983      -1.86672981
C        2.71694772      -1.18398349       1.48649890
C       -2.68683507       0.21976766      -2.69009609
C       -0.13788571       2.69204022       1.01173562
C       -3.08143726      -0.12723797       2.40129470
C       -1.13778951       1.82004583       1.56165858
