60
Properties=species:S:1:pos:R:3 trial_index=115 seed_entry_id=136 discovered_entry_id=139 energy=-501.32281494140625 status=accepted pbc="F F F"
C        1.80736975      -2.05864035       0.74757529
C        1.86673640       0.29009147      -2.76253410
C        2.45663124       2.48437411       0.68323533
C        2.65026190      -0.94407427       0.62675602
C       -1.53432882      -1.79777361       3.99729928
C        3.19852762       1.86218377      -1.42816511
C       -3.27365185      -0.44394765      -0.10587155
C       -0.42208461      -2.53843771       3.54397446
C        0.17438231       1.36311199      -4.22865224
C        0.79469331      -1.89350550       3.12075313
C       -0.33561028       1.42925851       3.09061258
C        0.18862425       3.55560811      -0.68630860
C        0.99265349      -2.43376485      -0.37103185
C       -2.14631516       2.62855506      -0.94846138
C       -0.92614640       3.05804812      -2.90265210
C        0.95958592      -0.49494832       3.34357903
C        0.27267801       2.56015112      -3.46548176
C       -0.87159274      -3.40526838       2.48203379
C       -2.61700191      -2.07513666       3.10164514
C        2.37983537       1.60025322      -2.55516039
C       -2.57118064       0.22899283      -3.68744788
C       -1.53021160      -1.66247958      -1.37067607
C       -2.35694741      -2.41638102       0.85062227
C       -2.31235275       0.19203263       3.09919008
C       -2.17383045      -3.01411911       2.12202762
C        1.68729627       0.45283566       2.51954560
C       -2.61254011      -0.61514067      -1.30204878
C        0.10620873      -3.41026039       1.48448608
C       -0.17300357      -3.10462707       0.11788807
C        2.55239499       2.89582872      -0.66829429
C       -0.29977463      -0.74166936      -3.39842161
C        2.04633414      -0.72764054      -1.77205832
C       -1.39615729      -0.40622392       4.01678063
C       -2.65262272       1.83883977      -2.07207406
C        3.18884218       1.27401994       0.79320845
C       -0.33108379      -1.50382433      -2.19782565
C       -2.25025242       1.51271131      -4.31702371
C       -0.15585023       0.21995985       3.85377183
C        0.90721959       1.67240418       2.41480345
C        1.20420487       2.65900914       1.38665252
C        1.18687355      -2.56942768       1.91660044
C       -1.43965202      -2.54719764      -0.22911610
C        1.42778447       3.34772993      -1.39405367
C        3.51848259       0.82948152      -0.53508189
C        2.95300832      -0.46266127      -0.69560166
C       -3.07645848      -1.16649383       1.02179355
C       -1.39510353      -0.34650803      -4.21145193
C        0.72824047       0.20717769      -3.60237786
C        0.24981388       3.38406720       0.69569861
C       -2.76842747       0.43697505      -2.29930597
C       -0.99175835       3.31988716      -1.47983526
C        1.43934058       2.68589573      -2.66088590
C       -2.13511083       2.42473483      -3.26096568
C       -1.72172507       1.43757605       2.61586631
C        0.96880774      -1.67225462      -1.55333448
C        2.67512233       0.17780164       1.53481727
C       -1.05094993       0.94980290      -4.80976234
C       -2.40474363       2.52361995       0.39784269
C       -3.02955743      -0.86585232       2.45372673
C       -2.22900278       2.17635043       1.57416755
