60
Properties=species:S:1:pos:R:3 trial_index=17 seed_entry_id=27 discovered_entry_id=28 energy=-498.7571105957031 status=accepted pbc="F F F"
C        2.11708779      -3.74377846      -0.76328317
C        2.12906907       0.00179107      -2.44092115
C        2.02061741       1.86563076       1.16773609
C        2.87012911      -2.72189734      -0.10329226
C       -2.15862311      -0.96829495       2.44295675
C        3.26422728       0.97020531      -0.54069478
C       -0.11485995      -4.20832480       0.71665206
C       -0.86554693      -0.99952841       3.05651868
C       -3.50484904       1.63529678      -2.82892293
C        0.45860877      -1.37880533       2.49852298
C       -1.40006846       2.15439097       2.63956200
C        1.12629627       3.76789980      -0.71406385
C        0.87735115      -3.33321201      -1.34488016
C       -1.04151229       4.31242102      -1.18240108
C        0.02903986       2.96876268      -2.74310531
C       -0.69003666       0.25732110       3.69557892
C        1.08198017       2.02609792      -2.89706722
C       -2.26453167      -2.54718015       0.49538756
C       -2.56916654      -1.29065121       1.09040110
C        2.95228095       1.01876383      -1.92100869
C       -3.37867268       1.57602479      -1.41051095
C       -1.37738415      -1.64131267      -1.67094662
C       -1.30395601      -4.53222906       1.41040300
C       -2.99242610       0.94069762       1.51034284
C       -2.26501481      -3.70924497       1.30266336
C        0.43414352       0.87302012       3.10444619
C       -2.19442248      -0.46311904      -1.86517540
C        0.85359478      -2.58183482       2.08735696
C       -1.39579759      -2.63255718      -0.64978930
C        2.79060433       2.18125850       0.03333488
C       -0.22385015      -0.17173585      -3.07045214
C        2.07987215      -1.23941060      -1.76431889
C       -2.72068977       0.30288799       2.74661879
C       -2.00411094       3.50652148      -1.83838967
C        2.11281238       0.43582303       1.40738905
C       -0.20069255      -1.45989060      -2.44372789
C        1.05795530      -3.69953091       1.41664294
C       -1.82007398       1.08096421       3.50174115
C        0.02613591       2.10161178       2.52164677
C        0.85005079       2.63539595       1.48717533
C        2.28399889      -3.76411914       0.63674960
C       -0.27241053      -3.52698447      -0.54813320
C        2.27661542       3.01920570      -0.98315960
C        2.88450232      -0.13830910       0.27121063
C        2.72608538      -1.37046037      -0.47285420
C       -3.00414615       0.25327348      -0.92455147
C       -1.56336132       0.31190975      -2.90161914
C        0.96736280       0.59242449      -3.04699688
C        0.37864119       3.56085005       0.49332436
C       -2.74393418       2.75813519      -0.88883972
C        0.21468424       4.01147313      -1.77271554
C        2.30897622       2.27120843      -2.19574495
C       -1.38588101       2.75320596      -2.86452585
C       -2.28645871       2.17645503       1.51461113
C        0.98768862      -2.11381990      -2.04156191
C        1.20921976      -0.08254213       2.39043620
C       -2.12937426       1.57770650      -3.19609239
C       -0.99143439       3.85116045       0.17559526
C       -3.00004406      -0.05441536       0.47280376
C       -2.10937516       2.98456087       0.37693278
