60
Properties=species:S:1:pos:R:3 trial_index=91 seed_entry_id=87 discovered_entry_id=114 energy=-500.99371337890625 status=accepted pbc="F F F"
C        1.86351459      -2.00502493       0.91627093
C        2.36721528       0.30062346      -2.55253299
C        2.47087051       2.55804159       0.85685150
C        2.71510148      -0.88589822       0.88942572
C       -1.96020494      -1.27724723       3.48913439
C        3.54616882       1.90238334      -1.11230392
C       -3.07680714      -1.59551745      -2.37305217
C       -0.93453990      -2.17541262       3.21139312
C       -3.45164713       0.31431174      -3.68775796
C        0.43048337      -1.71083088       3.08760503
C       -0.38518518       1.70210753       3.24248442
C        0.46011553       3.50900336      -0.82772554
C        1.30759411      -2.46437685      -0.33225613
C       -1.70115848       2.64246727      -0.76747616
C       -0.53661463       2.32910744      -2.76220398
C        0.67901909      -0.35285402       3.39754796
C        0.75267132       1.88350522      -3.13492308
C       -1.28846608      -2.80650006       1.96713920
C       -2.79040054      -1.10796677       2.30549745
C        2.91479851       1.59059861      -2.33037833
C       -4.13207891       0.41705386      -2.43402993
C       -0.80716029      -2.34508990      -2.14997735
C       -2.16882480      -1.86809577      -0.14571448
C       -2.55944114       0.91227750       3.28186704
C       -2.26196828      -2.00318892       1.29330935
C        1.52999651       0.55121484       2.65070154
C       -1.82041991      -1.75644409      -2.96396607
C       -0.08809607      -3.14361705       1.33914708
C        0.02767083      -3.05632715      -0.05350219
C        2.76893282       2.94196773      -0.48119616
C        0.17299261      -0.59687605      -3.26769193
C        2.54815914      -0.74274650      -1.59401148
C       -1.71180138      -0.01076595       4.02231255
C       -2.35478761       1.54419262      -1.48937956
C        3.19293908       1.35170215       1.08679693
C        0.44187591      -1.73043174      -2.44649825
C       -4.01712014      -0.85840977      -3.13057268
C       -0.39353669       0.44088376       3.89773024
C        0.82714685       1.82164877       2.50414648
C        1.15290824       2.71148364       1.41147400
C        0.97639923      -2.41155158       1.95888750
C       -1.10339244      -2.61981120      -0.79684405
C        1.74213427       3.33597926      -1.36905570
C        3.73411941       0.88972757      -0.16009554
C        3.23974890      -0.42366239      -0.37833064
C       -2.92920998      -0.99943288      -1.07467761
C       -1.25184949      -0.61455923      -3.59637261
C        1.08485965       0.48083103      -3.20987230
C        0.14953187       3.25730188       0.54737190
C       -3.25116995       0.42184343      -1.26976709
C       -0.64770030       3.10421018      -1.58933616
C        1.87793262       2.55463295      -2.56368552
C       -1.72711747       1.53697687      -2.78485962
C       -1.73151830       2.04444915       2.87550253
C        1.54780580      -1.77929484      -1.54957856
C        2.60268444       0.25610871       1.76981437
C       -2.05805249       0.52614078      -3.69849798
C       -1.30436461       2.95464205       0.61598512
C       -3.30181566       0.18453884       2.34707543
C       -1.98202709       2.73108813       1.74764318
