60
Properties=species:S:1:pos:R:3 trial_index=146 seed_entry_id=166 discovered_entry_id=168 energy=-500.0155029296875 status=accepted pbc="F F F"
C        1.59264884      -2.54284573       0.56836713
C        1.76460117       0.06799581      -2.74043158
C        2.73494789       1.82903171       0.64377644
C        2.61568910      -1.57957034       0.43503277
C       -1.37130924      -2.07307912       4.20648913
C        3.45036954       1.27265278      -1.49301579
C       -2.47965328       0.28421826       0.85641875
C       -0.45249189      -2.89846749       3.53800310
C       -1.93440455       0.23411979      -3.42564578
C        0.81646140      -2.42833173       3.05041839
C        0.10151595       0.95296760       3.24073768
C        0.63503706       3.13526603      -0.72188711
C        0.61217938      -2.63910011      -0.47292892
C       -1.50696596       2.33028958      -0.70657453
C       -0.57701218       2.80845355      -2.87515622
C        1.20193058      -1.09274207       3.34680651
C        0.52856528       1.97534681      -3.21743097
C       -1.14081940      -3.56352065       2.47041658
C       -2.60535262      -2.13173576       3.47111008
C        2.63580796       1.17709882      -2.63408252
C       -3.50924191       4.44541914      -6.47360356
C       -1.74110830      -1.19846066      -0.97779907
C       -2.56781629      -2.13826139       1.16489388
C       -1.97660559       0.07034888       3.62587612
C       -2.40611903      -2.96435995       2.32000859
C        1.93970191      -0.21367698       2.45867104
C       -2.34162601       0.07697689      -0.57719760
C       -0.27281231      -3.62788322       1.37710124
C       -0.62033543      -3.11302056       0.09494618
C        2.90136711       2.31869984      -0.67886678
C       -0.69644321      -0.24264167      -3.03022880
C        1.84953234      -1.03174094      -1.85520772
C       -1.03122406      -0.71948739       4.34911280
C       -2.46284673       3.16944551      -4.51655696
C        3.40261415       0.56353482       0.68820170
C       -0.65225372      -1.20175703      -1.95608201
C       -4.04859026       5.27881752      -7.25701592
C        0.25007817      -0.26237178       4.01282769
C        1.24932716       1.06081039       2.40053299
C        1.48198592       1.98184454       1.32490734
C        0.98763170      -3.04362076       1.75952799
C       -1.76980276      -2.28294864      -0.01296065
C        1.84690288       2.94158881      -1.39068269
C        3.65097752       0.15252455      -0.67011092
C        2.90306060      -1.04332075      -0.87970305
C       -2.89733955      -0.83443428       1.61390913
C       -2.23627895       1.29683206      -1.31663848
C        0.48760329       0.54871992      -3.18669662
C        0.39848043       2.60467071       0.60044691
C       -2.97395086       3.82950200      -5.44230113
C       -0.56619356       3.04105222      -1.47984564
C        1.80758919       2.35041229      -2.69073618
C       -1.89098426       2.58262334      -3.43024358
C       -1.27692197       1.05505829       2.86190317
C        0.62443121      -1.73351739      -1.55488402
C        2.83695202      -0.53162456       1.40001052
C       -2.32051885       1.35128604      -2.75465932
C       -0.99947668       2.20981221       0.63980809
C       -2.90407759      -0.80563196       3.02844526
C       -1.68051800       1.30182515       1.50546300
