60
Properties=species:S:1:pos:R:3 trial_index=129 seed_entry_id=150 discovered_entry_id=151 energy=-500.3446350097656 status=accepted pbc="F F F"
C        1.55677279      -1.89795021       0.60736940
C        1.88814865       1.01624379      -2.53523212
C        2.21567195       2.49519240       1.24777140
C        2.46327282      -0.82684877       0.65539683
C       -1.57632673      -2.20153000       4.11352905
C        3.18035373       2.27865942      -0.84823987
C       -2.81498938       0.37027552       0.97744325
C       -0.53641306      -2.83572743       3.41224935
C       -0.89841054      -0.66619405      -7.60751739
C        0.68432685      -2.16935532       3.05011531
C       -0.44066663       1.05850789       3.55064503
C        0.05521953       3.66537006      -0.17454536
C        0.65752104      -1.99007656      -0.50735781
C       -2.01948654       2.69530804      -0.30402713
C       -0.86013573       2.83241760      -2.29957448
C        0.89437895      -0.84615243       3.52375496
C        0.42617639       2.75255611      -2.84874721
C       -1.08919827      -3.45373999       2.24294040
C       -2.76290745      -2.32362118       3.31335759
C        2.51601507       2.22092855      -2.07497315
C       -0.33762954       0.15607455      -5.25943956
C       -1.81937886      -0.83826930      -0.93079234
C       -2.62638429      -2.07864233       1.02820344
C       -2.41414088      -0.08922437       3.72562521
C       -2.41301022      -2.99740209       2.09584598
C        1.56537563       0.20084680       2.78220783
C       -2.52940162       0.31524343      -0.44117340
C       -0.17256151      -3.29412802       1.19581054
C       -0.52094580      -2.69321528      -0.04969150
C        2.41912530       3.14982743       0.00630653
C       -1.00973910       0.45517588      -2.83288245
C        1.80960256      -0.11524683      -1.65894970
C       -1.41364678      -0.84097790       4.41465788
C       -1.61582330       1.62187776      -2.29303751
C        3.03518601       1.31795396       1.22122117
C       -0.74948338      -0.59128492      -1.89376631
C       -0.61893142      -0.25873025      -6.40876139
C       -0.18410498      -0.20580643       4.20633816
C        0.72477269       1.38374422       2.79512219
C        0.90521509       2.42777942       1.82694923
C        0.97790608      -2.60054848       1.70567618
C       -1.76223950      -2.01161021      -0.10891088
C        1.34336651       3.69415680      -0.73778941
C        3.40546812       1.08797905      -0.15327217
C        2.75570292      -0.11406969      -0.56210658
C       -3.13208492      -0.87006633       1.58603545
C       -2.34859535       1.55553211      -1.08060635
C        0.81628674       1.46666209      -3.38833974
C       -0.19808351       3.00197954       1.08916662
C       -0.16296827       0.62227659      -4.00950745
C       -1.05867569       3.46617942      -1.03091847
C        1.50953208       3.24142515      -2.08473531
C       -1.45796229      -1.44150698      -9.98084555
C       -1.80333325       1.04975677       3.11039430
C        0.61313035      -0.97336242      -1.51548772
C        2.54756703       0.09593046       1.75872368
C       -1.28172012      -1.01526480      -8.78486360
C       -1.56563161       2.49360671       1.03732832
C       -3.20107804      -0.99903510       2.99153936
C       -2.17309205       1.41117145       1.76932458
