60
Properties=species:S:1:pos:R:3 trial_index=134 seed_entry_id=154 discovered_entry_id=157 energy=-499.35723876953125 status=accepted pbc="F F F"
C        1.56786131      -1.97231729       0.71301268
C        1.51679737       0.75462849      -2.55548224
C        2.13877872       2.47929937       1.03874930
C        2.45596528      -0.88046198       0.64376525
C       -1.39321839      -2.08656116       4.38828874
C        2.93680771       2.13945310      -1.11111836
C       -2.83535555       0.32543525       1.21660313
C       -0.38538665      -2.74789870       3.66664749
C       -0.30181858      -0.18467169      -8.37942547
C        0.80982380      -2.09515488       3.20461478
C       -0.33055927       1.14942193       3.60008720
C       -0.12458745       3.59360533      -0.26352815
C        0.60496566      -2.13613946      -0.34221941
C       -2.19663077       2.61903551      -0.19798733
C       -1.20734388       2.74605753      -2.27377668
C        1.02494549      -0.74200551       3.58385218
C        0.01582663       2.55260725      -2.92151606
C       -0.99501190      -3.42955743       2.56326195
C       -2.61971444      -2.25825514       3.65991887
C        2.14490224       1.97921663      -2.26242567
C        0.00527654       0.39368050      -5.89299921
C       -1.88811735      -0.93597280      -0.69044468
C       -2.59685190      -2.11292702       1.35967500
C       -2.27855526      -0.00312843       3.95537087
C       -2.32610009      -2.98333945       2.45647324
C        1.63504697       0.27169559       2.74619903
C       -2.62469349       0.21367054      -0.21020476
C       -0.13557322      -3.32568978       1.46441097
C       -0.55492216      -2.79261458       0.21067686
C        2.23737940       3.05389691      -0.25461181
C       -0.96107818       0.44798142      -2.50620420
C        1.64871281      -0.32133442      -1.64774677
C       -1.22742836      -0.71229623       4.61489879
C       -1.83736678       1.47374005      -2.13203059
C        2.98305961       1.32136420       1.03065287
C       -0.83028111      -0.68347246      -1.67140897
C       -0.13333866       0.04367349      -7.17134239
C       -0.01967632      -0.07878507       4.29752060
C        0.77941263       1.44615581       2.75347394
C        0.87772894       2.43839647       1.71957468
C        1.04245888      -2.60747968       1.87684152
C       -1.78990466      -2.08690592       0.17526312
C        1.10845733       3.56386590      -0.93766013
C        3.27550010       1.01612349      -0.34876374
C        2.66951549      -0.23838145      -0.63344224
C       -3.09394803      -0.89053277       1.89346720
C       -2.53670090       1.43434314      -0.90513022
C        0.20272586       1.05117273      -3.31306390
C       -0.27984444       2.98215486       1.04243100
C        0.13691477       0.71611988      -4.71542901
C       -1.31122304       3.39777499      -1.01291892
C        1.15327181       3.01852830      -2.26613181
C       -0.73264494      -0.43291861     -10.88108286
C       -1.72076401       1.11440269       3.25615128
C        0.49906176      -1.16737239      -1.37231992
C        2.55993068       0.12460902       1.67428303
C       -0.44882608      -0.52977865      -9.64792502
C       -1.64441229       2.47539644       1.11467209
C       -3.09119707      -0.95474742       3.30487114
C       -2.18122541       1.41425438       1.92755345
