60
Properties=species:S:1:pos:R:3 trial_index=191 seed_entry_id=215 discovered_entry_id=217 energy=-498.7218322753906 status=accepted pbc="F F F"
C        0.96074216      -1.72620525       1.08562704
C        2.33426050       0.50701105      -2.18868883
C        2.45725554       2.50338431       1.26731416
C        2.08471910      -0.86994037       1.15580719
C       -2.31513836      -1.52250317       1.54932636
C        3.70534460       1.72545905      -0.55463715
C       -1.25489508      -6.66691216       2.82982422
C       -1.23829033      -2.38264131       1.91540879
C       -3.30120931       2.06234441      -3.13399669
C       -0.03550688      -1.62020687       2.12382595
C       -1.13771907       1.66030363       2.30978918
C        1.16204343       4.15377001      -0.59665959
C        0.56856019      -2.18318907      -0.21602174
C       -1.03021400       4.53024607      -1.03340962
C        0.15316077       3.40613024      -2.68280298
C       -0.13140857      -0.37353667       2.81678427
C        1.23669830       2.49046355      -2.82553687
C       -1.05681732      -3.48744463       1.00599873
C       -2.58214194      -1.38167530       0.16051265
C        3.17289543       1.60495084      -1.85418983
C       -3.34232870       1.86827070      -1.72087870
C       -1.38305189      -1.25066121      -1.91640504
C       -1.34215862      -5.37240316       2.60686078
C       -2.87818107       0.69150133       1.12769080
C       -1.05677338      -4.86363234       1.29705980
C        0.88978624       0.61316314       2.65987613
C       -2.14256781      -0.11436659      -2.29798437
C       -0.65855943      -7.11544909       0.64664298
C       -0.70532617      -2.86508201      -0.24629367
C        3.09968343       2.88615415       0.05080619
C        0.01931026       0.24611516      -3.00085189
C        2.19910951      -0.60272968      -1.29314149
C       -2.45650990      -0.24021994       2.13333682
C       -1.93417927       3.78097470      -1.81631834
C        2.96603881       1.20055849       1.55491071
C       -0.02731276      -1.00824376      -2.26237157
C       -0.91345714      -7.59296791       1.89412787
C       -1.36296374       0.31607805       2.79697873
C        0.29554308       1.88063968       2.29409173
C        1.06291488       2.81333961       1.50032094
C       -0.71742471      -5.84400898       0.30874495
C       -1.72443411      -2.00572580      -0.77873563
C        2.39132584       3.58491348      -0.94322037
C        3.56463176       0.66878050       0.35106263
C        2.82889273      -0.49605078      -0.01331664
C       -3.04520129       0.50072141      -1.39332257
C       -1.34372946       0.71461648      -3.13892616
C        1.18245700       1.04031255      -2.89738173
C        0.43430729       3.71857162       0.56796292
C       -2.69274602       2.91748374      -0.98562426
C        0.24419093       4.40018720      -1.64330447
C        2.44744217       2.81022322      -2.14113407
C       -1.23958819       3.15463724      -2.88571096
C       -2.13553900       1.91213764       1.29500395
C        1.00307789      -1.41214993      -1.36679067
C        2.10526342       0.21919192       2.08099007
C       -1.89718832       2.00116846      -3.40480019
C       -0.96483873       3.88500766       0.24953991
C       -3.08042580      -0.04433552      -0.07964272
C       -2.04489128       2.93459420       0.31086831
