60
Properties=species:S:1:pos:R:3 trial_index=187 seed_entry_id=209 discovered_entry_id=212 energy=-501.0234680175781 status=accepted pbc="F F F"
C        1.32938639      -2.27632656       0.90676322
C        1.30805626       0.00778616      -2.69515853
C        2.29829398       2.13230862       0.65371548
C        2.30326876      -1.28466627       0.66579801
C       -1.45587976      -1.65494274       4.66798180
C        2.89046382       1.44843084      -1.48108460
C       -2.80785759       0.47692900       1.26457826
C       -0.54557267      -2.49202243       4.00214260
C        0.09977164       1.34141361      -8.21740624
C        0.67826013      -2.01392195       3.41775387
C       -0.14739564       1.35265899       3.45065307
C        0.08020853       3.33290170      -0.66157997
C        0.30844683      -2.48780507      -0.08333183
C       -2.04809264       2.52104241      -0.42238265
C       -1.14483710       2.38309568      -2.53636628
C        1.02894437      -0.64959665       3.61175320
C       -0.02066360       2.32750104      -3.37893036
C       -1.26487499      -3.24533099       3.01735745
C       -2.72428754      -1.79648228       4.00793115
C        1.99486804       1.24756420      -2.56849381
C        0.00057005       1.22803647      -5.67234877
C       -2.07263196      -1.10359140      -0.49852776
C       -2.79249444      -1.93875461       1.70886635
C       -2.17044670       0.43377271       4.00945245
C       -2.55321614      -2.68919719       2.89811371
C        1.68419190       0.19458927       2.63173419
C       -2.65346400       0.17271507      -0.14334039
C       -0.45100127      -3.36054153       1.88610058
C       -0.87907597      -2.95393306       0.58903954
C        2.36995531       2.53564187      -0.70372128
C       -1.07977363      -0.05868215      -2.53787582
C        1.43927165      -0.95845005      -1.64286297
C       -1.15726743      -0.28613295       4.71388704
C       -1.77479182       1.13874796      -2.23952726
C        3.02511469       0.89866911       0.74220957
C       -1.05202647      -1.08606407      -1.53616669
C        0.02807947       1.28530291      -6.92881318
C        0.08575344       0.18970013       4.27865002
C        0.94195646       1.44042619       2.53336119
C        1.07804601       2.29702106       1.38992923
C        0.80305792      -2.70797981       2.16047814
C       -2.04562845      -2.14235869       0.50420465
C        1.26265924       3.09435285      -1.38092187
C        3.20497653       0.40449494      -0.60180449
C        2.50371994      -0.82934062      -0.69161147
C       -3.14853662      -0.61665963       2.09726947
C       -2.45374556       1.28198160      -0.98905769
C        0.05726841       0.09238730      -3.38907751
C       -0.06101007       2.87582735       0.70762314
C       -0.02868133       1.21493147      -4.33495343
C       -1.15094962       3.15222486      -1.33663362
C        1.17789107       2.42747097      -2.65282066
C        0.36238367       1.45364833     -10.75618749
C       -1.55060069       1.40565198       3.16289074
C        0.23806633      -1.64745208      -1.22649375
C        2.53671479      -0.16656406       1.55013198
C        0.10474775       1.44683500      -9.50044676
C       -1.45786943       2.49519281       0.88073930
C       -3.09088933      -0.50809664       3.50578793
C       -2.04406452       1.58463463       1.82593640
