60
Properties=species:S:1:pos:R:3 trial_index=68 seed_entry_id=82 discovered_entry_id=88 energy=-499.7093200683594 status=accepted pbc="F F F"
C        1.33288785      -2.31483868       1.02806295
C        2.28462878       0.05875292      -2.32146978
C        2.57580544       2.22730106       0.97633057
C        2.25551301      -1.25045994       1.06828623
C       -2.74609703      -1.26991944       2.23692525
C        3.75797369       1.33752066      -0.83565553
C        0.12861789      -5.07468382       1.25627205
C       -1.77893603      -2.21855101       2.61353554
C       -3.40179689       1.65528708      -2.95500273
C       -0.43143526      -1.75926680       2.70449583
C       -0.96489152       1.75670376       2.33859186
C        1.27710346       3.84424044      -0.91411903
C        0.77604284      -2.65263089      -0.24484031
C       -0.92351539       4.28016660      -1.27019377
C        0.11760036       2.96063936      -2.86294897
C       -0.18000466      -0.36151266       2.91931516
C        1.16977158       2.01244576      -2.99281887
C       -1.87366334      -3.48540871       1.96855242
C       -3.20030204      -1.36758014       0.89783065
C        3.15682656       1.15748649      -2.09998055
C       -3.33649455       1.62569748      -1.53153975
C       -1.41688785      -1.60787756      -1.54004368
C       -2.95795882      -3.72924526       1.16610169
C       -2.89000240       0.86459053       1.41208700
C       -2.85637213      -2.62091605       0.28147592
C        0.93635659       0.42413607       2.46384761
C       -2.20401854      -0.45515135      -1.88703102
C       -0.50256469      -3.77382934       1.43607446
C       -0.52015134      -3.19601752       0.00708414
C        3.20075802       2.54379585      -0.26834744
C       -0.11337209      -0.19563746      -2.86805175
C        2.23304792      -1.03240520      -1.40147505
C       -2.55474072       0.08754300       2.56467757
C       -1.90070088       3.49197870      -1.92233699
C        2.99938550       0.90555151       1.28845880
C       -0.10491846      -1.40485182      -2.08576226
C        0.69094691      -6.17469892       1.05250111
C       -1.29242223       0.51673519       3.00193503
C        0.46085612       1.76831049       2.12936966
C        1.22425490       2.62977976       1.25955973
C        0.38204379      -2.68755239       2.02489899
C       -1.65185024      -2.56792661      -0.51245467
C        2.46651678       3.20400413      -1.27271953
C        3.61267690       0.33099853       0.12728570
C        2.93438439      -0.88332560      -0.15796925
C       -3.08841472       0.28766138      -1.03955793
C       -1.47103049       0.28248187      -2.88258108
C        1.07641816       0.56686480      -2.94585502
C        0.59893446       3.52721702       0.31547541
C       -2.63318732       2.74370553      -0.96527468
C        0.30865814       4.04041711      -1.93004451
C        2.43161463       2.35365386      -2.41656273
C       -1.29074074       2.72834167      -2.94970970
C       -2.01389766       1.99645470       1.37270230
C        1.04636206      -1.84875227      -1.39045276
C        2.13423543      -0.05450920       1.87363822
C       -2.01488890       1.53793234      -3.26731551
C       -0.80057131       3.75461725       0.06083843
C       -3.24620952      -0.03549087       0.34828755
C       -1.91266580       2.87953699       0.27801669
