60
Properties=species:S:1:pos:R:3 trial_index=32 seed_entry_id=46 discovered_entry_id=48 energy=-499.65802001953125 status=accepted pbc="F F F"
C        1.02322673      -2.93244554       0.18813537
C        2.02284543       0.21059956      -2.45771077
C        2.40280289       1.65335237       1.18732616
C        1.82250815      -1.82189780       0.59718549
C       -2.76394914      -1.50701283       1.37285568
C        3.57650989       1.00642230      -0.72829377
C        0.88874079      -3.94586719       3.65794770
C       -1.87296829      -2.52875982       1.75262015
C       -3.39114653       2.58292096      -2.94374232
C       -0.89976928      -2.23959082       2.79141820
C       -1.20525246       1.34451050       2.33291370
C        1.38092908       3.74776004      -0.37261992
C        0.10538041      -2.59495234      -0.87504569
C       -0.74297202       4.48692281      -0.69002263
C        0.23093990       3.40179111      -2.48903096
C       -0.60144417      -0.82810448       2.89332014
C        1.17658337       2.37807235      -2.77748093
C       -1.46341007      -3.47808983       0.74374382
C       -3.00694885      -1.22079821       0.00623315
C        3.00388544       1.13644712      -2.01141405
C       -3.42062384       2.24879498      -1.55794308
C       -1.87183627      -1.06060778      -2.11683434
C       -0.03344609      -3.14939473       3.32700626
C       -3.11899129       0.77187305       1.16423857
C       -0.51204003      -4.42729540       1.05710054
C        0.56705923      -0.17508860       2.37193076
C       -2.49787028       0.19452486      -2.35625594
C        1.83621068      -4.86283634       1.64824903
C       -1.26012697      -2.80882123      -0.54312046
C        3.12637503       2.13556527       0.05436437
C       -0.34111136       0.35426007      -3.15719032
C        1.79217154      -1.00999390      -1.75026209
C       -2.81935924      -0.28870969       2.09138860
C       -1.76304080       3.96223488      -1.51526520
C        2.63657190       0.24854197       1.22930652
C       -0.52543666      -0.95943405      -2.57132032
C        1.73830464      -4.70088442       2.91894193
C       -1.67451049       0.07915455       2.80663468
C        0.22363839       1.24289236       2.18895564
C        1.10106757       2.15692539       1.51243280
C        0.82074478      -4.20057500       0.84524793
C       -2.21102574      -1.84120765      -0.98929750
C        2.51063970       3.05511491      -0.81882272
C        3.26140165      -0.13994853       0.01067661
C        2.50667521      -1.20616904      -0.52598898
C       -3.29403778       0.82765235      -1.36564056
C       -1.63472986       1.00184292      -3.15915264
C        0.92422000       0.97097968      -3.02564701
C        0.61408122       3.27888140       0.75043183
C       -2.61920407       3.12704361      -0.75347580
C        0.48867831       4.24641507      -1.35276223
C        2.43487057       2.44782966      -2.10615515
C       -1.18773619       3.36381582      -2.66586982
C       -2.18465137       1.83880974       1.39941107
C        0.50106625      -1.63468467      -1.86611800
C        1.68788231      -0.72652252       1.63679309
C       -2.01506116       2.37001232      -3.27061059
C       -0.74458158       3.69549885       0.50928727
C       -3.38136327       0.16881004      -0.10734004
C       -1.95042828       2.91454196       0.50933226
