60
Properties=species:S:1:pos:R:3 trial_index=162 seed_entry_id=170 discovered_entry_id=184 energy=-501.1344909667969 status=accepted pbc="F F F"
C        1.50832246      -2.65299099       0.57545026
C        1.83984948      -0.01013767      -2.70844741
C        2.91650305       1.61552821       0.67681986
C        2.59397295      -1.76142192       0.44426160
C       -1.36070880      -2.05857898       4.26782141
C        3.60819426       1.04561998      -1.46117652
C       -2.43663050       0.39189698       0.96585205
C       -0.50118773      -2.92859971       3.57578165
C       -1.71536001       1.05198125      -2.63818855
C        0.78598885      -2.52936043       3.07281221
C        0.25864207       0.88044232       3.28369875
C        0.88325798       3.01053972      -0.69810013
C        0.50327979      -2.66016022      -0.45090790
C       -1.30598890       2.33106761      -0.67198363
C       -0.32003766       2.78672032      -2.85157610
C        1.25253805      -1.22157579       3.37889652
C        0.79891440       1.99632760      -3.20978545
C       -1.24288083      -3.54206756       2.51414559
C       -2.61202761      -2.04603997       3.56094460
C        2.81184556       1.02189664      -2.61959675
C       -4.72102142       4.41814669      -6.91179965
C       -1.77165223      -1.10408689      -0.86662474
C       -2.62485913      -2.03419346       1.25459033
C       -1.85853008       0.11989163       3.70572871
C       -2.47825935      -2.87603420       2.39785411
C        2.02952104      -0.38096571       2.48832837
C       -2.32289485       0.16136185      -0.45237954
C       -0.39878564      -3.64350972       1.40405557
C       -0.73933224      -3.09225955       0.13601427
C        3.10973526       2.10449524      -0.63912177
C       -0.65419691       0.09442471      -2.70513154
C        1.83589316      -1.11810312      -1.82453558
C       -0.94588198      -0.72611044       4.40793379
C       -3.15737938       3.35962910      -5.15552040
C        3.52256198       0.31953598       0.71358294
C       -0.68258457      -1.03874498      -1.82863464
C       -5.49579614       5.10243666      -7.67118473
C        0.35262277      -0.34070022       4.05411919
C        1.40256182       0.92649658       2.43441819
C        1.67215933       1.83154869       1.35544168
C        0.89961169      -3.13830647       1.77121432
C       -1.84916465      -2.20880030       0.06314250
C        2.10790426       2.80776484      -1.34865130
C        3.73891434      -0.09454720      -0.65041630
C        2.90002373      -1.22780924      -0.86646376
C       -2.89147385      -0.71599506       1.72226658
C       -2.05973753       1.29477941      -1.26806584
C        0.60147811       0.59703839      -3.10495971
C        0.61854107       2.50232921       0.63177738
C       -3.94231346       3.92658579      -6.01510421
C       -0.31869641       2.97819239      -1.45317276
C        2.08470187       2.27334132      -2.67658799
C       -2.39955252       2.83568011      -4.30310360
C       -1.11771998       1.06556837       2.92744676
C        0.55196950      -1.71710508      -1.50933471
C        2.89700365      -0.74566755       1.42032587
C       -1.57015601       2.28299409      -3.40515658
C       -0.80639305       2.19315348       0.68076582
C       -2.85077606      -0.70116293       3.13432588
C       -1.53760692       1.34874237       1.58089608
