60
Properties=species:S:1:pos:R:3 trial_index=65 seed_entry_id=85 discovered_entry_id=86 energy=-500.47900390625 status=accepted pbc="F F F"
C        1.98526720      -1.96838729       1.17935108
C        2.34473751       0.15906266      -2.36807711
C        2.44390126       2.64802727       0.69978310
C        2.72712963      -0.78497422       1.08333321
C       -2.10337609      -1.59221784       2.97576791
C        3.65323352       1.81619344      -1.11738685
C       -4.33803709      -1.25601229      -1.04747695
C       -0.91492789      -2.29504913       3.23600988
C       -3.57181688       0.68983391      -2.54790120
C        0.33182937      -1.58231486       3.10047018
C       -0.88027708       1.65577147       2.27844292
C        0.75885466       3.82911987      -1.20251659
C        1.54265492      -2.60808642      -0.02681019
C       -1.48931478       3.87960663      -1.41740122
C       -0.36038861       2.55024414      -2.91560142
C        0.33329737      -0.15438988       3.13328538
C        0.83179277       1.80420008      -3.06143036
C       -0.91029812      -3.43128548       2.35203862
C       -2.64418642      -2.11002122       1.76887477
C        3.00797394       1.41234179      -2.30703198
C       -3.94879555       1.33897629      -1.35387700
C       -0.79602558      -2.38947906      -1.44594758
C       -1.94649650      -3.79037659       0.17320694
C       -2.56151067       0.19788179       1.56699168
C       -2.05627107      -3.38105662       1.47723976
C        1.25552827       0.75234095       2.48141079
C       -1.89370427      -1.48394271      -1.61492315
C        0.33303780      -3.45821666       1.72237384
C        0.44668140      -3.45844985       0.31123474
C        2.92681220       2.95608665      -0.60820985
C        0.00582720      -0.59248181      -2.65785510
C        2.58912193      -0.84480192      -1.38718608
C       -2.08029415      -0.20669002       2.85594110
C       -2.39121718       2.92953039      -1.93724040
C        3.12202253       1.46230339       1.09284339
C        0.38296645      -1.78499977      -1.95936333
C       -4.30355563      -0.02794825      -1.58756722
C       -0.92442368       0.51683168       3.15881130
C        0.51107445       1.91678228       2.01514402
C        1.05790309       2.80748695       1.03513257
C        1.13953576      -2.38938136       2.24125217
C       -0.76353639      -3.41237482      -0.45378884
C        2.02072383       3.38017803      -1.60052917
C        3.75370075       0.89729003      -0.06491922
C        3.28804129      -0.43401566      -0.20114364
C       -3.00325661      -1.39070115      -0.63018728
C       -1.43977203      -0.43658682      -2.53260974
C        1.00503369       0.38231518      -2.88784251
C        0.22100945       3.47982281       0.08154751
C       -3.08558294       2.31943225      -0.85172331
C       -0.28847450       3.76665498      -2.15595777
C        2.05308712       2.42118005      -2.65367098
C       -1.69310663       2.05159575      -2.80928578
C       -1.98511353       1.53686688       1.34116869
C        1.61976755      -1.90381872      -1.26372584
C        2.47650835       0.43119645       1.82385027
C       -2.18704383       0.71202056      -2.90060191
C       -1.20693750       3.44148834      -0.07804028
C       -2.82081506      -1.06647688       0.82384303
C       -2.18358585       2.45298304       0.27347066
