60
Properties=species:S:1:pos:R:3 trial_index=130 seed_entry_id=149 discovered_entry_id=152 energy=-499.3612976074219 status=accepted pbc="F F F"
C        1.52201095      -1.98589378       0.57578338
C        1.39664756       0.84897534      -2.58858648
C        2.16744410       2.44558781       1.02759367
C        2.42274053      -0.90452392       0.51241654
C       -1.30758393      -2.18545404       4.34664504
C        2.88800033       2.16584186      -1.15701443
C       -2.82178212       0.34882985       1.30804970
C       -0.33586838      -2.83689421       3.56914318
C       -0.17874608      -0.24801232      -8.33831467
C        0.84975244      -2.18232193       3.08682001
C       -0.22891231       1.06434777       3.63069623
C       -0.12172837       3.63093890      -0.15765696
C        0.52283979      -2.10552053      -0.45153073
C       -2.20274140       2.68110733      -0.05111623
C       -1.28122283       2.86147716      -2.15510035
C        1.09708519      -0.84507842       3.50234194
C       -0.08712598       2.67653317      -2.85719178
C       -0.99345432      -3.47427874       2.46612980
C       -2.56077582      -2.31688955       3.65673500
C        2.05468061       2.05392777      -2.28472381
C       -0.06003306       0.50062716      -5.87859777
C       -1.96353901      -0.86300459      -0.67422004
C       -2.61486436      -2.09574209       1.36304378
C       -2.17721187      -0.07735243       4.01238589
C       -2.32053437      -3.00591618       2.42078071
C        1.69120278       0.18820927       2.67814177
C       -2.66250680       0.28098565      -0.12775584
C       -0.17211194      -3.34298962       1.34178918
C       -0.62631583      -2.76462038       0.12050269
C        2.22987059       3.06099629      -0.24911281
C       -1.08020484       0.56940077      -2.47580342
C        1.54657882      -0.26091615      -1.72795361
C       -1.11477830      -0.82172770       4.61034294
C       -1.92285356       1.59403804      -2.03108674
C        2.99314620       1.27693366       0.95240448
C       -0.93731127      -0.59292816      -1.68514335
C       -0.11792386       0.09442796      -7.14646360
C        0.08922187      -0.19179326       4.27409649
C        0.85449480       1.37381906       2.75517482
C        0.93094496       2.39856467       1.75136619
C        1.02763624      -2.65194702       1.73576838
C       -1.85109250      -2.04210153       0.15120175
C        1.08551105       3.60654748      -0.87643270
C        3.23628759       1.01343479      -0.44466662
C        2.60428914      -0.22435426      -0.74928239
C       -3.07437690      -0.88524309       1.95334795
C       -2.58017920       1.52333819      -0.78331593
C        0.06476112       1.18480397      -3.30045521
C       -0.24088375       2.98030097       1.13379940
C       -0.00149467       0.86633874      -4.70755494
C       -1.33488611       3.47386999      -0.87147789
C        1.07827083       3.10592904      -2.22389612
C       -0.33692953      -0.78681932     -10.82816254
C       -1.63049371       1.05776223       3.33332753
C        0.39530340      -1.10253165      -1.44554690
C        2.57548950       0.06506162       1.57032010
C       -0.22104142      -0.73687386      -9.56650999
C       -1.60904765       2.48894336       1.23703908
C       -3.02478108      -0.99633036       3.36050352
C       -2.13205599       1.40726769       2.03196008
