60
Properties=species:S:1:pos:R:3 trial_index=139 seed_entry_id=123 discovered_entry_id=162 energy=-500.651611328125 status=accepted pbc="F F F"
C        1.92076050      -2.15209355       0.73050521
C        1.95974066       0.53423879      -2.52505224
C        2.30728600       2.32208516       0.88962181
C        2.78265862      -1.03539536       0.69520989
C       -1.41715809      -2.24306306       4.05471217
C        3.34168078       1.93657901      -1.14936711
C       -2.64043576      -0.10785147       0.58096325
C       -0.30607729      -2.89196570       3.48899236
C       -2.49935345       0.70468526      -4.17978072
C        0.90698098      -2.20828325       3.12696196
C       -0.40201126       0.98430084       3.17840986
C        0.18234858       3.21122931      -0.73125271
C        1.06925414      -2.38747979      -0.40040648
C       -1.75150935       2.01222498      -0.99927529
C       -0.64107898       3.04711666      -3.05669796
C        1.02747065      -0.83020072       3.45202374
C        0.58255644       2.27873611      -3.22207543
C       -0.75817119      -3.65789923       2.36589572
C       -2.54721349      -2.51805476       3.20982080
C        2.69035174       1.73419640      -2.37986987
C       -3.47167645       2.13683884      -5.98533569
C       -1.44123538      -1.41038560      -1.11425232
C       -2.29660103      -2.51020029       0.91830616
C       -2.32541727      -0.23846091       3.37275362
C       -2.09176350      -3.29478058       2.09284791
C        1.69657055       0.16696151       2.63646717
C       -2.31276753      -0.30415753      -0.80925469
C        0.21139534      -3.56229675       1.36236692
C       -0.09852514      -3.09853487       0.05196542
C        2.53589815       2.85454598      -0.40459313
C       -0.44630614       0.00805402      -2.84689155
C        2.14015565      -0.56211558      -1.64866639
C       -1.33569036      -0.85118276       4.20192341
C       -2.20617087       3.84526615      -4.97987974
C        3.18249700       1.19837241       1.01978739
C       -0.28886973      -1.08389697      -1.93807170
C       -3.12787283       1.12202946      -5.19091471
C       -0.12551905      -0.17966558       3.99101592
C        0.79741197       1.29254062       2.47452905
C        0.97675211       2.23525641       1.41330289
C        1.30777344      -2.77038541       1.86199192
C       -1.36631507      -2.49883127      -0.16871259
C        1.48575306       3.31535551      -1.23050805
C        3.63388336       0.85202129      -0.30530308
C        3.09825752      -0.43796007      -0.58721409
C       -2.91556518      -1.29021712       1.31309272
C       -2.23175251       0.84569977      -1.64628759
C        0.66325951       0.85834475      -3.05291412
C       -0.11080509       2.62606941       0.55079184
C       -3.07198682       3.38168418      -5.89203824
C       -0.88628232       2.94795482      -1.63548328
C        1.72682756       2.79597411      -2.54378543
C       -1.44025484       3.60175286      -4.01099633
C       -1.72904666       0.84608972       2.65349617
C        1.01897368      -1.45294631      -1.46508453
C        2.74086038       0.01564192       1.67890365
C       -1.82665779       0.49478726      -3.02385232
C       -1.40467957       1.98086694       0.41358640
C       -3.03671976      -1.26435007       2.72096428
C       -2.03897035       1.01628273       1.25761458
