60
Properties=species:S:1:pos:R:3 trial_index=163 seed_entry_id=184 discovered_entry_id=186 energy=-501.1331481933594 status=accepted pbc="F F F"
C        1.47104578      -2.65730697       0.48745165
C        1.76706987       0.08938069      -2.71535930
C        2.93010095       1.59233452       0.69462079
C        2.56439898      -1.77378457       0.36162457
C       -1.31999482      -2.14599399       4.25381752
C        3.57258435       1.08411441      -1.47329946
C       -2.43014093       0.42107952       1.05408868
C       -0.48479272      -3.00335614       3.51740191
C       -1.77366049       1.18477953      -2.53971306
C        0.79705298      -2.60338653       3.00172530
C        0.31587318       0.80438598       3.33044777
C        0.88548910       3.05353949      -0.59472254
C        0.44551256      -2.61910471      -0.51783773
C       -1.31079261       2.39942054      -0.54562810
C       -0.36305011       2.91358614      -2.72968060
C        1.28470879      -1.31120427       3.33832126
C        0.74114788       2.12222564      -3.13240695
C       -1.25427585      -3.57423268       2.45212687
C       -2.58486140      -2.09673408       3.57301094
C        2.75276996       1.10664970      -2.61496435
C       -4.51362893       4.11015932      -7.23158030
C       -1.81896148      -1.02291106      -0.83704694
C       -2.64204196      -2.01080902       1.26897868
C       -1.80193759       0.05472536       3.77081785
C       -2.48361688      -2.89047554       2.38164282
C        2.05464402      -0.45221450       2.45904487
C       -2.34798777       0.23504991      -0.37298929
C       -0.43275222      -3.65078374       1.32297383
C       -0.79086836      -3.05440822       0.08033045
C        3.10358390       2.12206762      -0.60816552
C       -0.72325767       0.21947445      -2.65685967
C        1.76810301      -1.04734673      -1.86886131
C       -0.88625564      -0.82380909       4.42705849
C       -3.08140518       3.30854310      -5.24268462
C        3.52046042       0.28871681       0.67777497
C       -0.74772120      -0.94011616      -1.81697982
C       -5.29997018       4.64373696      -8.09244597
C        0.40957739      -0.44205575       4.05902304
C        1.44265180       0.86357546       2.45891570
C        1.70195895       1.80007940       1.40414650
C        0.87903287      -3.17266394       1.67982329
C       -1.89104580      -2.15595874       0.05800388
C        2.09562874       2.85867595      -1.27414274
C        3.70510124      -0.08326570      -0.70245037
C        2.84988184      -1.20043982      -0.93749111
C       -2.88330432      -0.70529107       1.78359524
C       -2.08858379       1.39101871      -1.15750588
C        0.52916037       0.72247164      -3.06623562
C        0.64229151       2.50625196       0.72376715
C       -3.81783511       3.74588495      -6.21339755
C       -0.33205938       3.06002027      -1.32668492
C        2.04071098       2.36767339      -2.61763222
C       -2.36345584       2.90223423      -4.29704136
C       -1.06514947       1.01687659       3.00879718
C        0.48448974      -1.64267092      -1.54618482
C        2.89700916      -0.79207420       1.36277490
C       -1.61366350       2.42152935      -3.29391148
C       -0.78477161       2.21164284       0.79201264
C       -2.81561224      -0.73604845       3.19430804
C       -1.50769842       1.34767069       1.68046339
