60
Properties=species:S:1:pos:R:3 trial_index=75 seed_entry_id=93 discovered_entry_id=95 energy=-500.05047607421875 status=accepted pbc="F F F"
C        1.86448835      -2.11638863       0.99347214
C        2.07915985       0.31301331      -2.44599837
C        2.45934797       2.35085749       0.75907011
C        2.77100430      -1.03716217       0.88322109
C       -1.61098610      -1.75581433       4.15366090
C        3.51824282       1.73882152      -1.20550859
C       -2.59067333       0.06849727       0.39180747
C       -0.50522414      -2.49983769       3.70715438
C       -2.90610259       2.21717261      -6.04839841
C        0.74970508      -1.90128055       3.33596437
C       -0.40648075       1.33285558       3.03197524
C        0.43811567       3.22916441      -1.00067560
C        1.05680055      -2.44446650      -0.14713296
C       -1.45143449       2.01188742      -1.25066465
C       -0.42669984       2.72059152      -3.28147111
C        0.92105384      -0.50567762       3.53585008
C        0.81804961       2.05053101      -3.35785457
C       -0.94121336      -3.35607495       2.64533276
C       -2.71333625      -2.06617227       3.28350774
C        2.88412057       1.47398691      -2.43581283
C       -4.04050386       0.70663049      -4.96631843
C       -1.40071785      -1.46554605      -1.02215014
C       -2.37911971      -2.31868558       1.02096621
C       -2.38671772       0.19735476       3.22619688
C       -2.24894930      -2.97639265       2.27964745
C        1.67202335       0.38220698       2.66329966
C       -2.23075319      -0.29629668      -0.96193610
C        0.07629854      -3.40022492       1.68565323
C       -0.15738550      -3.07709183       0.32067021
C        2.74273975       2.75094781      -0.57138601
C       -0.36284216       0.08734452      -2.38967941
C        2.22972991      -0.74153613      -1.50655448
C       -1.47168663      -0.36145045       4.16950360
C       -2.35360211       1.15402461      -3.28559210
C        3.26321953       1.19841444       1.01358603
C       -0.19730688      -1.15138306      -1.72802015
C       -3.96022839       1.38438511      -6.11436232
C       -0.22232265       0.23991865       3.96302197
C        0.84167507       1.53017108       2.37066661
C        1.11588007       2.37344114       1.24647520
C        1.18062569      -2.59848831       2.15174890
C       -1.40299785      -2.46761651      -0.00685233
C        1.75141250       3.21281130      -1.46922658
C        3.73965086       0.71974315      -0.25772482
C        3.16034633      -0.56975250      -0.43604010
C       -2.94743277      -1.02717376       1.24142361
C       -1.72563422       0.72426657      -1.96126720
C        0.77393729       0.70396332      -2.91029824
C        0.08822725       2.72591238       0.30729560
C       -3.46069198       0.55759677      -3.82922801
C       -0.61983116       2.92182280      -1.90292704
C        1.99003906       2.58248268      -2.73427426
C       -1.59155091       2.18276738      -3.98445852
C       -1.70287573       1.16812834       2.43576720
C        1.08222379      -1.58936579      -1.27953690
C        2.73949173       0.10206906       1.75979044
C       -1.96227138       2.56993631      -5.26413231
C       -1.19221334       2.05753509       0.15265747
C       -3.11445426      -0.85202377       2.63838537
C       -1.92645187       1.19576571       1.02271058
