60
Properties=species:S:1:pos:R:3 trial_index=142 seed_entry_id=163 discovered_entry_id=164 energy=-499.30224609375 status=accepted pbc="F F F"
C        1.81152859      -2.16392846       0.55713912
C        1.62968173       0.49338410      -2.72337817
C        2.25477642       2.31205673       0.66934028
C        2.68114804      -1.05734162       0.44958935
C       -1.25598574      -2.21414661       4.13500024
C        3.11231575       1.90619675      -1.44647416
C       -2.70893421      -0.03248087       0.78082001
C       -0.20601281      -2.87740941       3.47771931
C       -2.03775843       0.07472022      -3.44378394
C        0.98526683      -2.21111634       3.02180713
C       -0.26144542       1.00529796       3.19968064
C        0.01203641       3.21233745      -0.76478173
C        0.86712973      -2.37981084      -0.49674139
C       -1.99460833       2.11201667      -0.77719827
C       -1.10936744       2.78291752      -2.93472802
C        1.15283731      -0.83485296       3.33431317
C        0.20421764       2.29306358      -3.53112787
C       -0.76270133      -3.62547875       2.38915289
C       -2.45335957      -2.46112833       3.37714454
C        2.35224654       1.70904137      -2.61890110
C       -0.57054564       2.94064875      -5.83389244
C       -1.68407863      -1.33204109      -1.04320383
C       -2.38538993      -2.43318431       1.07093885
C       -2.18262165      -0.19092877       3.55039351
C       -2.10470558      -3.23484691       2.22146758
C        1.76179686       0.15770382       2.46560365
C       -2.53709924      -0.20240594      -0.65613255
C        0.12226324      -3.53656025       1.31288796
C       -0.28322417      -3.05100503       0.03698361
C        2.37268967       2.83072950      -0.64681181
C       -0.72882609      -0.15499792      -3.03785664
C        1.86608763      -0.59002968      -1.83774525
C       -1.13639644      -0.82608209       4.28812352
C       -2.69866126       2.71459261      -4.80829873
C        3.12120869       1.17620422       0.73026540
C       -0.57476244      -1.11582294      -1.97467556
C        0.30339546       2.60216622      -4.98460717
C        0.06345278      -0.17073918       3.97689567
C        0.87368632       1.30010615       2.38820097
C        0.97881224       2.24802056       1.31767205
C        1.27494840      -2.77580817       1.72904648
C       -1.55035192      -2.42065146      -0.09007002
C        1.25268378       3.27511905      -1.39624279
C        3.46215051       0.82178770      -0.62428625
C        2.90089889      -0.46611165      -0.85551802
C       -2.94155532      -1.21117558       1.52644721
C       -2.63381478       1.02518381      -1.38647719
C        0.34141451       0.75372958      -3.23218226
C       -0.17180114       2.67054072       0.55903552
C       -1.93281068       3.02804009      -5.78135496
C       -1.12854613       2.91379014      -1.54787071
C        1.39450824       2.77227604      -2.72386696
C       -2.35516987       2.33987271      -3.51415138
C       -1.63125443       0.88929515       2.79470312
C        0.75634298      -1.46167233      -1.56098491
C        2.72190607      -0.00074404       1.42526318
C       -2.70710587       1.08365673      -2.82766950
C       -1.49368733       2.06810262       0.57302990
C       -2.95822296      -1.19665232       2.94179850
C       -2.05372588       1.07768480       1.43555663
