60
Properties=species:S:1:pos:R:3 trial_index=197 seed_entry_id=144 discovered_entry_id=223 energy=-499.4695129394531 status=accepted pbc="F F F"
C        1.13462478      -1.91047996       0.57592069
C        2.09517291       0.62122950      -2.62367443
C        2.65943291       2.28923316       0.96725914
C        2.26562706      -1.05438368       0.58055592
C       -2.01075642      -1.80759637       1.47608989
C        3.65989064       1.70207877      -1.06748875
C       -1.26517491      -4.58102347       3.66747288
C       -0.92547156      -2.81142677       1.77329524
C       -3.62218727       2.16522866      -2.67393977
C        0.31133387      -1.91992213       1.73840965
C       -0.76816965       1.30158320       2.38899171
C        1.12608763       4.08359883      -0.54999478
C        0.60171277      -2.26915114      -0.70644293
C       -1.10570129       4.46330897      -0.66159746
C       -0.14337784       3.51806315      -2.54942081
C        0.30092182      -0.76025531       2.56316680
C        0.91560854       2.63758765      -2.91692110
C       -0.84791797      -3.76848261       0.55098955
C       -2.42291671      -1.54686859       0.15850581
C        2.96523605       1.69660815      -2.29396358
C       -3.47460719       1.83788376      -1.29292944
C       -1.54740116      -1.22048394      -2.05080375
C       -1.11474261      -3.50984624       3.05836573
C       -2.64177022       0.41795497       1.34773834
C       -0.97613204      -5.09655228       0.68711301
C        1.29084318       0.25633827       2.36917163
C       -2.35486345      -0.06491860      -2.21469001
C       -1.30949287      -6.54576451       2.58071121
C       -0.64726322      -2.97297405      -0.64629115
C        3.13510976       2.79198386      -0.28190623
C       -0.30447301       0.39970314      -3.15386713
C        2.07990167      -0.57096814      -1.82909904
C       -2.09004395      -0.59956661       2.20174399
C       -2.10029153       3.77436999      -1.38741233
C        3.20384101       0.97194626       1.06150224
C       -0.24897004      -0.92198617      -2.54312347
C       -1.38641580      -5.94193108       3.73264332
C       -0.92407041      -0.08289724       2.77676098
C        0.65031986       1.54071534       2.20330984
C        1.30621727       2.55512953       1.40811941
C       -1.13781810      -6.20184602       1.30901678
C       -1.71961736      -2.08151984      -0.94717587
C        2.30207240       3.57027246      -1.10528970
C        3.64093808       0.56304040      -0.25540437
C        2.86028907      -0.56946306      -0.63094302
C       -3.12475824       0.45164290      -1.13967651
C       -1.67622789       0.85589094      -3.06678853
C        0.85851016       1.20034664      -3.12264044
C        0.55810884       3.53152370       0.65345697
C       -2.74124111       2.82585039      -0.55060108
C        0.07866027       4.41143009      -1.44074861
C        2.20419653       2.91181463      -2.36852035
C       -1.54965224       3.26304635      -2.59302661
C       -1.88980057       1.62821048       1.53747523
C        0.88898322      -1.39125002      -1.82844970
C        2.41456570      -0.06430125       1.59522335
C       -2.26502766       2.15287906      -3.13013294
C       -0.87148780       3.70542830       0.53709006
C       -2.97147401      -0.20628590       0.10849768
C       -1.93195194       2.73733819       0.64935901
