60
Properties=species:S:1:pos:R:3 trial_index=3 seed_entry_id=2 discovered_entry_id=3 energy=-485.6726379394531 status=accepted pbc="F F F"
C        1.47494323      -3.65565921      -0.61233338
C        2.23725925      -0.23526124      -2.27318867
C        2.18071758       1.76103030       1.93446730
C        2.62145466      -2.89552472      -1.07178714
C       -3.67314532       1.17430124       2.24310064
C        3.20155285       0.61768794      -0.08021088
C       -0.15682808      -3.11755865       1.37752605
C        2.97568717      -1.32973349       1.63977929
C       -3.10680903       1.18879829      -3.87468674
C        0.61166296      -1.14594600       0.29424921
C       -1.48835098       1.56459100       2.70180096
C        0.90350659       3.28067787      -0.07227059
C        0.23914700      -3.10693153      -1.01708886
C       -1.39633097       3.20220945      -0.47813872
C       -0.02343276       2.62032213      -2.27500407
C        0.62928234      -0.33987929       1.32954133
C        1.13309674       1.83008045      -2.51499665
C       -2.38919847      -0.98736426       0.81064732
C       -3.45092102      -0.09831130       0.38657667
C        2.91982213       0.77077383      -1.49496784
C       -3.95298580       1.42247834      -2.78116350
C       -1.71400739      -1.26087184      -1.61891049
C       -0.21497206      -2.43561098       2.59574069
C       -4.33717930       0.46124731       1.29853456
C       -0.80178373      -1.16447551       2.79671983
C        0.13515267      -0.08755807       2.53035336
C       -2.83134786      -0.43357254      -1.95507509
C        2.35281172      -2.65409569       1.62591576
C       -1.62235890      -1.64681261      -0.21628774
C        2.68189214       1.77985089       0.59577772
C       -0.06896529      -0.21872141      -3.32048840
C        1.91368338      -1.60993417      -1.74958600
C       -2.05854175      -0.76819889       2.21594064
C       -2.25375281       2.57005732      -1.51763178
C        2.78873439       0.80243379       2.74536139
C       -0.49431639      -1.31828109      -2.43940822
C        1.03980104      -2.90711484       2.08671068
C       -2.44666554       0.53984653       2.67654353
C       -0.10466187       1.32480585       2.78036185
C        0.81638982       2.24067706       2.14694431
C        2.36055861      -3.20847587       0.32668611
C       -0.35162281      -2.37322217       0.09820959
C        2.10025835       2.63158381      -0.38592084
C        2.92990440      -0.69606952       0.35549148
C        1.80414149      -1.14823947      -0.37874855
C       -3.49560316       0.04460785      -3.13864394
C       -0.88985163       0.56193478      -4.05778132
C        1.15459517       0.44353283      -2.91346897
C        0.24174339       3.09380569       1.17733770
C       -3.43952837       1.75061254      -1.47088281
C       -0.09864681       3.31845733      -1.05272320
C        2.25580199       2.01448836      -1.65604964
C       -1.39186262       2.36543617      -2.64417605
C       -3.44119169       2.56399537       2.05056360
C        0.54375005      -2.15622358      -2.03880111
C        3.13997247      -0.40649269       2.67885691
C       -1.72000690       1.56841244      -3.75962408
C       -1.18980709       3.17909237       0.95595873
C       -3.32865370       0.40457509      -0.93092699
C       -2.05707226       2.67487064       1.97026992
