60
Properties=species:S:1:pos:R:3 trial_index=32 seed_entry_id=20 discovered_entry_id=23 energy=-496.94232177734375 status=accepted pbc="F F F"
C        2.36999204      -3.61218518      -0.04497539
C        2.59678890       0.53980299      -2.44377437
C        2.02275592       1.27860566       1.25122062
C        3.52378749      -2.07781084       0.59692143
C       -4.50210876       0.59683700       2.13941813
C        3.67118601       1.37225446      -0.60162113
C       -1.47010603      -4.61955643       4.05363532
C        3.05223902      -0.56450690      -1.67403866
C       -3.00939171       1.53442489      -3.89215916
C        0.39346185      -2.91772361       0.80082395
C       -1.62577579       1.05044854       1.94174167
C        0.89476594       3.57171015      -0.08689242
C        1.03902785      -3.20805383      -0.42860376
C       -1.37569298       3.70745812      -0.50689374
C       -0.04514690       3.06751922      -2.26345192
C        1.33436546      -1.01804480       2.06867031
C        1.11685270       2.30865693      -2.52879579
C       -2.59143393      -0.87366563       0.79524642
C       -3.52349687      -0.16256418       0.05286418
C        3.26149273       1.70234105      -1.93740049
C       -3.85305111       1.28611818      -1.82199991
C       -1.24605672      -1.35221119      -1.17426537
C       -1.26155150      -2.53141980       2.46834588
C       -4.16301811       0.89710361       0.79766752
C       -1.14390344      -1.14286372       2.74245092
C        0.07328155      -0.45373030       2.48082088
C       -2.06589449      -0.39848769      -1.88317021
C        1.40743670      -2.38609495       1.66258448
C       -1.63514982      -1.70921097       0.15856700
C        2.76588567       2.02275262       0.27481626
C        0.13837820      -0.06028182      -2.54914302
C        2.53450446      -1.86807559      -1.55278000
C       -2.27856281      -0.30234430       2.20571500
C       -2.21531926       3.04751837      -1.45584413
C        2.33111772      -0.12406183       1.49138879
C        0.08679226      -1.27852682      -1.73347009
C       -1.33753399      -3.61980513       3.31029217
C       -3.62052390      -0.01314996       2.81107310
C       -0.23477863       0.88621395       2.12979548
C        0.72267867       1.78061027       1.59489916
C        2.62739004      -2.95560076       1.21952996
C       -0.94339523      -2.58085928       1.03467231
C        2.12981894       3.05333263      -0.48395305
C        3.68224777      -0.03109959      -0.51432372
C        3.28510613      -2.70582758      -0.67588690
C       -4.06311516       1.45624157      -3.20129235
C       -1.23919387       0.32611580      -2.78597841
C        1.23081027       0.86875648      -2.69886611
C        0.19838844       2.94525737       0.98244082
C       -3.32569800       2.32304666      -0.97662315
C       -0.07507872       3.86460046      -1.08495428
C        2.31339103       2.74813014      -1.86699752
C       -1.38595271       2.66612268      -2.56125620
C       -3.38392134       2.04665328       0.45110747
C        1.16938651      -2.15034451      -1.36868269
C        3.37647417      -0.69011253       0.70373086
C       -1.69562072       1.54470815      -3.39406711
C       -1.20472852       3.09443052       0.75399177
C       -3.28252440       0.05595148      -1.33843114
C       -2.15514334       2.12562177       1.19116525
