115
Lattice="13.75323 0.0 0.0 0.0 13.75323 0.0 0.0 0.0 23.89" Properties=species:S:1:pos:R:3 trial_index=12 seed_entry_id=9 discovered_entry_id=10 energy=-572.74609375 status=accepted pbc="T T F"
Pd       0.00000000       0.00000000      10.00000000
Pd       2.75064538       0.00000000      10.00000000
Pd       5.50129076       0.00000000      10.00000000
Pd       8.25193614       0.00000000      10.00000000
Pd      11.00258152       0.00000000      10.00000000
Pd       0.00000000       2.75064538      10.00000000
Pd       2.75064538       2.75064538      10.00000000
Pd       5.50129076       2.75064538      10.00000000
Pd       8.25193614       2.75064538      10.00000000
Pd      11.00258152       2.75064538      10.00000000
Pd       0.00000000       5.50129076      10.00000000
Pd       2.75064538       5.50129076      10.00000000
Pd       5.50129076       5.50129076      10.00000000
Pd       8.25193614       5.50129076      10.00000000
Pd      11.00258152       5.50129076      10.00000000
Pd       0.00000000       8.25193614      10.00000000
Pd       2.75064538       8.25193614      10.00000000
Pd       5.50129076       8.25193614      10.00000000
Pd       8.25193614       8.25193614      10.00000000
Pd      11.00258152       8.25193614      10.00000000
Pd       0.00000000      11.00258152      10.00000000
Pd       2.75064538      11.00258152      10.00000000
Pd       5.50129076      11.00258152      10.00000000
Pd       8.25193614      11.00258152      10.00000000
Pd      11.00258152      11.00258152      10.00000000
Pd       1.33305437       1.38035701      12.05221797
Pd       4.08925664       1.38750338      11.98771029
Pd       6.82888190       1.38154444      11.99332965
Pd       9.57512057       1.39592898      11.89594876
Pd      12.38684272       1.37174114      11.92044161
Pd       1.37065655       4.09970544      12.00656864
Pd       4.10125007       4.12393621      12.00820233
Pd       6.82444734       4.12497179      12.00908219
Pd       9.56728621       4.13975942      11.94281254
Pd      12.36578195       4.13265160      11.93417299
Pd       1.37110082       6.89256210      11.94010419
Pd       4.13935064       6.87026939      11.96482277
Pd       6.87097415       6.85831372      11.95140951
Pd       9.64205429       6.82915781      11.94515418
Pd      12.39111484       6.85622887      11.94896407
Pd       1.35216595       9.69735034      11.99083951
Pd       4.11777592       9.66324146      11.95099537
Pd       6.89476706       9.64088005      11.95142944
Pd       9.64982872       9.59779534      11.89439304
Pd      12.42487279       9.60955999      11.94161946
Pd       1.35802606      12.41462245      12.04582394
Pd       4.10624816      12.40887780      12.00662317
Pd       6.86816975      12.39901143      11.97280504
Pd       9.63028672      12.36702810      11.91406436
Pd      12.41879361      12.34804731      11.97632258
Pd      13.70707299      13.68570935      14.14723035
Pd       2.74950465      13.73557141      14.11530642
Pd       5.57704175      13.74638814      13.98897523
Pd       8.38426293       0.08282890      14.18411236
Pd      11.01511116      13.71602939      13.75471692
Pd      13.65028930       2.66034764      14.00168800
Pd       2.67205227       2.83665379      14.00124027
Pd       5.49174349       2.75202919      14.01684792
Pd       8.20509017       2.77521524      14.00502952
Pd      10.90800617       2.67690521      13.92413153
Pd      13.67186177       5.47290742      14.06246590
Pd       2.63002328       5.62645583      14.04663561
Pd       5.42940485       5.46063332      14.04361268
Pd       8.22006096       5.50665635      13.96282976
Pd      10.93806054       5.45336257      13.92340878
Pd       0.00335306       8.21812851      13.92735332
Pd       2.80290404       8.32429790      13.94221293
Pd       5.57629364       8.35041927      13.96522943
Pd       8.34389840       8.27605941      13.98379217
Pd      11.05717795       8.25459864      13.91148440
Pd      13.74918435      10.91699786      14.13046166
Pd       2.76407505      11.03796706      13.94822016
Pd       5.46755546      11.03486678      13.90614136
Pd       8.23301544      11.04957512      13.93095045
Pd      10.97661833      11.00766657      13.98752790
Pd      12.52226623       6.72016061      16.34650876
Pd       8.99188498       9.78790941      16.44997731
Pd       1.54983528      12.57747959      16.50230426
Pd       1.35581673       7.45239628      16.02180195
Pd      12.14000588       9.47566720      16.25115876
Pd       8.24003789       2.15489655      16.76943286
Pd       4.82140461       1.24559322      16.27104107
Pd       5.73782410       9.95033981      16.40520752
Pd       4.21214423      12.24202536      15.99734675
Pd      11.22606773       0.39050656      16.24457623
Pd       1.05076525       4.78599675      16.64897980
Pd       3.75374254       4.25508987      15.96299710
Pd      11.39815153       3.61221008      16.52709676
Pd       2.62680780       9.85328782      16.38687387
Pd       7.52015800       7.07930861      16.45664331
Pd       6.91357795      12.92731906      16.34462376
Pd      10.03520773       7.45181079      16.25325047
Pd       6.48423171       4.07277958      16.41859708
Pd       0.26523522       1.53751640      17.19538555
Pd       3.91263306       6.79809846      16.49728808
O        9.62619499       3.35284741      17.24270401
O       10.65988270      10.73311766      15.96860817
O       13.19442961      13.71083387      16.16596341
O       12.05648412       1.93634239      17.30339004
O        9.26601309       0.44914981      16.09523852
O        4.19861933       8.89348720      17.02909031
O        3.05271994       1.48555453      15.43820452
O        0.97537176       3.19314353      17.82470631
O        7.34039705      11.09207160      15.85727753
O        0.92887767      10.80501919      15.98421766
O        1.88607119       0.49655714      17.33643930
O        2.25124934       6.21313168      17.42020568
O        7.93693371       5.25072412      15.92702430
O        7.37083485       8.88179980      17.18523602
O        4.92642500       3.13278998      17.13610379
O       13.28809075       3.91194667      15.60115864
O       10.99433884       5.49913554      15.95592751
O       13.50858567       8.26415778      17.00191899
O        6.63457322       0.96272008      17.00920273
O        5.59769559       6.97374593      15.49715528
