115
Lattice="13.75323 0.0 0.0 0.0 13.75323 0.0 0.0 0.0 23.89" Properties=species:S:1:pos:R:3 trial_index=16 seed_entry_id=12 discovered_entry_id=13 energy=-573.195068359375 status=accepted pbc="T T F"
Pd       0.00000000       0.00000000      10.00000000
Pd       2.75064538       0.00000000      10.00000000
Pd       5.50129076       0.00000000      10.00000000
Pd       8.25193614       0.00000000      10.00000000
Pd      11.00258152       0.00000000      10.00000000
Pd       0.00000000       2.75064538      10.00000000
Pd       2.75064538       2.75064538      10.00000000
Pd       5.50129076       2.75064538      10.00000000
Pd       8.25193614       2.75064538      10.00000000
Pd      11.00258152       2.75064538      10.00000000
Pd       0.00000000       5.50129076      10.00000000
Pd       2.75064538       5.50129076      10.00000000
Pd       5.50129076       5.50129076      10.00000000
Pd       8.25193614       5.50129076      10.00000000
Pd      11.00258152       5.50129076      10.00000000
Pd       0.00000000       8.25193614      10.00000000
Pd       2.75064538       8.25193614      10.00000000
Pd       5.50129076       8.25193614      10.00000000
Pd       8.25193614       8.25193614      10.00000000
Pd      11.00258152       8.25193614      10.00000000
Pd       0.00000000      11.00258152      10.00000000
Pd       2.75064538      11.00258152      10.00000000
Pd       5.50129076      11.00258152      10.00000000
Pd       8.25193614      11.00258152      10.00000000
Pd      11.00258152      11.00258152      10.00000000
Pd       1.33305437       1.38035701      12.05221797
Pd       4.08925664       1.38750338      11.98771029
Pd       6.82888190       1.38154444      11.99332965
Pd       9.57512057       1.39592898      11.89594876
Pd      12.38684272       1.37174114      11.92044161
Pd       1.37065655       4.09970544      12.00656864
Pd       4.10125007       4.12393621      12.00820233
Pd       6.82444734       4.12497179      12.00908219
Pd       9.56728621       4.13975942      11.94281254
Pd      12.36578195       4.13265160      11.93417299
Pd       1.37110082       6.89256210      11.94010419
Pd       4.13935064       6.87026939      11.96482277
Pd       6.87097415       6.85831372      11.95140951
Pd       9.64205429       6.82915781      11.94515418
Pd      12.39111484       6.85622887      11.94896407
Pd       1.35216595       9.69735034      11.99083951
Pd       4.11777592       9.66324146      11.95099537
Pd       6.89476706       9.64088005      11.95142944
Pd       9.64982872       9.59779534      11.89439304
Pd      12.42487279       9.60955999      11.94161946
Pd       1.35802606      12.41462245      12.04582394
Pd       4.10624816      12.40887780      12.00662317
Pd       6.86816975      12.39901143      11.97280504
Pd       9.63028672      12.36702810      11.91406436
Pd      12.41879361      12.34804731      11.97632258
Pd      13.69014157       0.19099901      14.21232561
Pd       2.71546719       0.04305594      14.22890502
Pd       5.53288872      13.71806861      13.98848937
Pd       8.30957257       0.01605445      14.10104194
Pd      10.92225076      13.71201425      13.63656033
Pd      13.71675278       2.90262070      13.96984963
Pd       2.71116416       2.81126412      14.02657652
Pd       5.49774235       2.69255768      14.02264122
Pd       8.21824324       2.76240418      14.00897035
Pd      10.95570425       2.67120336      14.00191502
Pd       0.01069220       5.61487891      13.98651159
Pd       2.69680572       5.57506471      14.06900982
Pd       5.48965360       5.38422460      14.00453041
Pd       8.27704840       5.49540118      14.00529836
Pd      11.01843430       5.36956836      13.96201831
Pd      13.68629401       8.33041410      13.91817320
Pd       2.77436802       8.29445660      13.90270285
Pd       5.53623523       8.38343412      13.92612565
Pd       8.32395620       8.25744899      13.93822766
Pd      10.99754279       8.11319386      14.12160820
Pd      13.59902528      11.00619740      14.18406809
Pd       2.79985998      11.08442440      13.93080380
Pd       5.50777103      11.03423337      13.95918327
Pd       8.20362172      10.97876428      13.99556216
Pd      10.92361897      10.88451379      13.90863731
Pd      12.52853967       6.54686841      16.35332990
Pd       9.55610298       9.49633497      16.43765920
Pd       1.58149997      12.48168539      16.58011842
Pd       1.29408567       7.63829186      15.99755654
Pd      12.23476275       9.54211454      16.26026409
Pd       8.42092496       1.81861805      16.60964728
Pd       4.75302549       1.17537623      16.28679000
Pd       5.99716416       9.79042024      16.47458836
Pd       4.31278695      12.24972150      16.06164732
Pd      11.20784303      12.99944279      16.07492375
Pd       1.18847204       4.90687614      16.51553868
Pd       3.89590729       4.18716585      15.99243653
Pd      11.79774264       3.11819089      16.73351262
Pd       3.03762745       9.75502657      16.32628214
Pd       7.16795872       7.42425929      16.33601519
Pd       7.09696927      12.63107244      16.30328300
Pd       9.90214156       6.44116933      16.52589107
Pd       6.74053646       3.97670356      16.37716791
Pd       0.87200786       1.65507881      16.81590392
Pd       3.87299204       6.79806470      16.40931047
O        9.95214487       2.78677396      17.21357637
O       10.83139335      10.98279812      15.99365293
O       13.17764180      12.51438291      15.66283165
O       11.81954994       1.00963564      15.14045615
O        9.22434340      13.60286944      16.08832811
O        4.46693693       8.76895313      17.17098491
O        2.77685699       1.60106476      15.74014148
O       12.81861130       1.69002991      17.57444065
O        7.70190370      10.74790579      16.05342082
O        1.53350403      10.81260962      15.55653804
O        1.60029691       0.17503676      17.77412536
O        2.19107672       6.40008754      17.34313550
O        8.04004239       5.41461139      16.04688373
O        8.79698534       7.89827015      17.28061097
O        5.16470134       3.04228523      17.05711617
O        0.05153983       3.34433771      15.99166728
O       11.26447444       5.02520447      16.00586304
O       13.38688158       8.16987086      17.01711504
O        6.65991812       0.73190166      16.73640210
O        5.53865307       6.92770338      15.37224940
