115
Lattice="13.75323 0.0 0.0 0.0 13.75323 0.0 0.0 0.0 23.89" Properties=species:S:1:pos:R:3 trial_index=30 seed_entry_id=23 discovered_entry_id=24 energy=-574.0830078125 status=accepted pbc="T T F"
Pd       0.00000000       0.00000000      10.00000000
Pd       2.75064538       0.00000000      10.00000000
Pd       5.50129076       0.00000000      10.00000000
Pd       8.25193614       0.00000000      10.00000000
Pd      11.00258152       0.00000000      10.00000000
Pd       0.00000000       2.75064538      10.00000000
Pd       2.75064538       2.75064538      10.00000000
Pd       5.50129076       2.75064538      10.00000000
Pd       8.25193614       2.75064538      10.00000000
Pd      11.00258152       2.75064538      10.00000000
Pd       0.00000000       5.50129076      10.00000000
Pd       2.75064538       5.50129076      10.00000000
Pd       5.50129076       5.50129076      10.00000000
Pd       8.25193614       5.50129076      10.00000000
Pd      11.00258152       5.50129076      10.00000000
Pd       0.00000000       8.25193614      10.00000000
Pd       2.75064538       8.25193614      10.00000000
Pd       5.50129076       8.25193614      10.00000000
Pd       8.25193614       8.25193614      10.00000000
Pd      11.00258152       8.25193614      10.00000000
Pd       0.00000000      11.00258152      10.00000000
Pd       2.75064538      11.00258152      10.00000000
Pd       5.50129076      11.00258152      10.00000000
Pd       8.25193614      11.00258152      10.00000000
Pd      11.00258152      11.00258152      10.00000000
Pd       1.33305437       1.38035701      12.05221797
Pd       4.08925664       1.38750338      11.98771029
Pd       6.82888190       1.38154444      11.99332965
Pd       9.57512057       1.39592898      11.89594876
Pd      12.38684272       1.37174114      11.92044161
Pd       1.37065655       4.09970544      12.00656864
Pd       4.10125007       4.12393621      12.00820233
Pd       6.82444734       4.12497179      12.00908219
Pd       9.56728621       4.13975942      11.94281254
Pd      12.36578195       4.13265160      11.93417299
Pd       1.37110082       6.89256210      11.94010419
Pd       4.13935064       6.87026939      11.96482277
Pd       6.87097415       6.85831372      11.95140951
Pd       9.64205429       6.82915781      11.94515418
Pd      12.39111484       6.85622887      11.94896407
Pd       1.35216595       9.69735034      11.99083951
Pd       4.11777592       9.66324146      11.95099537
Pd       6.89476706       9.64088005      11.95142944
Pd       9.64982872       9.59779534      11.89439304
Pd      12.42487279       9.60955999      11.94161946
Pd       1.35802606      12.41462245      12.04582394
Pd       4.10624816      12.40887780      12.00662317
Pd       6.86816975      12.39901143      11.97280504
Pd       9.63028672      12.36702810      11.91406436
Pd      12.41879361      12.34804731      11.97632258
Pd      13.65578026       0.02878935      14.11381303
Pd       2.67832230      13.61639280      14.02044054
Pd       5.51579709       0.02520816      13.98552338
Pd       8.32168876      13.68082442      14.18277367
Pd      10.97261011       0.04029697      13.77052290
Pd      13.64026293       2.79427659      14.06398091
Pd       2.71203774       2.87625359      14.01175114
Pd       5.52812565       2.70440780      14.12065822
Pd       8.26161411       2.68389668      13.95437348
Pd      10.94763522       2.71047777      13.87387158
Pd       0.03460686       5.49651934      13.91898321
Pd       2.70373378       5.55535400      14.08533155
Pd       5.45175382       5.50468228      14.01113696
Pd       8.24691476       5.51075357      14.00847555
Pd      10.97362732       5.42362223      13.94312365
Pd      13.70163013       8.28120304      13.91111614
Pd       2.74332967       8.26721027      13.94450038
Pd       5.48322869       8.34506171      13.95087917
Pd       8.31827103       8.25099104      13.88704224
Pd      11.00120354       8.24697863      14.04993977
Pd       0.03047732      11.01777849      14.05242620
Pd       2.76608485      10.94129774      13.96983456
Pd       5.48685183      11.08105076      13.94737616
Pd       8.29274767      10.93762966      14.06244676
Pd      11.04074852      11.03231995      13.91983096
Pd      12.55628480       6.47379711      15.96710058
Pd       9.88863399      10.01535375      16.19661920
Pd       1.19264874      12.39427361      16.64860771
Pd       1.17348653       7.42991803      15.98528315
Pd      12.71636711       9.21547002      16.45365755
Pd       7.98080649       1.46924763      16.65592920
Pd       4.47488499       1.14726676      16.28863416
Pd       5.33205522       9.85955278      16.36926272
Pd       3.86271245      12.18372213      16.08213793
Pd      11.21932276      13.55124993      16.37226932
Pd       0.81514745       4.73079276      16.55698944
Pd       3.74767719       3.80431669      16.44434797
Pd      11.16509931       3.18626156      16.54448161
Pd       2.24851856       9.79333842      16.43598094
Pd       7.05940287       7.83939677      16.28065830
Pd       6.51603572      12.80318528      16.37922923
Pd       9.87664185       6.90996227      16.55476943
Pd       7.50980613       3.96665409      16.30290614
Pd       0.77508693       1.65684279      16.79709350
Pd       3.71194012       6.63729667      16.46505344
O        9.16724635       3.08059315      16.93895946
O       11.10917927      11.54971219      15.86306989
O       13.30698732      13.73093568      16.17554722
O       11.38941164       1.45680764      17.30274996
O        9.21748671      13.66968404      16.08872545
O        3.83822854       8.81339637      17.04565316
O        2.80212504       1.36140050      15.31215227
O        2.01845297       3.24764932      17.28178355
O        6.83530520      10.99935871      15.67750089
O        0.41146297      10.61408675      16.06604077
O        1.88333192       0.21721407      17.50004887
O        1.98164848       6.18868058      17.32624391
O        8.14069580       5.97883241      16.04875202
O        8.78484907       8.55251648      16.96119762
O        5.58680256       4.14862230      15.67846308
O       13.28244519       3.17043382      16.10315426
O       10.93903677       5.15803992      16.02458197
O       11.60377347       7.75867703      17.22941513
O        6.17319362       0.79184794      17.19760417
O        5.43516589       6.95956176      15.54056239
