115
Lattice="13.75323 0.0 0.0 0.0 13.75323 0.0 0.0 0.0 23.89" Properties=species:S:1:pos:R:3 trial_index=37 seed_entry_id=22 discovered_entry_id=27 energy=-574.4928588867188 status=accepted pbc="T T F"
Pd       0.00000000       0.00000000      10.00000000
Pd       2.75064538       0.00000000      10.00000000
Pd       5.50129076       0.00000000      10.00000000
Pd       8.25193614       0.00000000      10.00000000
Pd      11.00258152       0.00000000      10.00000000
Pd       0.00000000       2.75064538      10.00000000
Pd       2.75064538       2.75064538      10.00000000
Pd       5.50129076       2.75064538      10.00000000
Pd       8.25193614       2.75064538      10.00000000
Pd      11.00258152       2.75064538      10.00000000
Pd       0.00000000       5.50129076      10.00000000
Pd       2.75064538       5.50129076      10.00000000
Pd       5.50129076       5.50129076      10.00000000
Pd       8.25193614       5.50129076      10.00000000
Pd      11.00258152       5.50129076      10.00000000
Pd       0.00000000       8.25193614      10.00000000
Pd       2.75064538       8.25193614      10.00000000
Pd       5.50129076       8.25193614      10.00000000
Pd       8.25193614       8.25193614      10.00000000
Pd      11.00258152       8.25193614      10.00000000
Pd       0.00000000      11.00258152      10.00000000
Pd       2.75064538      11.00258152      10.00000000
Pd       5.50129076      11.00258152      10.00000000
Pd       8.25193614      11.00258152      10.00000000
Pd      11.00258152      11.00258152      10.00000000
Pd       1.33305437       1.38035701      12.05221797
Pd       4.08925664       1.38750338      11.98771029
Pd       6.82888190       1.38154444      11.99332965
Pd       9.57512057       1.39592898      11.89594876
Pd      12.38684272       1.37174114      11.92044161
Pd       1.37065655       4.09970544      12.00656864
Pd       4.10125007       4.12393621      12.00820233
Pd       6.82444734       4.12497179      12.00908219
Pd       9.56728621       4.13975942      11.94281254
Pd      12.36578195       4.13265160      11.93417299
Pd       1.37110082       6.89256210      11.94010419
Pd       4.13935064       6.87026939      11.96482277
Pd       6.87097415       6.85831372      11.95140951
Pd       9.64205429       6.82915781      11.94515418
Pd      12.39111484       6.85622887      11.94896407
Pd       1.35216595       9.69735034      11.99083951
Pd       4.11777592       9.66324146      11.95099537
Pd       6.89476706       9.64088005      11.95142944
Pd       9.64982872       9.59779534      11.89439304
Pd      12.42487279       9.60955999      11.94161946
Pd       1.35802606      12.41462245      12.04582394
Pd       4.10624816      12.40887780      12.00662317
Pd       6.86816975      12.39901143      11.97280504
Pd       9.63028672      12.36702810      11.91406436
Pd      12.41879361      12.34804731      11.97632258
Pd      13.64508525       0.04520949      14.14794969
Pd       2.68474104      13.66930613      14.06967686
Pd       5.52005935       0.00083848      13.96006342
Pd       8.31329834      13.66114129      14.10604240
Pd      10.97152545       0.04487026      13.77206434
Pd      13.63222221       2.79896301      14.07426343
Pd       2.71054975       2.81017999      14.03010634
Pd       5.54982604       2.71907984      14.04906010
Pd       8.27897357       2.66469623      14.00283089
Pd      10.94335068       2.71522382      13.87634508
Pd       0.02675513       5.50242299      13.91558630
Pd       2.69412029       5.52911698      14.08095948
Pd       5.44730706       5.52302893      13.98413938
Pd       8.23681874       5.47888520      14.02160712
Pd      10.96364355       5.43192173      13.94739664
Pd      13.71102473       8.28538268      13.90593406
Pd       2.74862447       8.27391953      13.94084482
Pd       5.48415129       8.34778629      13.94872834
Pd       8.31798432       8.22382686      13.89468302
Pd      11.00496825       8.24290814      14.02813467
Pd       0.03157754      11.02696949      14.03056733
Pd       2.77898314      10.97531766      13.98065691
Pd       5.49519639      11.06856188      13.95173853
Pd       8.29371957      10.90454330      14.05005089
Pd      11.03406683      11.02147340      13.90732487
Pd      12.56538074       6.55661966      15.94374771
Pd       9.87018416       9.92918945      16.17590365
Pd       1.21131917      12.43130889      16.53557012
Pd       1.19405949       7.44986100      15.98569518
Pd      12.74844623       9.25583828      16.44372556
Pd       8.71133674       1.43481172      16.78916809
Pd       4.88656781       1.22684521      16.27522728
Pd       5.32956017       9.85859172      16.37828393
Pd       3.96919837      12.26359073      16.07202703
Pd      11.11348595      13.33959221      16.34073919
Pd       0.73855339       4.73556226      16.54037986
Pd       3.69234054       3.80664985      16.40285904
Pd      11.02893392       3.31227799      16.53046586
Pd       2.29062298       9.80971947      16.42399200
Pd       7.01787659       7.81059181      16.28321956
Pd       6.68783424      12.81643687      16.35497584
Pd       9.84516075       6.93019510      16.55854566
Pd       7.40067057       3.94518211      16.32418659
Pd       0.67319381       1.66871751      16.73497648
Pd       3.68834368       6.61199274      16.46794298
O        9.04768271       3.36246965      17.19912212
O       11.20051717      11.38430853      15.88918268
O       13.16076525      13.73932513      16.19798606
O       10.71453725       1.40968516      17.03542211
O        8.99216033      13.31925098      16.11449078
O        3.84789840       8.80483667      17.06080416
O        3.15789696       1.36225184      15.38478926
O        1.94827962       3.24292889      17.20632555
O        6.83821538      10.97861257      15.68300224
O        0.45931553      10.62360130      16.03176769
O        1.82100706       0.26405094      17.39058779
O        1.94842249       6.16572038      17.31622613
O        8.11151199       5.95551654      16.04961961
O        8.72005745       8.53312588      16.98436708
O        5.52929109       4.15297736      15.61559214
O       13.15961892       3.17626439      16.10414201
O       10.95967532       5.25702766      16.04899346
O       11.58077106       7.82393875      17.21058960
O        6.66272962       0.89538226      17.07712900
O        5.40120385       6.94779183      15.53095276
