60
Properties=species:S:1:pos:R:3 system=runs/20260728-safe-lbfgs-strict-quench-200-production/output-c60-seed42 state_id=plateau_accepted pbc="F F F"
C        1.90649240       2.43740546       0.67351170
C       -1.76305834       2.30368447       1.40625470
C       -1.28849935      -0.57256392       2.16832691
C        0.17891541      -2.08328684      -3.10902894
C        2.36907130      -2.05614074      -2.00199841
C       -0.72874634       0.55269355       2.86761676
C        2.78154771       1.35988402       0.96823798
C        2.04321008       2.16165477       3.02285169
C       -2.53423274      -2.74516838      -1.00519396
C       -0.81479207      -1.36445899      -3.83273603
C        0.89289091      -2.74504220      -0.01517109
C       -2.86948233      -1.84750336       1.06183594
C        1.13155644       2.58665478      -0.53623373
C       -1.93785497      -2.62219350      -2.27421937
C       -3.42449131      -0.39560170      -0.64732213
C        1.70944081      -0.07095130       2.57082982
C       -3.03584447       0.37440457       0.51937647
C        0.46390099       0.69380750      -3.60482075
C        1.56097306      -0.06785901      -3.06164591
C        0.12720730       3.40096176       2.12801164
C       -1.97559734       0.59519347      -3.81289322
C       -0.91923696       2.46697557      -2.61700162
C        3.44640246      -1.27645421      -1.45337275
C        3.12476564       0.24846860       0.18347865
C        2.93893534      -1.02759145       0.78279599
C        1.81503442      -1.16193739       1.65613787
C       -2.08235940       1.81221262      -3.13114690
C        2.59191320       1.03376276       2.34390000
C        0.35243934       1.89917557      -2.81957548
C       -1.36372747       1.82917445       2.72132149
C       -2.46521885       2.28426584      -0.88718821
C       -0.70744451       3.19008633       1.00053250
C        3.27148292      -2.00375260      -0.17668320
C       -2.11271410      -1.63476938      -3.25840960
C        0.61825963       0.49714795       3.33195246
C       -1.22562598       2.89182118      -1.29023266
C        3.15343122       0.09169543      -1.21941965
C        2.12300456      -2.65918664      -0.71557211
C        0.72575251      -2.00462323       1.23275539
C       -0.63454801      -1.81020693       1.71857856
C        1.44313660       2.95221970       1.97524130
C        1.38008565       1.90133003      -1.79577793
C       -2.58440625      -0.53851943       1.52959682
C        0.23359755       2.54915483       4.47809695
C       -0.64957721       3.49020448       4.72757483
C       -2.99415688       1.60027632      -2.02001904
C       -1.50343145      -3.21162412      -0.10593437
C       -2.58668885       1.71874764       0.41372692
C       -1.67349424      -2.61227512       1.14584295
C       -0.69762227       0.02802132      -4.09003137
C       -3.30890078      -1.78373979      -0.30441748
C       -0.64454121       2.98100762       3.30510525
C       -2.79003226      -0.39976112      -3.13571133
C        1.45224744      -1.47881300      -2.89803521
C       -0.20986963       3.10152995      -0.33010739
C        1.15394512       1.65293686       4.00766167
C       -3.33189880       0.19615778      -1.94368599
C       -0.24758344      -3.17301468      -0.76072667
C        2.22423694       0.72724605      -2.06157380
C       -0.51253681      -2.88472785      -2.14257214
