60
Properties=species:S:1:pos:R:3 source_escape=runs/20260728-block-krylov-fixed-starter-escape/output/cases/plateau_accepted-seed44-deep_refinement/escape.xyz pbc="F F F"
C        1.39519940       2.23723428       1.81754819
C       -2.23222352       1.84893791       1.34435453
C       -2.00042388      -1.29887519       1.37815392
C        1.34573647      -1.34892475      -3.21079233
C        2.99709456      -1.60428499      -1.41250623
C       -2.31390036       0.96011241       2.48227839
C        2.04407804       1.01948013       2.16212830
C        0.43138357       1.42160793       3.77371658
C       -1.86392634      -2.49541365      -2.43824811
C        0.60793654      -0.46653012      -4.05139292
C        0.98825815      -2.77256396      -0.30524273
C       -2.97853089      -2.17286097      -0.48332667
C        1.06086702       2.64616722       0.48376737
C       -0.87440997      -2.06075432      -3.33580884
C       -2.96502564      -0.29327523      -1.81765192
C        0.60755475      -0.77754381       2.95957441
C       -3.04057315       0.14455589      -0.42475494
C        1.55860497       1.45482687      -2.92335022
C        2.45253471       0.58664201      -2.21982864
C       -0.68009480       3.32107687       2.68562525
C       -0.64474936       1.43721181      -3.99236681
C       -0.18753622       2.96680107      -2.12245161
C        3.75352136      -1.00890427      -0.34982660
C        2.73221893       0.10598438       1.34961170
C        2.45437999      -1.27697268       1.54437362
C        1.12005285      -1.63636083       1.91990402
C       -1.07128123       2.43404750      -3.10645271
C        1.31316852       0.43332821       3.22621270
C        1.12210280       2.45967786      -2.00865860
C       -1.79460403      -0.40264635       2.42596379
C       -2.15769700       2.30790383      -1.06060575
C       -1.22857601       2.89987212       1.43999828
C        3.18669545      -1.99295132       0.57692517
C       -0.78132515      -0.85945453      -4.05615771
C       -0.73143923      -0.48400240       3.34441829
C       -0.93959832       3.03633638      -0.91384833
C        3.28483952       0.29148450       0.06115278
C        2.37030025      -2.50647557      -0.47538965
C        0.33215269      -2.38289901       0.94365271
C       -1.12570528      -2.36522036       0.91771635
C        0.47867212       2.54100234       2.90496672
C        1.75381779       2.24121829      -0.72279170
C       -2.98091674      -1.04477910       0.37169056
C       -2.00434736       1.42756127       3.80339299
C       -2.22560197       2.73381908       4.22300106
C       -2.23455458       1.93835604      -2.42546807
C       -1.17674341      -3.20012616      -1.38004319
C       -2.62817944       1.46200815      -0.00988244
C       -1.83089021      -2.96413519      -0.17079296
C        0.69372052       0.94448024      -3.91538120
C       -2.89869026      -1.72544019      -1.84036349
C       -1.55365854       3.69449037       3.72983164
C       -1.55926464       0.30939193      -3.88850694
C        2.40859777      -0.82249586      -2.42257084
C       -0.31429440       3.05454819       0.33561969
C       -0.77935526       0.76965173       4.08034109
C       -2.48479522       0.59495303      -2.82008557
C        0.22114509      -2.98936223      -1.49371397
C        2.68861178       1.12586941      -0.90547577
C        0.43094538      -2.35762957      -2.76724896
