60
Properties=species:S:1:pos:R:3 trajectory=trial0001_proposal001_step007_proposal_relax trajectory_step=0 pbc="F F F"
C        0.28936052       0.79649491       3.00265337
C       -2.62488359       0.42923540       1.44911240
C       -1.70255317      -2.22851340      -0.13345390
C        2.18696820       0.66150963      -2.81746298
C        3.43650002      -0.38635481      -0.98925408
C       -0.09621844       0.88908769      -0.72425079
C        1.01052993      -0.40500627       2.83633137
C       -1.06728831      -0.90101709       3.65989049
C       -0.74160399      -1.01930712      -3.75229028
C        1.42120810       1.78565334      -3.24800007
C        1.67627778      -2.21711809      -1.43652389
C       -2.23539576      -1.99049172      -2.34014041
C        0.13287300       1.61330756       1.77388269
C        0.26611065      -0.06144175      -3.94448441
C       -2.39916916       0.31045213      -2.39276441
C       -0.23233113      -2.12477442       1.76621924
C       -2.77365721      -0.11357540      -1.05890189
C        1.63475960       2.84966879      -1.08380422
C        2.53447437       1.82177272      -0.68893240
C       -2.09996721       1.20341723       3.72164442
C       -0.22728782       3.16962977      -2.60998461
C       -0.52465317       3.47905055      -0.19775320
C        3.71672575      -0.42303090       0.40416270
C        2.08154849      -0.57416748       1.95203289
C        2.14429766      -1.82994840       1.30761891
C        0.91248001      -2.41419433       0.92032165
C       -1.02501934       3.41784192      -1.50740696
C        0.05099307      -1.43214649       2.95486433
C        0.84202117       3.20992858       0.03763853
C       -0.05924468       0.78807281       0.53654059
C       -2.40965633       2.13809901      -0.23845239
C       -2.23090458       1.50078825       2.35490353
C        3.25470756      -1.80358005       0.43672114
C        0.20628936       1.32803716      -3.86451357
C       -1.52318974      -1.86289549       1.20428259
C       -1.53127414       2.87712665       0.60753080
C        2.85283894       0.37144149       1.23185366
C        2.91312956      -1.72656677      -0.94835806
C        0.70605270      -2.67330833      -0.47522820
C       -0.65108743      -2.81668053      -0.89881286
C       -0.87812887       0.48168713       3.77286462
C        1.26737065       2.39482177       1.14949631
C       -2.58978377      -1.54903552      -1.01849441
C       -2.40376222      -1.20883733       3.27352631
C       -3.35153674      -0.63614874       4.13692104
C       -2.12672727       2.53401787      -1.54703009
C       -0.10988424      -2.15799806      -3.13714738
C       -2.74517694       0.79658244       0.04396948
C       -1.02414021      -2.74914948      -2.26251071
C        1.13496433       2.86799551      -2.39672264
C       -2.00901282      -0.83590319      -3.14723551
C       -3.18622797       0.60016370       4.37639982
C       -0.84727695       2.10570947      -3.36879794
C        2.87209677       0.76197464      -1.56752928
C       -1.18128753       2.32343348       1.81973373
C       -2.44319250      -0.95850437       1.87786174
C       -1.98594317       1.64012772      -2.62937030
C        1.20539138      -1.79119530      -2.71405357
C        2.41245749       1.60914459       0.71149640
C        1.48048618      -0.51182037      -3.29576199
60
Properties=species:S:1:pos:R:3 trajectory=trial0001_proposal001_step007_proposal_relax trajectory_step=1 pbc="F F F"
C        0.28934890       0.79552348       3.00393818
C       -2.62728606       0.42432634       1.45157756
C       -1.70209398      -2.22809196      -0.13484794
C        2.18605240       0.66091221      -2.81750066
C        3.43572288      -0.38482709      -0.98992657
C       -0.09646337       0.88853125      -0.72611891
C        1.01015876      -0.40042357       2.84030415
C       -1.06741996      -0.90293160       3.65697208
C       -0.74110490      -1.01831661      -3.75230809
C        1.42197740       1.78445794      -3.24828170
C        1.67705032      -2.21626141      -1.43753189
C       -2.23494978      -1.99125901      -2.34151950
C        0.13178524       1.61396537       1.77326806
C        0.26603497      -0.06168887      -3.94448064
C       -2.39849514       0.31039825      -2.39385520
C       -0.23226491      -2.12499611       1.76243240
C       -2.77358271      -0.11155266      -1.05901495
C        1.63517484       2.84880631      -1.08552646
C        2.53576276       1.82125912      -0.68903516
C       -2.10022212       1.20316665       3.72172031
C       -0.22831555       3.16990505      -2.60759154
C       -0.52183748       3.47816778      -0.19591147
C        3.71808192      -0.42444220       0.40419784
C        2.08193954      -0.57612947       1.95329043
C        2.14218472      -1.83157100       1.30651444
C        0.91094870      -2.41351387       0.91983010
C       -1.02271443       3.41903458      -1.50719890
C        0.04566634      -1.43315582       2.95534230
C        0.84010598       3.21046910       0.03770683
C       -0.05739596       0.78665400       0.54119291
C       -2.41070134       2.13793216      -0.23678375
C       -2.22980769       1.49923746       2.35431960
C        3.25445936      -1.80455448       0.43773553
C        0.20690301       1.32848337      -3.86440044
C       -1.52242028      -1.86346440       1.20268684
C       -1.52941604       2.88002600       0.60144375
C        2.85381363       0.37131364       1.23248931
C        2.91346668      -1.72723219      -0.94824996
C        0.70455378      -2.67313619      -0.47349274
C       -0.65193773      -2.81755792      -0.90018112
C       -0.87515854       0.48222529       3.77126704
C        1.26758019       2.39578696       1.15071065
C       -2.59207345      -1.54805389      -1.02021750
C       -2.40589875      -1.20896251       3.27831685
C       -3.35361549      -0.63648407       4.13515185
C       -2.12509677       2.53679544      -1.54743716
C       -0.11072141      -2.15703249      -3.13742271
C       -2.74626486       0.79793142       0.04490863
C       -1.02417877      -2.74936476      -2.26085459
C        1.13513635       2.86862079      -2.39443135
C       -2.00796385      -0.83647941      -3.14809544
C       -3.18576723       0.60173836       4.37608728
C       -0.84752278       2.10597232      -3.36909897
C        2.87235282       0.76122764      -1.56872530
C       -1.18344755       2.32377636       1.82235161
C       -2.43752730      -0.95719498       1.87813524
C       -1.98611164       1.63947835      -2.62938229
C        1.20547429      -1.79084642      -2.71459585
C        2.41360023       1.60932689       0.71040098
C        1.47988861      -0.51236216      -3.29522666
60
Properties=species:S:1:pos:R:3 trajectory=trial0001_proposal001_step007_proposal_relax trajectory_step=2 pbc="F F F"
C        0.28937914       0.79707961       3.00454033
C       -2.63026686       0.41932526       1.45391027
C       -1.70274972      -2.22705452      -0.13754389
C        2.18499792       0.65968419      -2.81756141
C        3.43506117      -0.38455189      -0.98993760
C       -0.09652049       0.88729216      -0.72259131
C        1.01017624      -0.39920673       2.84460103
C       -1.06943736      -0.90344927       3.65438193
C       -0.74062488      -1.01740974      -3.75237975
C        1.42238310       1.78442447      -3.24795377
C        1.67721055      -2.21567732      -1.43790598
C       -2.23499791      -1.99186090      -2.34300826
C        0.13060493       1.61509968       1.77373728
C        0.26626268      -0.06127609      -3.94460060
C       -2.39765141       0.31030109      -2.39500316
C       -0.23275383      -2.12448630       1.75916880
C       -2.77353643      -0.10914985      -1.05970275
C        1.63557999       2.84778856      -1.08539523
C        2.53725051       1.82092431      -0.68982026
C       -2.09936018       1.20259651       3.72167699
C       -0.22774875       3.16965229      -2.60583066
C       -0.51901718       3.47794388      -0.19576538
C        3.71939270      -0.42606970       0.40417530
C        2.08160360      -0.57786560       1.95583320
C        2.13980249      -1.83278972       1.30588541
C        0.90877852      -2.41284445       0.91858283
C       -1.02044323       3.42098637      -1.50560849
C        0.04207619      -1.43390309       2.95381505
C        0.84087634       3.21008793       0.03795685
C       -0.05511232       0.78463330       0.54135686
C       -2.41092393       2.13973385      -0.23672382
C       -2.22908937       1.49628851       2.35394218
C        3.25389846      -1.80606024       0.43843350
C        0.20755916       1.32899026      -3.86420572
C       -1.52132246      -1.86414400       1.20005559
C       -1.52736039       2.88116645       0.59963621
C        2.85529717       0.37027787       1.23334771
C        2.91428898      -1.72739419      -0.94796700
C        0.70305348      -2.67285042      -0.47315810
C       -0.65273499      -2.81857512      -0.90057665
C       -0.87377779       0.48166574       3.77015924
C        1.26796877       2.39720108       1.15172621
C       -2.59456002      -1.54705598      -1.02231509
C       -2.40795632      -1.20972855       3.28248981
C       -3.35732490      -0.63465767       4.13375155
C       -2.12382049       2.53919866      -1.54734617
C       -0.11156478      -2.15624267      -3.13719916
C       -2.74808619       0.79856589       0.04667956
C       -1.02397757      -2.74930460      -2.26076378
C        1.13484126       2.86827052      -2.39361018
C       -2.00692535      -0.83691088      -3.14917389
C       -3.18553608       0.60230335       4.37544896
C       -0.84753311       2.10650694      -3.36912914
C        2.87264708       0.76081528      -1.57018038
C       -1.18641071       2.32610126       1.82205361
C       -2.42981154      -0.95664607       1.88031530
C       -1.98579889       1.63997310      -2.62926528
C        1.20527280      -1.79069084      -2.71521820
C        2.41484321       1.60935813       0.70963961
C        1.47907579      -0.51281729      -3.29481274
60
Properties=species:S:1:pos:R:3 trajectory=trial0001_proposal001_step007_proposal_relax trajectory_step=3 pbc="F F F"
C        0.29005388       0.80093597       3.00581392
C       -2.63517456       0.41327969       1.45670528
C       -1.70612405      -2.22419320      -0.14357294
C        2.18325680       0.65770824      -2.81757113
C        3.43457542      -0.38578063      -0.98915750
C       -0.09675384       0.88439080      -0.72137083
C        1.00997071      -0.40215889       2.85135805
C       -1.07397068      -0.90296615       3.65082657
C       -0.73960693      -1.01631027      -3.75297544
C        1.42281389       1.78456914      -3.24720353
C        1.67643572      -2.21506164      -1.43769887
C       -2.23631284      -1.99207403      -2.34625209
C        0.12838533       1.61797547       1.77417241
C        0.26681091      -0.05962271      -3.94516529
C       -2.39560668       0.31187910      -2.39669510
C       -0.23459630      -2.12280099       1.75430856
C       -2.77387239      -0.10555449      -1.06167619
C        1.63703091       2.84570439      -1.08434180
C        2.54007445       1.82049720      -0.69148136
C       -2.09637117       1.20129750       3.72147280
C       -0.22550499       3.16903288      -2.60373613
C       -0.51389760       3.47877594      -0.19524136
C        3.72069153      -0.42951897       0.40510526
C        2.08150058      -0.58039172       1.96121860
C        2.13577793      -1.83331888       1.30589630
C        0.90516056      -2.41165585       0.91496385
C       -1.01696784       3.42468270      -1.50415921
C        0.03873993      -1.43299545       2.94900861
C        0.84638565       3.20868310       0.03882624
C       -0.04985572       0.78055787       0.55065572
C       -2.41055425       2.14321093      -0.23629170
C       -2.22909080       1.48989275       2.35330293
C        3.25206049      -1.80943954       0.43964156
C        0.20827408       1.33038770      -3.86411625
C       -1.51976719      -1.86452619       1.19434990
C       -1.52505732       2.88245793       0.59914637
C        2.85742892       0.36722661       1.23567527
C        2.91476597      -1.72800144      -0.94782703
C        0.70100817      -2.67214675      -0.47597474
C       -0.65514678      -2.82021720      -0.90172112
C       -0.87490774       0.48036957       3.76951606
C        1.27015167       2.39907785       1.15360537
C       -2.59869831      -1.54514409      -1.02689913
C       -2.41182616      -1.21273826       3.28733980
C       -3.36733637      -0.63096709       4.13093636
C       -2.12177944       2.54297893      -1.54686531
C       -0.11182894      -2.15475419      -3.13670321
C       -2.75222717       0.79987599       0.04884121
C       -1.02421730      -2.74923930      -2.26260304
C        1.13548754       2.86638058      -2.39213637
C       -2.00608147      -0.83660248      -3.15107068
C       -3.18483182       0.60540684       4.37403205
C       -0.84656580       2.10826823      -3.36830567
C        2.87387053       0.75965002      -1.57236068
C       -1.19068763       2.32874255       1.82123271
C       -2.41526424      -0.95839283       1.88710844
C       -1.98412583       1.64312789      -2.62875262
C        1.20448391      -1.79137319      -2.71550294
C        2.41741660       1.60765507       0.71022950
C        1.47744482      -0.51317027      -3.29481317
60
Properties=species:S:1:pos:R:3 trajectory=trial0001_proposal001_step007_proposal_relax trajectory_step=4 pbc="F F F"
C        0.29038900       0.80015646       3.00822766
C       -2.63594664       0.41236869       1.45671612
C       -1.70809007      -2.22291686      -0.14575146
C        2.18305964       0.65731841      -2.81738180
C        3.43489817      -0.38713882      -0.98839248
C       -0.09641555       0.88212845      -0.71235689
C        1.00961242      -0.40279796       2.85267062
C       -1.07476065      -0.90310564       3.64986688
C       -0.73927471      -1.01596976      -3.75355983
C        1.42312893       1.78400329      -3.24704147
C        1.67565081      -2.21495640      -1.43802858
C       -2.23752641      -1.99135775      -2.34853115
C        0.12878896       1.61970623       1.77598446
C        0.26664281      -0.05898782      -3.94568692
C       -2.39440397       0.31415682      -2.39701848
C       -0.23499313      -2.12229494       1.75196788
C       -2.77455929      -0.10440841      -1.06295333
C        1.63904123       2.84442127      -1.08414334
C        2.54175538       1.81929244      -0.69082951
C       -2.09600756       1.20129619       3.72125249
C       -0.22375619       3.16933078      -2.60347539
C       -0.51174772       3.47938329      -0.19430317
C        3.72009165      -0.43165541       0.40629902
C        2.08222184      -0.58154399       1.96353876
C        2.13428550      -1.83305568       1.30602326
C        0.90446429      -2.41075620       0.91299473
C       -1.01576514       3.42610198      -1.50407626
C        0.03707520      -1.43147090       2.94704981
C        0.84909595       3.20860482       0.03941000
C       -0.04772571       0.77862587       0.54755788
C       -2.41009022       2.14362892      -0.23561663
C       -2.22951672       1.48805885       2.35278213
C        3.25065620      -1.81084112       0.44008543
C        0.20825686       1.33139804      -3.86438843
C       -1.51975235      -1.86373243       1.19239815
C       -1.52479807       2.88344101       0.59917708
C        2.85761339       0.36562854       1.23735381
C        2.91382420      -1.72900337      -0.94759464
C        0.69986396      -2.67191638      -0.47816972
C       -0.65718858      -2.82037454      -0.90395758
C       -0.87507344       0.48044691       3.76954956
C        1.27246677       2.39846142       1.15459100
C       -2.60032630      -1.54395805      -1.02945005
C       -2.41403500      -1.21469182       3.28886947
C       -3.37268662      -0.62791956       4.12909791
C       -2.12095143       2.54458334      -1.54615231
C       -0.11160717      -2.15425280      -3.13684306
C       -2.75397175       0.80057765       0.04830908
C       -1.02547109      -2.74928765      -2.26439089
C        1.13677175       2.86529798      -2.39108493
C       -2.00624562      -0.83512815      -3.15200721
C       -3.18494206       0.60624465       4.37295089
C       -0.84523419       2.10963262      -3.36756004
C        2.87502866       0.75858106      -1.57238283
C       -1.19151152       2.32733213       1.82219712
C       -2.41197291      -0.95936392       1.88896166
C       -1.98301941       1.64524906      -2.62841043
C        1.20436202      -1.79151075      -2.71533019
C        2.41874630       1.60567294       0.71119047
C        1.47702203      -0.51317023      -3.29515712
60
Properties=species:S:1:pos:R:3 trajectory=trial0001_proposal001_step007_proposal_relax trajectory_step=5 pbc="F F F"
C        0.29057155       0.79961308       3.00896668
C       -2.63530707       0.41316993       1.45579965
C       -1.70871752      -2.22269830      -0.14597043
C        2.18348560       0.65731659      -2.81719300
C        3.43524214      -0.38810817      -0.98788531
C       -0.09632217       0.88147717      -0.71163162
C        1.00965234      -0.40321512       2.85175799
C       -1.07499429      -0.90297159       3.65039180
C       -0.73944337      -1.01598059      -3.75379807
C        1.42325704       1.78389467      -3.24697299
C        1.67516960      -2.21517032      -1.43825305
C       -2.23818510      -1.99061744      -2.34937421
C        0.12978141       1.61940205       1.77707327
C        0.26647395      -0.05882924      -3.94595513
C       -2.39408593       0.31517470      -2.39685197
C       -0.23490745      -2.12212640       1.75184003
C       -2.77500966      -0.10433748      -1.06351262
C        1.64012181       2.84409158      -1.08367431
C        2.54232708       1.81843441      -0.69006277
C       -2.09633527       1.20162500       3.72115215
C       -0.22277721       3.16982216      -2.60372593
C       -0.51170626       3.47966774      -0.19424188
C        3.71933285      -0.43226001       0.40680755
C        2.08244464      -0.58160146       1.96407517
C        2.13430229      -1.83286901       1.30612576
C        0.90469692      -2.41044797       0.91236715
C       -1.01562014       3.42627242      -1.50387196
C        0.03723437      -1.43098122       2.94636123
C        0.85004030       3.20864107       0.03972839
C       -0.04732124       0.77844961       0.54923668
C       -2.40967355       2.14353848      -0.23577938
C       -2.22983443       1.48830066       2.35268944
C        3.25007207      -1.81109592       0.43998208
C        0.20821202       1.33154381      -3.86467191
C       -1.52010907      -1.86318189       1.19230877
C       -1.52491059       2.88314264       0.60078645
C        2.85742190       0.36509296       1.23794519
C        2.91321842      -1.72943564      -0.94736433
C        0.69938853      -2.67195658      -0.47909807
C       -0.65788476      -2.81996742      -0.90485483
C       -0.87551529       0.48038728       3.77016052
C        1.27345485       2.39772162       1.15482089
C       -2.60038914      -1.54364689      -1.03001309
C       -2.41443690      -1.21512468       3.28856921
C       -3.37390354      -0.62710596       4.12826267
C       -2.12091607       2.54462633      -1.54573176
C       -0.11159846      -2.15435933      -3.13707912
C       -2.75416380       0.80042356       0.04769057
C       -1.02633717      -2.74919294      -2.26568319
C        1.13747164       2.86482715      -2.39115546
C       -2.00644434      -0.83406548      -3.15230215
C       -3.18525927       0.60641827       4.37257976
C       -0.84463370       2.11021764      -3.36731057
C        2.87553450       0.75813317      -1.57177728
C       -1.19090780       2.32628878       1.82198440
C       -2.41375731      -0.95938400       1.88854803
C       -1.98258931       1.64615438      -2.62822680
C        1.20436953      -1.79130630      -2.71539390
C        2.41897560       1.60476707       0.71183890
C        1.47719099      -0.51303588      -3.29538611
60
Properties=species:S:1:pos:R:3 trajectory=trial0001_proposal001_step007_proposal_relax trajectory_step=6 pbc="F F F"
C        0.29193558       0.79846703       3.01397299
C       -2.63395054       0.41424530       1.45213148
C       -1.71263838      -2.22052297      -0.14957957
C        2.18560853       0.65622717      -2.81584822
C        3.43654669      -0.39339963      -0.98517712
C       -0.09572720       0.87668987      -0.70393065
C        1.00895370      -0.40533653       2.85058563
C       -1.07821499      -0.90313653       3.65116764
C       -0.73994636      -1.01474460      -3.75547778
C        1.42497948       1.78255166      -3.24645264
C        1.67250078      -2.21610615      -1.44017381
C       -2.24243449      -1.98604131      -2.35565091
C        0.13530858       1.61805491       1.78422842
C        0.26610404      -0.05770652      -3.94761575
C       -2.39168419       0.32091030      -2.39733868
C       -0.23569253      -2.12031537       1.74833047
C       -2.77779875      -0.10198794      -1.06732689
C        1.64671340       2.84127707      -1.08085334
C        2.54677045       1.81306896      -0.68612186
C       -2.09743467       1.20314382       3.72056689
C       -0.21742856       3.17315697      -2.60249007
C       -0.50889769       3.48028362      -0.19175498
C        3.71623836      -0.43706053       0.40986661
C        2.08381803      -0.58372335       1.96837792
C        2.13235315      -1.83347522       1.30630245
C        0.90364623      -2.40816522       0.90766172
C       -1.01220815       3.42844379      -1.50204375
C        0.03521217      -1.42871799       2.94173510
C        0.85580263       3.20778557       0.04201334
C       -0.04324313       0.77596869       0.55963435
C       -2.40733814       2.14396470      -0.23518432
C       -2.23073838       1.48804167       2.35175466
C        3.24617809      -1.81423909       0.44034464
C        0.20891345       1.33271055      -3.86610225
C       -1.52220050      -1.86051758       1.18954285
C       -1.52344142       2.88268956       0.60546374
C        2.85798452       0.36097213       1.24221871
C        2.91001407      -1.73263473      -0.94628116
C        0.69508783      -2.67187688      -0.48407143
C       -0.66286351      -2.81799070      -0.91055828
C       -0.87781397       0.47940658       3.77342214
C        1.27885818       2.39451931       1.15728648
C       -2.60273961      -1.54098891      -1.03498923
C       -2.41854739      -1.21691314       3.28844723
C       -3.38328840      -0.62282910       4.12128019
C       -2.11870766       2.54755545      -1.54377632
C       -0.11256611      -2.15372210      -3.13947494
C       -2.75591528       0.80083244       0.04507536
C       -1.03179110      -2.74856082      -2.27268436
C        1.14248997       2.86231640      -2.38961918
C       -2.00669801      -0.82775423      -3.15508697
C       -3.18753765       0.60939410       4.36997898
C       -0.84124679       2.11439374      -3.36607189
C        2.87895303       0.75421834      -1.56915747
C       -1.18799108       2.32121760       1.82223092
C       -2.41993235      -0.95939248       1.88735637
C       -1.97963986       1.65195936      -2.62713737
C        1.20361510      -1.79011552      -2.71678919
C        2.42157552       1.59934684       0.71542038
C        1.47758210      -0.51227550      -3.29653014
60
Properties=species:S:1:pos:R:3 trajectory=trial0001_proposal001_step007_proposal_relax trajectory_step=7 pbc="F F F"
C        0.29375254       0.79660473       3.02284074
C       -2.63421388       0.41446816       1.44929035
C       -1.71735140      -2.21702070      -0.15511235
C        2.18826847       0.65386526      -2.81419394
C        3.43752103      -0.40007833      -0.98203320
C       -0.09490430       0.87089492      -0.69290998
C        1.00760434      -0.40700597       2.85237544
C       -1.08259138      -0.90433164       3.64980447
C       -0.74008606      -1.01141981      -3.75834869
C        1.42829423       1.78109426      -3.24482864
C        1.66895544      -2.21731125      -1.44347400
C       -2.24739764      -1.98038891      -2.36332625
C        0.14122531       1.61736904       1.79203153
C        0.26690197      -0.05577478      -3.94976082
C       -2.38911842       0.32795668      -2.39935120
C       -0.23903135      -2.11708154       1.74242580
C       -2.78096518      -0.09810658      -1.07193454
C        1.65423937       2.83709825      -1.07714881
C        2.55219752       1.80675529      -0.68170961
C       -2.09874267       1.20430331       3.72009196
C       -0.20947628       3.17649028      -2.59985822
C       -0.50286666       3.47995003      -0.18811987
C        3.71453582      -0.44401182       0.41293512
C        2.08419722      -0.58826730       1.97362638
C        2.12838534      -1.83618568       1.30649182
C        0.89949133      -2.40552102       0.90224576
C       -1.00636406       3.43182716      -1.49740016
C        0.02973084      -1.42706648       2.93750228
C        0.86182369       3.20486289       0.04590109
C       -0.03781075       0.77229913       0.57264401
C       -2.40421871       2.14583403      -0.23486372
C       -2.22988321       1.48739541       2.35010713
C        3.24193622      -1.81929756       0.44103038
C        0.21068262       1.33523928      -3.86673128
C       -1.52637986      -1.85800036       1.18479981
C       -1.51890149       2.88097700       0.60951816
C        2.86024424       0.35580812       1.24764266
C        2.90668723      -1.73713967      -0.94549007
C        0.68935567      -2.67125864      -0.48948362
C       -0.66916922      -2.81555047      -0.91756682
C       -0.87960897       0.47822527       3.77659165
C        1.28469559       2.39098742       1.16135853
C       -2.60688815      -1.53695129      -1.04161652
C       -2.42463368      -1.21651683       3.28641834
C       -3.39358305      -0.61544441       4.11260107
C       -2.11468521       2.55242135      -1.54121028
C       -0.11543752      -2.15213630      -3.14359902
C       -2.75702033       0.80253360       0.04267227
C       -1.03837589      -2.74677311      -2.28035857
C        1.14850982       2.86015423      -2.38635818
C       -2.00650756      -0.82034946      -3.15919858
C       -3.19247010       0.61059996       4.36589314
C       -0.83662744       2.12001561      -3.36510500
C        2.88276064       0.74895572      -1.56664936
C       -1.18412972       2.31703260       1.82276532
C       -2.42611917      -0.96025892       1.88486044
C       -1.97588315       1.65843795      -2.62623075
C        1.20158313      -1.78929350      -2.71942685
C        2.42549423       1.59351024       0.71968848
C        1.47781549      -0.51186213      -3.29770839
60
Properties=species:S:1:pos:R:3 trajectory=trial0001_proposal001_step007_proposal_relax trajectory_step=8 pbc="F F F"
C        0.29858328       0.79506898       3.04266240
C       -2.63604769       0.41537279       1.44296780
C       -1.72853776      -2.20847141      -0.16904487
C        2.19439146       0.64802608      -2.81044250
C        3.43907306      -0.41507516      -0.97582013
C       -0.09277291       0.85805420      -0.66587952
C        1.00440674      -0.41310398       2.85876264
C       -1.09569390      -0.90614176       3.64596069
C       -0.74062850      -1.00234029      -3.76590142
C        1.43697154       1.77827289      -3.23997419
C        1.66082513      -2.22037505      -1.45125540
C       -2.25842504      -1.96692731      -2.38051762
C        0.15469081       1.61508321       1.81158526
C        0.26982481      -0.04966486      -3.95478532
C       -2.38429013       0.34318848      -2.40481941
C       -0.24927528      -2.10855986       1.72941660
C       -2.78757985      -0.08788721      -1.08223531
C        1.67002776       2.82742308      -1.06738385
C        2.56412165       1.79254124      -0.67206671
C       -2.10220563       1.20616150       3.71905863
C       -0.19338625       3.18438154      -2.59068261
C       -0.48829004       3.47766835      -0.17765852
C        3.71232928      -0.46036929       0.42017070
C        2.08387321      -0.59896636       1.98463768
C        2.11829993      -1.84390830       1.30663553
C        0.88764694      -2.39994525       0.89050797
C       -0.99031092       3.43896497      -1.48898582
C        0.01700334      -1.42530794       2.92758274
C        0.87631388       3.19636847       0.05498997
C       -0.02598961       0.76336933       0.60040372
C       -2.39642851       2.15040153      -0.23280413
C       -2.22624788       1.48538187       2.34749877
C        3.23210713      -1.83229269       0.44288440
C        0.21717089       1.34102838      -3.86710417
C       -1.53747754      -1.85350067       1.17292611
C       -1.50645295       2.87719465       0.61551859
C        2.86625996       0.34274010       1.26001741
C        2.89920115      -1.74837427      -0.94449543
C        0.67564184      -2.66939243      -0.50138039
C       -0.68314870      -2.80939923      -0.93302128
C       -0.88532291       0.47439728       3.78451344
C        1.29758775       2.38289850       1.17167365
C       -2.61697782      -1.52718015      -1.05663053
C       -2.43851849      -1.21334779       3.27994497
C       -3.41549154      -0.60730362       4.09043852
C       -2.10375126       2.56418953      -1.53672218
C       -0.12284254      -2.14773199      -3.15422408
C       -2.75799961       0.80719221       0.03750683
C       -1.05313783      -2.74133751      -2.29718472
C        1.16381698       2.85533329      -2.37784459
C       -2.00604880      -0.80347585      -3.16900856
C       -3.20322796       0.62136974       4.35690872
C       -0.82593945       2.13336759      -3.36262103
C        2.89106962       0.73643657      -1.56074926
C       -1.17427085       2.30875249       1.82582559
C       -2.44167206      -0.96148734       1.87713500
C       -1.96651473       1.67424159      -2.62444947
C        1.19562624      -1.78838328      -2.72661533
C        2.43512071       1.58065740       0.72962135
C        1.47836695      -0.51171462      -3.30040121
60
Properties=species:S:1:pos:R:3 trajectory=trial0001_proposal001_step007_proposal_relax trajectory_step=9 pbc="F F F"
C        0.30260882       0.79508460       3.05735391
C       -2.63910337       0.41664841       1.43947265
C       -1.73762194      -2.20157966      -0.18159727
C        2.19892611       0.64268896      -2.80732976
C        3.43909887      -0.42610087      -0.97208557
C       -0.09067887       0.84971808      -0.64773631
C        1.00034595      -0.42058288       2.86820800
C       -1.10623794      -0.90603387       3.64006917
C       -0.74094545      -0.99231344      -3.77405464
C        1.44591374       1.77656388      -3.23402149
C        1.65463429      -2.22346899      -1.45703231
C       -2.26545883      -1.95597877      -2.39219702
C        0.16261970       1.61318965       1.82687477
C        0.27353334      -0.04400991      -3.95848303
C       -2.38260792       0.35475427      -2.41043758
C       -0.26158277      -2.10230430       1.71966535
C       -2.79025790      -0.07789097      -1.08945763
C        1.67946978       2.81926134      -1.05957344
C        2.57158017       1.78306921      -0.66544831
C       -2.10479206       1.20559890       3.71817825
C       -0.17978493       3.18818694      -2.58297735
C       -0.47506530       3.47402169      -0.16954673
C        3.71363304      -0.47469681       0.42528958
C        2.08142559      -0.60802969       1.98962687
C        2.10790763      -1.85143294       1.30596322
C        0.87477012      -2.39723295       0.88354497
C       -0.97681403       3.44343858      -1.48122798
C        0.00510021      -1.42499242       2.92280882
C        0.88727328       3.18786036       0.06329222
C       -0.01900145       0.75611378       0.61983505
C       -2.38833249       2.15471381      -0.23033106
C       -2.22028641       1.48218246       2.34603611
C        3.22416150      -1.84452632       0.44435868
C        0.22609532       1.34862179      -3.86409119
C       -1.54946860      -1.85266481       1.16245429
C       -1.49455741       2.87520308       0.61507107
C        2.87096627       0.33103861       1.26816114
C        2.89418991      -1.75781267      -0.94517906
C        0.66476477      -2.66669281      -0.50856527
C       -0.69312363      -2.80323155      -0.94380394
C       -0.89021223       0.47109523       3.78972301
C        1.30717364       2.37614013       1.18138927
C       -2.62586825      -1.51823900      -1.06786981
C       -2.44872059      -1.20833228       3.27130643
C       -3.42646617      -0.59303844       4.07842290
C       -2.09252774       2.57394955      -1.53447490
C       -0.12928402      -2.14214275      -3.16455234
C       -2.75553298       0.81274697       0.03473863
C       -1.06230966      -2.73434568      -2.30724187
C        1.17541941       2.85367699      -2.36836841
C       -2.00637990      -0.79153018      -3.17667099
C       -3.21658812       0.61953550       4.34761652
C       -0.81604075       2.14320646      -3.36015717
C        2.89556100       0.72699329      -1.55702940
C       -1.16720688       2.30571245       1.83259104
C       -2.45222061      -0.96099508       1.86778099
C       -1.95892145       1.68533885      -2.62436282
C        1.18962218      -1.79045923      -2.73358990
C        2.44390405       1.57076636       0.73762950
C        1.47874922      -0.51289893      -3.30292238
60
Properties=species:S:1:pos:R:3 trajectory=trial0001_proposal001_step007_proposal_relax trajectory_step=10 pbc="F F F"
C        0.30271991       0.79419117       3.06002518
C       -2.64088887       0.41645366       1.44056145
C       -1.73882545      -2.20053024      -0.18357686
C        2.19904839       0.64113134      -2.80701294
C        3.43822528      -0.42696007      -0.97205100
C       -0.09008300       0.84992816      -0.64601228
C        1.00000114      -0.42104576       2.87181786
C       -1.10811372      -0.90599861       3.63724497
C       -0.74108841      -0.98937242      -3.77611456
C        1.44848105       1.77742344      -3.23155400
C        1.65379908      -2.22417787      -1.45783176
C       -2.26491720      -1.95490107      -2.39228488
C        0.16133537       1.61379886       1.82676185
C        0.27530104      -0.04185959      -3.95870905
C       -2.38355641       0.35567094      -2.41225043
C       -0.26567525      -2.10191496       1.71880007
C       -2.78893889      -0.07547346      -1.08951762
C        1.67875306       2.81799538      -1.05803416
C        2.57148064       1.78279940      -0.66548604
C       -2.10572158       1.20406612       3.71867726
C       -0.17786255       3.18739769      -2.58102995
C       -0.47137564       3.47268473      -0.16913113
C        3.71589711      -0.47758893       0.42483261
C        2.07834715      -0.61042212       1.98892396
C        2.10490168      -1.85347096       1.30528008
C        0.87049618      -2.39802351       0.88433519
C       -0.97377795       3.44376121      -1.47977389
C        0.00129016      -1.42659858       2.92384847
C        0.88753895       3.18559863       0.06532341
C       -0.01962962       0.75533648       0.61867262
C       -2.38633003       2.15641710      -0.23100482
C       -2.21798710       1.48066577       2.34648266
C        3.22346345      -1.84710553       0.44427785
C        0.22918191       1.35020117      -3.86192602
C       -1.55268759      -1.85430377       1.16032516
C       -1.49109528       2.87427150       0.61501153
C        2.87204682       0.32915247       1.26779369
C        2.89451917      -1.75898968      -0.94593167
C        0.66361847      -2.66556369      -0.50771772
C       -0.69346703      -2.80190501      -0.94398405
C       -0.88994879       0.47160124       3.78910307
C        1.30738639       2.37531979       1.18348540
C       -2.62772857      -1.51628396      -1.06892251
C       -2.44999641      -1.20596680       3.26862831
C       -3.42470868      -0.59759282       4.07737805
C       -2.09023482       2.57493109      -1.53439290
C       -0.13116409      -2.14054889      -3.16658220
C       -2.75331271       0.81467964       0.03548005
C       -1.06155560      -2.73140298      -2.30680901
C        1.17624766       2.85452632      -2.36630968
C       -2.00646975      -0.79109038      -3.17782923
C       -3.21826030       0.62388947       4.34682033
C       -0.81394429       2.14378646      -3.35986237
C        2.89474925       0.72625772      -1.55719890
C       -1.16753517       2.30942990       1.83363827
C       -2.45114141      -0.96064847       1.86598423
C       -1.95796536       1.68550491      -2.62522710
C        1.18859289      -1.79202183      -2.73523302
C        2.44533638       1.57048061       0.73805866
C        1.47867619      -0.51402858      -3.30322515
60
Properties=species:S:1:pos:R:3 trajectory=trial0001_proposal001_step007_proposal_relax trajectory_step=11 pbc="F F F"
C        0.30251822       0.79355470       3.06131644
C       -2.64153769       0.41810457       1.44084881
C       -1.74076966      -2.19980984      -0.18517120
C        2.19952513       0.63966386      -2.80626468
C        3.43722834      -0.42789384      -0.97225382
C       -0.08915832       0.85098644      -0.64602835
C        0.99925305      -0.42297729       2.87442220
C       -1.11059017      -0.90484712       3.63493961
C       -0.74157305      -0.98584949      -3.77875143
C        1.45193423       1.77857369      -3.22846543
C        1.65279066      -2.22530845      -1.45835582
C       -2.26400361      -1.95292947      -2.39194714
C        0.15996685       1.61337975       1.82662967
C        0.27723009      -0.03924148      -3.95877463
C       -2.38503088       0.35667122      -2.41409603
C       -0.27075039      -2.10249354       1.71960535
C       -2.78679038      -0.07278481      -1.08929919
C        1.67775307       2.81694150      -1.05544040
C        2.57084982       1.78223940      -0.66514449
C       -2.10706064       1.20242608       3.71900943
C       -0.17660085       3.18696470      -2.57874399
C       -0.46840426       3.47103719      -0.16786264
C        3.71766640      -0.48092836       0.42458097
C        2.07444353      -0.61240408       1.98666325
C        2.10149381      -1.85538610       1.30411404
C        0.86591622      -2.39966853       0.88592168
C       -0.97030350       3.44317002      -1.47982742
C       -0.00163221      -1.42873090       2.92451646
C        0.88854317       3.18323723       0.06778141
C       -0.02175458       0.75535608       0.61622084
C       -2.38317182       2.15777330      -0.23093200
C       -2.21578502       1.47979036       2.34722748
C        3.22198265      -1.85022024       0.44391766
C        0.23358288       1.35155967      -3.85930401
C       -1.55689920      -1.85625666       1.15895758
C       -1.48792071       2.87437938       0.61450187
C        2.87226806       0.32613157       1.26663103
C        2.89419710      -1.76056986      -0.94707579
C        0.66239147      -2.66420031      -0.50658679
C       -0.69349809      -2.79942307      -0.94387045
C       -0.89046220       0.47179170       3.78889514
C        1.30759539       2.37355631       1.18585289
C       -2.62901553      -1.51402128      -1.06944256
C       -2.45043171      -1.20375648       3.26457675
C       -3.42064404      -0.60123920       4.07826722
C       -2.08737010       2.57514591      -1.53503539
C       -0.13251673      -2.13844931      -3.16925918
C       -2.74983890       0.81702003       0.03557071
C       -1.06037747      -2.72716704      -2.30625585
C        1.17826200       2.85544795      -2.36385733
C       -2.00718303      -0.78993673      -3.17906301
C       -3.22127823       0.62610156       4.34590617
C       -0.81108296       2.14395932      -3.35902117
C        2.89361575       0.72508128      -1.55641651
C       -1.16721836       2.31314412       1.83645516
C       -2.45184607      -0.95967616       1.86315684
C       -1.95645083       1.68612915      -2.62643639
C        1.18779753      -1.79391281      -2.73734953
C        2.44655758       1.56961075       0.73872995
C        1.47903545      -0.51528463      -3.30383872
60
Properties=species:S:1:pos:R:3 trajectory=trial0001_proposal001_step007_proposal_relax trajectory_step=12 pbc="F F F"
C        0.30238987       0.79252157       3.06294175
C       -2.64105543       0.41980311       1.43976468
C       -1.74417130      -2.19865724      -0.18724568
C        2.20088898       0.63799847      -2.80467779
C        3.43689475      -0.43119328      -0.97128486
C       -0.08801661       0.85080288      -0.64471949
C        0.99763134      -0.42556472       2.87553902
C       -1.11319406      -0.90435462       3.63299790
C       -0.74185654      -0.98224107      -3.78147669
C        1.45576483       1.77877421      -3.22581261
C        1.65084487      -2.22645615      -1.45949927
C       -2.26462123      -1.94915240      -2.39401576
C        0.16016285       1.61220422       1.82815509
C        0.27871082      -0.03740879      -3.95921203
C       -2.38509012       0.35998033      -2.41584359
C       -0.27539314      -2.10373359       1.71894953
C       -2.78557453      -0.06959990      -1.09067635
C        1.67986245       2.81503952      -1.05222461
C        2.57191755       1.77962084      -0.66308337
C       -2.10864123       1.20165565       3.71901828
C       -0.17197664       3.18744657      -2.57763336
C       -0.46483760       3.47039943      -0.16629473
C        3.71734712      -0.48592638       0.42531932
C        2.07165603      -0.61489193       1.98578220
C        2.09730981      -1.85721732       1.30292773
C        0.86149270      -2.40088651       0.88563736
C       -0.96673040       3.44359898      -1.47759756
C       -0.00513330      -1.42932808       2.92351458
C        0.89152425       3.18140070       0.07120710
C       -0.02253833       0.75489120       0.61708158
C       -2.37931896       2.15951092      -0.23085772
C       -2.21492294       1.47956724       2.34741171
C        3.21876250      -1.85427911       0.44351421
C        0.23755953       1.35362627      -3.85749097
C       -1.56101619      -1.85692295       1.15723422
C       -1.48519417       2.87521139       0.61632523
C        2.87189711       0.32183042       1.26686999
C        2.89246109      -1.76300502      -0.94766329
C        0.65964044      -2.66303884      -0.50740300
C       -0.69557385      -2.79628651      -0.94573996
C       -0.89197013       0.47151319       3.78980547
C        1.30964493       2.37076357       1.18867072
C       -2.63072663      -1.51094539      -1.07160584
C       -2.45241797      -1.20349574       3.26200380
C       -3.42039340      -0.60196949       4.07777032
C       -2.08378133       2.57650013      -1.53470275
C       -0.13343835      -2.13603892      -3.17238027
C       -2.74754573       0.81934527       0.03485176
C       -1.06101632      -2.72282886      -2.30809352
C        1.18166908       2.85568568      -2.36083475
C       -2.00792740      -0.78641683      -3.18141019
C       -3.22476977       0.62782309       4.34463474
C       -0.80693488       2.14520279      -3.35781619
C        2.89369826       0.72249794      -1.55464947
C       -1.16616235       2.31479173       1.83902042
C       -2.45365720      -0.95862962       1.86105667
C       -1.95396749       1.68834921      -2.62726194
C        1.18733580      -1.79485403      -2.73964490
C        2.44814853       1.56626256       0.74056622
C        1.47979735      -0.51573424      -3.30467395
60
Properties=species:S:1:pos:R:3 trajectory=trial0001_proposal001_step007_proposal_relax trajectory_step=13 pbc="F F F"
C        0.29960471       0.78671938       3.06667586
C       -2.63750967       0.42470804       1.43635827
C       -1.75631160      -2.19508180      -0.19329069
C        2.20551112       0.63280391      -2.79901088
C        3.43597891      -0.44288753      -0.96818558
C       -0.08378162       0.85106009      -0.64368900
C        0.99135810      -0.43238996       2.87554763
C       -1.12177081      -0.90329274       3.62785190
C       -0.74263318      -0.97122792      -3.78971649
C        1.46874152       1.77956424      -3.21705220
C        1.64370351      -2.22972898      -1.46347333
C       -2.26652045      -1.93549996      -2.40191440
C        0.15958827       1.60817078       1.83096573
C        0.28440839      -0.02942695      -3.96061286
C       -2.38391713       0.37151305      -2.42136180
C       -0.28963138      -2.11053002       1.71767015
C       -2.78134941      -0.05843661      -1.09558348
C        1.68866499       2.80940030      -1.04082109
C        2.57639108       1.76937084      -0.65539231
C       -2.11476578       1.19952215       3.71889953
C       -0.15928564       3.19133952      -2.57036594
C       -0.45252023       3.46991827      -0.15867569
C        3.71399665      -0.50385700       0.42845414
C        2.06132036      -0.62424523       1.98350484
C        2.08277017      -1.86330005       1.29848864
C        0.84737888      -2.40628497       0.88374630
C       -0.95142244       3.44501849      -1.47552507
C       -0.01677754      -1.43189135       2.91804926
C        0.90227794       3.17715620       0.08221534
C       -0.02592073       0.75446860       0.61864292
C       -2.36720165       2.16480869      -0.22975987
C       -2.21419692       1.48051794       2.34778287
C        3.20628504      -1.86847824       0.44219961
C        0.25131157       1.35768758      -3.85278688
C       -1.57363335      -1.85891196       1.15269537
C       -1.47758575       2.88074431       0.62395654
C        2.86921722       0.30671641       1.26745325
C        2.88533525      -1.77202268      -0.94936471
C        0.64956691      -2.65955437      -0.51115923
C       -0.70357800      -2.78539029      -0.95233549
C       -0.89612596       0.47091855       3.79176564
C        1.31642913       2.36078981       1.19786006
C       -2.63606716      -1.49990729      -1.07934746
C       -2.45934816      -1.20567632       3.25732361
C       -3.42088837      -0.60185579       4.07829855
C       -2.07136804       2.58098024      -1.53305444
C       -0.13578038      -2.12813863      -3.18182022
C       -2.74023127       0.82727982       0.03186318
C       -1.06339108      -2.70717971      -2.31533433
C        1.19563959       2.85469551      -2.35140901
C       -2.01003318      -0.77350503      -3.19017419
C       -3.23565444       0.63087142       4.34146712
C       -0.79231626       2.14981857      -3.35337969
C        2.89489935       0.71270002      -1.54724203
C       -1.16377949       2.31995910       1.84694475
C       -2.45755984      -0.95455519       1.85682199
C       -1.94443361       1.69750567      -2.62942111
C        1.18729702      -1.79675683      -2.74689484
C        2.45194590       1.55370488       0.74686685
C        1.48311614      -0.51685793      -3.30717074
60
Properties=species:S:1:pos:R:3 trajectory=trial0001_proposal001_step007_proposal_relax trajectory_step=14 pbc="F F F"
C        0.29519572       0.78337382       3.06520457
C       -2.63292921       0.42755640       1.43419970
C       -1.76594699      -2.19186363      -0.19761693
C        2.21044822       0.62917695      -2.79368844
C        3.43568245      -0.45392831      -0.96550368
C       -0.07992160       0.85221935      -0.64562111
C        0.98349070      -0.43848821       2.87213783
C       -1.12824650      -0.90362996       3.62598457
C       -0.74071806      -0.96219969      -3.79561472
C        1.47859994       1.77884247      -3.21123853
C        1.63741573      -2.23166509      -1.46675481
C       -2.26868756      -1.92350314      -2.40914715
C        0.15816545       1.60431130       1.83251328
C        0.28894205      -0.02676240      -3.96175107
C       -2.38104369       0.38148791      -2.42557276
C       -0.29951348      -2.11807192       1.71643124
C       -2.77849665      -0.04934698      -1.10024831
C        1.69814219       2.80527294      -1.03261368
C        2.58053302       1.76065932      -0.64815811
C       -2.11951747       1.19854380       3.71839107
C       -0.14337143       3.19300220      -2.56827199
C       -0.44436116       3.47162974      -0.15356030
C        3.70922125      -0.51849780       0.43150774
C        2.05401066      -0.63197450       1.98138609
C        2.07097998      -1.86974342       1.29519829
C        0.83718799      -2.41199736       0.88073657
C       -0.94088251       3.44737042      -1.46636366
C       -0.02463944      -1.43400907       2.91321425
C        0.91173740       3.17493572       0.09056650
C       -0.02926944       0.75536312       0.61755291
C       -2.35837593       2.17035108      -0.22776720
C       -2.21583696       1.48341497       2.34832118
C        3.19523908      -1.88014472       0.44149243
C        0.26135715       1.36356058      -3.84938256
C       -1.58230020      -1.86052641       1.15054303
C       -1.47325117       2.88815935       0.62722397
C        2.86588351       0.29359619       1.26906990
C        2.87897138      -1.78016150      -0.95035540
C        0.64034238      -2.65766595      -0.51547070
C       -0.71121693      -2.77710074      -0.95832420
C       -0.90147433       0.46907348       3.79291122
C        1.32066384       2.35329474       1.20421326
C       -2.63962851      -1.49087165      -1.08576501
C       -2.46507111      -1.20914910       3.25770767
C       -3.42305137      -0.60226471       4.07938371
C       -2.05991354       2.58604501      -1.53129906
C       -0.13639646      -2.12142226      -3.18879266
C       -2.73476275       0.83241915       0.03002438
C       -1.06693696      -2.69521952      -2.32072902
C        1.20646514       2.85416613      -2.34381303
C       -2.01075596      -0.76222444      -3.19768147
C       -3.24224616       0.63327437       4.34092031
C       -0.78037691       2.15463755      -3.35016173
C        2.89669684       0.70408252      -1.54119806
C       -1.16207159       2.32268400       1.85305293
C       -2.45966441      -0.95124466       1.85672606
C       -1.93609830       1.70532045      -2.63010209
C        1.18711442      -1.79684937      -2.75251658
C        2.45309485       1.54284083       0.75214639
C        1.48684058      -0.51657873      -3.30863232
60
Properties=species:S:1:pos:R:3 trajectory=trial0001_proposal001_step007_proposal_relax trajectory_step=15 pbc="F F F"
C        0.29120624       0.78063007       3.06400933
C       -2.62960051       0.42833795       1.43333484
C       -1.77202042      -2.18874485      -0.20058556
C        2.21424853       0.62699794      -2.79038534
C        3.43592015      -0.46261995      -0.96312507
C       -0.07726661       0.85260422      -0.64627138
C        0.97712469      -0.44181673       2.86827612
C       -1.13158663      -0.90582530       3.62584157
C       -0.73901315      -0.95718643      -3.79867347
C        1.48474983       1.77759741      -3.20811674
C        1.63252977      -2.23258457      -1.46952358
C       -2.27133891      -1.91499843      -2.41527105
C        0.15729083       1.60233126       1.83355370
C        0.29288036      -0.02371543      -3.96299376
C       -2.37752210       0.38912988      -2.42812807
C       -0.30479814      -2.12296498       1.71391442
C       -2.77789346      -0.04343670      -1.10413868
C        1.70621386       2.80259979      -1.02777693
C        2.58438717       1.75411678      -0.64290332
C       -2.12242134       1.19863047       3.71799731
C       -0.13350628       3.19567357      -2.56415025
C       -0.43740921       3.47417277      -0.14887449
C        3.70510670      -0.52849643       0.43401421
C        2.04993232      -0.63826413       1.98137112
C        2.06378240      -1.87536613       1.29386855
C        0.83078800      -2.41583516       0.87697309
C       -0.93181312       3.44968017      -1.46243609
C       -0.03041758      -1.43523243       2.91033552
C        0.91805144       3.17401602       0.09534605
C       -0.03047681       0.75610209       0.61729308
C       -2.35428976       2.17425255      -0.22684518
C       -2.21789071       1.48630500       2.34818058
C        3.18784879      -1.88811394       0.44137187
C        0.26705380       1.36623219      -3.84857668
C       -1.58729037      -1.86100483       1.14913070
C       -1.47063535       2.89230981       0.63146869
C        2.86379568       0.28537809       1.27168558
C        2.87454608      -1.78636977      -0.95040355
C        0.63350610      -2.65721830      -0.51994368
C       -0.71777552      -2.77260204      -0.96318730
C       -0.90547997       0.46732292       3.79316844
C        1.32308932       2.34885419       1.20778560
C       -2.64224675      -1.48455631      -1.09085164
C       -2.46973640      -1.21183884       3.25987690
C       -3.42766458      -0.59961689       4.07934817
C       -2.05213439       2.59064144      -1.52860584
C       -0.13747846      -2.11761225      -3.19262914
C       -2.73190138       0.83553319       0.02919919
C       -1.07094340      -2.68845496      -2.32596253
C        1.21511362       2.85281348      -2.33903603
C       -2.00982106      -0.75388420      -3.20310921
C       -3.24569335       0.63315286       4.34099856
C       -0.77274539       2.15973136      -3.34840409
C        2.89921575       0.69796262      -1.53702614
C       -1.16120675       2.32385680       1.85407747
C       -2.46099881      -0.94998178       1.85837118
C       -1.92967807       1.71188646      -2.62950262
C        1.18668724      -1.79599928      -2.75542237
C        2.45341366       1.53482667       0.75643321
C        1.48965958      -0.51577867      -3.30932066
60
Properties=species:S:1:pos:R:3 trajectory=trial0001_proposal001_step007_proposal_relax trajectory_step=16 pbc="F F F"
C        0.27681637       0.77126052       3.05737310
C       -2.62118322       0.43027077       1.43417718
C       -1.78582892      -2.17937462      -0.20758515
C        2.22479184       0.62183805      -2.78297786
C        3.43565448      -0.48276462      -0.95834301
C       -0.07031626       0.85735146      -0.65711538
C        0.95975223      -0.44858340       2.85585077
C       -1.14096788      -0.91335951       3.62895193
C       -0.73247695      -0.94401743      -3.80584899
C        1.50001617       1.77618546      -3.19973685
C        1.62034807      -2.23500647      -1.47552377
C       -2.27715473      -1.89428157      -2.42928367
C        0.15065524       1.59970326       1.83035216
C        0.30432871      -0.01527785      -3.96630743
C       -2.36737161       0.40783604      -2.43406711
C       -0.31839856      -2.13550029       1.70973676
C       -2.77564412      -0.02776365      -1.11193212
C        1.72589230       2.79714919      -1.01554116
C        2.59315880       1.73875284      -0.63045536
C       -2.12967449       1.19885447       3.71743013
C       -0.10930846       3.20188287      -2.55206094
C       -0.42139116       3.48173421      -0.13627437
C        3.69540318      -0.55295294       0.44057333
C        2.03663043      -0.65663293       1.98032898
C        2.04734326      -1.89332463       1.29168105
C        0.81447770      -2.42826461       0.86826175
C       -0.90725061       3.45591972      -1.45254495
C       -0.04433580      -1.44449245       2.90416482
C        0.93336760       3.17189345       0.10523427
C       -0.03549891       0.76066846       0.61310426
C       -2.34607897       2.18481888      -0.22282208
C       -2.22344213       1.49509267       2.34826038
C        3.17096863      -1.90902510       0.44171924
C        0.28180520       1.37376733      -3.84630384
C       -1.59954437      -1.86349030       1.14710968
C       -1.46408332       2.90497079       0.63610467
C        2.85815537       0.26486830       1.27791196
C        2.86394234      -1.80357440      -0.95091035
C        0.61684161      -2.65779607      -0.53091005
C       -0.73427669      -2.76341873      -0.97422493
C       -0.91454447       0.46252509       3.78994659
C        1.32584943       2.33849362       1.21509901
C       -2.64817797      -1.46807304      -1.10229778
C       -2.47974609      -1.21719340       3.26650259
C       -3.43765914      -0.59576650       4.08233450
C       -2.03176220       2.60241939      -1.52232495
C       -0.14081424      -2.10821530      -3.20074496
C       -2.72306246       0.84357708       0.02789810
C       -1.08180092      -2.67295305      -2.33769149
C        1.23750066       2.84901040      -2.32891101
C       -2.00534322      -0.73293244      -3.21498113
C       -3.25151231       0.63235202       4.34386182
C       -0.75339231       2.17407140      -3.34460496
C        2.90626617       0.68301506      -1.52652122
C       -1.16092666       2.32727450       1.85745714
C       -2.46318416      -0.94803902       1.86419435
C       -1.91214599       1.72925675      -2.62666931
C        1.18450159      -1.79343259      -2.76131702
C        2.45170365       1.51683433       0.76670171
C        1.49757537      -0.51458180      -3.31044481
60
Properties=species:S:1:pos:R:3 trajectory=trial0001_proposal001_step007_proposal_relax trajectory_step=17 pbc="F F F"
C        0.26643530       0.76512319       3.04969081
C       -2.61666652       0.43210310       1.43470319
C       -1.79458413      -2.17168274      -0.21314543
C        2.23260601       0.61865074      -2.77876671
C        3.43498808      -0.49731106      -0.95389820
C       -0.06519591       0.86189605      -0.65873612
C        0.94600716      -0.45686566       2.84803293
C       -1.14661224      -0.91966195       3.63203781
C       -0.72844751      -0.93410441      -3.81066344
C        1.51162862       1.77430974      -3.19416393
C        1.61202430      -2.23786252      -1.47907767
C       -2.28146660      -1.87967728      -2.43833378
C        0.14542121       1.59844253       1.82924894
C        0.31293109      -0.00817755      -3.96890449
C       -2.35983697       0.42159668      -2.43698253
C       -0.32898127      -2.14363679       1.70576144
C       -2.77359520      -0.01590715      -1.11675938
C        1.73880877       2.79311611      -1.00836196
C        2.59899956       1.72885229      -0.62179968
C       -2.13377881       1.19899328       3.71740337
C       -0.09229047       3.20650038      -2.54333448
C       -0.40896345       3.48697644      -0.12855338
C        3.68947534      -0.56968804       0.44486798
C        2.02785408      -0.66952702       1.97832232
C        2.03651695      -1.90850243       1.29112559
C        0.80302756      -2.43744224       0.86319341
C       -0.89055124       3.46044148      -1.44647633
C       -0.05371995      -1.45209776       2.90354226
C        0.94339227       3.17013173       0.11168136
C       -0.03968237       0.76473689       0.59923425
C       -2.34003984       2.19320678      -0.22143456
C       -2.22694353       1.49993936       2.34919508
C        3.16122936      -1.92402001       0.44208339
C        0.29310446       1.37991017      -3.84430270
C       -1.60910318      -1.86502357       1.14497817
C       -1.45907248       2.91153347       0.64160001
C        2.85368083       0.24966828       1.28285565
C        2.85796433      -1.81513200      -0.95079144
C        0.60513922      -2.65964080      -0.53739552
C       -0.74569857      -2.75855325      -0.98188897
C       -0.92214494       0.45747626       3.78695539
C        1.32688766       2.33157325       1.21935477
C       -2.65238987      -1.45602024      -1.10990440
C       -2.48726158      -1.21876036       3.26941665
C       -3.44422747      -0.59370735       4.08478387
C       -2.01776262       2.61116435      -1.51772296
C       -0.14409036      -2.10167289      -3.20591125
C       -2.71638550       0.84965359       0.02828709
C       -1.09022354      -2.66420792      -2.34611964
C        1.25341542       2.84807383      -2.32036784
C       -2.00076362      -0.71804940      -3.22124242
C       -3.25462096       0.63150193       4.34605865
C       -0.73990681       2.18528750      -3.34169824
C        2.91118045       0.67397507      -1.52026497
C       -1.16172947       2.33207753       1.85756385
C       -2.46681528      -0.94672781       1.86648683
C       -1.89913709       1.74176130      -2.62468498
C        1.18151026      -1.79221336      -2.76422424
C        2.45094188       1.50463616       0.77388904
C        1.50296628      -0.51387671      -3.31139854
60
Properties=species:S:1:pos:R:3 trajectory=trial0001_proposal001_step007_proposal_relax trajectory_step=18 pbc="F F F"
C        0.26355319       0.76304678       3.04645913
C       -2.61709095       0.43254244       1.43581030
C       -1.79527034      -2.16962490      -0.21452516
C        2.23427695       0.61800685      -2.77867360
C        3.43416274      -0.49884026      -0.95331989
C       -0.06428591       0.86467287      -0.66506503
C        0.94336725      -0.45893151       2.84698245
C       -1.14773761      -0.92176913       3.63316843
C       -0.72742173      -0.93165166      -3.81133371
C        1.51409277       1.77488428      -3.19272297
C        1.61088490      -2.23898747      -1.47898346
C       -2.28176052      -1.87750958      -2.43877255
C        0.14269938       1.59879811       1.82687647
C        0.31506594      -0.00628706      -3.96939736
C       -2.35824320       0.42404582      -2.43698480
C       -0.33171820      -2.14470557       1.70545735
C       -2.77249362      -0.01318079      -1.11652818
C        1.74004464       2.79261587      -1.00728821
C        2.59941494       1.72815169      -0.62106029
C       -2.13398086       1.19854191       3.71789600
C       -0.08935160       3.20702821      -2.54138891
C       -0.40660051       3.48776046      -0.12770918
C        3.68957815      -0.57231846       0.44549929
C        2.02508099      -0.67292483       1.97716823
C        2.03548870      -1.91296741       1.29158399
C        0.80030640      -2.44012201       0.86331428
C       -0.88753982       3.46143081      -1.44539717
C       -0.05585126      -1.45605389       2.90549443
C        0.94439963       3.16952433       0.11223107
C       -0.04114264       0.76663604       0.59773821
C       -2.33926793       2.19525051      -0.22134920
C       -2.22697574       1.50029802       2.34976010
C        3.16097699      -1.92721504       0.44253937
C        0.29580698       1.38183006      -3.84328646
C       -1.61129737      -1.86570635       1.14428794
C       -1.45763862       2.91259573       0.64084972
C        2.85274411       0.24715800       1.28327058
C        2.85776114      -1.81728189      -0.95083350
C        0.60356725      -2.66089591      -0.53749361
C       -0.74737738      -2.75889187      -0.98249293
C       -0.92336912       0.45626941       3.78495291
C        1.32578338       2.33082267       1.21955758
C       -2.65306241      -1.45347311      -1.11055592
C       -2.48831863      -1.21731998       3.26891378
C       -3.44422862      -0.59578417       4.08606895
C       -2.01517549       2.61303762      -1.51716371
C       -0.14552046      -2.10040888      -3.20629919
C       -2.71446031       0.85144016       0.02918661
C       -1.09162611      -2.66367018      -2.34688161
C        1.25589297       2.84854507      -2.31922267
C       -1.99898670      -0.71580146      -3.22080351
C       -3.25390546       0.63226719       4.34716296
C       -0.73724268       2.18768489      -3.34138121
C        2.91190408       0.67315329      -1.51984831
C       -1.16283385       2.33419829       1.85780694
C       -2.46751827      -0.94667729       1.86635947
C       -1.89657901       1.74367184      -2.62427436
C        1.18004827      -1.79240834      -2.76390942
C        2.45059234       1.50331602       0.77503010
C        1.50382588      -0.51425709      -3.31143670
60
Properties=species:S:1:pos:R:3 trajectory=trial0001_proposal001_step007_proposal_relax trajectory_step=19 pbc="F F F"
C        0.25653204       0.75634086       3.03933996
C       -2.61817807       0.43486499       1.43697608
C       -1.79900421      -2.16380842      -0.21963765
C        2.23940728       0.61572192      -2.77775884
C        3.43203350      -0.50437200      -0.95085905
C       -0.06138756       0.87084673      -0.67476825
C        0.93636474      -0.46609944       2.84442243
C       -1.15285367      -0.92682601       3.63575612
C       -0.72523983      -0.92393600      -3.81374137
C        1.52206236       1.77647803      -3.18829999
C        1.60709857      -2.24277335      -1.47901586
C       -2.28355707      -1.86982735      -2.44171783
C        0.13752786       1.59887552       1.82314860
C        0.32031963      -0.00095856      -3.97093789
C       -2.35341620       0.43254319      -2.43702304
C       -0.34033802      -2.14739468       1.70422374
C       -2.76973649      -0.00452240      -1.11686823
C        1.74522529       2.79023260      -1.00262012
C        2.60197041       1.72426944      -0.61765937
C       -2.13486477       1.19754342       3.71897097
C       -0.07956041       3.20976616      -2.53652047
C       -0.39975708       3.48939431      -0.12466743
C        3.68882520      -0.58140058       0.44832098
C        2.01777093      -0.68289610       1.97500851
C        2.03145959      -1.92482892       1.29241626
C        0.79220085      -2.44681564       0.86291134
C       -0.87849493       3.46491304      -1.44180307
C       -0.06239786      -1.46653608       2.90856333
C        0.94958596       3.16739509       0.11507669
C       -0.04422929       0.77111159       0.59098327
C       -2.33514123       2.20102519      -0.22061820
C       -2.22707504       1.50093485       2.35098860
C        3.15880915      -1.93736324       0.44385325
C        0.30422149       1.38754687      -3.84050771
C       -1.61830599      -1.86624624       1.14114658
C       -1.45307865       2.91622809       0.63989083
C        2.84996447       0.23815223       1.28512461
C        2.85581168      -1.82390788      -0.95058303
C        0.59788601      -2.66432342      -0.53876467
C       -0.75326289      -2.75868866      -0.98590912
C       -0.92676924       0.45244724       3.78078374
C        1.32512543       2.32700662       1.22142033
C       -2.65553775      -1.44538986      -1.11385134
C       -2.49269556      -1.21413311       3.26637033
C       -3.44653086      -0.59841264       4.08813908
C       -2.00743371       2.61893146      -1.51596832
C       -0.14939554      -2.09623158      -3.20851333
C       -2.70984027       0.85717122       0.03020935
C       -1.09679338      -2.66133569      -2.35101612
C        1.26446668       2.84934608      -2.31531807
C       -1.99493959      -0.70722074      -3.22021315
C       -3.25371549       0.63341681       4.34871678
C       -0.72822313       2.19473634      -3.33969141
C        2.91463484       0.66941420      -1.51760157
C       -1.16457016       2.33828967       1.86029900
C       -2.47176835      -0.94588896       1.86455442
C       -1.88864216       1.75091995      -2.62342610
C        1.17603046      -1.79267313      -2.76372279
C        2.45080688       1.49768690       0.77894305
C        1.50604024      -0.51518106      -3.31191119
60
Properties=species:S:1:pos:R:3 trajectory=trial0001_proposal001_step007_proposal_relax trajectory_step=20 pbc="F F F"
C        0.25038349       0.74760024       3.03206705
C       -2.61949780       0.43796568       1.43633317
C       -1.80349020      -2.15894257      -0.22447148
C        2.24439987       0.61384804      -2.77644975
C        3.43011295      -0.51070786      -0.94727711
C       -0.05838573       0.87658523      -0.68237359
C        0.92973913      -0.47434920       2.84122160
C       -1.15844451      -0.93189961       3.63760656
C       -0.72387928      -0.91662028      -3.81480042
C        1.53043207       1.77734080      -3.18494267
C        1.60321787      -2.24679921      -1.47884199
C       -2.28578584      -1.86136004      -2.44545519
C        0.13437547       1.59714458       1.82022723
C        0.32439993       0.00368108      -3.97182017
C       -2.34768894       0.44191791      -2.43610847
C       -0.34828347      -2.15118146       1.70271827
C       -2.76721689       0.00424010      -1.11765457
C        1.75184640       2.78778392      -0.99804825
C        2.60570659       1.71921433      -0.61337123
C       -2.13530826       1.19691223       3.71964585
C       -0.06948697       3.21413656      -2.53312612
C       -0.39328919       3.49122347      -0.12164440
C        3.68630662      -0.59096883       0.45160519
C        2.01228065      -0.69277163       1.97381111
C        2.02690837      -1.93540872       1.29277376
C        0.78544605      -2.45310099       0.86223365
C       -0.87009008       3.46931591      -1.43905743
C       -0.06885758      -1.47574799       2.91001592
C        0.95559973       3.16625096       0.11866044
C       -0.04650215       0.77594923       0.58393124
C       -2.33014350       2.20678077      -0.22020730
C       -2.22826973       1.50184457       2.35187973
C        3.15600139      -1.94740773       0.44521724
C        0.31236081       1.39235238      -3.83856666
C       -1.62424988      -1.86447756       1.13755232
C       -1.44947321       2.92071741       0.64191310
C        2.84608791       0.22815238       1.28713640
C        2.85269881      -1.82983186      -0.94916677
C        0.59177299      -2.66859049      -0.54028682
C       -0.75959281      -2.75837925      -0.99038315
C       -0.92950826       0.44798008       3.77767364
C        1.32629919       2.32211451       1.22368259
C       -2.65750619      -1.43710293      -1.11759859
C       -2.49857719      -1.21275973       3.26430859
C       -3.45137438      -0.59908553       4.08911902
C       -2.00054156       2.62538921      -1.51516647
C       -0.15233457      -2.09188370      -3.21035354
C       -2.70725944       0.86345388       0.03001223
C       -1.10255379      -2.65900915      -2.35617740
C        1.27373094       2.85028759      -2.31084928
C       -1.99164806      -0.69735803      -3.21945221
C       -3.25334987       0.63376055       4.34978223
C       -0.71866097       2.20111831      -3.33745447
C        2.91773929       0.66510008      -1.51481224
C       -1.16542109       2.34069025       1.86264527
C       -2.47687298      -0.94408256       1.86244976
C       -1.88072004       1.75919076      -2.62299810
C        1.17286955      -1.79197147      -2.76291849
C        2.45114222       1.49059251       0.78254791
C        1.50785324      -0.51527849      -3.31189323
60
Properties=species:S:1:pos:R:3 trajectory=trial0001_proposal001_step007_proposal_relax trajectory_step=21 pbc="F F F"
C        0.23734097       0.72530084       3.01296395
C       -2.62678596       0.44796425       1.43389260
C       -1.81380425      -2.14873894      -0.23653890
C        2.25676282       0.60874547      -2.77174760
C        3.42402882      -0.52543253      -0.93930827
C       -0.05094275       0.89185401      -0.70132558
C        0.91588154      -0.50008432       2.83493444
C       -1.17279414      -0.94533591       3.63681477
C       -0.72132400      -0.89788477      -3.81441028
C        1.55097915       1.78300809      -3.17630465
C        1.59373950      -2.25668800      -1.47712935
C       -2.29113199      -1.83961844      -2.45300391
C        0.12889342       1.58792118       1.81409560
C        0.33387058       0.01449761      -3.97088355
C       -2.33387220       0.46590711      -2.43336412
C       -0.36822188      -2.16222583       1.69824614
C       -2.76016365       0.02639268      -1.11967755
C        1.76825673       2.78224063      -0.98417890
C        2.61455763       1.70806869      -0.60473109
C       -2.13369144       1.19353887       3.72047815
C       -0.04422713       3.22587900      -2.52509089
C       -0.37661664       3.49481527      -0.11364312
C        3.68079010      -0.61456950       0.46045802
C        1.99835637      -0.71906659       1.97270082
C        2.01606741      -1.96070698       1.29267521
C        0.76669554      -2.47053500       0.86085489
C       -0.84979238       3.48167648      -1.43305253
C       -0.08747826      -1.49888923       2.91378830
C        0.97018171       3.16242461       0.12866321
C       -0.05174758       0.78840795       0.56365731
C       -2.31752614       2.22271394      -0.21986328
C       -2.22967356       1.50550918       2.35309369
C        3.14808431      -1.97358932       0.45029344
C        0.33311872       1.40418676      -3.83283821
C       -1.63740005      -1.85724586       1.12777097
C       -1.44028787       2.93349531       0.64334500
C        2.83645992       0.20470674       1.29014467
C        2.84285842      -1.84401875      -0.94483217
C        0.57745972      -2.68062732      -0.54295171
C       -0.77454808      -2.75817448      -0.99927171
C       -0.93676936       0.43434104       3.77119849
C        1.33023233       2.30990494       1.22969737
C       -2.66118503      -1.41667833      -1.12532293
C       -2.51561101      -1.20899261       3.25567098
C       -3.46366764      -0.59449724       4.09072437
C       -1.98302637       2.64551395      -1.51330788
C       -0.16044467      -2.08060860      -3.21342747
C       -2.70296763       0.88263080       0.02945205
C       -1.11451923      -2.65093154      -2.36818158
C        1.29547959       2.85238156      -2.30328348
C       -1.98457277      -0.67390634      -3.21759590
C       -3.25406449       0.62753398       4.34993742
C       -0.69366549       2.21569559      -3.33211830
C        2.92475859       0.65359417      -1.50765289
C       -1.16390749       2.34400327       1.87103205
C       -2.48936451      -0.93656746       1.85395854
C       -1.86295481       1.77840866      -2.62333751
C        1.16544880      -1.78985714      -2.75950143
C        2.45250398       1.47064589       0.79119305
C        1.51139120      -0.51487918      -3.30881580
60
Properties=species:S:1:pos:R:3 trajectory=trial0001_proposal001_step007_proposal_relax trajectory_step=22 pbc="F F F"
C        0.23407491       0.71686997       3.00962704
C       -2.62734087       0.45129001       1.43186743
C       -1.81784954      -2.14628895      -0.23863349
C        2.25972357       0.60855073      -2.76986947
C        3.42327092      -0.53249345      -0.93560960
C       -0.04866685       0.89479345      -0.70473739
C        0.91022923      -0.50549977       2.83225713
C       -1.17847764      -0.94863585       3.63690410
C       -0.72035726      -0.89345823      -3.81394598
C        1.55734823       1.78111423      -3.17544910
C        1.58995213      -2.25885015      -1.47744437
C       -2.29296198      -1.83277009      -2.45685252
C        0.12890840       1.58465745       1.81260854
C        0.33615812       0.01723855      -3.97000987
C       -2.32958001       0.47251338      -2.43299651
C       -0.37293989      -2.16666037       1.69700328
C       -2.75900962       0.03263527      -1.12098764
C        1.77453616       2.78094281      -0.98255411
C        2.61850859       1.70271404      -0.60005193
C       -2.13465249       1.19329484       3.72015590
C       -0.03690899       3.22975279      -2.52369694
C       -0.37201775       3.49727726      -0.11145172
C        3.67680156      -0.62256375       0.46268281
C        1.99705586      -0.72579483       1.97252508
C        2.01051463      -1.96704418       1.29237957
C        0.76365873      -2.47497643       0.85917246
C       -0.84260760       3.48599925      -1.43094383
C       -0.09122131      -1.50404883       2.91107809
C        0.97558214       3.16232534       0.13227765
C       -0.05248534       0.79125555       0.55921974
C       -2.31401919       2.22756809      -0.21980747
C       -2.23180781       1.50759319       2.35374496
C        3.14434964      -1.98009982       0.45053212
C        0.33832025       1.40627281      -3.83248425
C       -1.64012390      -1.85432570       1.12521923
C       -1.43789409       2.93686315       0.64977453
C        2.83277009       0.19588283       1.29271397
C        2.83919224      -1.84783587      -0.94252283
C        0.57206139      -2.68384138      -0.54523428
C       -0.77951525      -2.75722850      -1.00373684
C       -0.93779513       0.43065036       3.76994128
C        1.33289331       2.30493297       1.23234486
C       -2.66205258      -1.41059726      -1.12849986
C       -2.52119330      -1.21073431       3.25541932
C       -3.47023200      -0.59665037       4.08839435
C       -1.97861154       2.65025283      -1.51363340
C       -0.16046733      -2.07698865      -3.21452292
C       -2.70325486       0.88708223       0.02777862
C       -1.11938954      -2.64772335      -2.37143526
C        1.30350539       2.85354489      -2.29757333
C       -1.98379061      -0.66563879      -3.21855935
C       -3.25296512       0.63089427       4.35031642
C       -0.68744771       2.21994928      -3.32996937
C        2.92704834       0.64982232      -1.50468783
C       -1.16294482       2.34438175       1.86997020
C       -2.49263900      -0.93381301       1.85317229
C       -1.85694957       1.78664230      -2.62269627
C        1.16432490      -1.78832575      -2.75894108
C        2.45210029       1.46461603       0.79293228
C        1.51272890      -0.51372839      -3.30743161
60
Properties=species:S:1:pos:R:3 trajectory=trial0001_proposal001_step007_proposal_relax trajectory_step=23 pbc="F F F"
C        0.23544451       0.71610782       3.01131392
C       -2.62814966       0.45251017       1.43111469
C       -1.81768680      -2.14716729      -0.23766515
C        2.25901599       0.60917778      -2.76923863
C        3.42335099      -0.53276857      -0.93555982
C       -0.04886406       0.89408483      -0.70367703
C        0.91115795      -0.50587350       2.83274704
C       -1.17881195      -0.94863605       3.63488334
C       -0.72050100      -0.89418773      -3.81269081
C        1.55683942       1.78088830      -3.17614205
C        1.58970261      -2.25823631      -1.47725186
C       -2.29285995      -1.83305074      -2.45650023
C        0.13065353       1.58305134       1.81292262
C        0.33545538       0.01668432      -3.96827711
C       -2.33014408       0.47227352      -2.43317567
C       -0.37202759      -2.16746524       1.69657425
C       -2.75937087       0.03204719      -1.12109752
C        1.77476608       2.78134939      -0.98295116
C        2.61863310       1.70268564      -0.60009244
C       -2.13421755       1.19302673       3.71948023
C       -0.03734069       3.22977012      -2.52442855
C       -0.37207137       3.49755587      -0.11137296
C        3.67627108      -0.62239806       0.46248437
C        1.99824976      -0.72538372       1.97356948
C        2.00995677      -1.96588085       1.29203375
C        0.76468292      -2.47498717       0.85884688
C       -0.84295302       3.48653801      -1.43135000
C       -0.09103625      -1.50307954       2.90959837
C        0.97557358       3.16241372       0.13253625
C       -0.05166394       0.79037867       0.55969329
C       -2.31454729       2.22821492      -0.22025422
C       -2.23174660       1.50848502       2.35344455
C        3.14369801      -1.97926840       0.45040234
C        0.33728903       1.40551136      -3.83278654
C       -1.63878459      -1.85302272       1.12530342
C       -1.43781850       2.93663119       0.65086998
C        2.83280832       0.19607790       1.29277471
C        2.83832662      -1.84724497      -0.94190521
C        0.57234481      -2.68403103      -0.54547853
C       -0.77913047      -2.75730631      -1.00339366
C       -0.93717686       0.43014840       3.77050290
C        1.33381207       2.30448233       1.23262666
C       -2.66139168      -1.41104826      -1.12797696
C       -2.52200781      -1.21181396       3.25470841
C       -3.47161038      -0.59578938       4.08643917
C       -1.97938000       2.65085903      -1.51373048
C       -0.15964740      -2.07706476      -3.21364699
C       -2.70498073       0.88761543       0.02697016
C       -1.11878596      -2.64676220      -2.37062538
C        1.30304792       2.85364985      -2.29781730
C       -1.98496831      -0.66611749      -3.21926196
C       -3.25293086       0.63060684       4.34922792
C       -0.68822778       2.21932100      -3.32995002
C        2.92675178       0.64976020      -1.50434808
C       -1.16131235       2.34277426       1.86884975
C       -2.49183991      -0.93273122       1.85272860
C       -1.85782970       1.78669147      -2.62279976
C        1.16516681      -1.78786959      -2.75842606
C        2.45190625       1.46441427       0.79220165
C        1.51235816      -0.51304365      -3.30593371
60
Properties=species:S:1:pos:R:3 trajectory=trial0001_proposal001_step007_proposal_relax trajectory_step=24 pbc="F F F"
C        0.23504808       0.70856787       3.01025605
C       -2.63208395       0.45926988       1.42877513
C       -1.82080798      -2.14492975      -0.23911326
C        2.26135676       0.60924794      -2.76521795
C        3.42165669      -0.53900162      -0.93336036
C       -0.04697639       0.89678207      -0.70756721
C        0.90768129      -0.51478234       2.83297054
C       -1.18492827      -0.95336049       3.62918034
C       -0.71940893      -0.88980566      -3.81011042
C        1.56191394       1.78199784      -3.17460668
C        1.58532690      -2.25942623      -1.47642592
C       -2.29451077      -1.82627404      -2.45808431
C        0.13309491       1.57588454       1.81221282
C        0.33739822       0.01960766      -3.96258025
C       -2.32833064       0.47918740      -2.43420081
C       -0.37626415      -2.17325628       1.69378077
C       -2.75830999       0.03847859      -1.12243349
C        1.78076537       2.78050889      -0.97984416
C        2.62160931       1.69876944      -0.59708430
C       -2.13302481       1.19115711       3.71770692
C       -0.03037712       3.23267083      -2.52201500
C       -0.36571344       3.50010355      -0.10820823
C        3.67328677      -0.63035112       0.46482707
C        1.99624497      -0.73348118       1.97526903
C        2.00479727      -1.97211339       1.29161573
C        0.76030566      -2.48164053       0.85675664
C       -0.83544945       3.49177510      -1.42925880
C       -0.09616593      -1.50901947       2.90638735
C        0.98098289       3.16064577       0.13638150
C       -0.05118975       0.78981261       0.55452384
C       -2.31279481       2.23589307      -0.22025806
C       -2.23135564       1.51265203       2.35301705
C        3.13816326      -1.98615733       0.45154421
C        0.34134673       1.40811142      -3.83106510
C       -1.64022365      -1.84864150       1.12240287
C       -1.43310681       2.93971359       0.65252183
C        2.83042758       0.18864771       1.29461108
C        2.83296547      -1.85140550      -0.93982840
C        0.56795404      -2.68792069      -0.54744814
C       -0.78353145      -2.75716495      -1.00487380
C       -0.93939782       0.42399328       3.76930202
C        1.33694497       2.29940720       1.23518708
C       -2.66127995      -1.40497132      -1.12912034
C       -2.52957975      -1.21308037       3.24947943
C       -3.47956161      -0.59415624       4.07982365
C       -1.97450756       2.65924534      -1.51354323
C       -0.15997622      -2.07313289      -3.21250867
C       -2.70739002       0.89586501       0.02489149
C       -1.12110016      -2.64090708      -2.37129663
C        1.30999214       2.85440782      -2.29501030
C       -1.98584473      -0.65970742      -3.22177728
C       -3.25317989       0.62997076       4.34561852
C       -0.68280970       2.22364642      -3.32818838
C        2.92820972       0.64576307      -1.50079301
C       -1.15611746       2.33964404       1.86778839
C       -2.49252794      -0.92682334       1.84885913
C       -1.85404965       1.79392695      -2.62208937
C        1.16469769      -1.78635240      -2.75638315
C        2.45213610       1.45706000       0.79401397
C        1.51301726      -0.51099351      -3.30036665
60
Properties=species:S:1:pos:R:3 trajectory=trial0001_proposal001_step007_proposal_relax trajectory_step=25 pbc="F F F"
C        0.23226993       0.70080545       3.00958873
C       -2.63494587       0.46494112       1.42733252
C       -1.82334109      -2.14125636      -0.24123279
C        2.26353502       0.60939647      -2.76266933
C        3.41992535      -0.54434075      -0.93101724
C       -0.04530296       0.90001461      -0.71320821
C        0.90495463      -0.52203323       2.83236059
C       -1.19039896      -0.95847539       3.62585462
C       -0.71795901      -0.88479744      -3.80890587
C        1.56730730       1.78312682      -3.17197329
C        1.58154552      -2.26147803      -1.47564738
C       -2.29537595      -1.82039117      -2.45916193
C        0.13330764       1.57158851       1.80924940
C        0.33960258       0.02321181      -3.95809091
C       -2.32695362       0.48629298      -2.43507115
C       -0.38129418      -2.17771287       1.69141682
C       -2.75723586       0.04566183      -1.12301007
C        1.78614391       2.77891310      -0.97633201
C        2.62417967       1.69523497      -0.59372310
C       -2.13257320       1.18992421       3.71643002
C       -0.02237046       3.23469373      -2.51911938
C       -0.35923264       3.50221938      -0.10588233
C        3.67133859      -0.63810598       0.46639337
C        1.99193728      -0.74104714       1.97644251
C        1.99975064      -1.98067732       1.29209118
C        0.75647169      -2.48800334       0.85632744
C       -0.82873624       3.49602017      -1.42668751
C       -0.10119215      -1.51659332       2.90605056
C        0.98576955       3.15884214       0.13908054
C       -0.05124004       0.78866623       0.54924354
C       -2.31063922       2.24403249      -0.22157025
C       -2.23045435       1.51544306       2.35282264
C        3.13507553      -1.99268089       0.45157784
C        0.34553492       1.41190828      -3.82843959
C       -1.64286113      -1.84602344       1.11994238
C       -1.42753522       2.94125353       0.65432730
C        2.82846213       0.18067051       1.29688155
C        2.82992331      -1.85563944      -0.93826695
C        0.56362471      -2.69171741      -0.54833635
C       -0.78772789      -2.75756872      -1.00599292
C       -0.94025493       0.41889542       3.76570961
C        1.33856525       2.29444069       1.23699110
C       -2.66200383      -1.39793460      -1.13042138
C       -2.53532406      -1.21228006       3.24387279
C       -3.48558143      -0.59205265       4.07469113
C       -1.97030626       2.66619759      -1.51152566
C       -0.16166781      -2.06978590      -3.21134703
C       -2.70814558       0.90284343       0.02380359
C       -1.12409278      -2.63663988      -2.37237265
C        1.31527674       2.85586190      -2.29266685
C       -1.98557071      -0.65392025      -3.22277027
C       -3.25394696       0.62770518       4.34180722
C       -0.67774857       2.22883385      -3.32633464
C        2.92987796       0.64285336      -1.49770902
C       -1.15292185       2.33906884       1.86583980
C       -2.49314645      -0.92214660       1.84464978
C       -1.85008495       1.79997165      -2.62147668
C        1.16325168      -1.78531332      -2.75448947
C        2.45228516       1.45241294       0.79569962
C        1.51369734      -0.50977264      -3.29598331
60
Properties=species:S:1:pos:R:3 trajectory=trial0001_proposal001_step007_proposal_relax trajectory_step=26 pbc="F F F"
C        0.23093948       0.69710429       3.00752307
C       -2.63611726       0.46838913       1.42622143
C       -1.82568414      -2.13851611      -0.24299106
C        2.26570668       0.60897454      -2.76020191
C        3.41890435      -0.54806178      -0.92991687
C       -0.04401705       0.90190985      -0.71645468
C        0.90148677      -0.52728267       2.83224588
C       -1.19385286      -0.96165264       3.62389806
C       -0.71714455      -0.88133261      -3.80844777
C        1.57077030       1.78421900      -3.17007760
C        1.57886385      -2.26277878      -1.47534990
C       -2.29652394      -1.81542950      -2.46042287
C        0.13337062       1.56813405       1.80842970
C        0.34145332       0.02595374      -3.95549545
C       -2.32584257       0.49121455      -2.43604684
C       -0.38475968      -2.18092510       1.69009032
C       -2.75661045       0.05066238      -1.12402051
C        1.79004482       2.77787197      -0.97396125
C        2.62612518       1.69247865      -0.59147865
C       -2.13228660       1.18908756       3.71560991
C       -0.01777492       3.23651285      -2.51633037
C       -0.35459494       3.50363846      -0.10357578
C        3.66967386      -0.64359225       0.46820317
C        1.98951711      -0.74680911       1.97635593
C        1.99712164      -1.98594099       1.29222829
C        0.75255613      -2.49262672       0.85526684
C       -0.82331495       3.49870644      -1.42492949
C       -0.10455350      -1.52124357       2.90538276
C        0.98955878       3.15747603       0.14134619
C       -0.05146829       0.78783324       0.54574276
C       -2.30924474       2.24845352      -0.22056822
C       -2.23007401       1.51764151       2.35258279
C        3.13157723      -1.99810852       0.45247220
C        0.34881471       1.41432105      -3.82673712
C       -1.64499932      -1.84466705       1.11811213
C       -1.42408401       2.94354154       0.65379994
C        2.82698531       0.17565679       1.29818403
C        2.82720483      -1.85928441      -0.93799578
C        0.56047097      -2.69387514      -0.54941813
C       -0.79120469      -2.75713757      -1.00711701
C       -0.94293537       0.41534749       3.76421958
C        1.33963072       2.29134520       1.23825491
C       -2.66256719      -1.39319286      -1.13169642
C       -2.53935174      -1.21202454       3.24073562
C       -3.48985161      -0.59225693       4.07094189
C       -1.96618596       2.67120688      -1.51141488
C       -0.16265151      -2.06709186      -3.21134723
C       -2.70800617       0.90811094       0.02298758
C       -1.12614399      -2.63348341      -2.37336843
C        1.32063254       2.85602293      -2.29025498
C       -1.98520147      -0.64937709      -3.22413003
C       -3.25446484       0.62803939       4.33958485
C       -0.67369952       2.23253145      -3.32503951
C        2.93119300       0.64011767      -1.49545873
C       -1.15058761       2.33807938       1.86610568
C       -2.49371650      -0.91908811       1.84244659
C       -1.84705172       1.80482286      -2.62064642
C        1.16220929      -1.78473625      -2.75361818
C        2.45284700       1.44752377       0.79810605
C        1.51435708      -0.50885555      -3.29352345
60
Properties=species:S:1:pos:R:3 trajectory=trial0001_proposal001_step007_proposal_relax trajectory_step=27 pbc="F F F"
C        0.22905963       0.69379189       3.00518267
C       -2.63641517       0.47130530       1.42500439
C       -1.82791263      -2.13516623      -0.24501601
C        2.26779037       0.60857230      -2.75807430
C        3.41806279      -0.55169726      -0.92866786
C       -0.04293371       0.90348056      -0.71984139
C        0.89815524      -0.53200886       2.83192579
C       -1.19705598      -0.96465530       3.62295165
C       -0.71645661      -0.87774837      -3.80838392
C        1.57414762       1.78523856      -3.16779441
C        1.57648198      -2.26447606      -1.47508486
C       -2.29751437      -1.81054186      -2.46154383
C        0.13290630       1.56519319       1.80719852
C        0.34304666       0.02879456      -3.95327660
C       -2.32513693       0.49613334      -2.43707111
C       -0.38828116      -2.18366360       1.68924015
C       -2.75630224       0.05603474      -1.12508928
C        1.79389056       2.77642669      -0.97141000
C        2.62812620       1.68975915      -0.58895987
C       -2.13231448       1.18860659       3.71479917
C       -0.01296909       3.23819057      -2.51347299
C       -0.35003022       3.50472968      -0.10183009
C        3.66812492      -0.64895504       0.46974599
C        1.98658725      -0.75233267       1.97597475
C        1.99483596      -1.99166545       1.29271704
C        0.74878828      -2.49711222       0.85479544
C       -0.81830777       3.50101091      -1.42273749
C       -0.10758049      -1.52615210       2.90561279
C        0.99335554       3.15601117       0.14337061
C       -0.05168373       0.78621545       0.54273683
C       -2.30749421       2.25284514      -0.21983979
C       -2.22948172       1.51934865       2.35218656
C        3.12878854      -2.00343395       0.45292235
C        0.35197325       1.41718184      -3.82456416
C       -1.64735915      -1.84389566       1.11637542
C       -1.42037779       2.94531424       0.65353185
C        2.82559215       0.17059819       1.29961758
C        2.82545521      -1.86285371      -0.93799670
C        0.55732486      -2.69588923      -0.55003184
C       -0.79464744      -2.75660718      -1.00817718
C       -0.94554100       0.41225832       3.76213400
C        1.34029131       2.28822986       1.23917738
C       -2.66336233      -1.38804308      -1.13304260
C       -2.54254953      -1.21107245       3.23740284
C       -3.49371682      -0.59248117       4.06699000
C       -1.96246023       2.67559339      -1.51083710
C       -0.16395614      -2.06451939      -3.21149821
C       -2.70731802       0.91299779       0.02241847
C       -1.12850272      -2.63104289      -2.37450001
C        1.32546460       2.85638934      -2.28768282
C       -1.98457850      -0.64481907      -3.22494407
C       -3.25542707       0.62808926       4.33665348
C       -0.66986752       2.23639792      -3.32357370
C        2.93258069       0.63781228      -1.49340434
C       -1.14874846       2.33780654       1.86614345
C       -2.49419346      -0.91635732       1.84001198
C       -1.84415749       1.80948265      -2.61989111
C        1.16073763      -1.78427441      -2.75283821
C        2.45365597       1.44323220       0.80079902
C        1.51485868      -0.50804984      -3.29150186
60
Properties=species:S:1:pos:R:3 trajectory=trial0001_proposal001_step007_proposal_relax trajectory_step=28 pbc="F F F"
C        0.22759638       0.69105083       3.00384424
C       -2.63564691       0.47334350       1.42340639
C       -1.82945906      -2.13222863      -0.24652665
C        2.26900394       0.60840612      -2.75645093
C        3.41771254      -0.55413377      -0.92780895
C       -0.04249854       0.90359699      -0.72157639
C        0.89611442      -0.53503993       2.83166366
C       -1.19928812      -0.96659217       3.62257641
C       -0.71640649      -0.87510119      -3.80822126
C        1.57638084       1.78602734      -3.16574404
C        1.57499604      -2.26599281      -1.47488636
C       -2.29817158      -1.80677439      -2.46223555
C        0.13285865       1.56273867       1.80600133
C        0.34359765       0.03111141      -3.95138964
C       -2.32529582       0.50017149      -2.43807537
C       -0.39068679      -2.18563399       1.68906521
C       -2.75679166       0.06043728      -1.12612709
C        1.79699184       2.77501758      -0.96920582
C        2.63007983       1.68747994      -0.58668810
C       -2.13267684       1.18862719       3.71372173
C       -0.00964963       3.23973910      -2.51118945
C       -0.34647108       3.50499040      -0.10053887
C        3.66676550      -0.65291448       0.47087656
C        1.98442956      -0.75623215       1.97581225
C        1.99327046      -1.99593353       1.29314918
C        0.74643067      -2.50031191       0.85500932
C       -0.81497721       3.50252400      -1.42132931
C       -0.10963723      -1.52953291       2.90622037
C        0.99632406       3.15473519       0.14487538
C       -0.05137445       0.78350251       0.54144441
C       -2.30583291       2.25596137      -0.21924317
C       -2.22875839       1.52043862       2.35138903
C        3.12702680      -2.00729150       0.45302203
C        0.35390827       1.41920173      -3.82249822
C       -1.64877378      -1.84328264       1.11511633
C       -1.41727468       2.94644323       0.65356037
C        2.82462439       0.16660819       1.30085542
C        2.82450126      -1.86560774      -0.93826776
C        0.55500810      -2.69722375      -0.55011733
C       -0.79716558      -2.75580742      -1.00893498
C       -0.94715634       0.41052503       3.76027031
C        1.34094794       2.28539955       1.23985747
C       -2.66402199      -1.38367957      -1.13407862
C       -2.54442036      -1.21005680       3.23432875
C       -3.49709328      -0.59261489       4.06242764
C       -1.96018577       2.67873228      -1.51025147
C       -0.16522006      -2.06276442      -3.21156819
C       -2.70681288       0.91668704       0.02159593
C       -1.13047075      -2.62942529      -2.37552749
C        1.32877085       2.85667152      -2.28543459
C       -1.98438384      -0.64129567      -3.22531500
C       -3.25694686       0.62810792       4.33266683
C       -0.66734847       2.23933585      -3.32206820
C        2.93383044       0.63605424      -1.49169225
C       -1.14697525       2.33739689       1.86618520
C       -2.49414087      -0.91426983       1.83760518
C       -1.84260276       1.81303465      -2.61950763
C        1.15950699      -1.78378223      -2.75212335
C        2.45464661       1.44029151       0.80302829
C        1.51474035      -0.50730772      -3.28991068
60
Properties=species:S:1:pos:R:3 trajectory=trial0001_proposal001_step007_proposal_relax trajectory_step=29 pbc="F F F"
C        0.22587913       0.68779372       3.00149409
C       -2.63318270       0.47575779       1.42025593
C       -1.83117595      -2.12735273      -0.24865684
C        2.27038224       0.60809562      -2.75376313
C        3.41771996      -0.55846214      -0.92626054
C       -0.04251812       0.90185630      -0.72188128
C        0.89330271      -0.53956708       2.83169661
C       -1.20203103      -0.96820785       3.62255281
C       -0.71689751      -0.87115991      -3.80775395
C        1.57897966       1.78688952      -3.16235578
C        1.57291204      -2.26831595      -1.47465548
C       -2.29936365      -1.80109481      -2.46294228
C        0.13324125       1.55849732       1.80470185
C        0.34356369       0.03390485      -3.94853885
C       -2.32661777       0.50614982      -2.43993324
C       -0.39366794      -2.18838301       1.68966077
C       -2.75856194       0.06697632      -1.12825799
C        1.80153157       2.77272024      -0.96599940
C        2.63347600       1.68441524      -0.58324967
C       -2.13350254       1.18896387       3.71124506
C       -0.00474131       3.24190369      -2.50846876
C       -0.34145797       3.50458779      -0.09951400
C        3.66486037      -0.65847537       0.47198219
C        1.98184952      -0.76164724       1.97565464
C        1.99143416      -2.00161100       1.29381952
C        0.74321576      -2.50475427       0.85571052
C       -0.81088844       3.50490245      -1.41810243
C       -0.11207430      -1.53360189       2.90767220
C        1.00061986       3.15203253       0.14751388
C       -0.05049316       0.77777967       0.53991576
C       -2.30290069       2.26029944      -0.21879199
C       -2.22716395       1.52172799       2.34935332
C        3.12483241      -2.01262042       0.45290354
C        0.35584201       1.42259653      -3.81872734
C       -1.64982353      -1.84239244       1.11334865
C       -1.41254691       2.94733147       0.65467431
C        2.82347207       0.16122302       1.30264998
C        2.82401160      -1.86927995      -0.93862158
C        0.55198866      -2.69866580      -0.54986545
C       -0.80031099      -2.75384237      -1.01013419
C       -0.95005117       0.40871834       3.75803308
C        1.34221934       2.28103271       1.24105217
C       -2.66487376      -1.37721495      -1.13534077
C       -2.54623720      -1.20819655       3.22925554
C       -3.50262843      -0.59240877       4.05380112
C       -1.95766161       2.68320931      -1.50936878
C       -0.16712846      -2.06019706      -3.21198672
C       -2.70590275       0.92167811       0.02024245
C       -1.13367934      -2.62727600      -2.37662810
C        1.33283564       2.85719767      -2.28141304
C       -1.98463266      -0.63604023      -3.22568556
C       -3.26067383       0.62766261       4.32389846
C       -0.66411883       2.24335163      -3.31966108
C        2.93556846       0.63386236      -1.48966753
C       -1.14388195       2.33720862       1.86577822
C       -2.49317029      -0.91146838       1.83363755
C       -1.84132013       1.81864344      -2.61932321
C        1.15711504      -1.78303015      -2.75103132
C        2.45667623       1.43593970       0.80651830
C        1.51379963      -0.50608577      -3.28739960
60
Properties=species:S:1:pos:R:3 trajectory=trial0001_proposal001_step007_proposal_relax trajectory_step=30 pbc="F F F"
C        0.22469191       0.68502868       3.00104042
C       -2.63078437       0.47659702       1.41783318
C       -1.83137557      -2.12465053      -0.24948203
C        2.27034749       0.60789707      -2.75250739
C        3.41804642      -0.56027785      -0.92589565
C       -0.04306071       0.89944471      -0.72224192
C        0.89254886      -0.54135260       2.83145001
C       -1.20341987      -0.96829863       3.62293618
C       -0.71797278      -0.86928251      -3.80712436
C        1.58009737       1.78687850      -3.16029469
C        1.57216524      -2.26932968      -1.47458466
C       -2.30021701      -1.79801759      -2.46337196
C        0.13405019       1.55593668       1.80371587
C        0.34311902       0.03603660      -3.94715000
C       -2.32777856       0.50989844      -2.44102056
C       -0.39470208      -2.19011309       1.69046816
C       -2.76027610       0.07028849      -1.12962547
C        1.80415622       2.77150188      -0.96376950
C        2.63605083       1.68257206      -0.58137328
C       -2.13474392       1.18954046       3.70910759
C       -0.00318601       3.24402533      -2.50631357
C       -0.33867503       3.50355427      -0.09786543
C        3.66382697      -0.66132903       0.47282906
C        1.98114229      -0.76410169       1.97610920
C        1.99011434      -2.00411321       1.29382711
C        0.74242090      -2.50659211       0.85647741
C       -0.80872498       3.50618234      -1.41837614
C       -0.11339357      -1.53487470       2.90873372
C        1.00262130       3.15025988       0.14904659
C       -0.04979823       0.77400392       0.54182791
C       -2.30101896       2.26187324      -0.21858019
C       -2.22618667       1.52229214       2.34755642
C        3.12409297      -2.01522681       0.45292212
C        0.35672669       1.42296880      -3.81685986
C       -1.64932434      -1.84144909       1.11257675
C       -1.41035215       2.94787947       0.65567753
C        2.82304297       0.15790473       1.30362623
C        2.82337163      -1.87159985      -0.93874489
C        0.55050649      -2.69904713      -0.54972958
C       -0.80158269      -2.75194969      -1.01098218
C       -0.95050165       0.40895243       3.75718494
C        1.34362571       2.27809869       1.24240578
C       -2.66532165      -1.37361447      -1.13594481
C       -2.54667227      -1.20738507       3.22676110
C       -3.50656130      -0.59243010       4.04767202
C       -1.95688101       2.68591373      -1.50881100
C       -0.16881880      -2.05922127      -3.21223763
C       -2.70543551       0.92386187       0.01880942
C       -1.13555099      -2.62568472      -2.37790525
C        1.33475788       2.85722299      -2.27900536
C       -1.98530478      -0.63293544      -3.22584863
C       -3.26371539       0.62762116       4.31689201
C       -0.66296361       2.24554764      -3.31794897
C        2.93702694       0.63202348      -1.48811326
C       -1.14167336       2.33680212       1.86596696
C       -2.49218284      -0.91025208       1.83137066
C       -1.84132062       1.82205917      -2.61975284
C        1.15574572      -1.78240708      -2.75029256
C        2.45789339       1.43386702       0.80791570
C        1.51273576      -0.50544148      -3.28594368
60
Properties=species:S:1:pos:R:3 trajectory=trial0001_proposal001_step007_proposal_relax trajectory_step=31 pbc="F F F"
C        0.22486925       0.68512377       3.00145531
C       -2.63056579       0.47599238       1.41787481
C       -1.83075274      -2.12504872      -0.24919952
C        2.27003607       0.60767280      -2.75267873
C        3.41822822      -0.56001354      -0.92602512
C       -0.04336008       0.89874203      -0.72073772
C        0.89316252      -0.54072428       2.83145983
C       -1.20298491      -0.96756355       3.62322198
C       -0.71814641      -0.86955166      -3.80711592
C        1.57957381       1.78662743      -3.16046749
C        1.57241422      -2.26896512      -1.47463397
C       -2.30033009      -1.79857803      -2.46333532
C        0.13430588       1.55636992       1.80408824
C        0.34278338       0.03526914      -3.94768064
C       -2.32782521       0.50952527      -2.44084510
C       -0.39408764      -2.18987227       1.69073835
C       -2.76037263       0.06941751      -1.12954565
C        1.80369020       2.77173080      -0.96396323
C        2.63601823       1.68292643      -0.58179107
C       -2.13496411       1.18964005       3.70895367
C       -0.00348267       3.24385291      -2.50710308
C       -0.33947723       3.50321984      -0.09809329
C        3.66420736      -0.66072869       0.47261944
C        1.98173320      -0.76339910       1.97642144
C        1.99032544      -2.00309028       1.29359298
C        0.74303145      -2.50582395       0.85647409
C       -0.80956504       3.50622313      -1.41822519
C       -0.11314890      -1.53399940       2.90873359
C        1.00202133       3.15016942       0.14905365
C       -0.04990696       0.77451730       0.54161314
C       -2.30105718       2.26108235      -0.21879826
C       -2.22626706       1.52198324       2.34738538
C        3.12454269      -2.01455601       0.45298800
C        0.35625177       1.42270395      -3.81715899
C       -1.64860049      -1.84133339       1.11285601
C       -1.41109179       2.94773146       0.65579110
C        2.82334280       0.15850335       1.30330392
C        2.82344994      -1.87115952      -0.93850585
C        0.55100102      -2.69863244      -0.54976483
C       -0.80094131      -2.75166386      -1.01112079
C       -0.94999413       0.40973938       3.75786406
C        1.34391121       2.27838202       1.24266220
C       -2.66518831      -1.37443349      -1.13573147
C       -2.54621208      -1.20764075       3.22747411
C       -3.50645651      -0.59246496       4.04805938
C       -1.95741307       2.68563016      -1.50899672
C       -0.16880144      -2.05949371      -3.21241696
C       -2.70542495       0.92294073       0.01870407
C       -1.13543828      -2.62576805      -2.37787841
C        1.33397397       2.85705918      -2.27934300
C       -1.98559885      -0.63330463      -3.22574332
C       -3.26399182       0.62765398       4.31655150
C       -0.66325882       2.24497689      -3.31823619
C        2.93693965       0.63212173      -1.48847180
C       -1.14185542       2.33686967       1.86626849
C       -2.49202792      -0.91084427       1.83186833
C       -1.84188770       1.82165867      -2.62002807
C        1.15578987      -1.78240552      -2.75044983
C        2.45780204       1.43426879       0.80729954
C        1.51252009      -0.50570904      -3.28624830
