60
Properties=species:S:1:pos:R:3 trajectory=trial0001_proposal001_step006_proposal_relax trajectory_step=0 pbc="F F F"
C        0.34925911       0.98507891       2.97751838
C       -2.59634309       0.31870678       1.51924630
C       -1.48752137      -2.35796995       0.03589227
C        2.04955467       0.73001722      -2.92141582
C        3.44315674      -0.11353431      -1.09394018
C       -0.17481656       0.86419254      -0.74355700
C        1.16339759      -0.16339555       2.82611284
C       -0.85039119      -0.79080910       3.72844095
C       -0.74816272      -1.24461850      -3.67155001
C        1.17424282       1.76029536      -3.37667259
C        1.83680265      -2.10979546      -1.39129361
C       -2.10333871      -2.27167052      -2.15959818
C        0.08123587       1.70807253       1.70984504
C        0.16508640      -0.21313329      -3.94443360
C       -2.46976027      -0.00095578      -2.31008457
C        0.02499922      -2.01665889       1.86685487
C       -2.76155781      -0.38933702      -0.94550366
C        1.35771121       2.94308842      -1.26819408
C        2.35442798       2.01681414      -0.86051912
C       -2.05475616       1.21885616       3.74496721
C       -0.56856632       3.02353086      -2.74320320
C       -0.81592310       3.42649360      -0.33421621
C        3.76903244      -0.05486844       0.28838216
C        2.20762722      -0.27048858       1.90254073
C        2.35850453      -1.54610136       1.31340356
C        1.16834194      -2.25109998       0.99747662
C       -1.34893726       3.25297030      -1.62270000
C        0.29312104      -1.25328135       3.01075320
C        0.57709262       3.28587846      -0.13305912
C       -0.08560761       0.82063996       0.51606355
C       -2.57197422       1.92928436      -0.24659458
C       -2.25680572       1.44972743       2.37331385
C        3.43109536      -1.46599633       0.40013069
C       -0.01437331       1.16891185      -3.92842540
C       -1.30548066      -1.89273779       1.34186408
C       -1.72920832       2.77105865       0.53970148
C        2.86820284       0.70107697       1.11123943
C        3.03987449      -1.48961206      -0.97276725
C        0.94329858      -2.59932686      -0.37606292
C       -0.40836702      -2.88605928      -0.73862998
C       -0.77638235       0.60250050       3.78786749
C        1.10996486       2.56168495       0.99860322
C       -2.45299285      -1.80043640      -0.84768092
C       -2.16765486      -1.21994679       3.39048482
C       -3.11608583      -0.70045583       4.28935878
C       -2.36666038       2.27638072      -1.58030666
C        0.00249970      -2.29102240      -3.02626075
C       -2.78488407       0.58304276       0.10533340
C       -0.82701675      -2.91492458      -2.09159751
C        0.82116325       2.85423634      -2.56628532
C       -2.00769496      -1.14387420      -3.02766332
C       -3.05854955       0.55362687       4.47271655
C       -1.11639660       1.87409507      -3.42914171
C        2.75813895       0.95059534      -1.70056702
C       -1.28476459       2.30844588       1.75798665
C       -2.28536956      -1.03079076       1.99335915
C       -2.18025634       1.34523406      -2.62298617
C        1.29303027      -1.79206748      -2.67092086
C        2.30499600       1.86711357       0.55237564
C        1.43618990      -0.52311622      -3.32095170
60
Properties=species:S:1:pos:R:3 trajectory=trial0001_proposal001_step006_proposal_relax trajectory_step=1 pbc="F F F"
C        0.34922095       0.98243890       2.97870546
C       -2.59900242       0.31082513       1.52393534
C       -1.48662294      -2.35741263       0.03432691
C        2.04846873       0.72910304      -2.92151772
C        3.44210205      -0.11179338      -1.09469682
C       -0.17526652       0.86295187      -0.74669280
C        1.16224953      -0.15619411       2.83162516
C       -0.85009064      -0.79365503       3.72417367
C       -0.74787454      -1.24341769      -3.67123661
C        1.17537525       1.75926454      -3.37683525
C        1.83788101      -2.10887034      -1.39282565
C       -2.10268102      -2.27266808      -2.16139695
C        0.07963722       1.71018936       1.70848327
C        0.16500890      -0.21316449      -3.94445480
C       -2.46892941      -0.00091462      -2.31170235
C        0.02531764      -2.01700641       1.86173185
C       -2.76217782      -0.38617377      -0.94576617
C        1.35848626       2.94171892      -1.27016947
C        2.35686362       2.01645121      -0.86038638
C       -2.05520267       1.21851581       3.74517714
C       -0.57008082       3.02427273      -2.74002247
C       -0.81163645       3.42482762      -0.33152339
C        3.77107224      -0.05663474       0.28827994
C        2.20857351      -0.27390216       1.90446692
C        2.35552751      -1.54847102       1.31190301
C        1.16604402      -2.25029512       0.99705407
C       -1.34578709       3.25542502      -1.62205130
C        0.28528291      -1.25581455       3.01262928
C        0.57377890       3.28602624      -0.13272740
C       -0.08252596       0.81790807       0.52275010
C       -2.57294351       1.92902692      -0.24428041
C       -2.25498132       1.44831606       2.37236063
C        3.43107801      -1.46732338       0.40160925
C       -0.01355664       1.16913445      -3.92811677
C       -1.30377968      -1.89319027       1.33870008
C       -1.72708631       2.77529927       0.53039025
C        2.86960398       0.70068967       1.11223953
C        3.04063569      -1.49039170      -0.97254223
C        0.94126152      -2.59929231      -0.37316244
C       -0.40951643      -2.88724276      -0.74056475
C       -0.77109319       0.60439049       3.78548152
C        1.11053366       2.56309457       0.99980336
C       -2.45654487      -1.79919387      -0.85000449
C       -2.17066203      -1.21949292       3.39768148
C       -3.11884055      -0.70234876       4.28583939
C       -2.36478678       2.28068187      -1.58173265
C        0.00095209      -2.29024387      -3.02666972
C       -2.78669387       0.58515086       0.10603939
C       -0.82703958      -2.91528882      -2.08928235
C        0.82117455       2.85543263      -2.56272916
C       -2.00616782      -1.14428142      -3.02860509
C       -3.05808896       0.55673212       4.47183546
C       -1.11658426       1.87402969      -3.42925089
C        2.75836915       0.94986489      -1.70218719
C       -1.28776675       2.30938314       1.76195473
C       -2.27876619      -1.02947845       1.99306360
C       -2.18092016       1.34457305      -2.62316856
C        1.29302878      -1.79149011      -2.67137786
C        2.30641464       1.86731806       0.55067706
C        1.43520301      -0.52382392      -3.32018783
60
Properties=species:S:1:pos:R:3 trajectory=trial0001_proposal001_step006_proposal_relax trajectory_step=2 pbc="F F F"
C        0.34882453       0.98378195       2.97794674
C       -2.60226289       0.30356694       1.52771278
C       -1.48744527      -2.35626036       0.03064472
C        2.04734435       0.72765969      -2.92159274
C        3.44137759      -0.11150053      -1.09468992
C       -0.17510014       0.86105440      -0.74208015
C        1.16215772      -0.15471457       2.83709798
C       -0.85268812      -0.79407610       3.72090880
C       -0.74749729      -1.24227500      -3.67098438
C        1.17586031       1.75977305      -3.37621292
C        1.83822247      -2.10849326      -1.39318819
C       -2.10282082      -2.27331446      -2.16303093
C        0.07820685       1.71285342       1.70870493
C        0.16511086      -0.21281158      -3.94459818
C       -2.46809810      -0.00072918      -2.31323843
C        0.02474539      -2.01632438       1.85780288
C       -2.76300677      -0.38280302      -0.94694708
C        1.35916895       2.94046568      -1.26946332
C        2.35943372       2.01647527      -0.86120991
C       -2.05376309       1.21799795       3.74506975
C       -0.56948791       3.02454617      -2.73779473
C       -0.80776408       3.42395158      -0.33138155
C        3.77292631      -0.05854380       0.28830595
C        2.20840883      -0.27661539       1.90816620
C        2.35240366      -1.55025528       1.31102835
C        1.16312869      -2.24967284       0.99581357
C       -1.34301268       3.25874572      -1.62013593
C        0.28075160      -1.25776985       3.01171530
C        0.57471144       3.28503214      -0.13230197
C       -0.07932242       0.81404269       0.52246508
C       -2.57291920       1.93148891      -0.24481716
C       -2.25367798       1.44499673       2.37192536
C        3.43076338      -1.46932057       0.40263097
C       -0.01278004       1.16975679      -3.92752931
C       -1.30157870      -1.89347501       1.33474125
C       -1.72461216       2.77693204       0.52792358
C        2.87162111       0.69915773       1.11347876
C        3.04190164      -1.49053261      -0.97218901
C        0.93936109      -2.59925514      -0.37238083
C       -0.41035368      -2.88837919      -0.74099180
C       -0.76842516       0.60425960       3.78421994
C        1.11117252       2.56501708       1.00057062
C       -2.46000452      -1.79808198      -0.85242215
C       -2.17291421      -1.21991021       3.40300157
C       -3.12399260      -0.70005581       4.28321682
C       -2.36356948       2.28436082      -1.58211579
C       -0.00032158      -2.28974664      -3.02641301
C       -2.78921834       0.58604673       0.10838281
C       -0.82698690      -2.91544825      -2.08913372
C        0.82060451       2.85515839      -2.56109814
C       -2.00478761      -1.14446087      -3.02961290
C       -3.05801524       0.55697717       4.47039231
C       -1.11646120       1.87432087      -3.42887493
C        2.75876028       0.94942286      -1.70394112
C       -1.29186782       2.31299575       1.76144626
C       -2.27007724      -1.02950474       1.99525494
C       -2.18112391       1.34560022      -2.62345490
C        1.29247429      -1.79123703      -2.67186599
C        2.30799056       1.86707106       0.54975109
C        1.43397264      -0.52437627      -3.31957831
60
Properties=species:S:1:pos:R:3 trajectory=trial0001_proposal001_step006_proposal_relax trajectory_step=3 pbc="F F F"
C        0.34872832       0.98859264       2.97573891
C       -2.60872083       0.29335992       1.53254058
C       -1.49186644      -2.35246504       0.02165427
C        2.04518324       0.72532617      -2.92150726
C        3.44093287      -0.11285760      -1.09369685
C       -0.17522301       0.85568219      -0.74007028
C        1.16232821      -0.15909454       2.84673869
C       -0.85929682      -0.79295161       3.71609250
C       -0.74650542      -1.24066494      -3.67096733
C        1.17640947       1.76085011      -3.37458689
C        1.83763712      -2.10838933      -1.39260443
C       -2.10485188      -2.27350910      -2.16679633
C        0.07503479       1.71825264       1.70797190
C        0.16535239      -0.21091220      -3.94520365
C       -2.46634617       0.00231995      -2.31593379
C        0.02204990      -2.01398613       1.85138026
C       -2.76539694      -0.37705677      -0.95002201
C        1.36169087       2.93779996      -1.26724181
C        2.36488513       2.01683357      -0.86328673
C       -2.04852368       1.21699734       3.74456012
C       -0.56656567       3.02488617      -2.73469607
C       -0.79998406       3.42396942      -0.33123639
C        3.77545570      -0.06327134       0.28981719
C        2.20884462      -0.28098470       1.91661100
C        2.34656130      -1.55187520       1.31060760
C        1.15764342      -2.24867723       0.99147905
C       -1.33861755       3.26553241      -1.61837061
C        0.27573696      -1.25871042       3.00733692
C        0.58250323       3.28241774      -0.13115742
C       -0.07093464       0.80637904       0.53434260
C       -2.57215535       1.93632437      -0.24513931
C       -2.25251265       1.43608766       2.37129969
C        3.42915624      -1.47429565       0.40469110
C       -0.01179695       1.17165143      -3.92638320
C       -1.29777727      -1.89299732       1.32583353
C       -1.72150504       2.77908637       0.52646102
C        2.87494424       0.69447991       1.11724500
C        3.04330102      -1.49146590      -0.97191504
C        0.93636011      -2.59915166      -0.37525193
C       -0.41314627      -2.89063091      -0.74243293
C       -0.76849452       0.60328487       3.78347418
C        1.11447406       2.56807193       1.00254371
C       -2.46664530      -1.79555382      -0.85829621
C       -2.17698773      -1.22319177       3.40977231
C       -3.13922609      -0.69615592       4.27729662
C       -2.36156994       2.29138440      -1.58258262
C       -0.00127468      -2.28850803      -3.02572540
C       -2.79542913       0.58805738       0.11224240
C       -0.82787772      -2.91608702      -2.09135326
C        0.82105081       2.85318865      -2.55765846
C       -2.00330461      -1.14361310      -3.03135989
C       -3.05750589       0.56156656       4.46670047
C       -1.11520797       1.87648125      -3.42681999
C        2.76071616       0.94804876      -1.70695694
C       -1.29844068       2.31858122       1.76028225
C       -2.25146283      -1.03303035       2.00329980
C       -2.18052156       1.35093762      -2.62389413
C        1.29082509      -1.79202909      -2.67152303
C        2.31203553       1.86421192       0.55071004
C        1.43128252      -0.52496140      -3.31900357
60
Properties=species:S:1:pos:R:3 trajectory=trial0001_proposal001_step006_proposal_relax trajectory_step=4 pbc="F F F"
C        0.34929624       0.98706469       2.97810730
C       -2.61006981       0.29150921       1.53262488
C       -1.49469065      -2.34984665       0.01794642
C        2.04489023       0.72495227      -2.92096118
C        3.44167373      -0.11493532      -1.09232204
C       -0.17412730       0.85158105      -0.72660703
C        1.16160338      -0.16047899       2.84881341
C       -0.86028265      -0.79297772       3.71483330
C       -0.74609080      -1.24015314      -3.67149579
C        1.17684828       1.76023534      -3.37378149
C        1.83654960      -2.10861719      -1.39282567
C       -2.10709869      -2.27239107      -2.16999103
C        0.07524793       1.72080420       1.70922300
C        0.16494348      -0.20983382      -3.94563874
C       -2.46553188       0.00665884      -2.31669383
C        0.02126119      -2.01324093       1.84803679
C       -2.76757649      -0.37495475      -0.95187951
C        1.36559601       2.93600634      -1.26690330
C        2.36855911       2.01546287      -0.86220548
C       -2.04733352       1.21755314       3.74397681
C       -0.56393766       3.02584806      -2.73417200
C       -0.79617968       3.42479829      -0.33013433
C        3.77498857      -0.06688262       0.29202428
C        2.21059502      -0.28324260       1.92055238
C        2.34428544      -1.55195790       1.31083789
C        1.15625110      -2.24770852       0.98846728
C       -1.33713367       3.26861274      -1.61877307
C        0.27294166      -1.25714781       3.00533172
C        0.58722240       3.28209469      -0.13043184
C       -0.06731518       0.80231547       0.53039143
C       -2.57142361       1.93706801      -0.24417778
C       -2.25239299       1.43248405       2.37020101
C        3.42730750      -1.47690107       0.40557766
C       -0.01209062       1.17328357      -3.92606832
C       -1.29745197      -1.89147016       1.32230234
C       -1.72126510       2.78072240       0.52574399
C        2.87548527       0.69158061       1.12035528
C        3.04229335      -1.49330530      -0.97152249
C        0.93465641      -2.59937193      -0.37857297
C       -0.41636514      -2.89128511      -0.74596188
C       -0.76848209       0.60400552       3.78287418
C        1.11871795       2.56729372       1.00429819
C       -2.46978062      -1.79356898      -0.86213470
C       -2.17981721      -1.22630479       3.41200016
C       -3.14926755      -0.69136627       4.27316587
C       -2.36112933       2.29478396      -1.58176665
C       -0.00116554      -2.28792006      -3.02581696
C       -2.79867901       0.58907771       0.11159344
C       -0.83024420      -2.91680610      -2.09398243
C        0.82323957       2.85179839      -2.55545478
C       -2.00369390      -1.14102961      -3.03223365
C       -3.05775295       0.56285558       4.46371540
C       -1.11316871       1.87915417      -3.42530945
C        2.76302219       0.94675694      -1.70711536
C       -1.29968585       2.31699920       1.76227224
C       -2.24655079      -1.03491743       2.00558682
C       -2.17977583       1.35525573      -2.62382278
C        1.29036427      -1.79231970      -2.67062579
C        2.31472576       1.86085516       0.55252839
C        1.43043337      -0.52497083      -3.31894962
60
Properties=species:S:1:pos:R:3 trajectory=trial0001_proposal001_step006_proposal_relax trajectory_step=5 pbc="F F F"
C        0.34967439       0.98645166       2.97904878
C       -2.60938848       0.29264536       1.53107438
C       -1.49550837      -2.34912875       0.01738805
C        2.04546927       0.72496713      -2.92052786
C        3.44225246      -0.11627737      -1.09149971
C       -0.17400829       0.85025807      -0.72599194
C        1.16170796      -0.16129067       2.84749542
C       -0.86074297      -0.79277609       3.71576733
C       -0.74628876      -1.24008694      -3.67178128
C        1.17701429       1.76000038      -3.37350442
C        1.83588522      -2.10898648      -1.39302857
C       -2.10824551      -2.27136144      -2.17116013
C        0.07660182       1.71984262       1.71039431
C        0.16468997      -0.20959348      -3.94577205
C       -2.46546592       0.00835786      -2.31653438
C        0.02130666      -2.01304786       1.84790454
C       -2.76848434      -0.37480146      -0.95264322
C        1.36748379       2.93568797      -1.26629490
C        2.36971630       2.01428134      -0.86112070
C       -2.04769786       1.21822544       3.74367063
C       -0.56251500       3.02667329      -2.73443797
C       -0.79601013       3.42533792      -0.33023960
C        3.77405600      -0.06796376       0.29291205
C        2.21099538      -0.28339989       1.92145195
C        2.34436547      -1.55196452       1.31106686
C        1.15646621      -2.24738626       0.98749617
C       -1.33702252       3.26907630      -1.61860069
C        0.27319613      -1.25655039       3.00426637
C        0.58889515       3.28220640      -0.13007588
C       -0.06655226       0.80221694       0.53343855
C       -2.57098676       1.93714311      -0.24446605
C       -2.25261381       1.43236687       2.36988723
C        3.42649047      -1.47752520       0.40546490
C       -0.01224726       1.17359698      -3.92623520
C       -1.29811091      -1.89074619       1.32223200
C       -1.72119331       2.78030337       0.52811362
C        2.87542437       0.69069425       1.12132159
C        3.04155447      -1.49406448      -0.97117417
C        0.93396266      -2.59963610      -0.37997419
C       -0.41747309      -2.89089485      -0.74721862
C       -0.76926423       0.60381108       3.78339627
C        1.12033973       2.56630319       1.00485858
C       -2.47000317      -1.79299717      -0.86290784
C       -2.18036979      -1.22706734       3.41156140
C       -3.15166723      -0.69003691       4.27153890
C       -2.36135895       2.29508501      -1.58104696
C       -0.00119751      -2.28800285      -3.02604579
C       -2.79914400       0.58876549       0.11082654
C       -0.83166306      -2.91691720      -2.09582290
C        0.82444497       2.85114701      -2.55557493
C       -2.00409247      -1.13941720      -3.03256703
C       -3.05816323       0.56315002       4.46275107
C       -1.11243666       1.88037203      -3.42499280
C        2.76408798       0.94620563      -1.70628853
C       -1.29881517       2.31552295       1.76184682
C       -2.24877768      -1.03480210       2.00500811
C       -2.17941696       1.35688541      -2.62357172
C        1.29028069      -1.79206345      -2.67062673
C        2.31536170       1.85953884       0.55358577
C        1.43065011      -0.52476808      -3.31899152
60
Properties=species:S:1:pos:R:3 trajectory=trial0001_proposal001_step006_proposal_relax trajectory_step=6 pbc="F F F"
C        0.35165697       0.98460090       2.98401191
C       -2.60815718       0.29394314       1.52546072
C       -1.49993173      -2.34442981       0.01218512
C        2.04821791       0.72393080      -2.91797162
C        3.44464372      -0.12294269      -1.08745019
C       -0.17303295       0.84197848      -0.71699351
C        1.16125173      -0.16477764       2.84550764
C       -0.86481177      -0.79314977       3.71777959
C       -0.74715655      -1.23830192      -3.67322509
C        1.17905979       1.75819692      -3.37182902
C        1.83266797      -2.11077289      -1.39483957
C       -2.11470994      -2.26570348      -2.17864085
C        0.08343450       1.71654694       1.71726606
C        0.16391433      -0.20793537      -3.94645988
C       -2.46463344       0.01725029      -2.31737684
C        0.02015033      -2.01149140       1.84398200
C       -2.77401800      -0.37168089      -0.95741319
C        1.37780720       2.93298991      -1.26291888
C        2.37745165       2.00801065      -0.85577626
C       -2.04859811       1.22142161       3.74194359
C       -0.55559265       3.03186099      -2.73290453
C       -0.79180192       3.42668296      -0.32815422
C        3.77084047      -0.07503552       0.29759909
C        2.21359990      -0.28662693       1.92754690
C        2.34247564      -1.55411369       1.31179117
C        1.15486987      -2.24545344       0.98157202
C       -1.33372346       3.27339425      -1.61686039
C        0.27067628      -1.25461046       2.99900327
C        0.59753060       3.28140722      -0.12761333
C       -0.06069480       0.79902584       0.54718735
C       -2.56875292       1.93842580      -0.24399070
C       -2.25264778       1.43045624       2.36774874
C        3.42205174      -1.48266078       0.40615252
C       -0.01200558       1.17539443      -3.92669614
C       -1.30094726      -1.88727315       1.31891983
C       -1.71876246       2.78001057       0.53407322
C        2.87703334       0.68488917       1.12742524
C        3.03822033      -1.49878427      -0.96955641
C        0.92861807      -2.60090915      -0.38621951
C       -0.42424995      -2.88924332      -0.75448677
C       -0.77220425       0.60258554       3.78578020
C        1.12846217       2.56229536       1.00853505
C       -2.47364807      -1.78905232      -0.86885674
C       -2.18544824      -1.22987760       3.41136250
C       -3.16690988      -0.68469058       4.25984648
C       -2.36055064       2.30040910      -1.57868917
C       -0.00277508      -2.28742831      -3.02832756
C       -2.80260850       0.58920110       0.10757145
C       -0.83956425      -2.91755120      -2.10458852
C        0.83161188       2.84851942      -2.55346754
C       -2.00514310      -1.13065598      -3.03533477
C       -3.06088020       0.56766691       4.45674779
C       -1.10891975       1.88727287      -3.42323578
C        2.77032467       0.94198854      -1.70291826
C       -1.29480738       2.30906455       1.76156953
C       -2.25579496      -1.03464364       2.00331253
C       -2.17759677       1.36607427      -2.62248294
C        1.28890426      -1.79076451      -2.67143757
C        2.32017125       1.85241081       0.55876446
C        1.43088085      -0.52377932      -3.31888054
60
Properties=species:S:1:pos:R:3 trajectory=trial0001_proposal001_step006_proposal_relax trajectory_step=7 pbc="F F F"
C        0.35403590       0.98272868       2.99172547
C       -2.60863232       0.29392539       1.52129330
C       -1.50458936      -2.33886581       0.00561598
C        2.05173854       0.72154578      -2.91495656
C        3.44681326      -0.13048270      -1.08333180
C       -0.17186911       0.83314134      -0.70543613
C        1.15998465      -0.16793110       2.84741292
C       -0.87005663      -0.79504597       3.71720215
C       -0.74795379      -1.23419308      -3.67533299
C        1.18282168       1.75652603      -3.36915152
C        1.82895694      -2.11304833      -1.39782372
C       -2.12157788      -2.25909440      -2.18685112
C        0.09075862       1.71438943       1.72464875
C        0.16429933      -0.20567937      -3.94718800
C       -2.46403230       0.02628339      -2.31997723
C        0.01621748      -2.00908634       1.83812302
C       -2.78003762      -0.36695451      -0.96281455
C        1.38822049       2.92934854      -1.25847810
C        2.38583289       2.00147630      -0.85028386
C       -2.04926466       1.22406964       3.74012936
C       -0.54734742       3.03745889      -2.72936421
C       -0.78456119       3.42662901      -0.32424442
C        3.76971710      -0.08360690       0.30184865
C        2.21555136      -0.29251874       1.93368077
C        2.33897731      -1.55886722       1.31268720
C        1.15002390      -2.24393668       0.97578928
C       -1.32768191       3.27897430      -1.61258901
C        0.26486046      -1.25417256       2.99489056
C        0.60561264       3.27821443      -0.12359104
C       -0.05418568       0.79443574       0.56122101
C       -2.56608501       1.94157931      -0.24362172
C       -2.25101321       1.42944278       2.36465689
C        3.41797326      -1.48969272       0.40750639
C       -0.01074921       1.17829514      -3.92619859
C       -1.30532990      -1.88434066       1.31393163
C       -1.71316096       2.77892524       0.53722302
C        2.88079596       0.67847258       1.13411976
C        3.03517932      -1.50456101      -0.96834716
C        0.92200942      -2.60181053      -0.39170345
C       -0.43184045      -2.88696386      -0.76207381
C       -0.77444988       0.60087292       3.78824263
C        1.13571313       2.55825974       1.01301549
C       -2.47877570      -1.78403744      -0.87581788
C       -2.19254104      -1.22943285       3.40874985
C       -3.18175550      -0.67650349       4.24663379
C       -2.35799044       2.30817346      -1.57642028
C       -0.00663160      -2.28595683      -3.03249916
C       -2.80527245       0.59159229       0.10443783
C       -0.84823972      -2.91703957      -2.11290317
C        0.83952585       2.84702107      -2.54938880
C       -2.00575656      -1.12123933      -3.03926453
C       -3.06649899       0.56932389       4.44939245
C       -1.10494660       1.89490599      -3.42204071
C        2.77681677       0.93647606      -1.69970947
C       -1.28907847       2.30369445       1.76152921
C       -2.26241043      -1.03545833       2.00054570
C       -2.17554435       1.37534985      -2.62183496
C        1.28603790      -1.79005053      -2.67356452
C        2.32605587       1.84563832       0.56418098
C        1.43077822      -0.52303356      -3.31858191
60
Properties=species:S:1:pos:R:3 trajectory=trial0001_proposal001_step006_proposal_relax trajectory_step=8 pbc="F F F"
C        0.36231210       0.97851516       3.01786283
C       -2.61219188       0.29575938       1.50859444
C       -1.52032823      -2.32142864      -0.01573778
C        2.06288041       0.71335675      -2.90593312
C        3.45307384      -0.15445247      -1.07185732
C       -0.16788325       0.80718282      -0.66650633
C        1.15727203      -0.18034588       2.85662159
C       -0.89068430      -0.80055332       3.71336867
C       -0.75125615      -1.21888203      -3.68346318
C        1.19629869       1.75313037      -3.35865615
C        1.81682033      -2.12091037      -1.40774831
C       -2.14195074      -2.23789499      -2.21141691
C        0.11384949       1.70815312       1.74972415
C        0.16708630      -0.19520955      -3.94986620
C       -2.46365888       0.05340917      -2.32947057
C       -0.00027233      -2.00053985       1.82066853
C       -2.79744894      -0.35026527      -0.97934436
C        1.41791639       2.91751142      -1.24268591
C        2.41049039       1.98157754      -0.83364143
C       -2.05300462       1.23010258       3.73480368
C       -0.52251324       3.05402738      -2.71542271
C       -0.76005888       3.42473206      -0.31011827
C        3.76960374      -0.11125762       0.31484045
C        2.21828945      -0.31187114       1.95171943
C        2.32657231      -1.57632227       1.31528608
C        1.13144844      -2.24066852       0.95991307
C       -1.30510495       3.29555221      -1.60007962
C        0.24568923      -1.25616783       2.98260509
C        0.63071269       3.26540293      -0.10985676
C       -0.03553688       0.77901606       0.59958065
C       -2.55705817       1.95273950      -0.24221254
C       -2.24350436       1.42735051       2.35693333
C        3.40591568      -1.51368474       0.41174353
C       -0.00298441       1.18812888      -3.92291326
C       -1.32161738      -1.87741396       1.29724330
C       -1.69145404       2.77420530       0.54558357
C        2.89406022       0.65730672       1.15442194
C        3.02596442      -1.52400053      -0.96533246
C        0.90087041      -2.60363169      -0.40782790
C       -0.45477503      -2.87844113      -0.78470927
C       -0.78255223       0.59411216       3.79711890
C        1.15763812       2.54473896       1.02795847
C       -2.49543624      -1.76731486      -0.89705433
C       -2.21545561      -1.22384778       3.39673304
C       -3.22313741      -0.66654885       4.20287375
C       -2.34731236       2.33287342      -1.57152182
C       -0.02067793      -2.28073513      -3.04701107
C       -2.81085454       0.60087117       0.09484543
C       -0.87448730      -2.91210854      -2.13767902
C        0.86515662       2.84309886      -2.53551376
C       -2.00810684      -1.09255458      -3.05254398
C       -3.08440086       0.58867103       4.42669263
C       -1.09202601       1.91927027      -3.41793060
C        2.79581307       0.91893486      -1.68909294
C       -1.26964532       2.28973011       1.76152185
C       -2.28568138      -1.03726278       1.98777348
C       -2.16811209       1.40482295      -2.62044572
C        1.27528256      -1.78994917      -2.68177123
C        2.34490627       1.82591808       0.58109018
C        1.43069753      -0.52237297      -3.31770772
60
Properties=species:S:1:pos:R:3 trajectory=trial0001_proposal001_step006_proposal_relax trajectory_step=9 pbc="F F F"
C        0.36763659       0.97604783       3.03413760
C       -2.61673430       0.29798199       1.50394323
C       -1.53041077      -2.31257188      -0.02872684
C        2.06875321       0.70810812      -2.90108983
C        3.45569157      -0.16757672      -1.06697159
C       -0.16567416       0.79531123      -0.64868114
C        1.15410918      -0.18941691       2.86816610
C       -0.90225638      -0.80273957       3.70624288
C       -0.75321419      -1.20700903      -3.69046018
C        1.20640007       1.75259762      -3.35065672
C        1.80989657      -2.12601313      -1.41328199
C       -2.15127850      -2.22583424      -2.22326265
C        0.12412655       1.70627925       1.76322157
C        0.17022440      -0.18789830      -3.95149880
C       -2.46512830       0.06792884      -2.33663477
C       -0.01422761      -1.99644124       1.81059652
C       -2.80401071      -0.33835877      -0.98784547
C        1.43046022       2.90973749      -1.23372357
C        2.42161170       1.97242628      -0.82561454
C       -2.05477811       1.23014853       3.73177969
C       -0.50752607       3.06037836      -2.70695389
C       -0.74349344       3.42181626      -0.30124229
C        3.77391195      -0.12841687       0.32126152
C        2.21732409      -0.32435216       1.95812729
C        2.31660974      -1.58779441       1.31615763
C        1.11730511      -2.24121380       0.95391985
C       -1.29002708       3.30372343      -1.59191104
C        0.23178568      -1.25888778       2.97944159
C        0.64365235       3.25585813      -0.10045599
C       -0.02679136       0.76971814       0.61934102
C       -2.55040421       1.96044866      -0.24077401
C       -2.23609598       1.42624719       2.35281721
C        3.39951603      -1.52940473       0.41460873
C        0.00530014       1.19779137      -3.91805893
C       -1.33401570      -1.87662905       1.28627364
C       -1.67680785       2.77247402       0.54314013
C        2.90173567       0.64403425       1.16435241
C        3.02144469      -1.53587733      -0.96504570
C        0.88884342      -2.60283947      -0.41441899
C       -0.46682714      -2.87210360      -0.79610332
C       -0.78629827       0.59001562       3.80155799
C        1.16928887       2.53653242       1.03767693
C       -2.50622686      -1.75641550      -0.90881003
C       -2.22881637      -1.21744830       3.38558185
C       -3.23937839      -0.64806731       4.18581594
C       -2.33766564       2.34769980      -1.57007266
C       -0.02985937      -2.27565125      -3.05725731
C       -2.81073505       0.60955217       0.09030889
C       -0.88656846      -2.90514740      -2.14764151
C        0.87842938       2.84327297      -2.52452898
C       -2.01051099      -1.07868653      -3.06064505
C       -3.10075401       0.58395373       4.41216452
C       -1.08251608       1.93193884      -3.41533854
C        2.80348063       0.90903141      -1.68404912
C       -1.25886385       2.28524117       1.76659730
C       -2.29628202      -1.03785311       1.97637435
C       -2.16295958       1.41946399      -2.62141973
C        1.26790058      -1.79337613      -2.68766134
C        2.35661328       1.81557754       0.59026282
C        1.43053298      -0.52374706      -3.31798323
60
Properties=species:S:1:pos:R:3 trajectory=trial0001_proposal001_step006_proposal_relax trajectory_step=10 pbc="F F F"
C        0.36851297       0.97535733       3.03766773
C       -2.61933642       0.29886801       1.50521413
C       -1.53287652      -2.31245736      -0.03097288
C        2.06923385       0.70635088      -2.90059831
C        3.45514285      -0.16915796      -1.06724506
C       -0.16503804       0.79640772      -0.64699687
C        1.15349784      -0.19144342       2.87390322
C       -0.90521905      -0.80271921       3.70160629
C       -0.75397269      -1.20289217      -3.69321275
C        1.21002860       1.75449399      -3.34756293
C        1.80870762      -2.12738290      -1.41395644
C       -2.15060692      -2.22404561      -2.22310654
C        0.12327424       1.70733444       1.76428728
C        0.17214889      -0.18495257      -3.95182134
C       -2.46658405       0.06873627      -2.33925962
C       -0.01980011      -1.99668939       1.80988489
C       -2.80190931      -0.33441316      -0.98825484
C        1.42862593       2.90799121      -1.23143341
C        2.42094764       1.97240953      -0.82572802
C       -2.05581369       1.22702444       3.73217186
C       -0.50504679       3.05932374      -2.70467389
C       -0.73876089       3.42018482      -0.30031095
C        3.77784920      -0.13218666       0.32088639
C        2.21355805      -0.32781182       1.95667516
C        2.31283119      -1.59066691       1.31554838
C        1.11211814      -2.24342863       0.95578445
C       -1.28536442       3.30405150      -1.59015355
C        0.22728385      -1.26173874       2.98118246
C        0.64429743       3.25267905      -0.09755471
C       -0.02780857       0.76824989       0.61651663
C       -2.54789093       1.96350925      -0.24173960
C       -2.23317577       1.42592259       2.35353811
C        3.39890007      -1.53325816       0.41499548
C        0.00989487       1.20106196      -3.91525762
C       -1.33806570      -1.87929579       1.28358854
C       -1.67218925       2.77172486       0.54149859
C        2.90321592       0.64118174       1.16373000
C        3.02165983      -1.53779703      -0.96586444
C        0.88708671      -2.60122046      -0.41291228
C       -0.46743951      -2.86974397      -0.79585294
C       -0.78619976       0.59000817       3.80180784
C        1.16974858       2.53504559       1.03987306
C       -2.50870056      -1.75379743      -0.90997545
C       -2.23103678      -1.21395715       3.38086254
C       -3.23543879      -0.65100211       4.18643435
C       -2.33381858       2.34951801      -1.57060534
C       -0.03254723      -2.27345710      -3.06012373
C       -2.80787178       0.61324123       0.09068075
C       -0.88565077      -2.90024265      -2.14633918
C        0.87926013       2.84488471      -2.52142035
C       -2.01155559      -1.07849220      -3.06252811
C       -3.10491022       0.58630486       4.41055894
C       -1.07936343       1.93246295      -3.41493620
C        2.80185416       0.90770117      -1.68386587
C       -1.25846295       2.28964968       1.76831397
C       -2.29590356      -1.03729596       1.97284347
C       -2.16136457       1.41977948      -2.62297308
C        1.26633199      -1.79615141      -2.68984812
C        2.35865978       1.81511024       0.59074320
C        1.43050073      -0.52530651      -3.31866381
60
Properties=species:S:1:pos:R:3 trajectory=trial0001_proposal001_step006_proposal_relax trajectory_step=11 pbc="F F F"
C        0.37047862       0.97367577       3.04528096
C       -2.62204970       0.30389321       1.50313420
C       -1.54127026      -2.31083539      -0.03675533
C        2.07204449       0.70256441      -2.89769138
C        3.45501459      -0.17571439      -1.06580021
C       -0.16325174       0.79622775      -0.64131099
C        1.15199975      -0.19867548       2.88143564
C       -0.91423667      -0.80191084       3.69474748
C       -0.75658933      -1.19378787      -3.69983685
C        1.21945616       1.75733006      -3.34077062
C        1.80443151      -2.13115347      -1.41595555
C       -2.15271823      -2.21633051      -2.22658556
C        0.12558631       1.70519646       1.76979186
C        0.17547554      -0.17778843      -3.95268931
C       -2.46887602       0.07491417      -2.34489285
C       -0.03165205      -1.99830386       1.80857744
C       -2.79923736      -0.32511403      -0.99114265
C        1.43078190       2.90352491      -1.22379316
C        2.42307789       1.96781329      -0.82254988
C       -2.05893413       1.22288277       3.73179617
C       -0.49763605       3.06109260      -2.69930716
C       -0.72878355       3.41776681      -0.29564018
C        3.78226069      -0.14358993       0.32293439
C        2.20641410      -0.33531941       1.95563980
C        2.30423851      -1.59725549       1.31399734
C        1.10146421      -2.24779452       0.95705278
C       -1.27428167       3.30564039      -1.58794189
C        0.21857172      -1.26684067       2.98030739
C        0.65098934       3.24679908      -0.09018846
C       -0.02814495       0.76588624       0.61710894
C       -2.54052907       1.96934934      -0.24160824
C       -2.22866667       1.42566056       2.35408473
C        3.39414288      -1.54384284       0.41566402
C        0.02064679       1.20656455      -3.91082026
C       -1.34841824      -1.88259789       1.27846140
C       -1.66275535       2.77227976       0.54124204
C        2.90575907       0.63112497       1.16447640
C        3.01910863      -1.54454125      -0.96669059
C        0.88061093      -2.59862614      -0.41298746
C       -0.47212098      -2.86309242      -0.79878085
C       -0.78846249       0.58838702       3.80440165
C        1.17484819       2.52896316       1.04648473
C       -2.51441004      -1.74649189      -0.91459401
C       -2.23686041      -1.20989331       3.37051967
C       -3.23306774      -0.65421040       4.18436186
C       -2.32481912       2.35447218      -1.57232290
C       -0.03759220      -2.26820004      -3.06742010
C       -2.80310870       0.62129295       0.08825364
C       -0.88773698      -2.88944256      -2.14874476
C        0.88679908       2.84666184      -2.51424561
C       -2.01500174      -1.07218930      -3.06833249
C       -3.11566598       0.59183961       4.40580193
C       -1.07088405       1.93672922      -3.41273138
C        2.80183712       0.90164163      -1.67999441
C       -1.25452825       2.29437863       1.77391308
C       -2.30163381      -1.03498887       1.96462215
C       -2.15615315       1.42568494      -2.62555477
C        1.26362425      -1.80023965      -2.69528114
C        2.36450463       1.80951956       0.59434137
C        1.43135772      -0.52742233      -3.32042264
60
Properties=species:S:1:pos:R:3 trajectory=trial0001_proposal001_step006_proposal_relax trajectory_step=12 pbc="F F F"
C        0.37130165       0.97012220       3.05008318
C       -2.62254146       0.30720895       1.50042422
C       -1.54875070      -2.30934885      -0.04053507
C        2.07505149       0.69955939      -2.89442903
C        3.45551243      -0.18327733      -1.06301258
C       -0.16164574       0.79587770      -0.63792144
C        1.14891841      -0.20392531       2.88468018
C       -0.91912312      -0.80239428       3.68991445
C       -0.75795753      -1.18692071      -3.70501475
C        1.22705724       1.75854980      -3.33614982
C        1.80039224      -2.13379421      -1.41775869
C       -2.15553031      -2.20881874      -2.23129200
C        0.12693652       1.70293244       1.77332189
C        0.17768862      -0.17454491      -3.95343167
C       -2.46944600       0.08233746      -2.34882473
C       -0.03994001      -2.00183130       1.80664447
C       -2.79748703      -0.31777875      -0.99489155
C        1.43609686       2.89956715      -1.21801188
C        2.42643571       1.96234499      -0.81833766
C       -2.06196882       1.22047151       3.73174422
C       -0.48736652       3.06310974      -2.69790520
C       -0.72048546       3.41780820      -0.29367603
C        3.78302803      -0.15432605       0.32510074
C        2.20218647      -0.34174314       1.95530182
C        2.29653574      -1.60198590       1.31274892
C        1.09372981      -2.25138473       0.95658976
C       -1.26674895       3.30825075      -1.58340714
C        0.21098064      -1.26853769       2.97911185
C        0.65757521       3.24393924      -0.08343616
C       -0.02765618       0.76461848       0.61965766
C       -2.53382324       1.97482144      -0.24354431
C       -2.22704986       1.42533577       2.35395857
C        3.38866082      -1.55272006       0.41588499
C        0.02760235       1.21262345      -3.90788155
C       -1.35615276      -1.88410136       1.27467102
C       -1.65699061       2.77399865       0.54569452
C        2.90604691       0.62228165       1.16590649
C        3.01606905      -1.55005148      -0.96679505
C        0.87451942      -2.59714977      -0.41460288
C       -0.47776158      -2.85780533      -0.80262789
C       -0.79075267       0.58789042       3.80619846
C        1.18068659       2.52354664       1.05208079
C       -2.51923376      -1.73998641      -0.91937588
C       -2.24252324      -1.21002261       3.36606348
C       -3.23445658      -0.65455367       4.18285870
C       -2.31810617       2.35885307      -1.57083211
C       -0.04050014      -2.26352315      -3.07288618
C       -2.80053679       0.62699508       0.08652132
C       -0.89061060      -2.88091825      -2.15246662
C        0.89325727       2.84759096      -2.50868100
C       -2.01782696      -1.06549821      -3.07362804
C       -3.12330378       0.59542786       4.40249524
C       -1.06197523       1.94040652      -3.41131246
C        2.80254637       0.89621833      -1.67653320
C       -1.25249509       2.29769180       1.77739277
C       -2.30543173      -1.03288648       1.96004817
C       -2.15141711       1.43072266      -2.62781401
C        1.26261946      -1.80203187      -2.69918793
C        2.36904214       1.80239030       0.59801736
C        1.43256614      -0.52806751      -3.32186137
60
Properties=species:S:1:pos:R:3 trajectory=trial0001_proposal001_step006_proposal_relax trajectory_step=13 pbc="F F F"
C        0.37023499       0.96489177       3.05406196
C       -2.62135499       0.31214301       1.49631236
C       -1.56092651      -2.30781771      -0.04571446
C        2.07935310       0.69549877      -2.88964474
C        3.45582799      -0.19443885      -1.05936432
C       -0.15901069       0.79716152      -0.63645947
C        1.14404674      -0.21179900       2.88557446
C       -0.92733321      -0.80218230       3.68490925
C       -0.76004391      -1.17783893      -3.71239676
C        1.23866077       1.76040682      -3.32984752
C        1.79403111      -2.13717205      -1.42020977
C       -2.15962311      -2.19682233      -2.23868340
C        0.12771073       1.69896698       1.77725960
C        0.18143813      -0.16757175      -3.95497713
C       -2.46909295       0.09323051      -2.35446118
C       -0.05128175      -2.00907053       1.80580405
C       -2.79409029      -0.30660834      -1.00017432
C        1.44489905       2.89452653      -1.20869262
C        2.43158098       1.95295103      -0.81172986
C       -2.06707770       1.21724833       3.73161876
C       -0.47472309       3.06775048      -2.69373192
C       -0.70920185       3.41899594      -0.28856290
C        3.78202110      -0.17070766       0.32908588
C        2.19457076      -0.35115746       1.95503820
C        2.28483218      -1.60879775       1.31031652
C        1.08272098      -2.25779082       0.95558817
C       -1.25371012       3.31156497      -1.58123691
C        0.20117897      -1.27203389       2.97470515
C        0.66878378       3.24133725      -0.07418559
C       -0.02812286       0.76446578       0.62242612
C       -2.52376884       1.98150498      -0.24357109
C       -2.22646537       1.42553382       2.35415315
C        3.37900369      -1.56639943       0.41622311
C        0.03962854       1.21802746      -3.90516864
C       -1.36693707      -1.88628474       1.27084979
C       -1.65039388       2.78007024       0.55176061
C        2.90500786       0.60800467       1.16741818
C        3.01045518      -1.55893271      -0.96686008
C        0.86500660      -2.59531353      -0.41776029
C       -0.48660176      -2.84971777      -0.80807697
C       -0.79462388       0.58655559       3.80846264
C        1.18906358       2.51536874       1.06040089
C       -2.52567029      -1.73025251      -0.92638188
C       -2.24973932      -1.21296101       3.36233213
C       -3.23625832      -0.65391255       4.18371450
C       -2.30697126       2.36459245      -1.57054283
C       -0.04357662      -2.25641866      -3.08022682
C       -2.79635276       0.63545593       0.08309680
C       -0.89491217      -2.86715239      -2.15883922
C        0.90556834       2.84778566      -2.50103831
C       -2.02195301      -1.05469828      -3.08226166
C       -3.13376460       0.59857769       4.39960915
C       -1.04881973       1.94635068      -3.40850253
C        2.80419010       0.88695756      -1.66996916
C       -1.25057785       2.30242713       1.78398529
C       -2.31018039      -1.02923962       1.95577261
C       -2.14298272       1.43993218      -2.63071698
C        1.26234837      -1.80361453      -2.70481610
C        2.37433486       1.79061829       0.60358225
C        1.43509224      -0.52863128      -3.32420699
60
Properties=species:S:1:pos:R:3 trajectory=trial0001_proposal001_step006_proposal_relax trajectory_step=14 pbc="F F F"
C        0.36128961       0.95617909       3.05417639
C       -2.61480200       0.32020977       1.49011321
C       -1.58691866      -2.30244917      -0.05562860
C        2.09187626       0.68745595      -2.87873308
C        3.45664500      -0.22160860      -1.05153574
C       -0.15154379       0.80328902      -0.63804413
C        1.12777060      -0.22927522       2.88043848
C       -0.94519740      -0.80477354       3.67998602
C       -0.75888361      -1.15590742      -3.72855891
C        1.26453334       1.76132809      -3.31839929
C        1.77836416      -2.14329047      -1.42657681
C       -2.17022380      -2.16881032      -2.25671403
C        0.12725080       1.69114769       1.78456965
C        0.19103194      -0.15903557      -3.95963795
C       -2.46361769       0.11816157      -2.36727002
C       -0.07482015      -2.02782647       1.80347234
C       -2.78835657      -0.28278841      -1.01276668
C        1.46911162       2.88480051      -1.18941428
C        2.44370160       1.93063588      -0.79500152
C       -2.07866782       1.21285511       3.73049825
C       -0.43883273       3.07750476      -2.68749080
C       -0.68633705       3.42502168      -0.27569975
C        3.77553600      -0.20709133       0.33899224
C        2.17892000      -0.37254490       1.95339150
C        2.25903934      -1.62925321       1.30556399
C        1.05875726      -2.27406535       0.95027751
C       -1.22452731       3.32094691      -1.56677870
C        0.18146431      -1.28071993       2.96461723
C        0.69387820       3.23750933      -0.05581039
C       -0.03269330       0.76735771       0.62381342
C       -2.50337479       1.99795016      -0.24074347
C       -2.22893521       1.43026024       2.35496552
C        3.35620608      -1.59763300       0.41794849
C        0.06397271       1.23384085      -3.90132947
C       -1.38932348      -1.89204738       1.26575444
C       -1.63869534       2.79902009       0.55865267
C        2.90154158       0.57456955       1.17386288
C        2.99703344      -1.58143820      -0.96640659
C        0.84141198      -2.59361295      -0.42669678
C       -0.50824348      -2.83363226      -0.82232628
C       -0.80689008       0.57959642       3.81200920
C        1.20311764       2.49940906       1.07690013
C       -2.53831313      -1.70847692      -0.94248040
C       -2.26440256      -1.22065854       3.36161662
C       -3.24147160      -0.65376784       4.18705393
C       -2.27871071       2.38009252      -1.56943739
C       -0.04904627      -2.24018521      -3.09570955
C       -2.78514266       0.65097212       0.07697533
C       -0.90817902      -2.83863527      -2.17206585
C        0.93453969       2.84819052      -2.48492892
C       -2.02805867      -1.02803037      -3.10264832
C       -3.15262623       0.60365272       4.39931319
C       -1.02014471       1.96251555      -3.40432112
C        2.81006444       0.86435776      -1.65524862
C       -1.24650020       2.31067217       1.79814609
C       -2.31994783      -1.02274151       1.95411450
C       -2.12211158       1.46196300      -2.63468183
C        1.25991233      -1.80382044      -2.71736672
C        2.38120722       1.76424986       0.61698508
C        1.44280980      -0.52803192      -3.32870750
60
Properties=species:S:1:pos:R:3 trajectory=trial0001_proposal001_step006_proposal_relax trajectory_step=15 pbc="F F F"
C        0.35059511       0.94242312       3.05610015
C       -2.60716449       0.32595994       1.48501389
C       -1.61144709      -2.29421038      -0.06622756
C        2.10526934       0.67914018      -2.86884086
C        3.45844010      -0.25153257      -1.04179555
C       -0.14335009       0.80807978      -0.63719037
C        1.10902234      -0.24286757       2.87232857
C       -0.95878498      -0.81205937       3.67737718
C       -0.75904785      -1.13755498      -3.74234039
C        1.28939963       1.76149286      -3.30755548
C        1.76118051      -2.14936223      -1.43413459
C       -2.18268810      -2.13986037      -2.27755754
C        0.12592334       1.68596459       1.78993387
C        0.20352919      -0.14278471      -3.96594996
C       -2.45595059       0.14585544      -2.37892197
C       -0.09672870      -2.04558352       1.79846702
C       -2.78588867      -0.25993688      -1.02668045
C        1.49670910       2.87563473      -1.17157115
C        2.45831751       1.90682326      -0.77701078
C       -2.09053242       1.21027147       3.73028112
C       -0.40711650       3.09172039      -2.67349103
C       -0.65917127       3.43408422      -0.26077302
C        3.76716646      -0.24466036       0.34925167
C        2.16451972      -0.39774812       1.95422027
C        2.23500102      -1.65152154       1.30292340
C        1.03433060      -2.28996717       0.94202782
C       -1.19008651       3.33164784      -1.56106732
C        0.15934613      -1.28883478       2.95599668
C        0.71839071       3.23454071      -0.03859189
C       -0.03657891       0.77048337       0.62548881
C       -2.48612798       2.01352279      -0.24040034
C       -2.23273359       1.43617640       2.35393176
C        3.33380424      -1.62941830       0.41985530
C        0.08692490       1.24363670      -3.90025048
C       -1.41133333      -1.89646908       1.26085994
C       -1.62661051       2.81456307       0.57416355
C        2.89811351       0.54402034       1.18273289
C        2.98352900      -1.60514510      -0.96512393
C        0.81714842      -2.59385385      -0.43889048
C       -0.53266538      -2.81941025      -0.83732258
C       -0.81876210       0.57405479       3.81310184
C        1.21664291       2.48420703       1.09233102
C       -2.55147968      -1.68595003      -0.95977536
C       -2.28080170      -1.22879182       3.36409997
C       -3.25307156      -0.64758597       4.18781725
C       -2.25179918       2.39737082      -1.56342443
C       -0.05708326      -2.22600196      -3.10959026
C       -2.77443531       0.66607505       0.07169911
C       -0.92410770      -2.81294752      -2.19035135
C        0.96806482       2.84630398      -2.46960919
C       -2.03057749      -0.99955782      -3.12334284
C       -3.16883505       0.60496781       4.39904770
C       -0.99221007       1.98255921      -3.40091694
C        2.81886823       0.84231388      -1.64011366
C       -1.24352317       2.31838017       1.80460838
C       -2.32977575      -1.01868110       1.95470071
C       -2.10014524       1.48688183      -2.63733298
C        1.25719332      -1.80274843      -2.72717610
C        2.38783222       1.73620671       0.63272608
C        1.45079910      -0.52675302      -3.33271670
60
Properties=species:S:1:pos:R:3 trajectory=trial0001_proposal001_step006_proposal_relax trajectory_step=16 pbc="F F F"
C        0.33878848       0.93355428       3.05249858
C       -2.60123312       0.32713010       1.48583172
C       -1.62404203      -2.28656635      -0.07305720
C        2.11513041       0.67458780      -2.86441738
C        3.45883407      -0.26956249      -1.03669872
C       -0.13767826       0.81423162      -0.64418940
C        1.09458399      -0.24973997       2.86332944
C       -0.96648704      -0.81962418       3.68133531
C       -0.75502728      -1.12589453      -3.74986094
C        1.30331251       1.76102314      -3.30228096
C        1.75028891      -2.15272826      -1.43851128
C       -2.19022076      -2.12287143      -2.29036419
C        0.12095479       1.68664220       1.78887749
C        0.21262556      -0.13414745      -3.97136824
C       -2.44784636       0.16258359      -2.38500680
C       -0.10942326      -2.05524038       1.79558490
C       -2.78560374      -0.24641722      -1.03401596
C        1.51452639       2.87145325      -1.16211288
C        2.46647111       1.89343638      -0.76621869
C       -2.09717699       1.20997687       3.73067794
C       -0.38552325       3.09947526      -2.66439533
C       -0.64448003       3.44177922      -0.25078196
C        3.76095841      -0.26622329       0.35578332
C        2.15443959      -0.41543952       1.95509723
C        2.22255744      -1.66931442       1.30320336
C        1.01925940      -2.30103296       0.93578042
C       -1.16769112       3.33926722      -1.55384241
C        0.14742619      -1.29786155       2.95172730
C        0.73264197       3.23320721      -0.03110688
C       -0.04146529       0.77527563       0.62441994
C       -2.47855006       2.02286270      -0.23707038
C       -2.23674200       1.44228196       2.35375695
C        3.32189498      -1.64913297       0.42186236
C        0.09973405       1.25097621      -3.90085057
C       -1.42368035      -1.90012852       1.25971291
C       -1.62027329       2.82558952       0.57690703
C        2.89582143       0.52660957       1.18974197
C        2.97568255      -1.62132109      -0.96443673
C        0.80230266      -2.59650560      -0.44751999
C       -0.54844931      -2.81386177      -0.84624709
C       -0.82693498       0.56898842       3.81027893
C        1.22016588       2.47738544       1.09908515
C       -2.55826113      -1.67252944      -0.97002909
C       -2.28936069      -1.23264846       3.36954842
C       -3.26088431      -0.64501213       4.18991024
C       -2.23351206       2.40948546      -1.55993909
C       -0.06250615      -2.21802264      -3.11655030
C       -2.76599132       0.67376919       0.06994984
C       -0.93598999      -2.80152875      -2.20074440
C        0.98895627       2.84464149      -2.46241101
C       -2.02813461      -0.98162959      -3.13416198
C       -3.17339959       0.60451494       4.40331562
C       -0.97640652       1.99747590      -3.40032774
C        2.82596484       0.82938268      -1.63166951
C       -1.24309589       2.32184615       1.80733098
C       -2.33418420      -1.01913703       1.95937046
C       -2.08515696       1.50344295      -2.63646735
C        1.25293628      -1.80085238      -2.73117388
C        2.38805420       1.72144930       0.64269166
C        1.45654653      -0.52578787      -3.33473292
60
Properties=species:S:1:pos:R:3 trajectory=trial0001_proposal001_step006_proposal_relax trajectory_step=17 pbc="F F F"
C        0.31522520       0.92032324       3.03786063
C       -2.59090162       0.32858883       1.48827935
C       -1.64421165      -2.27036601      -0.08544166
C        2.13344708       0.66794578      -2.85829532
C        3.45833171      -0.30034855      -1.02726965
C       -0.12654422       0.82783739      -0.65086556
C        1.06623327      -0.26681258       2.84637217
C       -0.97890210      -0.83426876       3.69278625
C       -0.74703487      -1.10477391      -3.76187096
C        1.32798880       1.75860241      -3.29425675
C        1.73162985      -2.16017986      -1.44465357
C       -2.20335884      -2.09413888      -2.31178014
C        0.11017917       1.68907882       1.78783714
C        0.22893334      -0.12020393      -3.98181582
C       -2.43115291       0.19288493      -2.39259045
C       -0.13162651      -2.07112392       1.78857658
C       -2.78497096      -0.22193459      -1.04553540
C        1.54498846       2.86479319      -1.14825944
C        2.48045365       1.87164862      -0.74790512
C       -2.10608733       1.21101078       3.73129276
C       -0.34669648       3.11254877      -2.64925531
C       -0.61909407       3.45639963      -0.23459921
C        3.74924237      -0.30205885       0.36773213
C        2.13828089      -0.44504036       1.95536022
C        2.20241446      -1.70437657       1.30508297
C        0.99461696      -2.32051435       0.92508683
C       -1.13010666       3.35264325      -1.54075156
C        0.12875016      -1.31561447       2.94874550
C        0.75668927       3.23221065      -0.02081516
C       -0.05264935       0.78566226       0.60634053
C       -2.46544563       2.04068463      -0.23289473
C       -2.24499028       1.45158491       2.35523463
C        3.30345597      -1.68376649       0.42599830
C        0.12160473       1.26648659      -3.90209845
C       -1.44481061      -1.90652621       1.25690664
C       -1.61019675       2.84327816       0.58152212
C        2.88981509       0.49445003       1.20383110
C        2.96329214      -1.64939601      -0.96262377
C        0.77618913      -2.60433592      -0.46123584
C       -0.57541439      -2.80792869      -0.86280272
C       -0.84310884       0.55646811       3.80328010
C        1.22367356       2.46719692       1.10838743
C       -2.56954148      -1.64866473      -0.98814475
C       -2.30357270      -1.23866409       3.37991167
C       -3.27643628      -0.64036702       4.19526324
C       -2.20195382       2.43102338      -1.55202676
C       -0.07205475      -2.20507172      -3.12663741
C       -2.75097577       0.68537145       0.06975871
C       -0.95843066      -2.78791113      -2.21938301
C        1.02556492       2.84314746      -2.44953628
C       -2.01978842      -0.94875754      -3.14878508
C       -3.17660987       0.60239425       4.41348340
C       -0.94904882       2.02537685      -3.39916603
C        2.83930490       0.80905717      -1.61871561
C       -1.24533588       2.32932461       1.80943254
C       -2.34311478      -1.02063252       1.96841616
C       -2.05742138       1.53355952      -2.63354285
C        1.24290938      -1.79683350      -2.73573278
C        2.38720496       1.69707145       0.65979531
C        1.46661585      -0.52447984      -3.33823924
60
Properties=species:S:1:pos:R:3 trajectory=trial0001_proposal001_step006_proposal_relax trajectory_step=18 pbc="F F F"
C        0.30414731       0.91219896       3.02617015
C       -2.58927359       0.32879892       1.49299872
C       -1.64887328      -2.26463622      -0.09042854
C        2.14007989       0.66576927      -2.85847695
C        3.45549953      -0.30778426      -1.02470886
C       -0.12291081       0.83947724      -0.67316968
C        1.05508485      -0.27304700       2.84123903
C       -0.98163734      -0.84229093       3.69767539
C       -0.74369472      -1.09630482      -3.76488312
C        1.33746434       1.76020825      -3.29117955
C        1.72634608      -2.16453486      -1.44452953
C       -2.20475695      -2.08608697      -2.31566503
C        0.10045736       1.69168968       1.78100679
C        0.23603046      -0.11437167      -3.98614123
C       -2.42327772       0.20284725      -2.39260161
C       -0.14071922      -2.07652286       1.78689515
C       -2.78101064      -0.21208075      -1.04603785
C        1.55095661       2.86334394      -1.14542925
C        2.48202840       1.86809206      -0.74431700
C       -2.10708534       1.20948411       3.73350279
C       -0.33374869       3.11494717      -2.64440229
C       -0.61081857       3.46138285      -0.23117913
C        3.74700504      -0.31286474       0.37051480
C        2.12933666      -0.45745132       1.95233897
C        2.19753275      -1.71895718       1.30653671
C        0.98533492      -2.32977712       0.92478742
C       -1.11762505       3.35629282      -1.53605132
C        0.12089661      -1.32776901       2.95437638
C        0.76108475       3.23278064      -0.01899600
C       -0.06010526       0.79416687       0.60155321
C       -2.46136251       2.04677941      -0.23207504
C       -2.24763424       1.45443181       2.35746907
C        3.30048636      -1.69587894       0.42816139
C        0.13120385       1.27389741      -3.90142773
C       -1.45248187      -1.90997870       1.25524059
C       -1.60660856       2.84975915       0.57874770
C        2.88493073       0.48487995       1.20611813
C        2.96089309      -1.65802045      -0.96202414
C        0.76907182      -2.60935280      -0.46201929
C       -0.58278201      -2.80917877      -0.86619544
C       -0.84744775       0.55221618       3.79716667
C        1.22053223       2.46551100       1.10910234
C       -2.57235167      -1.63984750      -0.99240237
C       -2.30792474      -1.23770985       3.38275542
C       -3.27616683      -0.64509809       4.20300580
C       -2.18997535       2.43780084      -1.55002930
C       -0.07675776      -2.20072307      -3.12843176
C       -2.74335496       0.69114589       0.07251633
C       -0.96387929      -2.78675335      -2.22308116
C        1.03567403       2.84461211      -2.44621867
C       -2.01331739      -0.93926203      -3.14851260
C       -3.17267450       0.60279236       4.42118642
C       -0.93849934       2.03411418      -3.39882412
C        2.84169836       0.80522838      -1.61707355
C       -1.25077647       2.33616621       1.81134065
C       -2.34474162      -1.02127532       1.97120387
C       -2.04676640       1.54110947      -2.63224801
C        1.23772499      -1.79664362      -2.73441257
C        2.38501455       1.69118709       0.66429906
C        1.46997142      -0.52534636      -3.33968825
60
Properties=species:S:1:pos:R:3 trajectory=trial0001_proposal001_step006_proposal_relax trajectory_step=19 pbc="F F F"
C        0.30468633       0.90986255       3.02497565
C       -2.59131154       0.32998918       1.49290108
C       -1.64810955      -2.26454607      -0.09189701
C        2.13997630       0.66574503      -2.85933474
C        3.45421406      -0.30583448      -1.02436714
C       -0.12292677       0.84093945      -0.67312213
C        1.05627344      -0.27487218       2.84285809
C       -0.98265083      -0.84254561       3.69761137
C       -0.74430728      -1.09552289      -3.76401658
C        1.33792412       1.76183983      -3.29068703
C        1.72733855      -2.16623865      -1.44296820
C       -2.20383532      -2.08685579      -2.31411918
C        0.09996590       1.69161402       1.77997037
C        0.23542927      -0.11416482      -3.98571973
C       -2.42306167       0.20310254      -2.39067415
C       -0.14172229      -2.07510173       1.78737283
C       -2.77967324      -0.21108221      -1.04439565
C        1.54897245       2.86336095      -1.14524775
C        2.48144388       1.86980117      -0.74551178
C       -2.10550552       1.20885897       3.73416058
C       -0.33428291       3.11466333      -2.64545672
C       -0.61179340       3.46026658      -0.23309488
C        3.74807415      -0.31206413       0.37042767
C        2.12825429      -0.45810515       1.95209534
C        2.19886160      -1.71905089       1.30703390
C        0.98547225      -2.32988029       0.92657323
C       -1.11914753       3.35635227      -1.53613517
C        0.12085849      -1.33074727       2.95628455
C        0.76071702       3.23261276      -0.01929686
C       -0.06041275       0.79525143       0.59661241
C       -2.46056878       2.04683729      -0.23278035
C       -2.24671900       1.45298516       2.35801718
C        3.30245636      -1.69587109       0.42840390
C        0.13213652       1.27502513      -3.90028288
C       -1.45286117      -1.90883870       1.25350838
C       -1.60593361       2.84868408       0.57826634
C        2.88406851       0.48502315       1.20485109
C        2.96152354      -1.65692090      -0.96161770
C        0.77022941      -2.61078602      -0.46024291
C       -0.58184573      -2.81074674      -0.86556993
C       -0.84585191       0.55200386       3.79629607
C        1.22042870       2.46523687       1.10846008
C       -2.57204705      -1.63948678      -0.99173903
C       -2.30856850      -1.23601643       3.37985887
C       -3.27565823      -0.64601103       4.20361132
C       -2.19107918       2.43738425      -1.55096871
C       -0.07742367      -2.20095319      -3.12796901
C       -2.74387062       0.69238049       0.07288422
C       -0.96339481      -2.78942622      -2.22292622
C        1.03423181       2.84556716      -2.44688149
C       -2.01255245      -0.93926455      -3.14481692
C       -3.17113493       0.60313183       4.42076091
C       -0.93775364       2.03330870      -3.39805341
C        2.84117925       0.80691182      -1.61814352
C       -1.25180534       2.33715545       1.81237146
C       -2.34619331      -1.02083135       1.96851787
C       -2.04686775       1.54071600      -2.63247197
C        1.23683866      -1.79744231      -2.73291439
C        2.38554688       1.69224278       0.66331456
C        1.46921513      -0.52608371      -3.33952817
60
Properties=species:S:1:pos:R:3 trajectory=trial0001_proposal001_step006_proposal_relax trajectory_step=20 pbc="F F F"
C        0.30041411       0.89871122       3.01673978
C       -2.59433069       0.33486493       1.49166432
C       -1.65310297      -2.26069014      -0.09861354
C        2.14485202       0.66403790      -2.85896841
C        3.45046906      -0.31061566      -1.01995981
C       -0.11972380       0.84913281      -0.67965341
C        1.05078231      -0.28697554       2.84268729
C       -0.98934852      -0.84735110       3.69865984
C       -0.74471921      -1.08691606      -3.76469313
C        1.34799857       1.76475771      -3.28741603
C        1.72421854      -2.17320329      -1.44080526
C       -2.20555585      -2.07922524      -2.31643383
C        0.09657638       1.68923555       1.77695818
C        0.23855660      -0.10913577      -3.98657709
C       -2.41760685       0.21349379      -2.38770680
C       -0.15161333      -2.07819282       1.78635030
C       -2.77517049      -0.20067061      -1.04370927
C        1.55340751       2.86145667      -1.14078170
C        2.48493485       1.86693137      -0.74277172
C       -2.10388841       1.20727085       3.73574399
C       -0.32467742       3.11938116      -2.64377408
C       -0.60542837       3.46147089      -0.23240432
C        3.74653337      -0.32160033       0.37402559
C        2.12185619      -0.46816617       1.95058599
C        2.19477075      -1.72926375       1.30799754
C        0.97856853      -2.33651168       0.92848723
C       -1.11202728       3.36068389      -1.53494994
C        0.11441395      -1.34253628       2.96035217
C        0.76699694       3.23258980      -0.01562617
C       -0.06390695       0.80177802       0.58285504
C       -2.45329177       2.05296971      -0.23400116
C       -2.24688178       1.45195295       2.36017300
C        3.30104483      -1.70658173       0.43041413
C        0.14211153       1.28163142      -3.89760104
C       -1.46032096      -1.90634767       1.24727450
C       -1.60171368       2.85221259       0.58071841
C        2.87876452       0.47407109       1.20523777
C        2.95850649      -1.66195039      -0.95944837
C        0.76495525      -2.61713818      -0.45913456
C       -0.58749837      -2.81256883      -0.86959569
C       -0.84667781       0.54697063       3.79336342
C        1.22289260       2.46029654       1.11072884
C       -2.57451488      -1.63088531      -0.99550473
C       -2.31604107      -1.23419319       3.37454230
C       -3.27916645      -0.64782891       4.20639683
C       -2.18477277       2.44320859      -1.55124729
C       -0.08124769      -2.19707502      -3.13004195
C       -2.74177241       0.70037014       0.07319544
C       -0.96866232      -2.79060644      -2.22829327
C        1.04254077       2.84862043      -2.44275250
C       -2.00913891      -0.92873161      -3.14008694
C       -3.16873199       0.60435320       4.42198522
C       -0.92655605       2.03850461      -3.39507439
C        2.84340686       0.80446644      -1.61638258
C       -1.25396337       2.34221753       1.81667908
C       -2.35350752      -1.01847180       1.96313379
C       -2.03868360       1.54877501      -2.63329984
C        1.23258598      -1.79825467      -2.73060640
C        2.38737455       1.68599384       0.66556626
C        1.47015705      -0.52716028      -3.33955311
60
Properties=species:S:1:pos:R:3 trajectory=trial0001_proposal001_step006_proposal_relax trajectory_step=21 pbc="F F F"
C        0.29529445       0.88784703       3.00932757
C       -2.59646823       0.33955942       1.49043839
C       -1.65889146      -2.25701079      -0.10442421
C        2.15051100       0.66214692      -2.85722081
C        3.44744376      -0.31790476      -1.01552284
C       -0.11610586       0.85669075      -0.68855570
C        1.04473839      -0.29839493       2.84041706
C       -0.99627734      -0.85301635       3.69896694
C       -0.74433734      -1.07848577      -3.76502861
C        1.35809824       1.76735264      -3.28433415
C        1.71968063      -2.17893106      -1.44003286
C       -2.20849959      -2.06991745      -2.32042716
C        0.09440400       1.68555298       1.77440564
C        0.24274384      -0.10394282      -3.98682890
C       -2.41160807       0.22457303      -2.38632962
C       -0.16105095      -2.08328292       1.78482188
C       -2.77200124      -0.19060016      -1.04439441
C        1.56100953       2.85989635      -1.13522528
C        2.48954634       1.86231910      -0.73873283
C       -2.10302590       1.20628675       3.73656344
C       -0.31331693       3.12515507      -2.64120211
C       -0.59811601       3.46385762      -0.22950633
C        3.74351692      -0.33268654       0.37807103
C        2.11568707      -0.47940833       1.95002646
C        2.18928004      -1.74043737       1.30842218
C        0.97049914      -2.34421448       0.92846368
C       -1.10282893       3.36633274      -1.53258043
C        0.10673963      -1.35331700       2.96210115
C        0.77432587       3.23244094      -0.01105963
C       -0.06701628       0.80780320       0.57352633
C       -2.44692205       2.05993762      -0.23422484
C       -2.24758033       1.45363856       2.36142024
C        3.29734363      -1.71825130       0.43266830
C        0.15192779       1.28692880      -3.89587717
C       -1.46737564      -1.90348828       1.24245605
C       -1.59748520       2.85780891       0.58332488
C        2.87393644       0.46276426       1.20663094
C        2.95391207      -1.66851474      -0.95701556
C        0.75812956      -2.62334988      -0.46000065
C       -0.59457578      -2.81344846      -0.87426490
C       -0.84876030       0.54100035       3.79115487
C        1.22565148       2.45511679       1.11370548
C       -2.57694020      -1.62204153      -0.99956015
C       -2.32411222      -1.23348114       3.37089209
C       -3.28429524      -0.64636205       4.20817316
C       -2.17696597       2.45110152      -1.55120610
C       -0.08503099      -2.19290790      -3.13225364
C       -2.73972892       0.70849820       0.07276327
C       -0.97494212      -2.78866619      -2.23442761
C        1.05292887       2.85061341      -2.43891115
C       -2.00618192      -0.91735180      -3.13890606
C       -3.16782283       0.60260173       4.42318755
C       -0.91519336       2.04504703      -3.39267904
C        2.84655157       0.79981865      -1.61313291
C       -1.25379768       2.34543235       1.82030032
C       -2.36044847      -1.01571017       1.95931956
C       -2.03022420       1.55794183      -2.63373120
C        1.22908823      -1.79795665      -2.72934868
C        2.38850474       1.67782226       0.66894779
C        1.47188082      -0.52724329      -3.33850290
60
Properties=species:S:1:pos:R:3 trajectory=trial0001_proposal001_step006_proposal_relax trajectory_step=22 pbc="F F F"
C        0.28185173       0.85444445       2.99130932
C       -2.60293702       0.35515823       1.48576137
C       -1.67507557      -2.24716473      -0.11766113
C        2.16646994       0.65863411      -2.84984246
C        3.43983677      -0.34211487      -1.00287311
C       -0.10525523       0.87608680      -0.71258821
C        1.02505908      -0.33046530       2.83258934
C       -1.01777636      -0.87128010       3.69756765
C       -0.74079430      -1.05570375      -3.76393854
C        1.38708446       1.77091887      -3.27736146
C        1.70478563      -2.19303449      -1.43928326
C       -2.21879051      -2.04134050      -2.33372257
C        0.09207657       1.67163637       1.76750061
C        0.25520139      -0.09034895      -3.98359431
C       -2.39464104       0.25572854      -2.38406363
C       -0.18654092      -2.10077694       1.77968977
C       -2.76567284      -0.16290075      -1.04796665
C        1.58692232       2.85719406      -1.12146539
C        2.50530754       1.84661024      -0.72473259
C       -2.10155094       1.20455827       3.73787950
C       -0.28237970       3.14380347      -2.63085153
C       -0.57518225       3.47291120      -0.21712746
C        3.73218731      -0.36569686       0.39041914
C        2.10180504      -0.51286315       1.94919278
C        2.17079122      -1.77311384       1.30925044
C        0.94832442      -2.36779127       0.92485399
C       -1.07286531       3.38497597      -1.52883214
C        0.08551323      -1.38200546       2.96168201
C        0.79625986       3.23209374       0.00283843
C       -0.07346609       0.82264178       0.54845299
C       -2.43152669       2.08181045      -0.23362109
C       -2.25043226       1.46258952       2.36417737
C        3.28345548      -1.75165806       0.43916521
C        0.17815278       1.30044470      -3.89182670
C       -1.48556494      -1.89302977       1.22949834
C       -1.58559240       2.87576390       0.59264843
C        2.86050600       0.42926465       1.21332113
C        2.93756752      -1.68896394      -0.94915313
C        0.73707858      -2.64191305      -0.46610175
C       -0.61701424      -2.81583190      -0.88924354
C       -0.85579083       0.52273248       3.78584652
C        1.23506952       2.43870773       1.12376649
C       -2.58310833      -1.59681650      -1.01139846
C       -2.34969065      -1.23331949       3.36198702
C       -3.30420574      -0.65068452       4.20479130
C       -2.15512589       2.47693055      -1.55022844
C       -0.09344681      -2.17999971      -3.13834558
C       -2.73654270       0.73256185       0.06935626
C       -0.99503278      -2.77935065      -2.25053550
C        1.08651798       2.85654660      -2.42507022
C       -2.00020078      -0.88385701      -3.13983134
C       -3.16400876       0.60783944       4.42553683
C       -0.88417295       2.06511544      -3.38622351
C        2.85712608       0.78414189      -1.60121096
C       -1.24740802       2.34987868       1.82740293
C       -2.38025337      -1.00544050       1.94987420
C       -2.00609527       1.58779236      -2.63394879
C        1.22058128      -1.79582236      -2.72612894
C        2.39046457       1.65236485       0.67911449
C        1.47759168      -0.52503014      -3.33165401
60
Properties=species:S:1:pos:R:3 trajectory=trial0001_proposal001_step006_proposal_relax trajectory_step=23 pbc="F F F"
C        0.28045760       0.84922045       2.98921210
C       -2.60567350       0.35901042       1.48516367
C       -1.67654430      -2.24595888      -0.11885262
C        2.16881458       0.65846725      -2.84757900
C        3.43861190      -0.34612016      -1.00106648
C       -0.10371891       0.87847631      -0.71895930
C        1.02345459      -0.33654167       2.83124577
C       -1.02000826      -0.87507299       3.69501427
C       -0.73972837      -1.05311970      -3.76178915
C        1.38992873       1.77274000      -3.27615032
C        1.70207050      -2.19460746      -1.43896117
C       -2.22033234      -2.03753010      -2.33476824
C        0.09324533       1.66738962       1.76585861
C        0.25713424      -0.08883113      -3.98019965
C       -2.39257270       0.26064962      -2.38375001
C       -0.18911874      -2.10432628       1.77751143
C       -2.76551276      -0.15951049      -1.04839556
C        1.59182423       2.85757207      -1.11904150
C        2.50765447       1.84532244      -0.72298657
C       -2.09985161       1.20446281       3.73733256
C       -0.27541280       3.14539469      -2.63107236
C       -0.57184231       3.47504650      -0.21653051
C        3.73031626      -0.37011485       0.39177450
C        2.09987894      -0.51821760       1.95046911
C        2.16816874      -1.77823883       1.30923123
C        0.94535100      -2.37234704       0.92353111
C       -1.07026820       3.38914770      -1.52471679
C        0.08166665      -1.38603527       2.96152250
C        0.79923917       3.23156178       0.00489779
C       -0.07294555       0.82349248       0.54608982
C       -2.43095482       2.08712973      -0.23443121
C       -2.24992561       1.46567229       2.36381069
C        3.28101520      -1.75590953       0.44011457
C        0.18038783       1.30249071      -3.89055552
C       -1.48675302      -1.88985394       1.22802685
C       -1.58336146       2.87798886       0.59401577
C        2.85876265       0.42534275       1.21456943
C        2.93463906      -1.69150876      -0.94742594
C        0.73434282      -2.64568026      -0.46759080
C       -0.61991670      -2.81738448      -0.89029642
C       -0.85676186       0.51845510       3.78470453
C        1.23653475       2.43628274       1.12466380
C       -2.58313125      -1.59357586      -1.01188969
C       -2.35424227      -1.23318510       3.35879160
C       -3.30942261      -0.64337474       4.20330099
C       -2.15283730       2.48283903      -1.54911874
C       -0.09458598      -2.17884637      -3.13736809
C       -2.73797120       0.73690444       0.06896988
C       -0.99745120      -2.77694073      -2.25248185
C        1.08962384       2.85735591      -2.42511038
C       -1.99949226      -0.88026484      -3.14073440
C       -3.16424654       0.60108021       4.42366000
C       -0.88036675       2.06831778      -3.38534222
C        2.85856979       0.78245383      -1.59936415
C       -1.24407790       2.34839351       1.82637658
C       -2.38193699      -1.00239170       1.94727419
C       -2.00414259       1.59112526      -2.63328953
C        1.22018731      -1.79517166      -2.72478977
C        2.39033427       1.64849743       0.68050245
C        1.47834070      -0.52406062      -3.32798042
60
Properties=species:S:1:pos:R:3 trajectory=trial0001_proposal001_step006_proposal_relax trajectory_step=24 pbc="F F F"
C        0.28089965       0.84842055       2.99007311
C       -2.60709250       0.36089225       1.48492888
C       -1.67639440      -2.24591942      -0.11808125
C        2.16896128       0.65911374      -2.84592554
C        3.43864190      -0.34733501      -1.00122271
C       -0.10351294       0.87786130      -0.72040653
C        1.02349102      -0.33767868       2.83092992
C       -1.02090750      -0.87651595       3.69287533
C       -0.73871514      -1.05344940      -3.76018124
C        1.38945196       1.77301935      -3.27599510
C        1.70099787      -2.19396614      -1.43908596
C       -2.22087767      -2.03683128      -2.33476692
C        0.09511343       1.66490161       1.76552205
C        0.25753272      -0.08875831      -3.97698084
C       -2.39294607       0.26100734      -2.38455667
C       -0.18845553      -2.10592220       1.77644084
C       -2.76655701      -0.15938893      -1.04874564
C        1.59379743       2.85845046      -1.11877468
C        2.50845918       1.84517736      -0.72240441
C       -2.09916438       1.20467487       3.73651478
C       -0.27460546       3.14549801      -2.63023855
C       -0.57088693       3.47620492      -0.21556150
C        3.72954835      -0.37090203       0.39197330
C        2.10015315      -0.51969132       1.95159180
C        2.16732498      -1.77934102       1.30899423
C        0.94508057      -2.37413913       0.92205724
C       -1.06923120       3.39084103      -1.52373241
C        0.08103261      -1.38662527       2.95966367
C        0.80004277       3.23100683       0.00512009
C       -0.07138108       0.82164378       0.54623336
C       -2.43276684       2.08926870      -0.23389421
C       -2.24931695       1.46802695       2.36327336
C        3.27946989      -1.75629612       0.44028556
C        0.17952993       1.30221233      -3.89005576
C       -1.48562977      -1.88847710       1.22830183
C       -1.58233574       2.87879201       0.59338840
C        2.85905713       0.42502690       1.21552386
C        2.93329127      -1.69226691      -0.94699440
C        0.73374138      -2.64675635      -0.46886565
C       -0.62061436      -2.81808623      -0.88994294
C       -0.85733526       0.51676924       3.78440646
C        1.23691479       2.43565719       1.12474245
C       -2.58262207      -1.59327543      -1.01130597
C       -2.35562564      -1.23338072       3.35767700
C       -3.31261217      -0.64169471       4.19981981
C       -2.15279477       2.48556962      -1.54891631
C       -0.09410620      -2.17877238      -3.13613799
C       -2.73967529       0.73850340       0.06832544
C       -0.99774591      -2.77497254      -2.25171689
C        1.09039536       2.85722199      -2.42548844
C       -2.00024803      -0.88040907      -3.14251344
C       -3.16437076       0.60009019       4.42172449
C       -0.88103058       2.06938376      -3.38515787
C        2.85910161       0.78189199      -1.59830630
C       -1.24094757       2.34576383       1.82459574
C       -2.38089672      -1.00037858       1.94675357
C       -2.00475052       1.59225869      -2.63223889
C        1.22094375      -1.79475424      -2.72435151
C        2.39002775       1.64744504       0.68093400
C        1.47859773      -0.52304794      -3.32507668
60
Properties=species:S:1:pos:R:3 trajectory=trial0001_proposal001_step006_proposal_relax trajectory_step=25 pbc="F F F"
C        0.27965351       0.84107841       2.98915485
C       -2.61117896       0.36777437       1.48373902
C       -1.67989623      -2.24316773      -0.11962777
C        2.17181687       0.65976337      -2.84104217
C        3.43746566      -0.35412450      -0.99912860
C       -0.10145739       0.88003547      -0.72714509
C        1.01924460      -0.34597957       2.83065369
C       -1.02688471      -0.88260208       3.68783547
C       -0.73654457      -1.04929549      -3.75788097
C        1.39415430       1.77446853      -3.27314296
C        1.69617749      -2.19596271      -1.43874944
C       -2.22337332      -2.03034353      -2.33667402
C        0.09755315       1.65804065       1.76325970
C        0.26041835      -0.08498931      -3.96930707
C       -2.39198387       0.26774363      -2.38657749
C       -0.19255915      -2.11235004       1.77297370
C       -2.76696322      -0.15241490      -1.05026632
C        1.60162574       2.85893090      -1.11569584
C        2.51275798       1.84221290      -0.71844599
C       -2.09782367       1.20425100       3.73507080
C       -0.26684532       3.14808975      -2.62582089
C       -0.56327445       3.48019526      -0.21226627
C        3.72693917      -0.37955740       0.39436919
C        2.09705238      -0.52927660       1.95297989
C        2.16171749      -1.78833716       1.30882238
C        0.94011326      -2.38273411       0.91915549
C       -1.06092021       3.39716520      -1.52040745
C        0.07566558      -1.39397743       2.95673462
C        0.80607728       3.22932647       0.00803409
C       -0.06907988       0.81835457       0.54056765
C       -2.43302373       2.09902272      -0.23373877
C       -2.24774619       1.47345017       2.36276373
C        3.27386274      -1.76387372       0.44118360
C        0.18283304       1.30571238      -3.88671076
C       -1.48783326      -1.88541960       1.22558224
C       -1.57622555       2.88240063       0.59399468
C        2.85767379       0.41703386       1.21894048
C        2.92865547      -1.69780833      -0.94551838
C        0.72849491      -2.65188238      -0.47163806
C       -0.62627634      -2.81958962      -0.89122911
C       -0.85973813       0.51045509       3.78162491
C        1.23943542       2.43106983       1.12664300
C       -2.58377711      -1.58678746      -1.01270276
C       -2.36311106      -1.23313047       3.35261499
C       -3.32266061      -0.63996923       4.19125409
C       -2.14846507       2.49553420      -1.54747772
C       -0.09497912      -2.17574321      -3.13489799
C       -2.74206423       0.74705912       0.06682984
C       -1.00120329      -2.76927330      -2.25211379
C        1.09771705       2.85870404      -2.42244511
C       -2.00104866      -0.87470507      -3.14619569
C       -3.16481222       0.60005459       4.41665989
C       -0.87677571       2.07554072      -3.38288935
C        2.86164818       0.77872320      -1.59405952
C       -1.23466336       2.34290766       1.82129046
C       -2.38036978      -0.99384580       1.94316711
C       -2.00146962       1.59994938      -2.63004864
C        1.22064229      -1.79444627      -2.72293218
C        2.39097529       1.64102077       0.68406002
C        1.48010362      -0.52091902      -3.31813619
60
Properties=species:S:1:pos:R:3 trajectory=trial0001_proposal001_step006_proposal_relax trajectory_step=26 pbc="F F F"
C        0.27594517       0.83192710       2.98279404
C       -2.61507608       0.37851568       1.47990067
C       -1.68839923      -2.23615278      -0.12597280
C        2.17663789       0.66055145      -2.83376590
C        3.43498089      -0.36200465      -0.99602369
C       -0.09847347       0.88446454      -0.73776588
C        1.01337322      -0.36369702       2.83029462
C       -1.03758527      -0.89070870       3.68284100
C       -0.73474015      -1.03950605      -3.75621758
C        1.40302554       1.77847641      -3.26592624
C        1.69016634      -2.20261246      -1.43689182
C       -2.22603791      -2.01859371      -2.33918622
C        0.09901349       1.64822353       1.75833625
C        0.26300441      -0.07736639      -3.95840770
C       -2.39161533       0.28142506      -2.38904109
C       -0.20256687      -2.12175467       1.76909443
C       -2.76640058      -0.13699386      -1.05222224
C        1.61305282       2.85725709      -1.10829286
C        2.52014296       1.83734177      -0.71149101
C       -2.09509612       1.20395728       3.73198499
C       -0.25496198       3.15307508      -2.61760711
C       -0.55008706       3.48457164      -0.20664834
C        3.72374156      -0.39509413       0.39980980
C        2.08850364      -0.54487367       1.95392954
C        2.15427181      -1.80473262       1.30885947
C        0.93136612      -2.39703290       0.91826067
C       -1.04844982       3.40514361      -1.51645268
C        0.06723594      -1.40892992       2.95587194
C        0.81812753       3.22662783       0.01287732
C       -0.06671207       0.81144018       0.52862007
C       -2.42987187       2.11297565      -0.22993509
C       -2.24526696       1.47873041       2.36206029
C        3.26646988      -1.77917504       0.44229967
C        0.19070544       1.31360769      -3.87828531
C       -1.49360503      -1.88270448       1.21999730
C       -1.56513926       2.88950269       0.58879253
C        2.85470860       0.40141489       1.22345910
C        2.92327552      -1.70771920      -0.94508607
C        0.72004230      -2.66038677      -0.47281009
C       -0.63561223      -2.82104963      -0.89262813
C       -0.86505118       0.50043843       3.77579518
C        1.24348030       2.42231822       1.12916446
C       -2.58728051      -1.57289377      -1.01661640
C       -2.37427396      -1.23092440       3.34240445
C       -3.33772419      -0.63845569       4.17749905
C       -2.13949231       2.51074010      -1.54827327
C       -0.09795665      -2.17001469      -3.13371695
C       -2.74372340       0.76313732       0.06400236
C       -1.00753145      -2.76309295      -2.25443580
C        1.11039651       2.86145533      -2.41588978
C       -2.00156796      -0.86405719      -3.14802774
C       -3.16729800       0.60015121       4.40598869
C       -0.86787460       2.08623086      -3.37648883
C        2.86670362       0.77331681      -1.58705931
C       -1.22679577       2.33953433       1.82195988
C       -2.37925139      -0.98368189       1.93501477
C       -1.99542179       1.61388020      -2.62685172
C        1.21786395      -1.79462126      -2.72016582
C        2.39524598       1.63066650       0.69096683
C        1.48090577      -0.51870553      -3.30964863
60
Properties=species:S:1:pos:R:3 trajectory=trial0001_proposal001_step006_proposal_relax trajectory_step=27 pbc="F F F"
C        0.27485694       0.82605396       2.98243138
C       -2.61550679       0.38058993       1.47904787
C       -1.69053850      -2.23437614      -0.12708121
C        2.17840944       0.66002760      -2.83208349
C        3.43483961      -0.36679224      -0.99365485
C       -0.09728688       0.88578085      -0.73988265
C        1.00947340      -0.36584649       2.83012869
C       -1.04012441      -0.89343200       3.68191836
C       -0.73471706      -1.03707518      -3.75595015
C        1.40642639       1.77864573      -3.26428565
C        1.68777068      -2.20428439      -1.43716185
C       -2.22758628      -2.01461617      -2.34094193
C        0.09902691       1.64606640       1.75702517
C        0.26473383      -0.07464396      -3.95683552
C       -2.39056244       0.28557197      -2.38978237
C       -0.20533757      -2.12457496       1.76824508
C       -2.76641206      -0.13282834      -1.05354025
C        1.61712122       2.85662631      -1.10661482
C        2.52280561       1.83485013      -0.70883394
C       -2.09582319       1.20371075       3.73189602
C       -0.24993132       3.15517634      -2.61571788
C       -0.54601113       3.48631700      -0.20628875
C        3.72225772      -0.40029568       0.40075336
C        2.08726174      -0.55023007       1.95346767
C        2.15140081      -1.80928779       1.30912282
C        0.92834106      -2.40071296       0.91743377
C       -1.04346241       3.40827690      -1.51455805
C        0.06405708      -1.41256060       2.95532238
C        0.82134199       3.22605381       0.01507026
C       -0.06668114       0.81105741       0.52585130
C       -2.42808937       2.11772476      -0.23231484
C       -2.24512506       1.48044851       2.36161866
C        3.26418198      -1.78354630       0.44244574
C        0.19309510       1.31553867      -3.87686391
C       -1.49608760      -1.88183279       1.21816760
C       -1.56199319       2.89002688       0.59383434
C        2.85356614       0.39680210       1.22520441
C        2.92169796      -1.71043939      -0.94431530
C        0.71700181      -2.66251128      -0.47384321
C       -0.63913444      -2.82082541      -0.89447698
C       -0.86543375       0.49876867       3.77408591
C        1.24504049       2.41973353       1.13060451
C       -2.58849573      -1.56895489      -1.01823230
C       -2.37763706      -1.23081967       3.34067006
C       -3.34170599      -0.63821749       4.17468576
C       -2.13763485       2.51427436      -1.54582824
C       -0.09917504      -2.16812532      -3.13435415
C       -2.74360362       0.76632759       0.06373634
C       -1.00986472      -2.76102684      -2.25578124
C        1.11448978       2.86244874      -2.41332063
C       -2.00133096      -0.85950366      -3.14936013
C       -3.16783594       0.60069117       4.40403307
C       -0.86436116       2.08930898      -3.37556418
C        2.86793122       0.77194814      -1.58530077
C       -1.22578523       2.34091392       1.81920682
C       -2.38025967      -0.98165384       1.93355040
C       -1.99282651       1.61789029      -2.62689207
C        1.21700159      -1.79443369      -2.71970630
C        2.39599665       1.62725330       0.69273130
C        1.48168073      -0.51789427      -3.30787420
60
Properties=species:S:1:pos:R:3 trajectory=trial0001_proposal001_step006_proposal_relax trajectory_step=28 pbc="F F F"
C        0.27419722       0.82317245       2.98144465
C       -2.61494966       0.38179309       1.47766307
C       -1.69223417      -2.23287649      -0.12837459
C        2.17925400       0.65966740      -2.83101920
C        3.43481023      -0.36875929      -0.99236922
C       -0.09684356       0.88612369      -0.74054795
C        1.00796460      -0.36811113       2.83002062
C       -1.04172933      -0.89436155       3.68178448
C       -0.73529723      -1.03505305      -3.75601818
C        1.40845363       1.77904061      -3.26263879
C        1.68697476      -2.20596577      -1.43704078
C       -2.22826052      -2.01198385      -2.34170254
C        0.09901073       1.64455290       1.75612110
C        0.26484610      -0.07309596      -3.95594085
C       -2.39061664       0.28863699      -2.39016237
C       -0.20748402      -2.12610443       1.76830627
C       -2.76648270      -0.12963398      -1.05432823
C        1.61932060       2.85563493      -1.10495957
C        2.52469952       1.83336357      -0.70711065
C       -2.09622629       1.20373217       3.73136036
C       -0.24724807       3.15670912      -2.61469773
C       -0.54345247       3.48646791      -0.20593910
C        3.72166060      -0.40352666       0.40163160
C        2.08595513      -0.55310345       1.95312388
C        2.15012585      -1.81200966       1.30923201
C        0.92670399      -2.40277064       0.91797183
C       -1.04135585       3.40964308      -1.51367421
C        0.06229819      -1.41479265       2.95593664
C        0.82360929       3.22560188       0.01655253
C       -0.06663629       0.80994761       0.52432218
C       -2.42613377       2.11994922      -0.23289870
C       -2.24483813       1.48071071       2.36101644
C        3.26334933      -1.78657195       0.44236835
C        0.19470705       1.31712837      -3.87507305
C       -1.49779166      -1.88151194       1.21682405
C       -1.55991364       2.89059620       0.59535789
C        2.85293420       0.39359602       1.22589117
C        2.92124578      -1.71211617      -0.94434661
C        0.71537101      -2.66363952      -0.47365702
C       -0.64106407      -2.82017584      -0.89542565
C       -0.86585954       0.49816186       3.77302613
C        1.24629532       2.41767782       1.13152675
C       -2.58947738      -1.56593691      -1.01939034
C       -2.37932864      -1.23025853       3.33875927
C       -3.34406306      -0.63839157       4.17216830
C       -2.13651123       2.51621392      -1.54517032
C       -0.10023609      -2.16688316      -3.13493028
C       -2.74329512       0.76869923       0.06312453
C       -1.01133788      -2.76034396      -2.25686376
C        1.11676379       2.86314041      -2.41125135
C       -2.00142101      -0.85651902      -3.14921036
C       -3.16903197       0.60125218       4.40133812
C       -0.86205715       2.09101452      -3.37427835
C        2.86891699       0.77098505      -1.58415599
C       -1.22518805       2.34157789       1.81917474
C       -2.38079354      -0.98048849       1.93179862
C       -1.99170574       1.62044994      -2.62720566
C        1.21604641      -1.79437160      -2.71934332
C        2.39728509       1.62525701       0.69413487
C        1.48151185      -0.51757762      -3.30720854
60
Properties=species:S:1:pos:R:3 trajectory=trial0001_proposal001_step006_proposal_relax trajectory_step=29 pbc="F F F"
C        0.27293667       0.81864000       2.97937350
C       -2.61335680       0.38394938       1.47483592
C       -1.69513233      -2.22980625      -0.13066227
C        2.18056279       0.65905489      -2.82864444
C        3.43501679      -0.37215399      -0.99047251
C       -0.09629923       0.88606835      -0.74203119
C        1.00555900      -0.37244094       2.82969692
C       -1.04455823      -0.89565688       3.68151451
C       -0.73645962      -1.03137862      -3.75587823
C        1.41157371       1.77991716      -3.25912507
C        1.68558574      -2.20886396      -1.43686293
C       -2.22947438      -2.00707480      -2.34281169
C        0.09930505       1.64127394       1.75439651
C        0.26475151      -0.07021678      -3.95378900
C       -2.39138839       0.29430769      -2.39128968
C       -0.21113326      -2.12910665       1.76874659
C       -2.76720493      -0.12380427      -1.05595991
C        1.62344509       2.85381330      -1.10161046
C        2.52833639       1.83081589      -0.70394074
C       -2.09698875       1.20397275       3.72961761
C       -0.24282290       3.15953241      -2.61240919
C       -0.53870190       3.48640534      -0.20485094
C        3.72078021      -0.40933341       0.40325069
C        2.08361850      -0.55832004       1.95259004
C        2.14810544      -1.81701983       1.30932219
C        0.92379388      -2.40676592       0.91904163
C       -1.03762928       3.41213943      -1.51199539
C        0.05924900      -1.41870646       2.95713887
C        0.82784237       3.22429993       0.01931198
C       -0.06634323       0.80680658       0.52243021
C       -2.42288308       2.12373427      -0.23314649
C       -2.24402036       1.48144536       2.35938972
C        3.26184759      -1.79212538       0.44224416
C        0.19724339       1.31979421      -3.87129360
C       -1.50026824      -1.88108604       1.21477178
C       -1.55593757       2.89193549       0.59672826
C        2.85214657       0.38791119       1.22721199
C        2.92060760      -1.71540568      -0.94468834
C        0.71254478      -2.66547232      -0.47324785
C       -0.64428710      -2.81862194      -0.89680275
C       -0.86709636       0.49714100       3.77106956
C        1.24851892       2.41382204       1.13323979
C       -2.59114649      -1.56033167      -1.02119781
C       -2.38197500      -1.22893547       3.33489078
C       -3.34879535      -0.63843485       4.16627386
C       -2.13440145       2.52022467      -1.54453444
C       -0.10231894      -2.16469571      -3.13573426
C       -2.74265718       0.77322874       0.06165616
C       -1.01406146      -2.75868832      -2.25854956
C        1.12076730       2.86411889      -2.40742060
C       -2.00189251      -0.85135873      -3.14912911
C       -3.17207985       0.60189221       4.39484971
C       -0.85840396       2.09435852      -3.37167129
C        2.87092182       0.76899714      -1.58192884
C       -1.22329268       2.34209377       1.81946659
C       -2.38104297      -0.97823452       1.92838024
C       -1.99038160       1.62537383      -2.62761252
C        1.21414880      -1.79413711      -2.71856666
C        2.39984682       1.62158732       0.69698965
C        1.48082648      -0.51691625      -3.30552443
60
Properties=species:S:1:pos:R:3 trajectory=trial0001_proposal001_step006_proposal_relax trajectory_step=30 pbc="F F F"
C        0.27103127       0.81398665       2.97672025
C       -2.61054536       0.38589373       1.47126783
C       -1.69695886      -2.22590976      -0.13251361
C        2.18181205       0.65812174      -2.82551638
C        3.43572394      -0.37671621      -0.98890489
C       -0.09600802       0.88490628      -0.74295195
C        1.00311700      -0.37748685       2.82862798
C       -1.04754530      -0.89637329       3.68163135
C       -0.73760034      -1.02707887      -3.75524696
C        1.41447470       1.78013110      -3.25486773
C        1.68370502      -2.21123889      -1.43692864
C       -2.23156206      -2.00116648      -2.34393768
C        0.10031197       1.63694821       1.75302576
C        0.26470906      -0.06754892      -3.95148475
C       -2.39264142       0.30076085      -2.39299077
C       -0.21453889      -2.13291865       1.76982005
C       -2.76911014      -0.11803623      -1.05825077
C        1.62845122       2.85212831      -1.09762750
C        2.53282781       1.82791997      -0.70047690
C       -2.09840578       1.20457349       3.72634933
C       -0.23802897       3.16309844      -2.60957659
C       -0.53345010       3.48580080      -0.20266496
C        3.72011636      -0.41556198       0.40494309
C        2.08175075      -0.56399960       1.95236169
C        2.14585838      -1.82281886       1.30923664
C        0.92068857      -2.41122755       0.91991537
C       -1.03328115       3.41551310      -1.50997332
C        0.05611664      -1.42226492       2.95860458
C        0.83221105       3.22178855       0.02283039
C       -0.06637614       0.80316969       0.52077541
C       -2.41952716       2.12760202      -0.23332756
C       -2.24278890       1.48292873       2.35664342
C        3.26035864      -1.79818755       0.44244474
C        0.19960269       1.32242466      -3.86709537
C       -1.50172360      -1.88041861       1.21328420
C       -1.55194148       2.89348484       0.59795023
C        2.85187573       0.38178388       1.22882116
C        2.91970208      -1.71964834      -0.94473624
C        0.70949611      -2.66697583      -0.47328200
C       -0.64739420      -2.81604023      -0.89870198
C       -0.86912512       0.49619380       3.76955580
C        1.25110358       2.40939370       1.13586674
C       -2.59250725      -1.55441341      -1.02259549
C       -2.38422462      -1.22713134       3.33065920
C       -3.35462011      -0.63805263       4.15842746
C       -2.13208262       2.52569187      -1.54392482
C       -0.10509860      -2.16232458      -3.13668139
C       -2.74135537       0.77741273       0.05966555
C       -1.01787031      -2.75585122      -2.26024015
C        1.12517620       2.86480911      -2.40278152
C       -2.00277751      -0.84535795      -3.14961460
C       -3.17681216       0.60184792       4.38545927
C       -0.85490379       2.09861302      -3.36913303
C        2.87361254       0.76598531      -1.57930817
C       -1.21983510       2.34233953       1.81965956
C       -2.38142916      -0.97626723       1.92465158
C       -1.98962612       1.63175732      -2.62830862
C        1.21130676      -1.79346950      -2.71765964
C        2.40233442       1.61719206       0.70009127
C        1.47966807      -0.51615309      -3.30293856
60
Properties=species:S:1:pos:R:3 trajectory=trial0001_proposal001_step006_proposal_relax trajectory_step=31 pbc="F F F"
C        0.26968629       0.81067052       2.97546508
C       -2.60920743       0.38700405       1.46957078
C       -1.69785496      -2.22336547      -0.13399734
C        2.18284121       0.65707484      -2.82374548
C        3.43597820      -0.37968295      -0.98794149
C       -0.09584369       0.88472900      -0.74556362
C        1.00138259      -0.37994730       2.82814079
C       -1.04934609      -0.89724482       3.68195058
C       -0.73829493      -1.02451280      -3.75521462
C        1.41622264       1.78071648      -3.25220820
C        1.68217558      -2.21241307      -1.43677126
C       -2.23300643      -1.99769025      -2.34486852
C        0.10044292       1.63508533       1.75200949
C        0.26527590      -0.06541084      -3.95071964
C       -2.39286373       0.30498619      -2.39384405
C       -0.21646909      -2.13503732       1.77043178
C       -2.76972978      -0.11478104      -1.05932512
C        1.63141783       2.85114245      -1.09504105
C        2.53510647       1.82615867      -0.69866838
C       -2.09936860       1.20468019       3.72479098
C       -0.23461054       3.16498486      -2.60809981
C       -0.53066836       3.48579801      -0.20148974
C        3.71992430      -0.41950197       0.40590441
C        2.08047303      -0.56785162       1.95228166
C        2.14470442      -1.82607669       1.30938024
C        0.91860315      -2.41391494       0.92000741
C       -1.03040565       3.41772540      -1.50814848
C        0.05405688      -1.42492634       2.95934565
C        0.83480208       3.22021077       0.02494673
C       -0.06683248       0.80221247       0.52116779
C       -2.41778295       2.12950758      -0.23307667
C       -2.24211795       1.48371342       2.35516050
C        3.25926147      -1.80193947       0.44287292
C        0.20139665       1.32385113      -3.86529722
C       -1.50259065      -1.88009406       1.21253852
C       -1.54974567       2.89463713       0.59819560
C        2.85167972       0.37821450       1.22957540
C        2.91888180      -1.72232937      -0.94447189
C        0.70766163      -2.66780511      -0.47366511
C       -0.64926987      -2.81456877      -0.89979638
C       -0.87039201       0.49578826       3.76870525
C        1.25271100       2.40689617       1.13749339
C       -2.59327790      -1.55111150      -1.02328828
C       -2.38582318      -1.22633235       3.32866958
C       -3.35800767      -0.63880766       4.15469168
C       -2.13014351       2.52909575      -1.54402473
C       -0.10709380      -2.16085069      -3.13729490
C       -2.74018743       0.77990537       0.05846277
C       -1.02023902      -2.75398961      -2.26169968
C        1.12791415       2.86473795      -2.40081085
C       -2.00306439      -0.84172256      -3.14997592
C       -3.17910433       0.60268048       4.38055519
C       -0.85240923       2.10154296      -3.36807904
C        2.87513854       0.76408641      -1.57788948
C       -1.21833433       2.34259781       1.82023839
C       -2.38189342      -0.97545780       1.92298783
C       -1.98879319       1.63554789      -2.62843753
C        1.20964617      -1.79322191      -2.71704892
C        2.40354893       1.61422880       0.70175015
C        1.47928555      -0.51605973      -3.30173984
60
Properties=species:S:1:pos:R:3 trajectory=trial0001_proposal001_step006_proposal_relax trajectory_step=32 pbc="F F F"
C        0.26827860       0.80839460       2.97407958
C       -2.60711709       0.38797976       1.46730653
C       -1.69790754      -2.22047844      -0.13469396
C        2.18337085       0.65628829      -2.82141373
C        3.43672129      -0.38288654      -0.98745692
C       -0.09599114       0.88323914      -0.74548957
C        1.00014850      -0.38297662       2.82734205
C       -1.05096609      -0.89745953       3.68211861
C       -0.73883486      -1.02187597      -3.75471031
C        1.41736646       1.78039585      -3.24930558
C        1.68067383      -2.21304512      -1.43682357
C       -2.23475337      -1.99401488      -2.34543643
C        0.10147273       1.63233204       1.75159032
C        0.26535161      -0.06402924      -3.94920795
C       -2.39401413       0.30892376      -2.39522079
C       -0.21779149      -2.13762845       1.77122649
C       -2.77137176      -0.11182592      -1.06090656
C        1.63458996       2.85031138      -1.09252688
C        2.53783467       1.82440601      -0.69672465
C       -2.10052510       1.20518441       3.72197925
C       -0.23183384       3.16709567      -2.60607160
C       -0.52752892       3.48535124      -0.19954767
C        3.71994502      -0.42318601       0.40677330
C        2.07974290      -0.57120309       1.95255418
C        2.14343897      -1.82958401       1.30930796
C        0.91697722      -2.41666896       0.92012927
C       -1.02757209       3.42014816      -1.50673430
C        0.05239775      -1.42669205       2.96022250
C        0.83722196       3.21792067       0.02722051
C       -0.06703047       0.79989469       0.52006193
C       -2.41630735       2.13170514      -0.23301137
C       -2.24103811       1.48499558       2.35287252
C        3.25833075      -1.80544591       0.44321657
C        0.20237704       1.32531964      -3.86290149
C       -1.50242956      -1.87968834       1.21227112
C       -1.54752328       2.89551718       0.59824800
C        2.85210652       0.37470101       1.23060516
C        2.91814300      -1.72525312      -0.94427221
C        0.70595741      -2.66826518      -0.47410187
C       -0.65079345      -2.81250529      -0.90096879
C       -0.87212332       0.49524759       3.76811448
C        1.25436318       2.40417256       1.13940933
C       -2.59378170      -1.54781443      -1.02362458
C       -2.38682732      -1.22518438       3.32624807
C       -3.36217368      -0.63798804       4.14921213
C       -2.12871383       2.53318095      -1.54373574
C       -0.10905775      -2.15938733      -3.13771921
C       -2.73905250       0.78200919       0.05701378
C       -1.02289694      -2.75147637      -2.26244186
C        1.13044425       2.86470130      -2.39801899
C       -2.00397323      -0.83819243      -3.15079105
C       -3.18293330       0.60184821       4.37318795
C       -0.85084512       2.10463279      -3.36695463
C        2.87698393       0.76179861      -1.57622952
C       -1.21547613       2.34232969       1.82017196
C       -2.38166854      -0.97451657       1.92095475
C       -1.98881026       1.63993274      -2.62875421
C        1.20759970      -1.79270107      -2.71642545
C        2.40483585       1.61125410       0.70350577
C        1.47843616      -0.51567590      -3.29967529
