60
Properties=species:S:1:pos:R:3 trajectory=trial0001_proposal001_step005_proposal_relax trajectory_step=0 pbc="F F F"
C        0.36529758       1.15207494       2.91929144
C       -2.54186933       0.19419769       1.59340915
C       -1.27444516      -2.44142678       0.18166395
C        1.91837230       0.77742428      -3.01002664
C        3.42711626       0.12741345      -1.19481988
C       -0.24608976       0.83285872      -0.77721225
C        1.26847296       0.07002831       2.79325117
C       -0.65365781      -0.67589490       3.79310338
C       -0.73468666      -1.43635110      -3.59161241
C        0.95313120       1.71713952      -3.47814421
C        1.97623004      -1.99857837      -1.36047929
C       -1.95932377      -2.49981831      -1.99576669
C        0.00081305       1.79277269       1.63260716
C        0.08592565      -0.34927239      -3.93486527
C       -2.50735978      -0.27280713      -2.22646617
C        0.26310384      -1.91319100       1.95097543
C       -2.72749453      -0.62309072      -0.83827395
C        1.10260992       3.00168377      -1.42686964
C        2.17977984       2.17351015      -1.01414181
C       -2.02035130       1.23026419       3.75935651
C       -0.86456880       2.86787377      -2.83836397
C       -1.07568551       3.35637856      -0.44251956
C        3.78794607       0.27016446       0.17321065
C        2.29367880       0.00235361       1.84348773
C        2.52957457      -1.28190705       1.30203707
C        1.39226017      -2.09278196       1.05301059
C       -1.62774047       3.08470333      -1.70482013
C        0.49828362      -1.07852643       3.05340784
C        0.32843852       3.33101362      -0.28165758
C       -0.12276437       0.85173071       0.48112273
C       -2.70521426       1.72926018      -0.23728307
C       -2.28173331       1.38625838       2.38771194
C        3.56607278      -1.15706844       0.35309397
C       -0.20093837       1.01403216      -3.96793396
C       -1.08526632      -1.91235528       1.46367735
C       -1.91282988       2.67145971       0.48389969
C        2.85267332       0.98856774       0.99274709
C        3.13867636      -1.26992366      -1.00493662
C        1.15349168      -2.51250733      -0.29761108
C       -0.18126689      -2.91929693      -0.60548050
C       -0.69556517       0.72138166       3.78603432
C        0.94395783       2.69549675       0.86049779
C       -2.30674671      -2.00008406      -0.69333266
C       -1.93971514      -1.22274636       3.51860280
C       -2.91029302      -0.74832068       4.41930703
C       -2.56394106       2.03490334      -1.59033686
C        0.11424053      -2.39172752      -2.92725901
C       -2.79570981       0.38585990       0.17591096
C       -0.63496655      -3.03838627      -1.94169432
C        0.53857135       2.81476945      -2.70164267
C       -1.97855237      -1.40664614      -2.91239980
C       -2.94416816       0.51468936       4.54017092
C       -1.34033547       1.65296452      -3.46154490
C        2.64320652       1.10633999      -1.82330938
C       -1.40318709       2.29455952       1.70745488
C       -2.09245747      -1.09019612       2.11653211
C       -2.33467083       1.07751196      -2.60070996
C        1.37171344      -1.78093861      -2.63442247
C        2.18055887       2.08036450       0.40518219
C        1.39484564      -0.53459469      -3.33977151
60
Properties=species:S:1:pos:R:3 trajectory=trial0001_proposal001_step005_proposal_relax trajectory_step=1 pbc="F F F"
C        0.36541595       1.14948864       2.92011983
C       -2.54351635       0.18741500       1.59802587
C       -1.27361195      -2.44097014       0.18042732
C        1.91765964       0.77674190      -3.00996139
C        3.42624224       0.12855128      -1.19527815
C       -0.24641769       0.83144230      -0.77954365
C        1.26721271       0.07625461       2.79773261
C       -0.65300870      -0.67866492       3.78955072
C       -0.73423663      -1.43516289      -3.59130776
C        0.95402354       1.71649214      -3.47823006
C        1.97707351      -1.99772788      -1.36181992
C       -1.95878266      -2.50071343      -1.99721930
C       -0.00040991       1.79555037       1.63156288
C        0.08586989      -0.34981661      -3.93485981
C       -2.50668716      -0.27268204      -2.22777863
C        0.26332532      -1.91366796       1.94650800
C       -2.72827717      -0.62022901      -0.83850757
C        1.10319935       3.00033337      -1.42824730
C        2.18217262       2.17323548      -1.01385513
C       -2.02069800       1.23006557       3.75966549
C       -0.86578963       2.86863419      -2.83594301
C       -1.07179336       3.35495651      -0.44002638
C        3.78967698       0.26886104       0.17307608
C        2.29482682      -0.00034026       1.84525143
C        2.52695491      -1.28425487       1.30089252
C        1.39043922      -2.09199616       1.05287974
C       -1.62547821       3.08713855      -1.70432894
C        0.49185480      -1.08126147       3.05581318
C        0.32536371       3.33072425      -0.28124482
C       -0.11977303       0.84893946       0.48590014
C       -2.70578470       1.72929113      -0.23555766
C       -2.28037626       1.38578434       2.38702187
C        3.56619430      -1.15818805       0.35438508
C       -0.20035884       1.01439880      -3.96752995
C       -1.08344610      -1.91205930       1.46052168
C       -1.91154308       2.67474378       0.47589619
C        2.85404527       0.98770494       0.99376130
C        3.13932504      -1.27040190      -1.00475935
C        1.15178874      -2.51256402      -0.29510924
C       -0.18215891      -2.92023390      -0.60698709
C       -0.69067648       0.72334260       3.78391931
C        0.94472035       2.69655353       0.86109911
C       -2.31002568      -1.99928279      -0.69519670
C       -1.94204058      -1.22211125       3.52456264
C       -2.91270756      -0.75035033       4.41613661
C       -2.56267151       2.03864631      -1.59192583
C        0.11289350      -2.39144822      -2.92756069
C       -2.79762991       0.38761764       0.17620182
C       -0.63502836      -3.03857459      -1.93980471
C        0.53843792       2.81595760      -2.69839729
C       -1.97732313      -1.40681316      -2.91310819
C       -2.94404171       0.51744616       4.53916673
C       -1.34027028       1.65267637      -3.46156262
C        2.64323834       1.10591925      -1.82467343
C       -1.40558128       2.29584311       1.71079478
C       -2.08800352      -1.08967588       2.11591502
C       -2.33535231       1.07694702      -2.60095341
C        1.37168360      -1.78029680      -2.63480415
C        2.18133955       2.08043996       0.40348448
C        1.39397037      -0.53508278      -3.33914070
60
Properties=species:S:1:pos:R:3 trajectory=trial0001_proposal001_step005_proposal_relax trajectory_step=2 pbc="F F F"
C        0.36493955       1.15034878       2.91880990
C       -2.54596016       0.18110237       1.60182072
C       -1.27440017      -2.44008912       0.17719521
C        1.91680068       0.77566321      -3.00993999
C        3.42563353       0.12873314      -1.19523167
C       -0.24610474       0.82960510      -0.77612502
C        1.26730926       0.07756703       2.80247651
C       -0.65520427      -0.67944029       3.78691338
C       -0.73389279      -1.43422002      -3.59088801
C        0.95431153       1.71717143      -3.47759887
C        1.97732402      -1.99731135      -1.36214159
C       -1.95902646      -2.50127509      -1.99854317
C       -0.00147787       1.79886824       1.63173851
C        0.08603222      -0.34959780      -3.93505118
C       -2.50601040      -0.27238072      -2.22905121
C        0.26278273      -1.91308519       1.94314059
C       -2.72931497      -0.61720719      -0.83960900
C        1.10377067       2.99909226      -1.42728774
C        2.18459597       2.17337375      -1.01448155
C       -2.01915334       1.22987263       3.75967796
C       -0.86538591       2.86922132      -2.83417835
C       -1.06840662       3.35399526      -0.43981950
C        3.79135950       0.26724119       0.17316538
C        2.29498739      -0.00270674       1.84873907
C        2.52425675      -1.28602059       1.30026627
C        1.38792991      -2.09152235       1.05191667
C       -1.62339104       3.09047658      -1.70292719
C        0.48834675      -1.08364454       3.05559475
C        0.32616671       3.32960200      -0.28078000
C       -0.11654063       0.84483521       0.48579087
C       -2.70581842       1.73152644      -0.23638918
C       -2.27927057       1.38365636       2.38682835
C        3.56608650      -1.16001598       0.35536876
C       -0.19966220       1.01479216      -3.96688140
C       -1.08115242      -1.91143613       1.45650542
C       -1.90956514       2.67613977       0.47374433
C        2.85593166       0.98619753       0.99489074
C        3.14036930      -1.27036756      -1.00446647
C        1.15020082      -2.51263154      -0.29434850
C       -0.18278454      -2.92104980      -0.60728988
C       -0.68797294       0.72335806       3.78302826
C        0.94544632       2.69811298       0.86131151
C       -2.31328210      -1.99858191      -0.69710327
C       -1.94372938      -1.22217794       3.52899040
C       -2.91760139      -0.74873505       4.41346338
C       -2.56189882       2.04200584      -1.59267272
C        0.11187826      -2.39133860      -2.92733061
C       -2.80011905       0.38851343       0.17823739
C       -0.63508460      -3.03869303      -1.93966472
C        0.53785725       2.81574422      -2.69662512
C       -1.97609606      -1.40678361      -2.91390232
C       -2.94408436       0.51751987       4.53772361
C       -1.34004134       1.65277154      -3.46108816
C        2.64361107       1.10553879      -1.82606969
C       -1.40924812       2.29934690       1.71032509
C       -2.08170615      -1.09029078       2.11740981
C       -2.33577633       1.07789369      -2.60143997
C        1.37117929      -1.77997909      -2.63515078
C        2.18259699       2.07973215       0.40263363
C        1.39290628      -0.53547063      -3.33858003
60
Properties=species:S:1:pos:R:3 trajectory=trial0001_proposal001_step005_proposal_relax trajectory_step=3 pbc="F F F"
C        0.36461838       1.15363597       2.91570508
C       -2.55142892       0.17259201       1.60668799
C       -1.27838884      -2.43692037       0.16933963
C        1.91512070       0.77413286      -3.00965002
C        3.42542637       0.12760627      -1.19430618
C       -0.24590299       0.82406551      -0.77511610
C        1.26809472       0.07388337       2.81099141
C       -0.66063448      -0.67933177       3.78316829
C       -0.73293232      -1.43295728      -3.59044681
C        0.95458595       1.71839599      -3.47587767
C        1.97674397      -1.99700306      -1.36158183
C       -1.96119918      -2.50145255      -2.00152469
C       -0.00396835       1.80477565       1.63063020
C        0.08629460      -0.34822499      -3.93569329
C       -2.50478452      -0.26930811      -2.23139808
C        0.26046263      -1.91095564       1.93764887
C       -2.73203310      -0.61226756      -0.84222276
C        1.10606374       2.99645009      -1.42498550
C        2.18958292       2.17387452      -1.01613508
C       -2.01387737       1.22976891       3.75944713
C       -0.86321865       2.87030165      -2.83179842
C       -1.06166476       3.35369419      -0.43975038
C        3.79387488       0.26290672       0.17475489
C        2.29626224      -0.00661030       1.85643153
C        2.51940877      -1.28774089       1.30011161
C        1.38316123      -2.09100437       1.04821712
C       -1.62034443       3.09708637      -1.70216501
C        0.48480239      -1.08564085       3.05311434
C        0.33295236       3.32711725      -0.27977435
C       -0.10815847       0.83756142       0.49625559
C       -2.70539895       1.73562973      -0.23704602
C       -2.27787252       1.37727957       2.38677432
C        3.56506464      -1.16458911       0.35742361
C       -0.19887215       1.01630705      -3.96548746
C       -1.07756982      -1.90918361       1.44771597
C       -1.90725948       2.67814594       0.47177823
C        2.85899969       0.98188698       0.99842943
C        3.14146362      -1.27103985      -1.00416315
C        1.14772575      -2.51270673      -0.29665421
C       -0.18508878      -2.92275650      -0.60868376
C       -0.68730951       0.72262578       3.78276397
C        0.94869884       2.70057265       0.86240555
C       -2.31961111      -1.99683778      -0.70184383
C       -1.94694431      -1.22464732       3.53426687
C       -2.93162763      -0.74698083       4.40737388
C       -2.56084418       2.04856501      -1.59395854
C        0.11128519      -2.39068771      -2.92682205
C       -2.80612053       0.39052013       0.18178624
C       -0.63609279      -3.03942473      -1.94128734
C        0.53814671       2.81421693      -2.69279179
C       -1.97475911      -1.40568160      -2.91508976
C       -2.94401584       0.52182389       4.53377499
C       -1.33879398       1.65455330      -3.45908508
C        2.64555467       1.10436010      -1.82850463
C       -1.41483570       2.30469017       1.70995277
C       -2.06833059      -1.09408309       2.12339611
C       -2.33598747       1.08274930      -2.60248228
C        1.36982156      -1.78047909      -2.63456521
C        2.18634608       2.07609406       0.40351039
C        1.39075585      -0.53578727      -3.33791503
60
Properties=species:S:1:pos:R:3 trajectory=trial0001_proposal001_step005_proposal_relax trajectory_step=4 pbc="F F F"
C        0.36532125       1.15243789       2.91723119
C       -2.55320492       0.17093867       1.60720588
C       -1.28084188      -2.43439025       0.16580157
C        1.91493108       0.77388344      -3.00906442
C        3.42623933       0.12587077      -1.19301397
C       -0.24444685       0.82048733      -0.76326843
C        1.26794645       0.07255444       2.81298923
C       -0.66171654      -0.67946186       3.78214732
C       -0.73250124      -1.43249834      -3.59068413
C        0.95486900       1.71815838      -3.47481302
C        1.97580046      -1.99708717      -1.36162808
C       -1.96332408      -2.50068094      -2.00403742
C       -0.00386664       1.80673250       1.63133025
C        0.08601049      -0.34736236      -3.93601246
C       -2.50441002      -0.26553428      -2.23219489
C        0.25968929      -1.91001692       1.93467858
C       -2.73426916      -0.61036038      -0.84366313
C        1.10945552       2.99486379      -1.42443350
C        2.19304976       2.17279151      -1.01532337
C       -2.01237877       1.23056556       3.75900959
C       -0.86106808       2.87146407      -2.83149460
C       -1.05826232       3.35440654      -0.43945913
C        3.79398136       0.25959574       0.17677216
C        2.29812017      -0.00862868       1.86028181
C        2.51753609      -1.28831657       1.30035911
C        1.38176378      -2.09032878       1.04565433
C       -1.61943141       3.10020237      -1.70259759
C        0.48269646      -1.08525004       3.05204110
C        0.33714516       3.32662677      -0.27928039
C       -0.10472805       0.83362976       0.49261788
C       -2.70487899       1.73665592      -0.23672330
C       -2.27719174       1.37434316       2.38614281
C        3.56376988      -1.16716667       0.35827868
C       -0.19911495       1.01763063      -3.96489620
C       -1.07738456      -1.90715298       1.44422329
C       -1.90693406       2.67935122       0.47140541
C        2.85990358       0.97906496       1.00127075
C        3.14084930      -1.27251819      -1.00367196
C        1.14616591      -2.51299171      -0.29938456
C       -0.18770483      -2.92339990      -0.61146290
C       -0.68695950       0.72303418       3.78205363
C        0.95253428       2.70012273       0.86386926
C       -2.32275040      -1.99531357      -0.70496913
C       -1.94930085      -1.22724730       3.53589615
C       -2.94101453      -0.74304506       4.40326930
C       -2.56100102       2.05176407      -1.59353978
C        0.11129239      -2.39035001      -2.92678498
C       -2.80932799       0.39123109       0.18171995
C       -0.63814668      -3.04021506      -1.94346708
C        0.53978381       2.81313321      -2.69078092
C       -1.97498256      -1.40341777      -2.91564607
C       -2.94427170       0.52224636       4.53074548
C       -1.33722602       1.65700465      -3.45786021
C        2.64770894       1.10350834      -1.82878578
C       -1.41596498       2.30419609       1.71136588
C       -2.06516322      -1.09552522       2.12486253
C       -2.33586360       1.08663827      -2.60277799
C        1.36946073      -1.78056046      -2.63374070
C        2.18887647       2.07300267       0.40495516
C        1.39017886      -0.53575030      -3.33766846
60
Properties=species:S:1:pos:R:3 trajectory=trial0001_proposal001_step005_proposal_relax trajectory_step=5 pbc="F F F"
C        0.36583949       1.15192104       2.91812854
C       -2.55304711       0.17206810       1.60582027
C       -1.28162601      -2.43345329       0.16513559
C        1.91544398       0.77392225      -3.00866018
C        3.42688719       0.12474123      -1.19225144
C       -0.24422842       0.81906635      -0.76227109
C        1.26814885       0.07169251       2.81195342
C       -0.66223628      -0.67931582       3.78291009
C       -0.73266936      -1.43244443      -3.59092289
C        0.95503511       1.71790647      -3.47443919
C        1.97519954      -1.99739640      -1.36174207
C       -1.96446210      -2.49984191      -2.00507804
C       -0.00269984       1.80546356       1.63221486
C        0.08581237      -0.34701751      -3.93606544
C       -2.50448076      -0.26389077      -2.23210374
C        0.25959199      -1.90965952       1.93446968
C       -2.73523480      -0.61024674      -0.84426943
C        1.11128209       2.99462179      -1.42400408
C        2.19422295       2.17176885      -1.01439428
C       -2.01258061       1.23121912       3.75872152
C       -0.85989639       2.87229423      -2.83175638
C       -1.05801866       3.35495437      -0.43969370
C        3.79335369       0.25844974       0.17770132
C        2.29867162      -0.00889421       1.86123009
C        2.51768785      -1.28847988       1.30062105
C        1.38184813      -2.09008568       1.04470709
C       -1.61940466       3.10073277      -1.70260339
C        0.48288253      -1.08483189       3.05119701
C        0.33881678       3.32674343      -0.27904959
C       -0.10394258       0.83376398       0.49524884
C       -2.70458447       1.73676334      -0.23691249
C       -2.27714483       1.37400225       2.38588989
C        3.56311646      -1.16794113       0.35823705
C       -0.19926455       1.01790681      -3.96494782
C       -1.07821083      -1.90641290       1.44411819
C       -1.90673590       2.67914931       0.47334463
C        2.86000086       0.97821334       1.00220755
C        3.14025991      -1.27328304      -1.00332081
C        1.14551686      -2.51325486      -0.30069514
C       -0.18879483      -2.92314315      -0.61262636
C       -0.68767855       0.72276196       3.78234440
C        0.95411688       2.69930542       0.86455545
C       -2.32308669      -1.99474805      -0.70571731
C       -1.94993533      -1.22806552       3.53538156
C       -2.94358847      -0.74196731       4.40156260
C       -2.56136866       2.05218195      -1.59290000
C        0.11127681      -2.39035198      -2.92694930
C       -2.80988015       0.39096530       0.18112623
C       -0.63947240      -3.04049970      -1.94505090
C        0.54092798       2.81259354      -2.69083397
C       -1.97536766      -1.40194704      -2.91588921
C       -2.94456174       0.52252599       4.52967432
C       -1.33670459       1.65830106      -3.45763448
C        2.64888842       1.10306768      -1.82811771
C       -1.41512052       2.30283777       1.71106070
C       -2.06713146      -1.09525649       2.12433635
C       -2.33569672       1.08825377      -2.60261028
C        1.36938014      -1.78036905      -2.63367224
C        2.18967981       2.07178788       0.40598175
C        1.39041531      -0.53558257      -3.33764730
60
Properties=species:S:1:pos:R:3 trajectory=trial0001_proposal001_step005_proposal_relax trajectory_step=6 pbc="F F F"
C        0.36859432       1.15011612       2.92268838
C       -2.55397049       0.17424144       1.60057618
C       -1.28601181      -2.42755967       0.15959399
C        1.91838712       0.77317094      -3.00602785
C        3.43001588       0.11859001      -1.18814654
C       -0.24263631       0.81004913      -0.75248303
C        1.26850801       0.06752409       2.81087183
C       -0.66659326      -0.68032108       3.78462058
C       -0.73343671      -1.43057439      -3.59214284
C        0.95711081       1.71613781      -3.47215537
C        1.97209953      -1.99901592      -1.36312571
C       -1.97130923      -2.49487414      -2.01197609
C        0.00394861       1.80073012       1.63801721
C        0.08525225      -0.34522000      -3.93628572
C       -2.50449898      -0.25493753      -2.23304063
C        0.25761967      -1.90736910       1.93052012
C       -2.74151793      -0.60749531      -0.84844922
C        1.12172683       2.99230964      -1.42104132
C        2.20232713       2.16602164      -1.00933943
C       -2.01275736       1.23474739       3.75704569
C       -0.85390824       2.87798824      -2.83065854
C       -1.05361722       3.35652752      -0.43834907
C        3.79146328       0.25096547       0.18270995
C        2.30243779      -0.01250874       1.86759361
C        2.51666314      -1.29166010       1.30184402
C        1.37969946      -2.08864888       1.03896923
C       -1.61701534       3.10560740      -1.70168462
C        0.48061810      -1.08406131       3.04717106
C        0.34768779       3.32586043      -0.27698796
C       -0.09790419       0.83150544       0.50808097
C       -2.70289451       1.73848399      -0.23638358
C       -2.27611044       1.37192474       2.38404766
C        3.55962351      -1.17392930       0.35923678
C       -0.19917918       1.01972100      -3.96476800
C       -1.08204921      -1.90210351       1.44065245
C       -1.90391943       2.67946829       0.47809712
C        2.86253001       0.97237554       1.00831976
C        3.13757079      -1.27805738      -1.00154926
C        1.14035428      -2.51469644      -0.30657714
C       -0.19565341      -2.92178090      -0.61949310
C       -0.69036372       0.72091555       3.78398132
C        0.96235774       2.69559372       0.86856966
C       -2.32722853      -1.99093458      -0.71136575
C       -1.95544434      -1.23098463       3.53410943
C       -2.95980553      -0.73833473       4.38898551
C       -2.56179506       2.05805620      -1.59108556
C        0.10973922      -2.38973525      -2.92897379
C       -2.81405515       0.39161011       0.17833432
C       -0.64727106      -3.04206113      -1.95294883
C        0.54796899       2.81061509      -2.68862244
C       -1.97660817      -1.39330032      -2.91817235
C       -2.94704579       0.52699632       4.52275775
C       -1.33415102       1.66564417      -3.45639480
C        2.65606343       1.09943307      -1.82513475
C       -1.41045609       2.29671142       1.71093269
C       -2.07485165      -1.09445891       2.12226471
C       -2.33504776       1.09766070      -2.60195216
C        1.36797894      -1.77928384      -2.63420616
C        2.19530870       2.06479004       0.41123449
C        1.39089947      -0.53461951      -3.33725488
60
Properties=species:S:1:pos:R:3 trajectory=trial0001_proposal001_step005_proposal_relax trajectory_step=7 pbc="F F F"
C        0.37181920       1.14753261       2.93033883
C       -2.55646389       0.17517761       1.59681841
C       -1.29088774      -2.42096353       0.15284803
C        1.92235596       0.77110078      -3.00297749
C        3.43331864       0.11135735      -1.18389640
C       -0.24102367       0.80041070      -0.74134905
C        1.26855097       0.06386609       2.81373123
C       -0.67185894      -0.68315627       3.78368472
C       -0.73438586      -1.42638263      -3.59395914
C        0.96087671       1.71478857      -3.46889601
C        1.96853168      -2.00126845      -1.36566993
C       -1.97852341      -2.48899800      -2.01963235
C        0.01121396       1.79811911       1.64426663
C        0.08574276      -0.34261664      -3.93663718
C       -2.50484927      -0.24575745      -2.23561318
C        0.25279070      -1.90469242       1.92466954
C       -2.74850275      -0.60301656      -0.85333823
C        1.13226242       2.98906371      -1.41684768
C        2.21125948       2.15996004      -1.00392251
C       -2.01272603       1.23778609       3.75516020
C       -0.84644331       2.88428016      -2.82782088
C       -1.04601853       3.35695049      -0.43525358
C        3.79181616       0.24199938       0.18723423
C        2.30565988      -0.01888132       1.87427532
C        2.51424398      -1.29762019       1.30346694
C        1.37427950      -2.08771257       1.03377229
C       -1.61184687       3.11213199      -1.69823869
C        0.47473540      -1.08506292       3.04428498
C        0.35595414       3.32262284      -0.27308406
C       -0.09116107       0.82718197       0.52163517
C       -2.70092714       1.74245570      -0.23658445
C       -2.27399234       1.37144974       2.38099956
C        3.55678900      -1.18180245       0.36095652
C       -0.19821280       1.02265003      -3.96366905
C       -1.08712444      -1.89806625       1.43547148
C       -1.89776080       2.67886696       0.48095263
C        2.86729129       0.96589968       1.01506563
C        3.13528930      -1.28395079      -1.00007810
C        1.13391074      -2.51579904      -0.31154124
C       -0.20341087      -2.91956624      -0.62659718
C       -0.69187239       0.71863245       3.78571861
C        0.96990750       2.69139732       0.87302058
C       -2.33296710      -1.98599953      -0.71800482
C       -1.96329956      -1.23069649       3.53048058
C       -2.97609779      -0.73070326       4.37494481
C       -2.56074349       2.06641319      -1.58936050
C        0.10574716      -2.38866021      -2.93272556
C       -2.81786436       0.39446658       0.17526342
C       -0.65587660      -3.04233946      -1.96052522
C        0.55565852       2.80987036      -2.68452891
C       -1.97758992      -1.38389506      -2.92168295
C       -2.95234295       0.52715363       4.51469097
C       -1.33118110       1.67358713      -3.45571354
C        2.66354716       1.09464422      -1.82216060
C       -1.40409969       2.29173148       1.71040322
C       -2.08185703      -1.09478337       2.11895548
C       -2.33429270       1.10712565      -2.60174650
C        1.36518722      -1.77895719      -2.63596768
C        2.20186981       2.05822507       0.41670352
C        1.39104294      -0.53398437      -3.33674089
60
Properties=species:S:1:pos:R:3 trajectory=trial0001_proposal001_step005_proposal_relax trajectory_step=8 pbc="F F F"
C        0.37955851       1.14332450       2.94845483
C       -2.56324305       0.17787428       1.58822411
C       -1.30296792      -2.40624538       0.13694174
C        1.93173233       0.76579697      -2.99621466
C        3.44067758       0.09443126      -1.17514609
C       -0.23721538       0.77965058      -0.71338198
C        1.26939686       0.05368617       2.82288981
C       -0.68716171      -0.68978421       3.78045900
C       -0.73722311      -1.41495730      -3.59911010
C        0.97074654       1.71289281      -3.46034082
C        1.96014542      -2.00714464      -1.37186646
C       -1.99449910      -2.47484792      -2.03667588
C        0.02861122       1.79301363       1.66075848
C        0.08758211      -0.33498975      -3.93779833
C       -2.50657834      -0.22570790      -2.24251580
C        0.23907096      -1.89843337       1.91182437
C       -2.76378733      -0.59118508      -0.86468537
C        1.15466427       2.98131203      -1.40561199
C        2.23077124       2.14643287      -0.99175111
C       -2.01385316       1.24308545       3.75102111
C       -0.82978399       2.89823276      -2.81925059
C       -1.02748530       3.35673662      -0.42630055
C        3.79484749       0.22108885       0.19741426
C        2.31106455      -0.03433687       1.88879853
C        2.50773079      -1.31309268       1.30718004
C        1.35978885      -2.08658159       1.02333692
C       -1.59727548       3.12669130      -1.69042473
C        0.46070787      -1.08953642       3.03746926
C        0.37489898       3.31341544      -0.26334261
C       -0.07699630       0.81562891       0.54785358
C       -2.69606346       1.75264404      -0.23654133
C       -2.26823454       1.37156447       2.37517805
C        3.55078009      -1.20123623       0.36517232
C       -0.19359499       1.03030645      -3.96021992
C       -1.09992599      -1.89059215       1.42274815
C       -1.88099826       2.67707612       0.48542283
C        2.87939311       0.95040971       1.03016185
C        3.13046397      -1.29848027      -0.99708694
C        1.11851918      -2.51768421      -0.32189632
C       -0.22083436      -2.91333502      -0.64216739
C       -0.69622706       0.71230134       3.79107936
C        0.98645257       2.68120087       0.88346944
C       -2.34659819      -1.97397888      -0.73300579
C       -1.98199138      -1.22721436       3.52010608
C       -3.00942245      -0.72532223       4.34134357
C       -2.55620277       2.08640303      -1.58719046
C        0.09518687      -2.38579697      -2.94253964
C       -2.82504438       0.40253157       0.16815776
C       -0.67529569      -3.04074102      -1.97695218
C        0.57394818       2.80879032      -2.67445368
C       -1.98021468      -1.36274811      -2.93056541
C       -2.96535145       0.53895110       4.49615349
C       -1.32409043       1.69198589      -3.45395717
C        2.67998350       1.08308496      -1.81480894
C       -1.38827391       2.28200467       1.70950666
C       -2.09918742      -1.09500402       2.10914654
C       -2.33198078       1.12917260      -2.60167259
C        1.35756223      -1.77968197      -2.64124984
C        2.21726557       2.04406607       0.42918780
C        1.39149935      -0.53356341      -3.33568545
60
Properties=species:S:1:pos:R:3 trajectory=trial0001_proposal001_step005_proposal_relax trajectory_step=9 pbc="F F F"
C        0.38581032       1.14186125       2.96223675
C       -2.56934583       0.18165212       1.58263792
C       -1.31411470      -2.39756845       0.12443105
C        1.93847200       0.76149140      -2.99151524
C        3.44561109       0.08149945      -1.17031123
C       -0.23514593       0.76767853      -0.69770043
C        1.26851888       0.04234859       2.83536502
C       -0.69985503      -0.69314595       3.77428920
C       -0.74048963      -1.40320648      -3.60583968
C        0.98101871       1.71333640      -3.45216317
C        1.95380460      -2.01296034      -1.37621554
C       -2.00457545      -2.46305016      -2.04749058
C        0.04019929       1.79050464       1.67426292
C        0.09008881      -0.32721569      -3.93936312
C       -2.51011576      -0.21161404      -2.24967366
C        0.22467177      -1.89597914       1.90305298
C       -2.77168340      -0.57911789      -0.87310100
C        1.16695651       2.97441516      -1.39655386
C        2.24231138       2.13808994      -0.98369810
C       -2.01537937       1.24302739       3.74755081
C       -0.81662257       2.90587252      -2.81119620
C       -1.01126647       3.35507128      -0.41744662
C        3.80143314       0.20402206       0.20459712
C        2.31195457      -0.04685192       1.89556002
C        2.49981280      -1.32610798       1.30924872
C        1.34629481      -2.08870806       1.01876642
C       -1.58269914       3.13560208      -1.68474325
C        0.44822546      -1.09428440       3.03485894
C        0.38855899       3.30456493      -0.25446370
C       -0.06872835       0.80591381       0.56506736
C       -2.69092925       1.76133306      -0.23479860
C       -2.26182367       1.37237793       2.37159833
C        3.54621647      -1.21819240       0.36909458
C       -0.18520678       1.04045978      -3.95521111
C       -1.11246923      -1.88967976       1.41205120
C       -1.86647804       2.67679483       0.48133350
C        2.88841000       0.93679329       1.04008156
C        3.12751416      -1.31105819      -0.99593543
C        1.10639892      -2.51698495      -0.32710552
C       -0.23320744      -2.90630593      -0.65245708
C       -0.70005865       0.70709434       3.79610727
C        0.99867219       2.67257933       0.89226855
C       -2.35821968      -1.96325421      -0.74397882
C       -1.99619294      -1.22151169       3.50862183
C       -3.02685865      -0.71256418       4.32351247
C       -2.54787832       2.10251172      -1.58824035
C        0.08584657      -2.38172481      -2.95239038
C       -2.82688665       0.41230128       0.16311078
C       -0.68751572      -3.03395605      -1.98564968
C        0.58750384       2.81019813      -2.66377489
C       -1.98404957      -1.34914362      -2.93832454
C       -2.98045305       0.53650992       4.48202386
C       -1.31612474       1.70508304      -3.45167796
C        2.68884820       1.07379116      -1.80928771
C       -1.37626188       2.27825270       1.71457824
C       -2.11110086      -1.09436011       2.09699380
C       -2.32862939       1.14481192      -2.60336727
C        1.35067843      -1.78438431      -2.64677090
C        2.22997772       2.03393279       0.43832764
C        1.39200433      -0.53528042      -3.33613362
60
Properties=species:S:1:pos:R:3 trajectory=trial0001_proposal001_step005_proposal_relax trajectory_step=10 pbc="F F F"
C        0.38720773       1.14014858       2.96763192
C       -2.57136079       0.18240619       1.58285420
C       -1.31805444      -2.39738572       0.12147866
C        1.94009070       0.75923929      -2.99045310
C        3.44621603       0.07806190      -1.16948035
C       -0.23482355       0.76784905      -0.69494740
C        1.26815692       0.04047134       2.84100526
C       -0.70349660      -0.69414848       3.76989032
C       -0.74221043      -1.39845843      -3.60902876
C        0.98559403       1.71575264      -3.44882320
C        1.95207723      -2.01532951      -1.37732674
C       -2.00542917      -2.45970442      -2.04883108
C        0.04102619       1.79197524       1.67618812
C        0.09176003      -0.32359997      -3.94019461
C       -2.51207355      -0.20898109      -2.25314340
C        0.21877335      -1.89734310       1.90159770
C       -2.77100435      -0.57380105      -0.87494264
C        1.16729531       2.97210406      -1.39305120
C        2.24354525       2.13672965      -0.98254984
C       -2.01703588       1.23997422       3.74759693
C       -0.81178592       2.90626025      -2.80859632
C       -1.00493559       3.35417143      -0.41623723
C        3.80567042       0.19853356       0.20505006
C        2.30842892      -0.05191194       1.89578845
C        2.49563427      -1.33014822       1.30908925
C        1.34066061      -2.09131380       1.02021861
C       -1.57639289       3.13759002      -1.68177735
C        0.44206865      -1.09774358       3.03591349
C        0.39068651       3.30117315      -0.25041172
C       -0.06871463       0.80289096       0.56408864
C       -2.68841614       1.76593524      -0.23709670
C       -2.25957000       1.37292957       2.37144193
C        3.54527054      -1.22355668       0.37003614
C       -0.18050022       1.04455122      -3.95268547
C       -1.11693273      -1.89244489       1.40885683
C       -1.86050329       2.67571124       0.48216919
C        2.89095143       0.93268470       1.04068785
C        3.12761692      -1.31446470      -0.99609948
C        1.10320272      -2.51544955      -0.32624102
C       -0.23557820      -2.90305194      -0.65337436
C       -0.69991691       0.70742361       3.79697237
C        1.00088106       2.67006734       0.89477020
C       -2.36213179      -1.95958990      -0.74635120
C       -2.00009721      -1.21822200       3.50378206
C       -3.02525990      -0.71543995       4.32245865
C       -2.54365672       2.10594399      -1.58808651
C        0.08186038      -2.37985434      -2.95604374
C       -2.82510917       0.41678609       0.16232838
C       -0.68862455      -3.02816271      -1.98610488
C        0.58974926       2.81179827      -2.66017350
C       -1.98589750      -1.34711267      -2.94134348
C       -2.98625540       0.54009190       4.47945803
C       -1.31188303       1.70710144      -3.45117627
C        2.68834867       1.07124447      -1.80803551
C       -1.37523155       2.28245000       1.71513482
C       -2.11190173      -1.09432910       2.09313927
C       -2.32682880       1.14688789      -2.60516575
C        1.34904086      -1.78733676      -2.64936895
C        2.23312999       2.03231840       0.43958692
C        1.39211646      -0.53680677      -3.33702307
60
Properties=species:S:1:pos:R:3 trajectory=trial0001_proposal001_step005_proposal_relax trajectory_step=11 pbc="F F F"
C        0.38743562       1.13965750       2.97046286
C       -2.57148514       0.18517195       1.58190086
C       -1.32311350      -2.39926011       0.12034550
C        1.94146647       0.75721898      -2.98926024
C        3.44597415       0.07512153      -1.16922241
C       -0.23483214       0.77149692      -0.69558135
C        1.26710159       0.03718200       2.84441689
C       -0.70794365      -0.69326175       3.76643708
C       -0.74452907      -1.39374948      -3.61315177
C        0.99125504       1.71883779      -3.44578702
C        1.95051522      -2.01788952      -1.37777962
C       -2.00556249      -2.45563159      -2.04925238
C        0.04063885       1.79161932       1.67729268
C        0.09336204      -0.31982000      -3.94105743
C       -2.51434096      -0.20720502      -2.25675981
C        0.21277931      -1.90115221       1.90321008
C       -2.76779260      -0.56831968      -0.87619982
C        1.16668800       2.97042163      -1.38865952
C        2.24304786       2.13515364      -0.98175901
C       -2.01965503       1.23597537       3.74770767
C       -0.80801632       2.90630514      -2.80618373
C       -1.00044865       3.35343943      -0.41401420
C        3.80893682       0.19324743       0.20552213
C        2.30286171      -0.05570819       1.89370361
C        2.49087673      -1.33322013       1.30812858
C        1.33590726      -2.09546717       1.02313381
C       -1.56997536       3.13749166      -1.68089142
C        0.43790559      -1.10143370       3.03584120
C        0.39346755       3.29897627      -0.24642679
C       -0.07114699       0.80247968       0.56012375
C       -2.68454987       1.76970694      -0.23777424
C       -2.25819392       1.37377764       2.37205618
C        3.54340299      -1.22882649       0.37049218
C       -0.17383374       1.04797214      -3.95069787
C       -1.12200671      -1.89705510       1.40787588
C       -1.85625271       2.67686498       0.48212786
C        2.89185181       0.92770325       1.03936178
C        3.12707457      -1.31802681      -0.99653693
C        1.10040803      -2.51349641      -0.32479311
C       -0.23720671      -2.89888881      -0.65323753
C       -0.70082133       0.70753019       3.79843417
C        1.00267879       2.66719193       0.89755476
C       -2.36490777      -1.95603637      -0.74753795
C       -2.00196882      -1.21625642       3.49873184
C       -3.01878006      -0.71962461       4.32659375
C       -2.53796917       2.10724321      -1.58960193
C        0.07907516      -2.37700643      -2.95997324
C       -2.82157423       0.42170602       0.16077337
C       -0.68858216      -3.02011966      -1.98591171
C        0.59305646       2.81358387      -2.65711946
C       -1.98904785      -1.34534187      -2.94484233
C       -2.99297398       0.54288227       4.47919071
C       -1.30651232       1.70808892      -3.45018043
C        2.68662250       1.06793735      -1.80559109
C       -1.37451220       2.28750961       1.71837391
C       -2.11342060      -1.09344299       2.08949205
C       -2.32379764       1.14865778      -2.60740377
C        1.34850427      -1.79032984      -2.65268339
C        2.23543053       2.03040537       0.44030284
C        1.39287657      -0.53842162      -3.33866727
60
Properties=species:S:1:pos:R:3 trajectory=trial0001_proposal001_step005_proposal_relax trajectory_step=12 pbc="F F F"
C        0.38781336       1.13797056       2.97333564
C       -2.57118656       0.18767098       1.57927191
C       -1.32977752      -2.39917729       0.11803912
C        1.94422572       0.75493698      -2.98665786
C        3.44688561       0.06887386      -1.16676227
C       -0.23431947       0.77289397      -0.69417110
C        1.26463504       0.03264222       2.84644027
C       -0.71205386      -0.69369305       3.76322612
C       -0.74657203      -1.38851708      -3.61758135
C        0.99796686       1.72036992      -3.44273323
C        1.94761569      -2.02054549      -1.37914989
C       -2.00863409      -2.44929161      -2.05292121
C        0.04161937       1.78972358       1.67958013
C        0.09500055      -0.31678081      -3.94202253
C       -2.51584544      -0.20137050      -2.26064993
C        0.20650776      -1.90575351       1.90278925
C       -2.76673910      -0.56212579      -0.87963666
C        1.17136243       2.96786720      -1.38400278
C        2.24613172       2.13078273      -0.97845168
C       -2.02240563       1.23365815       3.74743140
C       -0.80002213       2.90867874      -2.80486131
C       -0.99372353       3.35418065      -0.41186145
C        3.81025396       0.18472776       0.20768563
C        2.29950107      -0.06078075       1.89347838
C        2.48512778      -1.33762058       1.30750015
C        1.33014550      -2.09962955       1.02349297
C       -1.56338913       3.13984334      -1.67804491
C        0.43212446      -1.10355047       3.03502861
C        0.39930281       3.29743183      -0.24110608
C       -0.07120808       0.80183203       0.56104232
C       -2.67974860       1.77456593      -0.23911233
C       -2.25731956       1.37401438       2.37175123
C        3.53959188      -1.23651025       0.37134042
C       -0.16781973       1.05260361      -3.94915135
C       -1.12810325      -1.89983907       1.40612263
C       -1.85203356       2.67948321       0.48513337
C        2.89262152       0.92042148       1.04052253
C        3.12518870      -1.32317299      -0.99631035
C        1.09547506      -2.51254749      -0.32581208
C       -0.24221204      -2.89466034      -0.65599164
C       -0.70297881       0.70711669       3.80021653
C        1.00762723       2.66327694       0.90185340
C       -2.36930621      -1.95095029      -0.75106448
C       -2.00613802      -1.21677620       3.49579106
C       -3.01885408      -0.72019735       4.32736282
C       -2.53224438       2.11117123      -1.58945282
C        0.07632893      -2.37339110      -2.96446310
C       -2.81979593       0.42663243       0.15887712
C       -0.69162521      -3.01260484      -1.98880337
C        0.59920973       2.81500098      -2.65273374
C       -1.99239061      -1.34002753      -2.94977476
C       -3.00022775       0.54477763       4.47744542
C       -1.29941613       1.71160170      -3.44910891
C        2.68740214       1.06300150      -1.80229575
C       -1.37292083       2.29079970       1.72127837
C       -2.11650779      -1.09255054       2.08645719
C       -2.32010303       1.15329161      -2.60973290
C        1.34796396      -1.79205720      -2.65600032
C        2.23941501       2.02485069       0.44308348
C        1.39402601      -0.53900679      -3.34010617
60
Properties=species:S:1:pos:R:3 trajectory=trial0001_proposal001_step005_proposal_relax trajectory_step=13 pbc="F F F"
C        0.38564529       1.13061731       2.98042538
C       -2.56826364       0.19309785       1.57253995
C       -1.35046887      -2.39804249       0.11034060
C        1.95255306       0.74811123      -2.97910918
C        3.44903972       0.04979783      -1.15968238
C       -0.23213670       0.77755507      -0.69119112
C        1.25656929       0.02178993       2.84707085
C       -0.72613270      -0.69491725       3.75705691
C       -0.75153174      -1.37429081      -3.63000474
C        1.01766561       1.72511160      -3.43406534
C        1.93797066      -2.02764002      -1.38351541
C       -2.01893455      -2.42955696      -2.06615079
C        0.04342217       1.78481755       1.68449381
C        0.10042675      -0.30501808      -3.94597757
C       -2.51796192      -0.18293794      -2.27222338
C        0.18962221      -1.91996260       1.90309425
C       -2.76511734      -0.54312087      -0.89001232
C        1.18907546       2.96137594      -1.36855426
C        2.25772351       2.11538072      -0.96755089
C       -2.03166637       1.22809185       3.74693370
C       -0.77872515       2.91895773      -2.79678705
C       -0.97400644       3.35824404      -0.40283196
C        3.81126189       0.15784891       0.21600643
C        2.28856892      -0.07783459       1.89568253
C        2.46757654      -1.35170265       1.30561376
C        1.31318188      -2.11239124       1.02238412
C       -1.54000773       3.14840167      -1.67490591
C        0.41585370      -1.11205369       3.02838783
C        0.41957554       3.29472321      -0.22700770
C       -0.07107828       0.80140218       0.56469384
C       -2.66580903       1.78766794      -0.23980461
C       -2.25627364       1.37459856       2.37045487
C        3.52656535      -1.26060042       0.37426378
C       -0.14889752       1.06214359      -3.94685055
C       -1.14510497      -1.90740372       1.40223616
C       -1.84148006       2.69137912       0.49342302
C        2.89445928       0.89769345       1.04498720
C        3.11816181      -1.34031017      -0.99498520
C        1.07912786      -2.51154746      -0.33140794
C       -0.25888604      -2.88304836      -0.66521614
C       -0.70877276       0.70562306       3.80359516
C        1.02271481       2.65199002       0.91507689
C       -2.38244763      -1.93551747      -0.76285562
C       -2.01787755      -1.22172970       3.49236424
C       -3.02321439      -0.71913120       4.32970944
C       -2.51469253       2.12358700      -1.58984509
C        0.06858928      -2.36295449      -2.97639627
C       -2.81500402       0.44048109       0.15201109
C       -0.70306109      -2.99064157      -2.00016937
C        0.62167924       2.81652849      -2.64181352
C       -2.00152087      -1.32207661      -2.96558807
C       -3.01940208       0.54855323       4.47372002
C       -1.27829715       1.72442234      -3.44578218
C        2.69265062       1.04652782      -1.79073499
C       -1.36965515       2.29916959       1.73019181
C       -2.12462832      -1.09048641       2.08195084
C       -2.30789411       1.17107709      -2.61566762
C        1.34687230      -1.79477071      -2.66541959
C        2.24978259       2.00660052       0.45243934
C        1.39806281      -0.54011430      -3.34399195
60
Properties=species:S:1:pos:R:3 trajectory=trial0001_proposal001_step005_proposal_relax trajectory_step=14 pbc="F F F"
C        0.37878330       1.12438897       2.98064877
C       -2.56237201       0.19720039       1.56644758
C       -1.37259131      -2.39463146       0.10281278
C        1.96388060       0.74180931      -2.97046724
C        3.45213772       0.02559319      -1.15065592
C       -0.22831384       0.78456402      -0.69084491
C        1.24194871       0.00673744       2.84376773
C       -0.73919918      -0.69797676       3.75398548
C       -0.75281969      -1.35691814      -3.64407618
C        1.03966960       1.72622897      -3.42678553
C        1.92569204      -2.03486489      -1.38850907
C       -2.03216219      -2.40680748      -2.08265362
C        0.04372359       1.78044321       1.69002635
C        0.10749209      -0.29871215      -3.95095652
C       -2.51687149      -0.16049982      -2.28448993
C        0.17195227      -1.93780675       1.90182264
C       -2.76495301      -0.52354162      -0.90290414
C        1.21299538       2.95483582      -1.35501924
C        2.27137822       2.09765118      -0.95327417
C       -2.04176472       1.22394838       3.74617109
C       -0.74632622       2.92910792      -2.79364750
C       -0.95333915       3.36573391      -0.39386968
C        3.80864518       0.12745839       0.22591947
C        2.27908912      -0.09634999       1.89616581
C        2.44793761      -1.37056518       1.30437569
C        1.29504744      -2.12747651       1.01834679
C       -1.51660591       3.15981726      -1.66193039
C        0.40007559      -1.11819966       3.02212664
C        0.44266505       3.29388153      -0.21273827
C       -0.07281892       0.80386709       0.56707237
C       -2.65092418       1.80332727      -0.23928785
C       -2.25762545       1.37583933       2.36966549
C        3.51076018      -1.28781640       0.37808345
C       -0.13103677       1.07814522      -3.94554804
C       -1.16325132      -1.91646463       1.39986354
C       -1.83320542       2.70789411       0.49860687
C        2.89500893       0.87088902       1.05307833
C        3.10965054      -1.36060147      -0.99294852
C        1.05939455      -2.51296997      -0.33929460
C       -0.27952635      -2.87244446      -0.67784056
C       -0.71984233       0.70044356       3.80668006
C        1.03729652       2.64139170       0.92863645
C       -2.39594284      -1.91831619      -0.77698010
C       -2.03029220      -1.22942216       3.49509034
C       -3.03055549      -0.71830590       4.33253518
C       -2.49306866       2.14049590      -1.58903418
C        0.06166448      -2.35022901      -2.98924162
C       -2.80810739       0.45351569       0.14673369
C       -0.71853599      -2.96927281      -2.01206863
C        0.64727529       2.81935807      -2.62855576
C       -2.00942612      -1.30038302      -2.98362311
C       -3.03605952       0.55275105       4.47316602
C       -1.25481061       1.74097494      -3.44359832
C        2.69988222       1.02775586      -1.77892193
C       -1.36663587       2.30625494       1.73979615
C       -2.13299633      -1.08971230       2.08258072
C       -2.29292663       1.19193881      -2.62070551
C        1.34376257      -1.79592057      -2.67511730
C        2.25897381       1.98503607       0.46453384
C        1.40357227      -0.53950355      -3.34810198
60
Properties=species:S:1:pos:R:3 trajectory=trial0001_proposal001_step005_proposal_relax trajectory_step=15 pbc="F F F"
C        0.37329670       1.11880969       2.98066826
C       -2.55885542       0.19777866       1.56420675
C       -1.38409336      -2.38967377       0.09701791
C        1.97121166       0.73834446      -2.96620454
C        3.45459305       0.01063959      -1.14491018
C       -0.22493561       0.78668180      -0.68895908
C        1.23272804      -0.00045551       2.83962594
C       -0.74496698      -0.70260584       3.75441550
C       -0.75312212      -1.34858508      -3.65039812
C        1.05123054       1.72600692      -3.42281535
C        1.91745498      -2.03876235      -1.39198131
C       -2.04126727      -2.39383146      -2.09397145
C        0.04394717       1.77950363       1.69321303
C        0.11261846      -0.29107697      -3.95502727
C       -2.51413614      -0.14574666      -2.29056858
C        0.16289414      -1.94609106       1.89897923
C       -2.76782891      -0.51327815      -0.91077838
C        1.22936708       2.95178052      -1.34791903
C        2.28133403       2.08651199      -0.94413247
C       -2.04691426       1.22385371       3.74568709
C       -0.73049867       2.93803611      -2.78687657
C       -0.93947578       3.37201968      -0.38704544
C        3.80574067       0.10950260       0.23250245
C        2.27511957      -0.10895249       1.89872835
C        2.43852733      -1.38325952       1.30488523
C        1.28380442      -2.13555554       1.01339051
C       -1.50024156       3.16769830      -1.65983509
C        0.38993976      -1.12207024       3.01886890
C        0.45595876       3.29384989      -0.20626918
C       -0.07316838       0.80565665       0.56975410
C       -2.64454370       1.81143468      -0.23906905
C       -2.25897669       1.37704886       2.36833586
C        3.50178386      -1.30409833       0.38087207
C       -0.12175473       1.08367466      -3.94644467
C       -1.17320431      -1.91991313       1.39848697
C       -1.82798901       2.71630495       0.50417141
C        2.89568608       0.85660326       1.06013540
C        3.10434979      -1.37345549      -0.99116308
C        1.04730476      -2.51574304      -0.34584273
C       -0.29313963      -2.86823693      -0.68600028
C       -0.72650898       0.69677654       3.80670181
C        1.04494983       2.63626587       0.93554022
C       -2.40383687      -1.90813578      -0.78619673
C       -2.03828989      -1.23413385       3.49920295
C       -3.04065806      -0.71366232       4.33061687
C       -2.48158934       2.15218673      -1.58649601
C        0.05643869      -2.34450160      -2.99514077
C       -2.80459239       0.46007638       0.14439798
C       -0.72954528      -2.96049416      -2.02195720
C        0.66500441       2.81923750      -2.62211036
C       -2.01108497      -1.28601704      -2.99381902
C       -3.04260707       0.55255341       4.47281491
C       -1.24315657       1.75349226      -3.44297722
C        2.70692406       1.01741834      -1.77207777
C       -1.36529882       2.30816078       1.74123094
C       -2.13832721      -1.09064837       2.08483552
C       -2.28396624       1.20657758      -2.62208103
C        1.34093975      -1.79530316      -2.67872678
C        2.26396203       1.97197036       0.47333967
C        1.40691245      -0.53860297      -3.34978210
60
Properties=species:S:1:pos:R:3 trajectory=trial0001_proposal001_step005_proposal_relax trajectory_step=16 pbc="F F F"
C        0.35850129       1.10614759       2.97785288
C       -2.55115525       0.19730935       1.56423829
C       -1.40295349      -2.37956499       0.08655992
C        1.98570470       0.73243947      -2.96038213
C        3.45760204      -0.01490374      -1.13626648
C       -0.21789970       0.79437920      -0.69407800
C        1.21442390      -0.01078689       2.82856613
C       -0.75612723      -0.71280469       3.75997983
C       -0.75041271      -1.33228039      -3.66162206
C        1.07109114       1.72659837      -3.41622809
C        1.90216134      -2.04604410      -1.39720863
C       -2.05605547      -2.37192769      -2.11360836
C        0.04014788       1.78208369       1.69510798
C        0.12284726      -0.27845663      -3.96375761
C       -2.50603206      -0.12026587      -2.30046590
C        0.14657040      -1.95972041       1.89549345
C       -2.77245234      -0.49444783      -0.92266712
C        1.25811226       2.94798424      -1.33532028
C        2.29741898       2.06790989      -0.92817085
C       -2.05623007       1.22414042       3.74559891
C       -0.69999845       2.95256487      -2.77504458
C       -0.91783058       3.38459339      -0.37519690
C        3.79995350       0.07844139       0.24418499
C        2.26453710      -0.13410552       1.90306126
C        2.42285454      -1.40921118       1.30687745
C        1.26347487      -2.15126999       1.00497687
C       -1.46897929       3.18263026      -1.65209824
C        0.37302459      -1.13451753       3.01267140
C        0.47870766       3.29460281      -0.19751934
C       -0.07750882       0.81278762       0.57172622
C       -2.63433624       1.82577834      -0.23617869
C       -2.26279549       1.38105096       2.36657283
C        3.48716094      -1.33335714       0.38596267
C       -0.10562447       1.09548244      -3.94881127
C       -1.19042428      -1.92782772       1.39772964
C       -1.81921752       2.73259404       0.50786250
C        2.89629402       0.83211915       1.07280859
C        3.09492055      -1.39781039      -0.98789197
C        1.02549488      -2.52315985      -0.35725255
C       -0.31701736      -2.86343315      -0.69954160
C       -0.73757810       0.68919709       3.80299939
C        1.05423563       2.62908100       0.94560100
C       -2.41636611      -1.89024504      -0.80217763
C       -2.05035794      -1.24151139       3.50897825
C       -3.05604522      -0.70767321       4.33038813
C       -2.45904872       2.17309107      -1.58280301
C        0.04641321      -2.33476499      -3.00451081
C       -2.79498028       0.47065199       0.14078386
C       -0.74982967      -2.94812377      -2.03822998
C        0.69608974       2.81841226      -2.61378085
C       -2.01097539      -1.25999454      -3.01002982
C       -3.04960026       0.55194450       4.47668367
C       -1.22276880       1.77709523      -3.44336762
C        2.72013242       0.99980921      -1.76016001
C       -1.36491736       2.31099515       1.74392590
C       -2.14686567      -1.09425611       2.09213369
C       -2.26621641       1.23331201      -2.62243065
C        1.33349237      -1.79339979      -2.68367764
C        2.26899921       1.95170350       0.48887084
C        1.41368223      -0.53750043      -3.35266880
60
Properties=species:S:1:pos:R:3 trajectory=trial0001_proposal001_step005_proposal_relax trajectory_step=17 pbc="F F F"
C        0.34800836       1.09872314       2.97097454
C       -2.54633577       0.19778271       1.56521435
C       -1.41299537      -2.37360119       0.08111547
C        1.99462920       0.72992624      -2.95837511
C        3.45809870      -0.02933050      -1.13102573
C       -0.21220958       0.80334944      -0.69696906
C        1.20067676      -0.02081411       2.82198220
C       -0.76081513      -0.71945266       3.76526770
C       -0.74895594      -1.32206082      -3.66778115
C        1.08386512       1.72627560      -3.41331514
C        1.89332367      -2.05171053      -1.39869914
C       -2.06307037      -2.35960940      -2.12330327
C        0.03520817       1.78494995       1.69545389
C        0.12969700      -0.27058325      -3.96954124
C       -2.49968848      -0.10563114      -2.30410471
C        0.13554917      -1.96849532       1.89300992
C       -2.77230124      -0.48280938      -0.92804422
C        1.27212904       2.94637545      -1.33040704
C        2.30442140       2.05923514      -0.91972832
C       -2.06034028       1.22403334       3.74619883
C       -0.68252417       2.95991192      -2.76878210
C       -0.90544246       3.39286065      -0.36869465
C        3.79632798       0.06141193       0.25013110
C        2.25724571      -0.14810537       1.90216987
C        2.41406524      -1.42628099       1.30860052
C        1.25222867      -2.16172905       1.00205202
C       -1.45138768       3.18954219      -1.64867333
C        0.36458791      -1.14268433       3.01307999
C        0.48980126       3.29630578      -0.19360635
C       -0.08455573       0.81997080       0.56016039
C       -2.62765822       1.83439291      -0.23540161
C       -2.26627038       1.38335416       2.36709386
C        3.48000049      -1.35029636       0.38885804
C       -0.09500360       1.10365344      -3.95022879
C       -1.20144806      -1.93354539       1.39736929
C       -1.81462602       2.74088524       0.50987007
C        2.89439875       0.81696971       1.07948531
C        3.08984572      -1.41124453      -0.98617759
C        1.01337241      -2.52913754      -0.36153099
C       -0.32981783      -2.86281033      -0.70650616
C       -0.74488730       0.68270248       3.79960892
C        1.05666128       2.62599153       0.94987013
C       -2.42239599      -1.87974334      -0.81059850
C       -2.05680627      -1.24497752       3.51359213
C       -3.06084684      -0.70665911       4.33473196
C       -2.44456722       2.18424228      -1.58008434
C        0.04045822      -2.32911686      -3.00931382
C       -2.78678125       0.47700763       0.14040364
C       -0.76071264      -2.94379946      -2.04647085
C        0.71402940       2.82031024      -2.60775067
C       -2.00850834      -1.24481252      -3.01642181
C       -3.05076151       0.55159769       4.48226120
C       -1.21061261       1.79091335      -3.44352673
C        2.72653366       0.99143550      -1.75431542
C       -1.36703001       2.31527572       1.74459197
C       -2.15256577      -1.09670238       2.09626640
C       -2.25385857       1.24808007      -2.62237386
C        1.32775037      -1.79268649      -2.68486004
C        2.27040207       1.94168977       0.49705811
C        1.41791289      -0.53716069      -3.35481105
60
Properties=species:S:1:pos:R:3 trajectory=trial0001_proposal001_step005_proposal_relax trajectory_step=18 pbc="F F F"
C        0.33990760       1.09154509       2.96483374
C       -2.54403400       0.19858231       1.56707702
C       -1.41997913      -2.36930500       0.07584762
C        2.00180733       0.72787333      -2.95774913
C        3.45733903      -0.03881618      -1.12763953
C       -0.20795507       0.81178982      -0.70834810
C        1.19096984      -0.02904217       2.81806149
C       -0.76465272      -0.72573353       3.76940304
C       -0.74779132      -1.31318600      -3.67209124
C        1.09372453       1.72816154      -3.41040533
C        1.88695381      -2.05716230      -1.39880910
C       -2.06687406      -2.35107798      -2.12893112
C        0.03001578       1.78793777       1.69388065
C        0.13516677      -0.26435305      -3.97411586
C       -2.49419222      -0.09468897      -2.30579720
C        0.12582741      -1.97409685       1.89130569
C       -2.77036663      -0.47317250      -0.93074227
C        1.28022546       2.94544169      -1.32632443
C        2.30817121       2.05466803      -0.91469902
C       -2.06240497       1.22292351       3.74733354
C       -0.66887608       2.96447860      -2.76450265
C       -0.89661418       3.39860766      -0.36497253
C        3.79502310       0.04911021       0.25412261
C        2.24954832      -0.16006583       1.90081426
C        2.40848697      -1.43991350       1.31026612
C        1.24267258      -2.17059361       1.00146411
C       -1.43809729       3.19457059      -1.64457058
C        0.35723083      -1.15228448       3.01560251
C        0.49668981       3.29726146      -0.19090622
C       -0.09102691       0.82730673       0.55465577
C       -2.62248239       1.84121728      -0.23541768
C       -2.26851355       1.38552386       2.36817265
C        3.47605055      -1.36336108       0.39138415
C       -0.08616371       1.11148302      -3.95037217
C       -1.21039913      -1.93807810       1.39589791
C       -1.80991078       2.74599299       0.50956972
C        2.89229125       0.80628468       1.08321985
C        3.08650405      -1.42111432      -0.98496299
C        1.00504100      -2.53442996      -0.36291840
C       -0.33858103      -2.86357730      -0.71051258
C       -0.74972558       0.67767386       3.79617219
C        1.05687416       2.62420694       0.95207065
C       -2.42651546      -1.87155845      -0.81620510
C       -2.06192422      -1.24534692       3.51494193
C       -3.06174156      -0.70884837       4.33940774
C       -2.43294643       2.19231751      -1.57841669
C        0.03476898      -2.32526307      -3.01267826
C       -2.77940179       0.48281679       0.14101567
C       -0.76788075      -2.94208282      -2.05176327
C        0.72576030       2.82223242      -2.60440997
C       -2.00525174      -1.23389949      -3.01879952
C       -3.04999165       0.55304939       4.48737478
C       -1.20078794       1.80086299      -3.44386229
C        2.73034784       0.98652063      -1.75084050
C       -1.36959445       2.31993987       1.74563279
C       -2.15728872      -1.09861185       2.09772159
C       -2.24408692       1.25793296      -2.62212343
C        1.32213981      -1.79309376      -2.68466234
C        2.27103638       1.93575808       0.50273629
C        1.42092574      -0.53774879      -3.35638773
60
Properties=species:S:1:pos:R:3 trajectory=trial0001_proposal001_step005_proposal_relax trajectory_step=19 pbc="F F F"
C        0.33289495       1.07967477       2.95841164
C       -2.54432447       0.20230187       1.56764380
C       -1.42823765      -2.36513991       0.06792040
C        2.01010898       0.72555762      -2.95700574
C        3.45485162      -0.04777534      -1.12326647
C       -0.20190123       0.82180168      -0.71872514
C        1.18274370      -0.04038119       2.81495377
C       -0.77192523      -0.73354240       3.77352956
C       -0.74711602      -1.30203665      -3.67562420
C        1.10563777       1.73288507      -3.40624130
C        1.88055674      -2.06497058      -1.39747771
C       -2.07057481      -2.34145591      -2.13399324
C        0.02533089       1.78910145       1.69160761
C        0.14036220      -0.25795038      -3.97782753
C       -2.48734854      -0.08128625      -2.30566346
C        0.11299066      -1.97895142       1.89018811
C       -2.76616774      -0.46086168      -0.93210148
C        1.28816058       2.94451062      -1.31972099
C        2.31264870       2.05062306      -0.90987833
C       -2.06290048       1.22118922       3.74884977
C       -0.65343035       2.97054172      -2.76190544
C       -0.88855746       3.40354604      -0.36282870
C        3.79394547       0.03497087       0.25927213
C        2.23988073      -0.17493605       1.89979433
C        2.40304289      -1.45493672       1.31236295
C        1.23159290      -2.18090412       1.00249025
C       -1.42490827       3.20124867      -1.63866271
C        0.34836180      -1.16779188       3.01868535
C        0.50528812       3.29835093      -0.18698090
C       -0.09831112       0.83620478       0.54265844
C       -2.61493371       1.84928878      -0.23594622
C       -2.27002887       1.38798628       2.36979683
C        3.47266602      -1.37868805       0.39429878
C       -0.07500427       1.12153265      -3.94912583
C       -1.22154759      -1.93989393       1.39105565
C       -1.80336270       2.75160069       0.50915061
C        2.88845607       0.79367517       1.08562441
C        3.08210569      -1.43130628      -0.98276578
C        0.99637845      -2.54203014      -0.36316049
C       -0.34801280      -2.86594497      -0.71494605
C       -0.75236477       0.67168853       3.79221264
C        1.05856455       2.62091823       0.95482009
C       -2.43095441      -1.86164193      -0.82208452
C       -2.06942193      -1.24446017       3.51187708
C       -3.06371647      -0.70971046       4.34431168
C       -2.42101710       2.20054766      -1.57813742
C        0.02810036      -2.32107442      -3.01636791
C       -2.77278451       0.49097424       0.14094070
C       -0.77587119      -2.94250513      -2.05824481
C        0.73742490       2.82496781      -2.60197397
C       -2.00150934      -1.22023746      -3.01771250
C       -3.04803702       0.55348906       4.49168091
C       -1.18786152       1.81097690      -3.44344764
C        2.73459907       0.98200451      -1.74716603
C       -1.37187608       2.32528756       1.74974154
C       -2.16597296      -1.09895703       2.09480271
C       -2.23301901       1.26909262      -2.62229278
C        1.31530413      -1.79387992      -2.68315182
C        2.27275477       1.92915666       0.50798630
C        1.42369504      -0.53887995      -3.35719212
60
Properties=species:S:1:pos:R:3 trajectory=trial0001_proposal001_step005_proposal_relax trajectory_step=20 pbc="F F F"
C        0.33010682       1.06948613       2.95270428
C       -2.54696700       0.20699230       1.56651312
C       -1.43415296      -2.36303013       0.06258759
C        2.01522878       0.72481142      -2.95597249
C        3.45225136      -0.05412412      -1.11890854
C       -0.19723396       0.82843246      -0.72890681
C        1.17698819      -0.05214183       2.81463660
C       -0.77794051      -0.73936363       3.77448128
C       -0.74763706      -1.29432512      -3.67622730
C        1.11532337       1.73491164      -3.40426582
C        1.87644925      -2.07095722      -1.39606687
C       -2.07346120      -2.33408496      -2.13746112
C        0.02370516       1.78634268       1.68984579
C        0.14381482      -0.25300659      -3.97846094
C       -2.48199962      -0.07139719      -2.30419610
C        0.10283102      -1.98350188       1.88814485
C       -2.76238959      -0.45135184      -0.93230865
C        1.29378060       2.94393195      -1.31645096
C        2.31688078       2.04804072      -0.90650889
C       -2.06150956       1.22017005       3.74964755
C       -0.64500279       2.97673548      -2.76022001
C       -0.88151849       3.40656197      -0.35987891
C        3.79225992       0.02484928       0.26312019
C        2.23520852      -0.18480653       1.89842633
C        2.39789849      -1.46600977       1.31347274
C        1.22474204      -2.18808472       1.00376196
C       -1.41697585       3.20613932      -1.63865976
C        0.34231243      -1.17813529       3.02174182
C        0.51115427       3.29985827      -0.18317534
C       -0.10179551       0.84289163       0.53648996
C       -2.60864705       1.85522168      -0.23633543
C       -2.27082806       1.38959038       2.37153249
C        3.47022619      -1.38957560       0.39660934
C       -0.06592016       1.12733148      -3.94795156
C       -1.22963618      -1.93784136       1.38513467
C       -1.79916570       2.75614627       0.51039868
C        2.88442935       0.78259898       1.08717581
C        3.07803885      -1.43728598      -0.98046376
C        0.99008598      -2.54878462      -0.36265083
C       -0.35448048      -2.86887606      -0.71923291
C       -0.75332797       0.66583350       3.79066041
C        1.06159183       2.61746433       0.95788311
C       -2.43408213      -1.85444078      -0.82626932
C       -2.07735531      -1.24393513       3.50746494
C       -3.06705879      -0.71253431       4.34560046
C       -2.41355812       2.20715195      -1.57872263
C        0.02416144      -2.31794126      -3.01865751
C       -2.77057140       0.49829488       0.14013442
C       -0.78191007      -2.94338225      -2.06299185
C        0.74659548       2.82914415      -2.59714385
C       -1.99900453      -1.20986322      -3.01566601
C       -3.04591666       0.55664476       4.49350026
C       -1.17827052       1.81755768      -3.44201846
C        2.73773039       0.97897928      -1.74454952
C       -1.37177774       2.32936453       1.75373945
C       -2.17400936      -1.09711512       2.09039530
C       -2.22505595       1.27762715      -2.62339904
C        1.31110175      -1.79418790      -2.68135632
C        2.27461583       1.92359260       0.51059234
C        1.42509554      -0.53904911      -3.35626938
60
Properties=species:S:1:pos:R:3 trajectory=trial0001_proposal001_step005_proposal_relax trajectory_step=21 pbc="F F F"
C        0.32856682       1.05901023       2.94834557
C       -2.55090584       0.21264909       1.56436467
C       -1.44045615      -2.36182623       0.05694547
C        2.02011983       0.72378875      -2.95355807
C        3.44971961      -0.06088004      -1.11426613
C       -0.19272035       0.83342767      -0.73577030
C        1.17330962      -0.06430993       2.81429488
C       -0.78444644      -0.74506325       3.77304850
C       -0.74816477      -1.28726977      -3.67582763
C        1.12414140       1.73834945      -3.40171558
C        1.87213959      -2.07629426      -1.39493459
C       -2.07733453      -2.32628750      -2.14140514
C        0.02427812       1.78121468       1.68899588
C        0.14694869      -0.24857311      -3.97727092
C       -2.47707803      -0.06102296      -2.30314800
C        0.09379827      -1.98862554       1.88599510
C       -2.75950157      -0.44241835      -0.93339005
C        1.30106882       2.94361471      -1.31135101
C        2.32226215       2.04484159      -0.90316800
C       -2.05927984       1.21935938       3.75006420
C       -0.63583035       2.98373623      -2.75935054
C       -0.87450276       3.40925289      -0.35747489
C        3.78993750       0.01435163       0.26729205
C        2.23104683      -0.19523112       1.89893646
C        2.39275333      -1.47583610       1.31397957
C        1.21727673      -2.19556261       1.00379806
C       -1.40993087       3.21244225      -1.63768169
C        0.33543674      -1.18774930       3.02307783
C        0.51838106       3.30095574      -0.17837169
C       -0.10292972       0.84761069       0.53042133
C       -2.60248787       1.86197150      -0.23733167
C       -2.27090087       1.39177923       2.37244691
C        3.46656731      -1.40054776       0.39926090
C       -0.05742396       1.13223185      -3.94649997
C       -1.23689604      -1.93355020       1.37909957
C       -1.79508152       2.76144485       0.51357745
C        2.88067337       0.77184428       1.08844252
C        3.07313527      -1.44297630      -0.97772088
C        0.98394025      -2.55546356      -0.36321646
C       -0.36138108      -2.87152461      -0.72347355
C       -0.75408273       0.65971061       3.79019291
C        1.06633333       2.61331258       0.96162445
C       -2.43733283      -1.84748953      -0.83024653
C       -2.08656351      -1.24407424       3.50238683
C       -3.07339914      -0.71061918       4.34489495
C       -2.40720257       2.21486118      -1.57915122
C        0.02062352      -2.31493948      -3.02047040
C       -2.77061834       0.50644380       0.13908100
C       -0.78809637      -2.94246370      -2.06878615
C        0.75535116       2.83210643      -2.59390160
C       -1.99757357      -1.19979879      -3.01507433
C       -3.04518072       0.55606345       4.49337772
C       -1.16821580       1.82386053      -3.44047423
C        2.74125110       0.97528710      -1.74134321
C       -1.36975633       2.33258105       1.75747479
C       -2.18200474      -1.09369135       2.08517883
C       -2.21827040       1.28590390      -2.62478511
C        1.30833661      -1.79401684      -2.67991832
C        2.27728898       1.91620505       0.51348161
C        1.42631183      -0.53854131      -3.35395328
60
Properties=species:S:1:pos:R:3 trajectory=trial0001_proposal001_step005_proposal_relax trajectory_step=22 pbc="F F F"
C        0.32570383       1.03559300       2.94384721
C       -2.55969310       0.22582506       1.56044793
C       -1.45320572      -2.35962497       0.04846132
C        2.02914544       0.72315238      -2.94632523
C        3.44564639      -0.07703572      -1.10535511
C       -0.18437385       0.84173462      -0.74591562
C        1.16483423      -0.08522942       2.81317733
C       -0.79988188      -0.75862660       3.76704062
C       -0.74628269      -1.27428929      -3.67457260
C        1.14171177       1.74292343      -3.39661306
C        1.86192472      -2.08473300      -1.39392288
C       -2.08697635      -2.31008581      -2.15136789
C        0.02764158       1.76985321       1.68686792
C        0.15385759      -0.23995572      -3.97140144
C       -2.46776192      -0.04137354      -2.30394146
C        0.07778568      -2.00076432       1.88208858
C       -2.75665147      -0.42517335      -0.93682485
C        1.31904248       2.94411016      -1.30260613
C        2.33505042       2.03648370      -0.89420170
C       -2.05643090       1.21797199       3.75079739
C       -0.61707336       2.99812589      -2.75541929
C       -0.85915816       3.41630334      -0.35163634
C        3.78383977      -0.00884942       0.27609073
C        2.22455669      -0.21876609       1.90119278
C        2.37964644      -1.49639109       1.31466975
C        1.20231436      -2.21231130       1.00039866
C       -1.39174626       3.22842704      -1.63487902
C        0.32085604      -1.20729341       3.02024914
C        0.53467855       3.30196295      -0.16777698
C       -0.10150817       0.85246609       0.51777578
C       -2.59279699       1.87796661      -0.23813230
C       -2.26999798       1.39943259       2.37359605
C        3.45658614      -1.42263124       0.40399747
C       -0.04205063       1.14196027      -3.94343346
C       -1.24955439      -1.92444627       1.36800207
C       -1.78599792       2.77514419       0.52007565
C        2.87368698       0.75018000       1.09352364
C        3.06166449      -1.45615263      -0.97133924
C        0.97023292      -2.56896044      -0.36798067
C       -0.37716044      -2.87654396      -0.73288361
C       -0.75540809       0.64819228       3.78857283
C        1.07747071       2.60357068       0.97041541
C       -2.44456059      -1.83330603      -0.83893548
C       -2.10586820      -1.24567574       3.49445554
C       -3.09064687      -0.70871616       4.33784398
C       -2.39485687       2.23263978      -1.58020113
C        0.01576391      -2.30743432      -3.02397569
C       -2.77299518       0.52352412       0.13550698
C       -0.80177356      -2.93611277      -2.07869411
C        0.77535450       2.83797724      -2.58563129
C       -1.99768626      -1.18007129      -3.01879808
C       -3.04472523       0.55831049       4.49077720
C       -1.14942965       1.83747232      -3.43774949
C        2.74892699       0.96634644      -1.73343441
C       -1.36211380       2.33560810       1.76297566
C       -2.19541143      -1.08437863       2.07607050
C       -2.20505013       1.30585253      -2.62623347
C        1.30450217      -1.79369556      -2.67775658
C        2.28235911       1.89878075       0.52030778
C        1.42949241      -0.53569779      -3.34623820
60
Properties=species:S:1:pos:R:3 trajectory=trial0001_proposal001_step005_proposal_relax trajectory_step=23 pbc="F F F"
C        0.32042700       1.02197305       2.93688881
C       -2.56611209       0.23709482       1.55927449
C       -1.46440764      -2.35667474       0.04162656
C        2.03676788       0.72254575      -2.94018150
C        3.44229368      -0.09045805      -1.09965164
C       -0.17806453       0.84996965      -0.75899239
C        1.15728706      -0.10702432       2.81116057
C       -0.81127594      -0.76842246       3.76271629
C       -0.74416322      -1.26326406      -3.67423263
C        1.15444849       1.74821672      -3.39157005
C        1.85251838      -2.09177311      -1.39252036
C       -2.09440282      -2.29737301      -2.15876182
C        0.02967668       1.76128445       1.68512773
C        0.16070481      -0.23070198      -3.96547213
C       -2.46081353      -0.02498981      -2.30587126
C        0.06457634      -2.01300972       1.87621354
C       -2.75481751      -0.41038581      -0.93971116
C        1.33451860       2.94502511      -1.29322135
C        2.34387563       2.03055131      -0.88713395
C       -2.05377966       1.21766136       3.75053267
C       -0.59860315       3.00761097      -2.75103539
C       -0.84431031       3.42414362      -0.34438523
C        3.77887966      -0.02682429       0.28285654
C        2.21601746      -0.23674413       1.90384870
C        2.36820481      -1.51690450       1.31444494
C        1.19056350      -2.22759994       0.99769877
C       -1.37703744       3.23981962      -1.63186189
C        0.31067180      -1.22200053       3.01891400
C        0.54825459       3.30189812      -0.16147504
C       -0.10104053       0.85464412       0.50719468
C       -2.58663939       1.89348181      -0.23799292
C       -2.26948967       1.40708992       2.37534269
C        3.44761463      -1.44144654       0.40793648
C       -0.02948282       1.14983313      -3.94049477
C       -1.25955195      -1.91955416       1.36173508
C       -1.77786759       2.78569651       0.52210173
C        2.86980925       0.72992642       1.09918723
C        3.05265153      -1.46824476      -0.96728474
C        0.95795283      -2.58033427      -0.37230107
C       -0.38946013      -2.88085343      -0.73806173
C       -0.75944230       0.63424112       3.78667321
C        1.08405722       2.59607971       0.97626973
C       -2.44975309      -1.82212093      -0.84503413
C       -2.12074490      -1.24701431       3.48672028
C       -3.10481717      -0.70288989       4.33326239
C       -2.38206531       2.25049257      -1.57929972
C        0.01105372      -2.30241657      -3.02471094
C       -2.77343570       0.53791409       0.13281465
C       -0.81207169      -2.92889340      -2.08659015
C        0.79106606       2.84215561      -2.58105424
C       -1.99670577      -1.16599866      -3.02444825
C       -3.04528421       0.55476262       4.48910727
C       -1.13601116       1.85146269      -3.43497226
C        2.75527955       0.95930628      -1.72534904
C       -1.35458683       2.33801223       1.76401686
C       -2.20266681      -1.07619659       2.07001529
C       -2.19380085       1.32064849      -2.62602523
C        1.30177716      -1.79295596      -2.67641857
C        2.28432053       1.88664445       0.52628346
C        1.43288515      -0.53355101      -3.33879963
60
Properties=species:S:1:pos:R:3 trajectory=trial0001_proposal001_step005_proposal_relax trajectory_step=24 pbc="F F F"
C        0.31988550       1.02068496       2.93784952
C       -2.56565433       0.23768722       1.55911768
C       -1.46581002      -2.35582964       0.04149074
C        2.03777355       0.72255529      -2.93867330
C        3.44302655      -0.09292430      -1.09902067
C       -0.17802677       0.85006513      -0.75867111
C        1.15508477      -0.10661098       2.81090328
C       -0.81150770      -0.77008912       3.76182447
C       -0.74334668      -1.26235401      -3.67509521
C        1.15543447       1.74799154      -3.39069393
C        1.85099618      -2.09201871      -1.39322724
C       -2.09565605      -2.29567853      -2.16026430
C        0.02997783       1.76103016       1.68503769
C        0.16147175      -0.23005343      -3.96456354
C       -2.46110650      -0.02362308      -2.30748518
C        0.06432333      -2.01459785       1.87581161
C       -2.75588667      -0.40937567      -0.94144733
C        1.33707110       2.94495041      -1.29317714
C        2.34520509       2.02903765      -0.88524707
C       -2.05469210       1.21771986       3.75068461
C       -0.59619052       3.00817183      -2.74940680
C       -0.84214715       3.42574770      -0.34431672
C        3.77837116      -0.02974053       0.28339541
C        2.21565462      -0.23988833       1.90391737
C        2.36723518      -1.51854721       1.31465596
C        1.18858775      -2.22992547       0.99604142
C       -1.37352655       3.24168132      -1.62996828
C        0.30878072      -1.22292882       3.01780895
C        0.55015093       3.30128947      -0.16042032
C       -0.10037134       0.85290595       0.50701165
C       -2.58702466       1.89572591      -0.23833928
C       -2.26935724       1.40847768       2.37482279
C        3.44576427      -1.44359157       0.40806359
C       -0.02961711       1.15153379      -3.93992758
C       -1.26049588      -1.92064496       1.36197920
C       -1.77608020       2.78664713       0.52310697
C        2.86994587       0.72909459       1.10054362
C        3.05207366      -1.47028531      -0.96734067
C        0.95641513      -2.58066552      -0.37341978
C       -0.39188651      -2.88020530      -0.73864531
C       -0.76097161       0.63417994       3.78587446
C        1.08464590       2.59524274       0.97673497
C       -2.45086519      -1.82044208      -0.84613348
C       -2.12204672      -1.24744225       3.48736935
C       -3.10703361      -0.70349083       4.33105609
C       -2.38073922       2.25250954      -1.57838413
C        0.01086923      -2.30120690      -3.02530583
C       -2.77312575       0.53952127       0.13288905
C       -0.81329616      -2.92684901      -2.08660504
C        0.79385997       2.84216504      -2.57977322
C       -1.99754445      -1.16481634      -3.02692606
C       -3.04635224       0.55594501       4.48814710
C       -1.13487072       1.85332646      -3.43525458
C        2.75587825       0.95813541      -1.72435584
C       -1.35356001       2.33746012       1.76227940
C       -2.20181439      -1.07523154       2.07043278
C       -2.19295533       1.32292211      -2.62525876
C        1.30180703      -1.79312190      -2.67679727
C        2.28522770       1.88417088       0.52844975
C        1.43349022      -0.53283157      -3.33810504
60
Properties=species:S:1:pos:R:3 trajectory=trial0001_proposal001_step005_proposal_relax trajectory_step=25 pbc="F F F"
C        0.31853612       1.01746509       2.93787002
C       -2.56614973       0.24070783       1.55864377
C       -1.46885526      -2.35422850       0.04056503
C        2.03948121       0.72297515      -2.93611744
C        3.44319033      -0.09680928      -1.09787861
C       -0.17732864       0.85144133      -0.76087641
C        1.15191387      -0.10973524       2.81049490
C       -0.81400078      -0.77350001       3.76030796
C       -0.74222227      -1.25996273      -3.67564975
C        1.15804693       1.74857718      -3.38867123
C        1.84839950      -2.09361388      -1.39343478
C       -2.09742127      -2.29234891      -2.16222672
C        0.03074427       1.75910940       1.68402379
C        0.16296667      -0.22741654      -3.96166208
C       -2.46101493      -0.02034885      -2.30952457
C        0.06209093      -2.01810133       1.87457257
C       -2.75672628      -0.40567642      -0.94321357
C        1.34166642       2.94505596      -1.29168599
C        2.34759393       2.02708693      -0.88212703
C       -2.05511219       1.21799159       3.75063224
C       -0.59136478       3.00977183      -2.74645574
C       -0.83760131       3.42861482      -0.34295581
C        3.77726034      -0.03515790       0.28482914
C        2.21350252      -0.24581614       1.90417076
C        2.36459689      -1.52382145       1.31491699
C        1.18546586      -2.23498922       0.99447060
C       -1.36771456       3.24496281      -1.62764605
C        0.30583422      -1.22698312       3.01648245
C        0.55391063       3.30040236      -0.15886442
C       -0.09944821       0.85013794       0.50443077
C       -2.58705445       1.90080524      -0.23814763
C       -2.26884338       1.41165711       2.37452130
C        3.44290540      -1.44834770       0.40826926
C       -0.02808530       1.15439394      -3.93814735
C       -1.26284603      -1.92135776       1.36115157
C       -1.77221413       2.78891293       0.52287808
C        2.86962355       0.72496411       1.10298087
C        3.05044827      -1.47414361      -0.96722915
C        0.95314901      -2.58295382      -0.37477011
C       -0.39589420      -2.88033219      -0.73927430
C       -0.76292295       0.63195434       3.78397549
C        1.08571939       2.59289975       0.97761642
C       -2.45267098      -1.81674682      -0.84796249
C       -2.12539952      -1.24738315       3.48585088
C       -3.11164050      -0.70394772       4.32689975
C       -2.37762713       2.25728323      -1.57751637
C        0.01012992      -2.29926039      -3.02559771
C       -2.77297977       0.54375673       0.13221315
C       -0.81557808      -2.92386600      -2.08695366
C        0.79862843       2.84319033      -2.57767604
C       -1.99839705      -1.16202294      -3.02993322
C       -3.04754670       0.55699479       4.48599259
C       -1.13268187       1.85745098      -3.43454545
C        2.75724303       0.95645932      -1.72184797
C       -1.35072430       2.33651440       1.76038604
C       -2.20110215      -1.07218028       2.06915856
C       -2.19063639       1.32747182      -2.62387450
C        1.30137975      -1.79340810      -2.67666153
C        2.28634961       1.88060153       0.53152862
C        1.43447641      -0.53158538      -3.33565635
60
Properties=species:S:1:pos:R:3 trajectory=trial0001_proposal001_step005_proposal_relax trajectory_step=26 pbc="F F F"
C        0.31743463       1.01321983       2.93674643
C       -2.56655201       0.24459519       1.55718740
C       -1.47261240      -2.35224397       0.03874716
C        2.04139491       0.72348897      -2.93333289
C        3.44294906      -0.10047859      -1.09629004
C       -0.17639814       0.85310473      -0.76436914
C        1.14883247      -0.11499410       2.81014959
C       -0.81734190      -0.77680520       3.75920074
C       -0.74179725      -1.25672327      -3.67576237
C        1.16122442       1.74981203      -3.38618034
C        1.84614153      -2.09643329      -1.39316237
C       -2.09890293      -2.28835648      -2.16379042
C        0.03165846       1.75575476       1.68244150
C        0.16387805      -0.22456065      -3.95811937
C       -2.46102351      -0.01579811      -2.31099218
C        0.05858683      -2.02206548       1.87338987
C       -2.75712065      -0.40043468      -0.94456918
C        1.34645257       2.94493369      -1.28935197
C        2.35063194       2.02517998      -0.87872706
C       -2.05507566       1.21869539       3.75000314
C       -0.58616406       3.01215305      -2.74374003
C       -0.83258824       3.43117525      -0.34154039
C        3.77602350      -0.04102133       0.28675709
C        2.21086597      -0.25201138       1.90410097
C        2.36197191      -1.53024710       1.31512870
C        1.18251460      -2.24050283       0.99421209
C       -1.36244494       3.24830991      -1.62557429
C        0.30283388      -1.23224567       3.01610133
C        0.55831640       3.29982166      -0.15704994
C       -0.09876385       0.84725097       0.50130009
C       -2.58605922       1.90641710      -0.23807379
C       -2.26829996       1.41470909       2.37415038
C        3.44039053      -1.45397966       0.40841541
C       -0.02589489       1.15783660      -3.93536004
C       -1.26585231      -1.92134023       1.35942078
C       -1.76760917       2.79104480       0.52287025
C        2.86888249       0.71917497       1.10537293
C        3.04888554      -1.47806163      -0.96726093
C        0.94971986      -2.58613763      -0.37531036
C       -0.39987719      -2.88068844      -0.73998047
C       -0.76450844       0.62892126       3.78175733
C        1.08722494       2.58969737       0.97866908
C       -2.45461254      -1.81209113      -0.84993897
C       -2.12942670      -1.24669664       3.48249254
C       -3.11698040      -0.70372660       4.32195574
C       -2.37452005       2.26244532      -1.57675391
C        0.00887837      -2.29733964      -3.02576030
C       -2.77304367       0.54884929       0.13099419
C       -0.81816183      -2.92175403      -2.08779993
C        0.80363955       2.84486036      -2.57505784
C       -1.99901259      -1.15821930      -3.03155977
C       -3.04893841       0.55716866       4.48264759
C       -1.12966814       1.86189422      -3.43289161
C        2.75892960       0.95493723      -1.71896294
C       -1.34756988       2.33590761       1.75892960
C       -2.20113473      -1.06842288       2.06624477
C       -2.18819166       1.33227567      -2.62275648
C        1.30040132      -1.79347799      -2.67609590
C        2.28791250       1.87720511       0.53458449
C        1.43501989      -0.53041667      -3.33280633
60
Properties=species:S:1:pos:R:3 trajectory=trial0001_proposal001_step005_proposal_relax trajectory_step=27 pbc="F F F"
C        0.31535530       1.00489154       2.93332485
C       -2.56524646       0.25153256       1.55245606
C       -1.47907489      -2.34794110       0.03511441
C        2.04419432       0.72381843      -2.92819780
C        3.44295173      -0.10714154      -1.09278739
C       -0.17526146       0.85518121      -0.76971522
C        1.14479036      -0.12615177       2.80830445
C       -0.82285158      -0.78201270       3.75753247
C       -0.74363784      -1.25147035      -3.67457098
C        1.16704270       1.75308415      -3.38028681
C        1.84286350      -2.10242950      -1.39297410
C       -2.10173804      -2.27969748      -2.16604715
C        0.03370742       1.74773119       1.67917205
C        0.16486045      -0.21636600      -3.95160906
C       -2.46236266      -0.00647505      -2.31330365
C        0.05228432      -2.02990367       1.87283391
C       -2.75860037      -0.39039542      -0.94772345
C        1.35628019       2.94400432      -1.28306903
C        2.35700784       2.02210242      -0.87245814
C       -2.05514725       1.22022262       3.74766413
C       -0.57711027       3.01798130      -2.73824415
C       -0.82276521       3.43448434      -0.33825952
C        3.77410208      -0.05226538       0.29037370
C        2.20535140      -0.26425002       1.90436759
C        2.35861612      -1.54142187       1.31566082
C        1.17670584      -2.25124746       0.99484611
C       -1.35412239       3.25418645      -1.62286502
C        0.29627941      -1.24171851       3.01723052
C        0.56674886       3.29870445      -0.15290129
C       -0.09782893       0.84053902       0.49490344
C       -2.58306177       1.91572841      -0.23719582
C       -2.26718749       1.41984590       2.37165676
C        3.43656919      -1.46486985       0.40848988
C       -0.02108294       1.16161841      -3.92912910
C       -1.27112361      -1.92079985       1.35583348
C       -1.75947924       2.79528187       0.52143849
C        2.86738902       0.70943942       1.10885964
C        3.04674272      -1.48532677      -0.96769843
C        0.94452339      -2.59183185      -0.37515377
C       -0.40702845      -2.88020479      -0.74124343
C       -0.76831426       0.62457309       3.77786419
C        1.09067387       2.58295209       0.98084876
C       -2.45828731      -1.80224895      -0.85334425
C       -2.13657950      -1.24447065       3.47477057
C       -3.12779579      -0.70453200       4.31026329
C       -2.36943926       2.27235095      -1.57610526
C        0.00541653      -2.29421673      -3.02615377
C       -2.77301145       0.55925649       0.12822523
C       -0.82286054      -2.91828078      -2.09042496
C        0.81233322       2.84772338      -2.57041814
C       -2.00015364      -1.15012147      -3.03335974
C       -3.05262861       0.55867056       4.47294536
C       -1.12435775       1.87036371      -3.42793352
C        2.76274728       0.95185873      -1.71322279
C       -1.34072424       2.33416420       1.75852607
C       -2.20146313      -1.06157744       2.05962718
C       -2.18482151       1.34221848      -2.62158695
C        1.29802381      -1.79368274      -2.67398077
C        2.29232895       1.87009389       0.54118284
C        1.43470623      -0.52798637      -3.32730300
60
Properties=species:S:1:pos:R:3 trajectory=trial0001_proposal001_step005_proposal_relax trajectory_step=28 pbc="F F F"
C        0.31494247       1.00211471       2.93211180
C       -2.56486786       0.25307021       1.55124102
C       -1.48062479      -2.34675843       0.03387270
C        2.04526531       0.72396984      -2.92685351
C        3.44276788      -0.10873598      -1.09191825
C       -0.17483927       0.85579993      -0.77207601
C        1.14285725      -0.12912784       2.80850972
C       -0.82500043      -0.78264242       3.75779938
C       -0.74335095      -1.24890835      -3.67468971
C        1.16881756       1.75337267      -3.37922102
C        1.84229461      -2.10412973      -1.39251042
C       -2.10237587      -2.27762829      -2.16650748
C        0.03397591       1.74573579       1.67819827
C        0.16453259      -0.21692329      -3.95022366
C       -2.46237893      -0.00360225      -2.31366372
C        0.04999535      -2.03176682       1.87286082
C       -2.75872389      -0.38734690      -0.94802394
C        1.35803867       2.94389986      -1.28207865
C        2.35896679       2.02109734      -0.87089364
C       -2.05526116       1.22066690       3.74664142
C       -0.57485423       3.01942673      -2.73768237
C       -0.82081813       3.43498776      -0.33800633
C        3.77367624      -0.05474958       0.29153620
C        2.20486999      -0.26652242       1.90362443
C        2.35725065      -1.54479308       1.31569727
C        1.17595720      -2.25332587       0.99573363
C       -1.35224304       3.25594784      -1.62183377
C        0.29542547      -1.24425438       3.01755787
C        0.56897623       3.29848906      -0.15166872
C       -0.09801650       0.83981337       0.49401676
C       -2.58167476       1.91810901      -0.23776050
C       -2.26695204       1.42055344       2.37128859
C        3.43599646      -1.46758746       0.40868518
C       -0.02017314       1.16467658      -3.92730975
C       -1.27239019      -1.92038596       1.35484872
C       -1.75734258       2.79587785       0.52284461
C        2.86700877       0.70558894       1.11002545
C        3.04622735      -1.48708317      -0.96764581
C        0.94296272      -2.59345632      -0.37504320
C       -0.40834142      -2.88016735      -0.74208739
C       -0.76834294       0.62317744       3.77690999
C        1.09175533       2.58116073       0.98182440
C       -2.45901041      -1.79998064      -0.85416103
C       -2.13818207      -1.24381972       3.47271736
C       -3.13021365      -0.70306901       4.30822416
C       -2.36847976       2.27449300      -1.57575554
C        0.00459251      -2.29328921      -3.02653584
C       -2.77285548       0.56109627       0.12732954
C       -0.82463075      -2.91800682      -2.09085823
C        0.81464536       2.84891106      -2.56831662
C       -2.00052079      -1.14758750      -3.03293753
C       -3.05369265       0.55718987       4.47054044
C       -1.12206120       1.87200880      -3.42709923
C        2.76365942       0.95106782      -1.71216514
C       -1.33979838       2.33486259       1.75784939
C       -2.20218161      -1.06032065       2.05765741
C       -2.18402982       1.34444840      -2.62162166
C        1.29675902      -1.79341197      -2.67381512
C        2.29301285       1.86912565       0.54199259
C        1.43444691      -0.52779253      -3.32612543
60
Properties=species:S:1:pos:R:3 trajectory=trial0001_proposal001_step005_proposal_relax trajectory_step=29 pbc="F F F"
C        0.31485467       1.00108713       2.93137129
C       -2.56405069       0.25306205       1.55029128
C       -1.48053566      -2.34619400       0.03346115
C        2.04535307       0.72369212      -2.92649646
C        3.44288387      -0.10913055      -1.09159736
C       -0.17495005       0.85544401      -0.77220555
C        1.14276998      -0.13006505       2.80838409
C       -0.82548543      -0.78210094       3.75821201
C       -0.74394387      -1.24818742      -3.67439882
C        1.16918581       1.75352921      -3.37868346
C        1.84245988      -2.10465380      -1.39239879
C       -2.10265626      -2.27681669      -2.16638380
C        0.03410008       1.74479942       1.67790384
C        0.16407468      -0.21697446      -3.95015147
C       -2.46275817      -0.00239646      -2.31359898
C        0.04950774      -2.03233357       1.87353985
C       -2.75904077      -0.38654322      -0.94813926
C        1.35844571       2.94374894      -1.28144467
C        2.35984498       2.02085802      -0.87064358
C       -2.05548222       1.22081399       3.74570497
C       -0.57457753       3.02021406      -2.73775045
C       -0.82045025       3.43440636      -0.33792016
C        3.77381413      -0.05525395       0.29185765
C        2.20497961      -0.26688574       1.90347165
C        2.35725730      -1.54539227       1.31564477
C        1.17597177      -2.25362483       0.99647817
C       -1.35240525       3.25646752      -1.62179550
C        0.29519190      -1.24460290       3.01821984
C        0.56953116       3.29830546      -0.15098942
C       -0.09833317       0.83961617       0.49383395
C       -2.58077216       1.91821402      -0.23804819
C       -2.26680644       1.42021198       2.37064819
C        3.43628512      -1.46826485       0.40881664
C       -0.01984316       1.16505801      -3.92659000
C       -1.27231451      -1.92000261       1.35460682
C       -1.75709550       2.79592503       0.52356527
C        2.86703692       0.70462926       1.11002995
C        3.04641714      -1.48743406      -0.96755722
C        0.94294113      -2.59367097      -0.37475359
C       -0.40826555      -2.87967056      -0.74252418
C       -0.76827277       0.62332782       3.77692888
C        1.09240795       2.58049503       0.98242815
C       -2.45904956      -1.79927185      -0.85411706
C       -2.13833544      -1.24338057       3.47193395
C       -3.13100182      -0.70271400       4.30718486
C       -2.36873249       2.27504562      -1.57583647
C        0.00395875      -2.29322500      -3.02675280
C       -2.77268567       0.56130971       0.12684275
C       -0.82530828      -2.91809612      -2.09129657
C        0.81499048       2.84913648      -2.56755690
C       -2.00068392      -1.14650647      -3.03227915
C       -3.05447900       0.55676999       4.46865281
C       -1.12134222       1.87229670      -3.42654953
C        2.76410361       0.95070172      -1.71199502
C       -1.33959616       2.33536283       1.75816439
C       -2.20263959      -1.06044437       2.05685429
C       -2.18443982       1.34516515      -2.62215149
C        1.29607929      -1.79321803      -2.67359901
C        2.29349779       1.86884578       0.54207268
C        1.43383698      -0.52791882      -3.32584934
