60
Lattice="50.0 0.0 0.0 0.0 50.0 0.0 0.0 0.0 50.0" Properties=species:S:1:pos:R:3 pbc="F F F"
C       25.65711884      23.26976365      27.23367598
C       24.05271098      26.43550990      27.80754462
C       19.67418276      20.74841619      25.75191739
C       28.44391061      25.60812075      20.07230746
C       27.04540085      21.42205021      23.24680195
C       20.79828185      24.10781977      25.58445004
C       26.85360154      24.73893319      24.68156252
C       20.24198126      19.72752048      26.23553628
C       28.28497305      23.41068739      22.22229407
C       27.66422718      23.23269013      26.20861613
C       25.01867883      22.72649477      23.96853876
C       24.61426572      27.42644729      23.99992547
C       21.77714440      26.08766375      26.80520146
C       26.30195911      25.36682337      25.83129705
C       21.67171417      21.83630683      24.91826901
C       25.09529633      23.46073190      22.73359502
C       22.71505754      26.29118875      23.43066788
C       26.88593610      26.73477724      23.10052546
C       25.42838174      24.62981035      26.81255523
C       24.43644514      21.39822269      25.80033363
C       22.27904808      19.52284907      25.97569146
C       26.76614645      27.73351031      26.98540906
C       21.19964890      18.93467776      26.69884604
C       26.40907225      22.11275530      24.42391135
C       27.21089241      29.95733999      23.14460177
C       27.29332246      23.64983865      27.35190289
C       27.05873986      25.37858714      23.46611022
C       23.44897350      20.28609620      25.73430466
C       26.68255047      26.64656068      26.22287944
C       23.69036797      28.34943055      24.41579769
C       24.71120661      23.90907626      21.46002130
C       27.19287983      23.31522098      24.97107580
C       27.83386078      25.70486518      21.22192665
C       21.48336406      26.77669239      23.34630734
C       24.11173347      25.34284672      27.00728521
C       26.27245491      24.12679595      28.21495460
C       28.96350940      27.59181878      25.36230184
C       20.28044085      21.92684392      25.33357903
C       26.01841630      27.73948869      23.70709079
C       27.83808242      27.52601892      25.99782488
C       22.34171859      26.93188630      27.61715646
C       27.40133409      24.58448518      22.16184703
C       25.43182871      21.90072038      26.78854760
C       27.52999856      27.00709417      21.85377631
C       21.86917427      27.87259085      23.95245140
C       27.78135523      22.31650012      22.66010696
C       23.34133791      27.42070523      28.31415778
C       25.97898632      24.08908849      21.96404690
C       22.52239479      28.86145379      24.55165282
C       26.47631837      28.99591195      23.61460614
C       22.18744996      24.11829340      25.55211161
C       24.00681636      22.46945639      24.80804077
C       25.90161969      21.35788171      25.65643998
C       27.62920915      29.24692773      22.10109903
C       27.80504792      28.25009838      21.33022311
C       22.78864056      25.16810434      26.41080746
C       19.89470407      23.27642496      25.43384008
C       22.30316778      20.59408594      25.09270246
C       23.99240425      26.23529538      23.61840881
C       22.60496275      22.91396011      24.95382293
