60
Properties=species:S:1:pos:R:3 source_escape=runs/20260728-block-krylov-fixed-starter-escape/output/cases/bootstrap_quenched-seed44-discrete/escape.xyz pbc="F F F"
C        3.10404016       0.12097497      -2.36575530
C        1.32016707       3.02100760      -0.76573099
C        1.26934997       0.57074698       3.33028153
C        3.10099918       1.25435505      -1.50183986
C       -2.62302346      -1.99876236       0.15776902
C        1.93637358       1.75778706       1.35909637
C        2.14138325      -2.31998693      -1.75924144
C        3.70730724      -0.93468042       1.24077572
C       -3.80738014       1.16026982      -2.60137441
C        0.88246963      -0.56985685      -0.85198357
C       -1.63585488      -1.57091887       2.22625046
C       -0.89039094       2.43475010       2.86554463
C        1.83887190      -0.11330045      -2.95210600
C       -2.85643016       1.82586644       1.84463548
C       -1.67083923       3.47178421       0.76656899
C        1.03216064      -0.72329411       0.60778213
C       -0.38229309       3.94093767       0.46670363
C       -0.37672990      -2.87866942      -3.25411894
C       -1.54976384      -3.35122414      -3.06435134
C        1.66485203       2.97480055       0.64406251
C       -3.87071518       0.34355610      -1.41075176
C       -0.90234626      -0.51662062      -3.06123150
C        1.78001772      -3.11540802      -0.59238852
C       -2.72985041      -2.39818907      -1.11663094
C        0.63276726      -3.44154973      -0.00448501
C        0.48645131      -1.63669942       1.51724884
C       -2.24827845      -0.97242363      -2.88178784
C        3.63896032      -1.09051816      -0.10849256
C        0.04878459      -1.58134284      -2.97166915
C        1.43367110       1.86517225       2.69857728
C       -1.38124100       1.83661202      -2.58572307
C        1.64253822       1.78475414      -1.56474495
C       -0.18472182      -2.75408034       0.83668335
C       -3.15931544       1.69571723       0.46238108
C        2.34818945      -0.26641029       3.20536820
C       -0.41635227       0.85702189      -2.93812951
C        2.95274793      -2.21741201      -0.67943380
C       -1.58812916      -2.46815760       1.11628544
C       -0.32960227      -1.14953282       2.59850179
C       -0.09720093       0.10420849       3.23684883
C        3.55938323      -0.03421315      -1.07258074
C        1.23526966      -1.23047315      -2.18568890
C        0.41342842       2.86569176       2.61235766
C        1.42156619       0.66408238       0.66629714
C        1.10422139       0.77791060      -0.68235520
C       -3.33858533      -0.18501151      -2.55754221
C       -2.02517878       2.59926749      -1.58425014
C        0.17743042       3.81212674      -0.83999000
C       -1.14732419       1.05344857       3.15732641
C       -3.54169353       0.41150019      -0.04910848
C       -1.93923728       2.90092741       2.02911700
C        0.63752189       3.59226529       1.40054435
C       -2.39777690       2.71243016      -0.22065942
C       -3.15576698      -0.74114335       0.71489365
C        1.01703780       1.07209338      -2.82007777
C        3.27621826      -0.70115452       2.42240881
C       -2.75440897       2.08237616      -2.67504810
C       -2.40100108       0.70208754       2.55798377
C       -2.40178565      -2.37488003      -2.40280407
C       -2.60347023      -0.57228735       2.01148265
