115
Lattice="13.75323 0.0 0.0 0.0 13.75323 0.0 0.0 0.0 23.89" Properties=species:S:1:pos:R:3 input=/mnt/d/download/trae-research-code/ssw/PdO.xyz system=pdo pbc_mode=slab fixed_bottom_fraction=0.35 pbc="T T F"
Pd       0.00000000       0.00000000      10.00000000
Pd       2.75064538       0.00000000      10.00000000
Pd       5.50129076       0.00000000      10.00000000
Pd       8.25193614       0.00000000      10.00000000
Pd      11.00258152       0.00000000      10.00000000
Pd       0.00000000       2.75064538      10.00000000
Pd       2.75064538       2.75064538      10.00000000
Pd       5.50129076       2.75064538      10.00000000
Pd       8.25193614       2.75064538      10.00000000
Pd      11.00258152       2.75064538      10.00000000
Pd       0.00000000       5.50129076      10.00000000
Pd       2.75064538       5.50129076      10.00000000
Pd       5.50129076       5.50129076      10.00000000
Pd       8.25193614       5.50129076      10.00000000
Pd      11.00258152       5.50129076      10.00000000
Pd       0.00000000       8.25193614      10.00000000
Pd       2.75064538       8.25193614      10.00000000
Pd       5.50129076       8.25193614      10.00000000
Pd       8.25193614       8.25193614      10.00000000
Pd      11.00258152       8.25193614      10.00000000
Pd       0.00000000      11.00258152      10.00000000
Pd       2.75064538      11.00258152      10.00000000
Pd       5.50129076      11.00258152      10.00000000
Pd       8.25193614      11.00258152      10.00000000
Pd      11.00258152      11.00258152      10.00000000
Pd       1.36939511       1.38221666      11.99173157
Pd       4.11039526       1.37634847      12.00964259
Pd       6.84762420       1.38006310      11.98588385
Pd       9.57512057       1.39592898      11.89594876
Pd      12.38684272       1.37174114      11.92044161
Pd       1.36972749       4.15664772      11.99156569
Pd       4.09213500       4.11820296      11.99750330
Pd       6.85644458       4.14879019      12.01544318
Pd       9.56728621       4.13975942      11.94281254
Pd      12.36578195       4.13265160      11.93417299
Pd       1.37110082       6.89256210      11.94010419
Pd       4.13935064       6.87026939      11.96482277
Pd       6.87097415       6.85831372      11.95140951
Pd       9.64205429       6.82915781      11.94515418
Pd      12.39111484       6.85622887      11.94896407
Pd       1.39355750       9.66538689      11.95307463
Pd       4.11777592       9.66324146      11.95099537
Pd       6.89476706       9.64088005      11.95142944
Pd       9.64982872       9.59779534      11.89439304
Pd      12.42487279       9.60955999      11.94161946
Pd       1.38987444      12.42234721      11.99964199
Pd       4.13096923      12.40604406      11.99181360
Pd       6.86816975      12.39901143      11.97280504
Pd       9.63028672      12.36702810      11.91406436
Pd      12.40979077      12.35938087      11.99732720
Pd       2.72074390       0.00373260      14.09500216
Pd       6.98442363       1.24831916      15.98675756
Pd       9.56514283       1.40004775      15.87247751
Pd      10.94484744       0.04703272      13.88013589
Pd      13.73055060       0.01940211      14.05304650
Pd      13.73564297       2.79839264      13.94631039
Pd       2.68666453       2.75128650      14.00532545
Pd       5.47372339       2.64605567      14.03858527
Pd       8.23615925       2.75446108      13.93871273
Pd      10.93915214       2.90059080      13.86847218
Pd      13.63368193       5.53354447      13.93229918
Pd       2.62834970       5.49505019      14.16881385
Pd       5.39753267       5.57631454      13.94415803
Pd       7.27108837       6.72798455      15.43635017
Pd       9.22220429       5.33592496      14.29027777
Pd       0.01737756       8.28542015      13.90555172
Pd       2.77419566       8.25917525      13.90893507
Pd       5.57298786       8.31332305      13.88970537
Pd       8.37978976      10.75827149      13.87738647
Pd      10.99059475       8.35166815      13.80963865
Pd       0.11767399      11.07283483      14.02962436
Pd       2.86176125      11.03578924      13.96479358
Pd       5.59303271      11.03928791      14.03801122
Pd       8.24190455      13.59660159      14.01267415
Pd      11.06941431      11.05392809      14.05384997
Pd      11.89790248       7.14164985      16.09378377
Pd      12.54301434       9.68887998      15.99128777
Pd       1.04085437       1.61901420      16.65384587
Pd       1.33114158       7.12683283      15.97635469
Pd       2.25206107       9.73852843      16.21577015
Pd       8.80312394       2.55900606      18.26324279
Pd       6.53381229       0.87691692      18.58070033
Pd       7.90853522      11.78766791      16.23455124
Pd       4.38351426       1.10920922      16.22235745
Pd      11.59701490      12.66631173      16.31646017
Pd       0.69404340       4.41332751      16.30324974
Pd       3.83979787       3.85775577      16.21770886
Pd      10.88871976       4.32102860      16.28742834
Pd       5.50751649      13.71536434      14.00506246
Pd       5.90490344       9.36506690      16.54717431
Pd       9.17678869      13.44491084      17.96228962
Pd       9.06191803       8.59984265      15.78691826
Pd       7.48117801       4.11675093      16.22582766
Pd      12.13639166       1.55282601      15.77723554
Pd       4.08361984       7.01450609      15.95971508
O        9.16257817       4.16689396      17.21956417
O        0.56619171      10.66368257      15.97845942
O       13.40525837      13.71436449      16.15672683
O        9.12362658       3.59082042      20.07873713
O        8.49576676       4.67227401      20.27029917
O        3.92028057       8.90907995      16.75239152
O        4.72110898       0.95005279      18.12025426
O       12.16944111       2.76311728      17.48961834
O        9.83236721      11.96836087      16.89282117
O        2.50518983       0.41833328      16.05244543
O       13.50512260       2.97532289      17.68299199
O        2.17023150       3.33716302      17.04772268
O        5.98485294       7.37195104      16.79914732
O        5.94447312      11.29272070      16.01221595
O        5.64892473       4.18032156      15.45509430
O       12.64451045       5.13899418      15.75263760
O       10.11887682       7.02862643      15.13789280
O       13.48517867       7.88407982      16.94029138
O        8.37451972       0.91145979      19.26852110
O        7.87631130       9.78031222      16.76504365
