115
Lattice="13.75323 0.0 0.0 0.0 13.75323 0.0 0.0 0.0 23.89" Properties=species:S:1:pos:R:3 input=/mnt/d/download/trae-research-code/ssw/PdO.xyz system=pdo pbc_mode=slab fixed_bottom_fraction=0.35 pbc="T T F"
Pd       0.00000000       0.00000000      10.00000000
Pd       2.75064538       0.00000000      10.00000000
Pd       5.50129076       0.00000000      10.00000000
Pd       8.25193614       0.00000000      10.00000000
Pd      11.00258152       0.00000000      10.00000000
Pd       0.00000000       2.75064538      10.00000000
Pd       2.75064538       2.75064538      10.00000000
Pd       5.50129076       2.75064538      10.00000000
Pd       8.25193614       2.75064538      10.00000000
Pd      11.00258152       2.75064538      10.00000000
Pd       0.00000000       5.50129076      10.00000000
Pd       2.75064538       5.50129076      10.00000000
Pd       5.50129076       5.50129076      10.00000000
Pd       8.25193614       5.50129076      10.00000000
Pd      11.00258152       5.50129076      10.00000000
Pd       0.00000000       8.25193614      10.00000000
Pd       2.75064538       8.25193614      10.00000000
Pd       5.50129076       8.25193614      10.00000000
Pd       8.25193614       8.25193614      10.00000000
Pd      11.00258152       8.25193614      10.00000000
Pd       0.00000000      11.00258152      10.00000000
Pd       2.75064538      11.00258152      10.00000000
Pd       5.50129076      11.00258152      10.00000000
Pd       8.25193614      11.00258152      10.00000000
Pd      11.00258152      11.00258152      10.00000000
Pd       1.35752774       1.34248452      12.00844594
Pd       4.16921291       1.36182672      12.05465589
Pd       6.88181357       1.37836696      12.00632700
Pd       9.57512057       1.39592898      11.89594876
Pd      12.38684272       1.37174114      11.92044161
Pd       1.35189702       4.12121049      11.93970330
Pd       4.17158575       4.11716238      12.00241721
Pd       6.88190085       4.10569309      11.95645958
Pd       9.56728621       4.13975942      11.94281254
Pd      12.36578195       4.13265160      11.93417299
Pd       1.37110082       6.89256210      11.94010419
Pd       4.13935064       6.87026939      11.96482277
Pd       6.87097415       6.85831372      11.95140951
Pd       9.64205429       6.82915781      11.94515418
Pd      12.39111484       6.85622887      11.94896407
Pd       1.39522046       9.62421225      11.98929716
Pd       4.11777592       9.66324146      11.95099537
Pd       6.89476706       9.64088005      11.95142944
Pd       9.64982872       9.59779534      11.89439304
Pd      12.42487279       9.60955999      11.94161946
Pd       1.36638669      12.37618694      11.99500106
Pd       4.14380578      12.36371236      12.00320741
Pd       6.86816975      12.39901143      11.97280504
Pd       9.63028672      12.36702810      11.91406436
Pd      12.37072870      12.38863874      12.00302603
Pd      13.65299694      13.72198505      14.16311671
Pd       2.71068362      13.71222584      14.00876760
Pd       4.15790754       4.09534470      15.90386988
Pd       8.12805370       0.07715055      14.05263493
Pd      10.90109526       0.00951119      13.89058196
Pd      13.70961548       2.66984042      13.92949565
Pd       2.72484702       2.76943402      13.91076795
Pd       5.50322213       6.86368848      14.34672511
Pd       5.72455718       2.78537817      14.02759713
Pd       8.86493898       2.84189822      14.26332953
Pd      13.67146272       5.51168380      14.06072975
Pd       2.61270058       5.53331209      13.92936840
Pd       5.56533453      10.62224874      14.06718955
Pd       8.15958439       5.49183557      13.88277298
Pd      10.92503330       5.45912952      13.88834002
Pd       0.09249912       8.20398861      14.03500312
Pd       2.92068570       8.24872077      13.95799227
Pd       5.50487511      13.54905516      14.06674195
Pd       8.30157862       8.29635372      13.84023626
Pd      11.06932979       8.24610263      13.99360353
Pd      13.64958116      10.97935424      13.96236548
Pd       2.87992451      10.96880418      13.99024730
Pd       4.14110362       1.39842848      15.73207239
Pd       8.28904212      11.09438591      13.85296994
Pd      10.97354711      10.95468969      13.99953092
Pd      12.61175324       6.98100990      16.32174798
Pd       9.52473519      10.74642001      17.07512986
Pd       1.78877422      12.75914124      16.64066564
Pd       1.86945610       7.06121495      16.11961360
Pd      12.46300121       9.33741913      17.74937574
Pd       6.76152834       1.70229830      16.38949314
Pd       4.44241326       0.18611339      17.97703992
Pd       6.15531355      10.47316899      18.10285637
Pd       4.32682652      12.12218814      16.04751649
Pd      12.38092232      12.00818019      17.00039734
Pd       1.33251936       4.43263115      16.26018022
Pd       4.58693215       6.62936395      16.93173987
Pd      11.17483501       3.73326094      15.95770311
Pd       0.96213954       9.57326323      16.32702876
Pd       7.31338426       8.81398681      16.48015812
Pd       7.04803956      12.43052653      16.50442515
Pd       9.40179518       6.90827227      15.84094344
Pd       6.97119738       5.32461048      16.28416262
Pd       1.48470793       1.70511060      16.02209639
Pd       3.75126592       9.27195281      16.26148172
O        7.25058990       3.44860762      15.53276040
O       11.23487816      10.79952736      18.13797646
O       13.56561627      13.32773221      16.18846990
O       11.14100831       1.80025733      16.11428173
O       10.14189710       1.30332590      15.30501827
O        4.31222611      10.73353286      17.55303731
O        4.66753710       5.10091014      14.06304863
O        1.88680579       1.47269965      17.99282545
O       10.72354442      11.79257860      15.81958486
O        1.40721978      11.22944355      15.39002597
O        2.43148930       0.18244882      18.19970190
O        2.91944618       5.45465371      17.03762186
O        6.41234032       8.61285858      14.67669060
O        8.04412122       9.75683615      18.16805027
O        6.52589092       7.05558520      17.16013020
O       13.30278676       3.86828146      15.53117618
O       11.08438476       5.73386529      15.99705879
O        0.20325145       8.04591873      17.34944062
O        6.38501148       0.19268725      17.59119004
O        7.95694585      10.74635439      15.81944475
