115
Lattice="13.75323 0.0 0.0 0.0 13.75323 0.0 0.0 0.0 23.89" Properties=species:S:1:pos:R:3 input=/mnt/d/download/trae-research-code/ssw/PdO.xyz system=pdo pbc_mode=slab fixed_bottom_fraction=0.35 pbc="T T F"
Pd       0.00000000       0.00000000      10.00000000
Pd       2.75064538       0.00000000      10.00000000
Pd       5.50129076       0.00000000      10.00000000
Pd       8.25193614       0.00000000      10.00000000
Pd      11.00258152       0.00000000      10.00000000
Pd       0.00000000       2.75064538      10.00000000
Pd       2.75064538       2.75064538      10.00000000
Pd       5.50129076       2.75064538      10.00000000
Pd       8.25193614       2.75064538      10.00000000
Pd      11.00258152       2.75064538      10.00000000
Pd       0.00000000       5.50129076      10.00000000
Pd       2.75064538       5.50129076      10.00000000
Pd       5.50129076       5.50129076      10.00000000
Pd       8.25193614       5.50129076      10.00000000
Pd      11.00258152       5.50129076      10.00000000
Pd       0.00000000       8.25193614      10.00000000
Pd       2.75064538       8.25193614      10.00000000
Pd       5.50129076       8.25193614      10.00000000
Pd       8.25193614       8.25193614      10.00000000
Pd      11.00258152       8.25193614      10.00000000
Pd       0.00000000      11.00258152      10.00000000
Pd       2.75064538      11.00258152      10.00000000
Pd       5.50129076      11.00258152      10.00000000
Pd       8.25193614      11.00258152      10.00000000
Pd      11.00258152      11.00258152      10.00000000
Pd       1.35787753       1.36588996      11.94343600
Pd       4.12569239       1.40993748      11.98161550
Pd       6.84234426       1.39809783      11.97173388
Pd       9.57512057       1.39592898      11.89594876
Pd      12.38684272       1.37174114      11.92044161
Pd       1.34592252       4.13169883      11.96488924
Pd       4.12990143       4.11079304      12.01779726
Pd       6.84193421       4.13025527      12.01359430
Pd       9.56728621       4.13975942      11.94281254
Pd      12.36578195       4.13265160      11.93417299
Pd       1.37110082       6.89256210      11.94010419
Pd       4.13935064       6.87026939      11.96482277
Pd       6.87097415       6.85831372      11.95140951
Pd       9.64205429       6.82915781      11.94515418
Pd      12.39111484       6.85622887      11.94896407
Pd       1.38336901       9.61951957      11.96058907
Pd       4.11777592       9.66324146      11.95099537
Pd       6.89476706       9.64088005      11.95142944
Pd       9.64982872       9.59779534      11.89439304
Pd      12.42487279       9.60955999      11.94161946
Pd       1.35770447      12.37777662      11.94853683
Pd       4.13003700      12.42146149      11.95452647
Pd       6.86816975      12.39901143      11.97280504
Pd       9.63028672      12.36702810      11.91406436
Pd      12.38697990      12.36320560      11.97648387
Pd       2.69086853      13.71524299      13.93563047
Pd       5.53027219       0.05963629      13.95632022
Pd       9.51025002       1.56597544      15.89864035
Pd      11.00438349       0.01100987      13.91141068
Pd      13.73102289       0.03242619      13.98475522
Pd      13.65088964       2.76172162      13.97534728
Pd       2.60129274       2.67408270      13.92517979
Pd       8.05793250       2.71859531      14.01419028
Pd       8.36517295       5.39187872      14.05146010
Pd      10.88628491       2.82725569      13.93156288
Pd      13.72253859       5.53664985      14.05719592
Pd       2.70463577       5.53509610      13.90717029
Pd       5.61190968       5.59009915      13.97713857
Pd       8.33381208       8.23600078      13.84423618
Pd      11.06680729       5.52678838      13.87113643
Pd       0.10116581       8.24271757      13.99451384
Pd       2.81871408       8.27451773      14.02002803
Pd       5.58787318       8.34155018      13.97494946
Pd       8.16260593      11.01080955      14.09911366
Pd      11.10474185       8.23203607      14.01121246
Pd       0.04076312      11.03317472      13.99931205
Pd       2.75885513      10.98798903      13.88574071
Pd       5.45502993      11.07205806      13.97167958
Pd       8.23563452      13.73160120      14.00451755
Pd      10.93940283      10.97038018      13.89760777
Pd      12.81198776       8.24622612      16.49796029
Pd      12.25710338      10.78609286      16.23737482
Pd       1.26637399       1.21488621      16.06038714
Pd       1.70285751       6.83035563      16.26074093
Pd       2.14715583      10.02904460      16.32198234
Pd       8.52817947       4.00153331      17.17619740
Pd       6.72082341       2.18523623      16.63607003
Pd       7.31727888      12.37735470      17.27156057
Pd       4.13032940       1.23103291      15.97603985
Pd       9.94533087      12.20806497      16.06460239
Pd       0.74553993       4.15349112      16.26095271
Pd       4.20919808       3.86039794      15.60107342
Pd      11.09564537       4.61521722      16.30598124
Pd       3.90122283      12.29206643      15.89922514
Pd       5.77640446       9.98848873      16.57450014
Pd       8.51309989       0.80542410      18.19214652
Pd       9.43348734       9.37873000      16.11562663
Pd       7.84315188       6.99857503      16.16753393
Pd      12.25243661       1.79678122      16.16880360
Pd       4.30196832       7.34120625      16.35264655
O        9.18330735       5.50460607      16.02907003
O        0.47958963      11.06541851      15.97504881
O       11.17170806       0.14575592      15.96978405
O       10.87324295       5.10971259      18.32131171
O        9.65461457       4.87102670      18.72005068
O        3.88280711       9.20246883      16.91347095
O        5.51695388       2.37860899      15.11571738
O        1.14111866       1.94379418      17.99625610
O        9.14586379      12.74307574      17.89087494
O        2.82771765       0.04983394      16.81109747
O        1.34292442       3.22668113      18.07060131
O        2.52374996       4.98977214      15.94478530
O        6.22606122       8.12634218      16.04292864
O        5.41807627      11.82665772      17.16807639
O        5.17276563       5.61443187      15.96264093
O       12.70931186       3.58345184      16.77750986
O       10.92116433       8.09008822      16.03241063
O        0.92448930       8.43797113      17.04638571
O        7.73008852       2.57541101      18.31750688
O        7.75957772      10.53414410      16.17015003
