115
Lattice="13.75323 0.0 0.0 0.0 13.75323 0.0 0.0 0.0 23.89" Properties=species:S:1:pos:R:3 input=/mnt/d/download/trae-research-code/ssw/PdO.xyz system=pdo pbc_mode=slab fixed_bottom_fraction=0.35 pbc="T T F"
Pd       0.00000000       0.00000000      10.00000000
Pd       2.75064538       0.00000000      10.00000000
Pd       5.50129076       0.00000000      10.00000000
Pd       8.25193614       0.00000000      10.00000000
Pd      11.00258152       0.00000000      10.00000000
Pd       0.00000000       2.75064538      10.00000000
Pd       2.75064538       2.75064538      10.00000000
Pd       5.50129076       2.75064538      10.00000000
Pd       8.25193614       2.75064538      10.00000000
Pd      11.00258152       2.75064538      10.00000000
Pd       0.00000000       5.50129076      10.00000000
Pd       2.75064538       5.50129076      10.00000000
Pd       5.50129076       5.50129076      10.00000000
Pd       8.25193614       5.50129076      10.00000000
Pd      11.00258152       5.50129076      10.00000000
Pd       0.00000000       8.25193614      10.00000000
Pd       2.75064538       8.25193614      10.00000000
Pd       5.50129076       8.25193614      10.00000000
Pd       8.25193614       8.25193614      10.00000000
Pd      11.00258152       8.25193614      10.00000000
Pd       0.00000000      11.00258152      10.00000000
Pd       2.75064538      11.00258152      10.00000000
Pd       5.50129076      11.00258152      10.00000000
Pd       8.25193614      11.00258152      10.00000000
Pd      11.00258152      11.00258152      10.00000000
Pd       1.34596673       1.35093619      12.05512964
Pd       4.10766871       1.37511337      11.96168393
Pd       6.84802739       1.36174364      11.95441566
Pd       9.57512057       1.39592898      11.89594876
Pd      12.38684272       1.37174114      11.92044161
Pd       1.37774957       4.08977124      11.97148690
Pd       4.16006959       4.12403506      12.04401732
Pd       6.85070390       4.13729946      12.02641925
Pd       9.56728621       4.13975942      11.94281254
Pd      12.36578195       4.13265160      11.93417299
Pd       1.37110082       6.89256210      11.94010419
Pd       4.13935064       6.87026939      11.96482277
Pd       6.87097415       6.85831372      11.95140951
Pd       9.64205429       6.82915781      11.94515418
Pd      12.39111484       6.85622887      11.94896407
Pd       1.36523842       9.66733153      12.02116245
Pd       4.11777592       9.66324146      11.95099537
Pd       6.89476706       9.64088005      11.95142944
Pd       9.64982872       9.59779534      11.89439304
Pd      12.42487279       9.60955999      11.94161946
Pd       1.37945404      12.36479622      12.02799898
Pd       4.14559643      12.40029720      11.99917387
Pd       6.86816975      12.39901143      11.97280504
Pd       9.63028672      12.36702810      11.91406436
Pd      12.42219000      12.36002480      11.97656719
Pd       2.85031291       0.01297223      13.95298259
Pd       7.94401574      13.72033687      14.13011919
Pd       9.69253280       1.20351116      15.87008147
Pd      10.85241843      13.72127623      13.84424083
Pd      13.67232235       0.00250181      14.07912633
Pd      13.64452053       2.69536621      14.02540243
Pd       2.70983056       2.79941129      14.05381810
Pd       5.47120361       2.55071296      13.95089455
Pd       8.28089751       2.74587400      13.97293275
Pd      10.94556825       2.68777893      13.88573252
Pd       0.00950225       5.44873255      13.93571592
Pd       2.76155295       5.51036270      13.93228715
Pd       5.47938779       5.68016218      14.22390426
Pd       8.30399791       5.58289881      14.05178199
Pd      11.05163769       5.40797134      13.98746250
Pd       0.06408440       8.20571455      13.96808389
Pd       2.73865347       8.25251199      13.94358181
Pd       5.46964513       8.36387782      13.89320109
Pd       8.30780406       8.36128072      13.98186469
Pd      11.07182917       8.20487315      13.91420179
Pd      13.57529118      10.95094235      14.30737940
Pd       2.86690728      10.98261279      14.03428158
Pd       5.65030895      11.10390317      13.91756910
Pd       8.35253616      11.03584498      13.85563245
Pd      10.98282683      10.93564012      13.82825678
Pd      12.46210924       7.48125278      16.24811622
Pd      10.64479538       9.59757308      16.28803307
Pd       2.53002442      12.43227808      16.45017123
Pd       1.44626684       6.50244989      15.96051968
Pd       1.17041812       9.23390899      16.60776198
Pd       8.86488030       2.54704372      18.10252428
Pd       7.07451747       0.98694076      16.81428268
Pd       7.28946039      11.57045569      16.18826273
Pd       4.99398402      13.05438424      15.57832999
Pd      11.08995816      12.27799668      16.13509065
Pd       0.75338428       3.83142057      16.35282748
Pd       3.85617103       4.41959365      16.22699030
Pd      11.06513561       3.54394184      16.45937516
Pd       4.46436448      10.23440113      16.09482413
Pd       6.67296639       8.06745589      16.29867460
Pd       8.93447224      13.06379097      17.77521334
Pd       9.88734836       6.92413539      16.04122064
Pd       7.49224670       4.03065424      16.29005404
Pd       1.52628273       1.22829463      15.91978189
Pd       4.06614275       7.32820767      16.09084405
O        9.27727722       4.20986696      17.14857300
O       12.82169802       9.47356996      16.19263588
O       12.92689723      12.54694257      15.52301193
O       11.59247530       3.33306554      18.54942433
O       10.59390877       2.92180336      19.27796194
O        3.15995745       8.92930279      16.99726586
O        6.19858030       0.89233120      15.05742442
O        3.08698220       1.28233260      17.17775544
O        9.44011054      11.38820639      16.86473515
O        1.50022214      10.95113880      15.63764339
O        3.68603801       0.04850016      17.28610079
O        2.18710307       4.91773573      17.08275856
O        7.00371737       6.16971788      15.64568577
O        6.29825137       9.91613206      16.88386751
O        5.63307525       3.88883605      15.51973968
O       12.87705963       2.82990628      15.94555995
O       11.44740398       5.68190277      16.03422558
O        0.49910059       7.54861968      17.39035674
O        8.00252473       0.84779472      18.60079484
O        8.76688407       8.53405840      16.06392681
