115
Lattice="13.75323 0.0 0.0 0.0 13.75323 0.0 0.0 0.0 23.89" Properties=species:S:1:pos:R:3 input=/mnt/d/download/trae-research-code/ssw/PdO.xyz system=pdo pbc_mode=slab fixed_bottom_fraction=0.35 pbc="T T F"
Pd       0.00000000       0.00000000      10.00000000
Pd       2.75064538       0.00000000      10.00000000
Pd       5.50129076       0.00000000      10.00000000
Pd       8.25193614       0.00000000      10.00000000
Pd      11.00258152       0.00000000      10.00000000
Pd       0.00000000       2.75064538      10.00000000
Pd       2.75064538       2.75064538      10.00000000
Pd       5.50129076       2.75064538      10.00000000
Pd       8.25193614       2.75064538      10.00000000
Pd      11.00258152       2.75064538      10.00000000
Pd       0.00000000       5.50129076      10.00000000
Pd       2.75064538       5.50129076      10.00000000
Pd       5.50129076       5.50129076      10.00000000
Pd       8.25193614       5.50129076      10.00000000
Pd      11.00258152       5.50129076      10.00000000
Pd       0.00000000       8.25193614      10.00000000
Pd       2.75064538       8.25193614      10.00000000
Pd       5.50129076       8.25193614      10.00000000
Pd       8.25193614       8.25193614      10.00000000
Pd      11.00258152       8.25193614      10.00000000
Pd       0.00000000      11.00258152      10.00000000
Pd       2.75064538      11.00258152      10.00000000
Pd       5.50129076      11.00258152      10.00000000
Pd       8.25193614      11.00258152      10.00000000
Pd      11.00258152      11.00258152      10.00000000
Pd       1.37695439       1.36232070      11.97262737
Pd       4.11793451       1.40886327      11.98085113
Pd       6.86855990       1.43083685      11.94318756
Pd       9.57512057       1.39592898      11.89594876
Pd      12.38684272       1.37174114      11.92044161
Pd       1.39848273       4.13203889      11.96009312
Pd       4.14326582       4.09867113      12.00339886
Pd       6.85749364       4.11843974      12.03717995
Pd       9.56728621       4.13975942      11.94281254
Pd      12.36578195       4.13265160      11.93417299
Pd       1.37110082       6.89256210      11.94010419
Pd       4.13935064       6.87026939      11.96482277
Pd       6.87097415       6.85831372      11.95140951
Pd       9.64205429       6.82915781      11.94515418
Pd      12.39111484       6.85622887      11.94896407
Pd       1.36670677       9.63420015      12.00268123
Pd       4.11777592       9.66324146      11.95099537
Pd       6.89476706       9.64088005      11.95142944
Pd       9.64982872       9.59779534      11.89439304
Pd      12.42487279       9.60955999      11.94161946
Pd       1.36255273      12.37360580      11.99075052
Pd       4.11719157      12.41372703      11.96926576
Pd       6.86816975      12.39901143      11.97280504
Pd       9.63028672      12.36702810      11.91406436
Pd      12.36833564      12.33518762      11.98282456
Pd       2.72951455       0.02152756      14.01138821
Pd       8.28830440       0.01478325      13.94222914
Pd       9.89874603       1.27987970      15.88422452
Pd      11.01718549      13.62531924      13.93386344
Pd      13.70719202       0.01461802      13.98908749
Pd      13.74371854       2.75488025      13.90753939
Pd       2.76790843       2.72246244      14.02021987
Pd       5.46721457       2.80201620      14.29148643
Pd       8.19091745       2.69439876      14.04698026
Pd      10.98853593       2.73149083      13.94454236
Pd      13.71895502       5.49681009      13.94731512
Pd       2.79247770       5.47698904      13.98603266
Pd       5.47371136       5.52056645      13.93318040
Pd       8.15080986       5.48597997      14.12951276
Pd      11.01591932       5.46920477      13.89053779
Pd       2.71890307       8.26984155      13.93022872
Pd       1.35177774       6.81650138      15.76136872
Pd       5.61987963       8.34220362      13.86807045
Pd       8.41179340       8.21505351      13.93924382
Pd      13.58356995       8.26393052      14.00647862
Pd       1.44429730      12.27676953      16.03079536
Pd       2.77533227      10.96600565      13.96245653
Pd       5.48365324      11.09423152      14.01189781
Pd       8.22363758      10.98419070      13.86974911
Pd      13.70981305      11.01215351      14.01110260
Pd       0.33763227       7.67115538      17.99914785
Pd      13.37361227       9.69932341      16.40119470
Pd       4.50598135      12.90683216      16.01880902
Pd       3.01506242       6.27903620      17.83259346
Pd       2.86656723       9.58197523      17.04719152
Pd       9.90666358       2.59225396      18.43785426
Pd       7.22766926       1.40713039      16.63712576
Pd       9.38075662      12.29111798      15.86126163
Pd       5.59977316       0.08614936      13.85038699
Pd      11.91895691      12.87567647      16.63596063
Pd       2.19355411       4.07167398      16.34822538
Pd       5.65574933       4.72200387      16.47096180
Pd      12.37059121       4.16514911      16.18691280
Pd       6.42078049       9.66101241      16.13942601
Pd      10.07159657       9.64170310      15.55235219
Pd       9.28832804      13.74981734      18.14253291
Pd      11.23782161       6.98214710      16.29919862
Pd       9.27881575       3.93398346      16.14195810
Pd       1.36355286       1.51470095      16.39530946
Pd       4.35856181       7.14480482      15.78508822
O       10.77517535       5.12100749      16.84195153
O        1.12100488      10.57448408      17.25988047
O       13.65382652      13.57615499      16.05207939
O       12.60103912       3.27556758      18.03756619
O       11.61607219       3.38732914      18.89993263
O        4.74178156       8.84852421      16.78370487
O        5.54904933       0.87898786      15.73475877
O        2.23241139       0.04461564      17.48713376
O       10.37022605      12.20773647      17.65440106
O        3.23733001      11.29906846      15.99052889
O        3.56982194       0.03895654      17.62759358
O        3.85322726       4.57380232      17.29508668
O        9.77201719       6.85034563      14.80290945
O        8.26988942      10.43951887      15.89980394
O        7.54508439       5.04764128      16.05098506
O        0.40875708       3.24341467      15.85508013
O       12.27893747       7.21599830      17.92862299
O        2.25796360       8.05974202      18.27567989
O        8.20171542       1.61504547      18.38558049
O       11.86310250       8.76166940      15.50907033
