60
Properties=species:S:1:pos:R:3 system=runs/20260728-safe-lbfgs-strict-quench-200-production/output-c60-seed42 state_id=intermediate_accepted pbc="F F F"
C        0.29940726      -2.44025944      -1.93123952
C        3.69322805       0.17447233       0.15446845
C        0.88891539      -1.22197751       2.53261775
C       -3.18269868       2.27100157      -0.53615936
C       -4.04875843       0.00275899      -0.58322050
C        3.38245006      -0.42822240       2.11441149
C       -0.71987323      -2.95878087      -1.12221566
C        1.25111484      -3.66508258      -0.14164469
C       -0.94066996       2.83422037       2.07959464
C       -2.40715416       3.29054200      -1.15445292
C       -2.69943612      -0.15339192       1.61094331
C        0.65375019       1.58593970       3.08515935
C        0.25199748      -1.20661918      -2.68651624
C       -1.79975262       3.25384711       1.05969941
C        1.43727036       2.63493153       1.12130419
C       -0.37313542      -2.95196983       1.26904540
C        2.44608611       1.69785277       1.69234402
C       -1.86830253       1.76406158      -2.97637002
C       -2.80216744       0.81423047      -2.44898012
C        2.52658370      -2.03565643      -1.00800373
C       -0.37869077       3.49145275      -2.09740877
C        0.56452117       1.63431195      -3.30292334
C       -3.98842175      -1.32414739      -1.12146970
C       -2.01762953      -2.45445224      -1.01136292
C       -2.55065604      -2.50394560       0.28962663
C       -1.62108273      -2.29897442       1.36140048
C        0.73295616       2.83170279      -2.56811452
C       -0.13592366      -3.58340819       0.03294766
C       -0.70737426       1.02909602      -3.37390497
C        2.07772014      -0.39915451       2.74467078
C        2.36827836       1.43474760      -1.78437229
C        2.51589799      -0.82530270      -1.66161889
C       -3.80446499      -1.86910497       0.22792921
C       -1.46770015       3.79927172      -0.16814647
C        0.86748061      -2.46165765       1.80330437
C        1.63837988       0.84397757      -2.88075524
C       -2.76778499      -1.57295851      -1.83333801
C       -3.71451989      -0.53644989       0.71159821
C       -1.64064470      -1.05300893       2.02067933
C       -0.43003461      -0.57998250       2.69536515
C        1.50955513      -2.93287115      -1.33486353
C       -0.88222707      -0.37179910      -3.04165739
C        1.84286481       0.99465669       2.76027559
C        3.59611893      -1.09795707       0.88787068
C        3.01040772       0.36219870      -1.07757308
C        1.66700981       2.61905206      -1.47269051
C       -1.51378646       1.63718329       2.64624502
C        3.56511575       0.88669785       1.38729286
C       -0.49417860       0.77202240       3.13122836
C       -1.70844465       3.03297310      -2.36121657
C        0.45042627       2.68488730       2.16442570
C        2.88836926      -2.16472624       0.35608940
C       -0.16850010       3.72086985      -0.69506982
C       -3.54126102       1.11383039      -1.27349609
C        1.52541680      -0.53751869      -2.66421107
C        1.90363560      -2.98784520       0.96433023
C        1.07889636       3.08210191      -0.23935612
C       -2.56181609       1.22080398       1.79679584
C       -2.24518529      -0.50975486      -2.58545027
C       -2.81091563       2.25151071       0.84435322
