60
Properties=species:S:1:pos:R:3 system=runs/20260728-safe-lbfgs-strict-quench-200-production/output-c60-seed42 state_id=intermediate_accepted pbc="F F F"
C        0.33813858      -2.50765985      -2.00362277
C        3.67384056       0.18840491       0.05633785
C        0.79644461      -1.14980401       2.48580825
C       -3.15911876       2.26812526      -0.46178507
C       -4.05548858      -0.02910307      -0.53376215
C        3.24546275      -0.36766829       1.98405423
C       -0.72164978      -3.00651038      -1.17565823
C        1.24484967      -3.66361698      -0.18006315
C       -1.03857451       2.91413985       2.19503721
C       -2.32837661       3.24731291      -1.07959184
C       -2.82292041      -0.12733056       1.70975429
C        0.57763633       1.64886725       3.10661386
C        0.35933506      -1.27091177      -2.76148093
C       -1.86142774       3.33251630       1.15111286
C        1.38904166       2.75126406       1.18250317
C       -0.40566719      -2.91160996       1.22042065
C        2.37312261       1.78509907       1.68202622
C       -1.75541894       1.70610937      -2.85991105
C       -2.67282996       0.76178184      -2.31443370
C        2.61936119      -2.12957801      -1.15573501
C       -0.30001304       3.48436959      -2.04830183
C        0.64058925       1.60703713      -3.30596858
C       -3.98320346      -1.34880133      -1.09312875
C       -2.03983353      -2.54235213      -1.01638998
C       -2.58099035      -2.54113347       0.30438068
C       -1.66571946      -2.27745459       1.36474558
C        0.79879733       2.78733729      -2.51923769
C       -0.14532885      -3.59027941      -0.00155980
C       -0.62056316       0.98037998      -3.32953722
C        1.97927691      -0.32675689       2.66986829
C        2.44504700       1.37076231      -1.84337359
C        2.67437292      -0.92383980      -1.85213342
C       -3.83282913      -1.89655787       0.25611520
C       -1.42022330       3.78855133      -0.09516466
C        0.82125383      -2.37501001       1.71919512
C        1.72705850       0.79533449      -2.95667108
C       -2.76434945      -1.62572002      -1.81176644
C       -3.80003682      -0.56388256       0.78012970
C       -1.73711933      -1.03093711       2.06593374
C       -0.52578523      -0.52600753       2.71364249
C        1.54561473      -3.01197525      -1.41739694
C       -0.79300326      -0.43078089      -3.03000905
C        1.76898827       1.07071281       2.75540849
C        3.54933512      -1.05916328       0.78724125
C        3.14168942       0.28722714      -1.23197470
C        1.73148945       2.55439260      -1.43678333
C       -1.61153233       1.70151673       2.73061697
C        3.42823756       0.93946693       1.25465559
C       -0.58201653       0.83393519       3.16180787
C       -1.61878065       2.98770700      -2.27862700
C        0.36783243       2.78306281       2.22987219
C        2.89580545      -2.15840654       0.24482951
C       -0.10716117       3.74886667      -0.64348245
C       -3.46383438       1.07407523      -1.17570723
C        1.64275527      -0.60731816      -2.80170984
C        1.86793358      -2.90844485       0.87973014
C        1.13158149       3.11806237      -0.20103122
C       -2.67287985       1.27574292       1.90456240
C       -2.15698518      -0.56609071      -2.51439832
C       -2.89056715       2.32277235       0.94220765
