115
Lattice="13.75323 0.0 0.0 0.0 13.75323 0.0 0.0 0.0 23.89" Properties=species:S:1:pos:R:3 entry_id=34 rank=0 energy=-574.5621337890625 pbc="T T F"
Pd       0.00000000       0.00000000      10.00000000
Pd       2.75064538       0.00000000      10.00000000
Pd       5.50129076       0.00000000      10.00000000
Pd       8.25193614       0.00000000      10.00000000
Pd      11.00258152       0.00000000      10.00000000
Pd       0.00000000       2.75064538      10.00000000
Pd       2.75064538       2.75064538      10.00000000
Pd       5.50129076       2.75064538      10.00000000
Pd       8.25193614       2.75064538      10.00000000
Pd      11.00258152       2.75064538      10.00000000
Pd       0.00000000       5.50129076      10.00000000
Pd       2.75064538       5.50129076      10.00000000
Pd       5.50129076       5.50129076      10.00000000
Pd       8.25193614       5.50129076      10.00000000
Pd      11.00258152       5.50129076      10.00000000
Pd       0.00000000       8.25193614      10.00000000
Pd       2.75064538       8.25193614      10.00000000
Pd       5.50129076       8.25193614      10.00000000
Pd       8.25193614       8.25193614      10.00000000
Pd      11.00258152       8.25193614      10.00000000
Pd       0.00000000      11.00258152      10.00000000
Pd       2.75064538      11.00258152      10.00000000
Pd       5.50129076      11.00258152      10.00000000
Pd       8.25193614      11.00258152      10.00000000
Pd      11.00258152      11.00258152      10.00000000
Pd       1.33305437       1.38035701      12.05221797
Pd       4.08925664       1.38750338      11.98771029
Pd       6.82888190       1.38154444      11.99332965
Pd       9.57512057       1.39592898      11.89594876
Pd      12.38684272       1.37174114      11.92044161
Pd       1.37065655       4.09970544      12.00656864
Pd       4.10125007       4.12393621      12.00820233
Pd       6.82444734       4.12497179      12.00908219
Pd       9.56728621       4.13975942      11.94281254
Pd      12.36578195       4.13265160      11.93417299
Pd       1.37110082       6.89256210      11.94010419
Pd       4.13935064       6.87026939      11.96482277
Pd       6.87097415       6.85831372      11.95140951
Pd       9.64205429       6.82915781      11.94515418
Pd      12.39111484       6.85622887      11.94896407
Pd       1.35216595       9.69735034      11.99083951
Pd       4.11777592       9.66324146      11.95099537
Pd       6.89476706       9.64088005      11.95142944
Pd       9.64982872       9.59779534      11.89439304
Pd      12.42487279       9.60955999      11.94161946
Pd       1.35802606      12.41462245      12.04582394
Pd       4.10624816      12.40887780      12.00662317
Pd       6.86816975      12.39901143      11.97280504
Pd       9.63028672      12.36702810      11.91406436
Pd      12.41879361      12.34804731      11.97632258
Pd      11.04219521       0.01434869      13.89995558
Pd       0.03704333       0.03466676      14.01291218
Pd       2.76951852      13.75280858      14.04308469
Pd       5.46786283       2.71585856      14.07102799
Pd       8.18951129       0.05526255      13.97469742
Pd       2.72223545       2.70947954      14.07555442
Pd       5.46483845       5.44110684      14.01757054
Pd       8.33056851       2.78047463      13.98159493
Pd      11.01160287       2.76538580      13.94267688
Pd      13.71804258       2.78904310      13.97430410
Pd      13.71604316       5.48983003      14.03685044
Pd       2.65395563       5.46484264      14.02847981
Pd       5.47548729       8.19438179      13.98035630
Pd       8.18491007       5.65057126      14.09158685
Pd      10.97631226       5.47663793      13.98048713
Pd      13.67455985       8.22253216      13.93768440
Pd       2.69141026       8.22436538      14.00298196
Pd       5.56006308      10.95446841      13.90887181
Pd       8.22685263       8.31993790      13.88793312
Pd      10.93257719       8.24131869      13.90705408
Pd      13.72407659      10.99360758      14.08883407
Pd       2.81532609      10.95735263      14.05762487
Pd       5.52182476       0.01520978      13.95615394
Pd       8.29673059      11.05055171      13.95067123
Pd      11.01198527      10.99521156      13.86324566
Pd      12.25717477       7.00636759      15.90890391
Pd       9.48314857       8.29873489      16.30250649
Pd       1.95042489      12.53231195      16.64075060
Pd       0.86356721       8.95140017      16.34684792
Pd      12.10951879       9.71754717      15.97794403
Pd       9.95120964      11.77933428      16.32774878
Pd       4.17798663       1.30826739      16.06284429
Pd       6.96967197       9.72465496      16.03823841
Pd       4.49915822      12.35373244      15.86367941
Pd      12.43663445      12.43290625      15.98659590
Pd      12.37101877       4.22143310      16.50971930
Pd       1.09690632       5.38274867      16.65763558
Pd      10.04927368       1.59411974      16.27868283
Pd       4.33210570       9.80291305      16.58756155
Pd       3.61383281       4.03699069      16.32767737
Pd       6.91910968      13.16243000      16.43259163
Pd       9.62447272       4.90958877      16.51147225
Pd       7.03401343       2.40839565      16.33148203
Pd       1.12513790       1.77125497      16.55540402
Pd       3.96395414       6.68856316      16.11922726
O        9.64369464      13.60022215      15.45624779
O       10.35712857       9.93840633      16.97513658
O        2.86277538       8.35996869      16.15010340
O       11.05413364       0.56457806      17.80285287
O       11.34048371      13.03310072      17.65631015
O        5.57933951       8.31848158      16.06682400
O        2.61325525       0.62287937      17.25301574
O        0.27056206       7.16098275      16.93161498
O        7.91169992      11.46113973      16.04765640
O        3.48575206      11.42678070      17.32574631
O        0.36477018      13.65864747      16.09189986
O       11.31404255       5.75666475      17.22073657
O        8.04034599       3.96958243      15.66277317
O        8.65324630       6.55771851      15.95977058
O        1.86028235       3.57285235      17.03952897
O       13.22392334       2.59008401      15.89742281
O       10.57721394       3.26889427      17.09486140
O        1.35164760      10.80401351      15.66602369
O        5.95722744       0.98608750      17.08584729
O        5.20145034       5.15478213      16.01411859
115
Lattice="13.75323 0.0 0.0 0.0 13.75323 0.0 0.0 0.0 23.89" Properties=species:S:1:pos:R:3 entry_id=35 rank=1 energy=-574.4281005859375 pbc="T T F"
Pd       0.00000000       0.00000000      10.00000000
Pd       2.75064538       0.00000000      10.00000000
Pd       5.50129076       0.00000000      10.00000000
Pd       8.25193614       0.00000000      10.00000000
Pd      11.00258152       0.00000000      10.00000000
Pd       0.00000000       2.75064538      10.00000000
Pd       2.75064538       2.75064538      10.00000000
Pd       5.50129076       2.75064538      10.00000000
Pd       8.25193614       2.75064538      10.00000000
Pd      11.00258152       2.75064538      10.00000000
Pd       0.00000000       5.50129076      10.00000000
Pd       2.75064538       5.50129076      10.00000000
Pd       5.50129076       5.50129076      10.00000000
Pd       8.25193614       5.50129076      10.00000000
Pd      11.00258152       5.50129076      10.00000000
Pd       0.00000000       8.25193614      10.00000000
Pd       2.75064538       8.25193614      10.00000000
Pd       5.50129076       8.25193614      10.00000000
Pd       8.25193614       8.25193614      10.00000000
Pd      11.00258152       8.25193614      10.00000000
Pd       0.00000000      11.00258152      10.00000000
Pd       2.75064538      11.00258152      10.00000000
Pd       5.50129076      11.00258152      10.00000000
Pd       8.25193614      11.00258152      10.00000000
Pd      11.00258152      11.00258152      10.00000000
Pd       1.33305437       1.38035701      12.05221797
Pd       4.08925664       1.38750338      11.98771029
Pd       6.82888190       1.38154444      11.99332965
Pd       9.57512057       1.39592898      11.89594876
Pd      12.38684272       1.37174114      11.92044161
Pd       1.37065655       4.09970544      12.00656864
Pd       4.10125007       4.12393621      12.00820233
Pd       6.82444734       4.12497179      12.00908219
Pd       9.56728621       4.13975942      11.94281254
Pd      12.36578195       4.13265160      11.93417299
Pd       1.37110082       6.89256210      11.94010419
Pd       4.13935064       6.87026939      11.96482277
Pd       6.87097415       6.85831372      11.95140951
Pd       9.64205429       6.82915781      11.94515418
Pd      12.39111484       6.85622887      11.94896407
Pd       1.35216595       9.69735034      11.99083951
Pd       4.11777592       9.66324146      11.95099537
Pd       6.89476706       9.64088005      11.95142944
Pd       9.64982872       9.59779534      11.89439304
Pd      12.42487279       9.60955999      11.94161946
Pd       1.35802606      12.41462245      12.04582394
Pd       4.10624816      12.40887780      12.00662317
Pd       6.86816975      12.39901143      11.97280504
Pd       9.63028672      12.36702810      11.91406436
Pd      12.41879361      12.34804731      11.97632258
Pd      11.00909350       0.08143207      13.88138553
Pd       0.02120084       0.07687791      13.98498652
Pd       2.77004199       0.02614228      14.05198372
Pd       5.45500376       2.74191487      14.03585450
Pd       8.14045656      13.68136299      13.96136887
Pd       2.69583724       2.74584910      14.06444854
Pd       5.45935982       5.47521073      14.02001473
Pd       8.26547462       2.65546868      13.95182199
Pd      10.97995512       2.82431738      13.90846944
Pd      13.68641623       2.82595638      13.99852148
Pd      13.73422566       5.52840118      14.02979903
Pd       2.66431364       5.49605022      14.01902229
Pd       5.51393119       8.24896914      14.01027195
Pd       8.21215134       5.37686283      13.94929982
Pd      11.00105770       5.54109906      13.99412248
Pd      13.72026073       8.28315912      13.91270707
Pd       2.72466074       8.25952925      14.00619288
Pd       5.60068200      11.01238640      13.93999806
Pd       8.24837153       8.10615826      14.05244984
Pd      10.95800847       8.30920435      13.93913617
Pd      13.71503342      11.05501067      14.10410029
Pd       2.85659443      11.00363945      14.05809130
Pd       5.49945623       0.04174474      13.95197298
Pd       8.33972379      10.90155729      13.96746285
Pd      11.00711541      11.04390649      13.91404511
Pd      12.38037456       7.17078125      15.87510607
Pd       9.55217103       8.99252393      16.38841335
Pd       1.95607097      12.63730903      16.59503596
Pd       0.93061460       9.05305640      16.33594647
Pd      12.18020211       9.89191601      16.07694296
Pd       9.86871057      12.10219613      16.28376475
Pd       4.13465351       1.42804267      16.06172136
Pd       7.02078196      10.27573529      16.27251109
Pd       4.60873618      12.48929437      15.96823151
Pd      12.35685644      12.62199378      15.99025388
Pd      12.24524443       4.38906793      16.49191097
Pd       0.99764405       5.46925140      16.70906259
Pd       9.78723646       1.98174679      16.21161578
Pd       4.38983018       9.94053056      16.56602065
Pd       3.45401235       4.11368251      16.38076029
Pd       6.91189476      13.62564574      16.58437816
Pd       9.53078321       5.53973258      16.48038707
Pd       7.02375249       3.14075416      16.26790687
Pd       0.99981820       1.87489980      16.54427177
Pd       3.98871129       6.75732278      16.08288062
O        9.55734056       0.15772990      15.40900349
O       10.53495449      10.46965832      17.17518038
O        2.95899078       8.45597234      16.15337585
O       11.07988678       1.05820566      17.62113091
O       11.30830364      13.52210462      17.59898688
O        5.83748059       8.70172299      15.98812016
O        2.54021751       0.75249812      17.19013145
O        0.31803716       7.29890627      16.99063402
O        7.86081910      11.93991585      16.84017869
O        3.47723904      11.53424144      17.32204649
O        0.33654741      13.74219947      16.05451876
O       11.34288460       6.03887052      17.17593922
O        7.81270102       4.85353891      15.85962332
O        8.68030301       7.34820343      15.94972738
O        1.70682583       3.64921885      17.09793766
O       13.06998690       2.70875808      15.90784624
O       10.29694256       3.71738925      16.94998192
O        1.39372667      10.89785355      15.63274970
O        6.02087835       1.58554556      16.83712822
O        5.09136133       5.12836144      16.01801601
115
Lattice="13.75323 0.0 0.0 0.0 13.75323 0.0 0.0 0.0 23.89" Properties=species:S:1:pos:R:3 entry_id=36 rank=2 energy=-574.1227416992188 pbc="T T F"
Pd       0.00000000       0.00000000      10.00000000
Pd       2.75064538       0.00000000      10.00000000
Pd       5.50129076       0.00000000      10.00000000
Pd       8.25193614       0.00000000      10.00000000
Pd      11.00258152       0.00000000      10.00000000
Pd       0.00000000       2.75064538      10.00000000
Pd       2.75064538       2.75064538      10.00000000
Pd       5.50129076       2.75064538      10.00000000
Pd       8.25193614       2.75064538      10.00000000
Pd      11.00258152       2.75064538      10.00000000
Pd       0.00000000       5.50129076      10.00000000
Pd       2.75064538       5.50129076      10.00000000
Pd       5.50129076       5.50129076      10.00000000
Pd       8.25193614       5.50129076      10.00000000
Pd      11.00258152       5.50129076      10.00000000
Pd       0.00000000       8.25193614      10.00000000
Pd       2.75064538       8.25193614      10.00000000
Pd       5.50129076       8.25193614      10.00000000
Pd       8.25193614       8.25193614      10.00000000
Pd      11.00258152       8.25193614      10.00000000
Pd       0.00000000      11.00258152      10.00000000
Pd       2.75064538      11.00258152      10.00000000
Pd       5.50129076      11.00258152      10.00000000
Pd       8.25193614      11.00258152      10.00000000
Pd      11.00258152      11.00258152      10.00000000
Pd       1.33305437       1.38035701      12.05221797
Pd       4.08925664       1.38750338      11.98771029
Pd       6.82888190       1.38154444      11.99332965
Pd       9.57512057       1.39592898      11.89594876
Pd      12.38684272       1.37174114      11.92044161
Pd       1.37065655       4.09970544      12.00656864
Pd       4.10125007       4.12393621      12.00820233
Pd       6.82444734       4.12497179      12.00908219
Pd       9.56728621       4.13975942      11.94281254
Pd      12.36578195       4.13265160      11.93417299
Pd       1.37110082       6.89256210      11.94010419
Pd       4.13935064       6.87026939      11.96482277
Pd       6.87097415       6.85831372      11.95140951
Pd       9.64205429       6.82915781      11.94515418
Pd      12.39111484       6.85622887      11.94896407
Pd       1.35216595       9.69735034      11.99083951
Pd       4.11777592       9.66324146      11.95099537
Pd       6.89476706       9.64088005      11.95142944
Pd       9.64982872       9.59779534      11.89439304
Pd      12.42487279       9.60955999      11.94161946
Pd       1.35802606      12.41462245      12.04582394
Pd       4.10624816      12.40887780      12.00662317
Pd       6.86816975      12.39901143      11.97280504
Pd       9.63028672      12.36702810      11.91406436
Pd      12.41879361      12.34804731      11.97632258
Pd      10.96502069       0.06230294      13.83268434
Pd       0.00263506       0.06208779      13.99308115
Pd       2.79099527       0.04849645      14.08564559
Pd       5.47860696       2.65828957      14.05931619
Pd       8.26900804       0.01079326      13.91963566
Pd       2.72500255       2.73965040      14.08295592
Pd       5.46878163       5.43624145      14.01729998
Pd       8.30490076       2.74745079      13.92987885
Pd      10.98838106       2.75486824      13.94925069
Pd      13.71744805       2.84797091      13.95762055
Pd      13.70253258       5.55934582      14.06678782
Pd       2.65147376       5.48440732      14.02772025
Pd       5.50797590       8.22817703      14.02556421
Pd       8.25129393       5.52203626      13.99978520
Pd      11.01497421       5.45093481      13.99114019
Pd      13.68648537       8.26300213      13.94826956
Pd       2.71437226       8.25375975      14.00339288
Pd       5.53304755      10.99747734      13.92772962
Pd       8.20450820       8.24826909      13.88039515
Pd      10.95598394       8.22864267      13.95256366
Pd      13.65221627      11.04836376      14.09230719
Pd       2.81171628      11.02234175      14.05129420
Pd       5.51998239      13.73447773      13.92814447
Pd       8.24697606      11.02698041      13.96450315
Pd      10.94282048      11.06264992      13.93558567
Pd      12.31316932       7.39556408      16.26343449
Pd       9.33035868       9.46252462      15.87133975
Pd       1.87180358      12.64080482      16.61078587
Pd       0.94132508       9.08179006      16.30302389
Pd      12.17545049      10.06819577      16.15949365
Pd       9.61886849      12.25583864      16.42496659
Pd       4.12047708       1.40860130      16.47570983
Pd       6.85015821      10.47533823      16.33394934
Pd       4.53646724      12.52766626      15.97821176
Pd      12.14817010      12.75499120      15.96656983
Pd      12.37849417       4.30377097      16.56912690
Pd       1.06329879       5.46428964      16.62197973
Pd       9.59136813       2.10825444      16.33770879
Pd       4.28509167       9.96653103      16.56279064
Pd       3.48193357       4.06793149      16.39690543
Pd       6.78893644       0.08120802      16.46096784
Pd       9.90717446       5.62145414      16.63525950
Pd       7.11527620       3.65489871      16.12276852
Pd       0.94868453       1.84312396      16.51052933
Pd       4.04933460       6.71418302      16.06807127
O        8.82140692       0.33308747      15.88296312
O       10.44349581      10.57661703      17.13048136
O        2.98231910       8.40304412      16.12269284
O       10.87876121       1.11901949      17.71748094
O       11.09974007      13.58407050      17.63157054
O        5.80690849       8.81145518      15.97433166
O        2.44134193       0.73795378      17.27882977
O        0.40393408       7.30208326      16.94785289
O        7.59752033      12.11603132      17.06228319
O        3.40165376      11.56723668      17.33866420
O        0.23488490      13.72531934      16.07079271
O       11.68526436       5.89569289      17.49635233
O        8.07678675       5.35190249      15.99505670
O       10.27530983       7.58975217      15.98160686
O        1.70243377       3.62328408      17.03329681
O       13.02403645       2.63952689      15.82519170
O       10.37390043       3.72656288      17.05150272
O        1.34003085      10.92929021      15.60892837
O        6.02242084       1.94228543      16.06967731
O        5.16334037       5.04267309      16.05636867
115
Lattice="13.75323 0.0 0.0 0.0 13.75323 0.0 0.0 0.0 23.89" Properties=species:S:1:pos:R:3 entry_id=37 rank=3 energy=-574.119873046875 pbc="T T F"
Pd       0.00000000       0.00000000      10.00000000
Pd       2.75064538       0.00000000      10.00000000
Pd       5.50129076       0.00000000      10.00000000
Pd       8.25193614       0.00000000      10.00000000
Pd      11.00258152       0.00000000      10.00000000
Pd       0.00000000       2.75064538      10.00000000
Pd       2.75064538       2.75064538      10.00000000
Pd       5.50129076       2.75064538      10.00000000
Pd       8.25193614       2.75064538      10.00000000
Pd      11.00258152       2.75064538      10.00000000
Pd       0.00000000       5.50129076      10.00000000
Pd       2.75064538       5.50129076      10.00000000
Pd       5.50129076       5.50129076      10.00000000
Pd       8.25193614       5.50129076      10.00000000
Pd      11.00258152       5.50129076      10.00000000
Pd       0.00000000       8.25193614      10.00000000
Pd       2.75064538       8.25193614      10.00000000
Pd       5.50129076       8.25193614      10.00000000
Pd       8.25193614       8.25193614      10.00000000
Pd      11.00258152       8.25193614      10.00000000
Pd       0.00000000      11.00258152      10.00000000
Pd       2.75064538      11.00258152      10.00000000
Pd       5.50129076      11.00258152      10.00000000
Pd       8.25193614      11.00258152      10.00000000
Pd      11.00258152      11.00258152      10.00000000
Pd       1.33305437       1.38035701      12.05221797
Pd       4.08925664       1.38750338      11.98771029
Pd       6.82888190       1.38154444      11.99332965
Pd       9.57512057       1.39592898      11.89594876
Pd      12.38684272       1.37174114      11.92044161
Pd       1.37065655       4.09970544      12.00656864
Pd       4.10125007       4.12393621      12.00820233
Pd       6.82444734       4.12497179      12.00908219
Pd       9.56728621       4.13975942      11.94281254
Pd      12.36578195       4.13265160      11.93417299
Pd       1.37110082       6.89256210      11.94010419
Pd       4.13935064       6.87026939      11.96482277
Pd       6.87097415       6.85831372      11.95140951
Pd       9.64205429       6.82915781      11.94515418
Pd      12.39111484       6.85622887      11.94896407
Pd       1.35216595       9.69735034      11.99083951
Pd       4.11777592       9.66324146      11.95099537
Pd       6.89476706       9.64088005      11.95142944
Pd       9.64982872       9.59779534      11.89439304
Pd      12.42487279       9.60955999      11.94161946
Pd       1.35802606      12.41462245      12.04582394
Pd       4.10624816      12.40887780      12.00662317
Pd       6.86816975      12.39901143      11.97280504
Pd       9.63028672      12.36702810      11.91406436
Pd      12.41879361      12.34804731      11.97632258
Pd      10.96858706       0.05896483      13.83717416
Pd       0.00605746       0.06380561      13.99489448
Pd       2.79275110       0.04087902      14.08816660
Pd       5.47482312       2.65902008      14.06428884
Pd       8.27128134       0.00800454      13.92045798
Pd       2.72198894       2.73345211      14.09112356
Pd       5.47509336       5.43707435      14.01896015
Pd       8.30861243       2.74389321      13.92977117
Pd      10.99277551       2.75083948      13.95020353
Pd      13.71823116       2.85293256      13.95666994
Pd      13.70835472       5.56645780      14.06385679
Pd       2.65749541       5.47880132      14.02717316
Pd       5.50000668       8.22868504      14.02345432
Pd       8.25290297       5.52011008      14.00069291
Pd      11.02003047       5.44783767      13.98798029
Pd      13.68187936       8.26938852      13.94546512
Pd       2.70909063       8.24913404      14.00450802
Pd       5.53248340      10.99716789      13.92432537
Pd       8.19977799       8.24631863      13.87879488
Pd      10.95322826       8.22653289      13.95304580
Pd      13.66024362      11.05155682      14.09501384
Pd       2.81362077      11.01668677      14.05124844
Pd       5.52018627      13.73559935      13.92817799
Pd       8.24573272      11.02671967      13.95790283
Pd      10.94701058      11.06470595      13.93849982
Pd      12.31381494       7.40263204      16.25839304
Pd       9.33230924       9.46796164      15.85910422
Pd       1.88436236      12.63375909      16.61993403
Pd       0.94689808       9.07131184      16.29960409
Pd      12.18833992      10.08170361      16.16036627
Pd       9.63982738      12.24658870      16.42705860
Pd       4.13710091       1.39626275      16.47961271
Pd       6.84891329      10.46368316      16.32828942
Pd       4.54787408      12.51778616      15.97862467
Pd      12.15749447      12.77480244      15.98345226
Pd      12.39349135       4.29844925      16.56331337
Pd       1.07659170       5.45344350      16.61532073
Pd       9.60581849       2.10350882      16.33135939
Pd       4.28265513       9.96117808      16.57937984
Pd       3.50262660       4.06277643      16.40232115
Pd       6.80794571       0.06418758      16.45246771
Pd       9.91216928       5.62307313      16.62589152
Pd       7.12267185       3.64744330      16.12196344
Pd       0.97445854       1.83929237      16.51477384
Pd       4.05298082       6.70935293      16.07065524
O        8.84742927       0.32235727      15.88191600
O       10.45252393      10.56409820      17.13009801
O        2.98566745       8.39624756      16.12221820
O       10.91490703       1.14559338      17.71522319
O       11.13875941      13.61181500      17.65209184
O        5.79573908       8.80476132      15.97462378
O        2.45972308       0.72806454      17.28874900
O        0.40614726       7.28864810      16.93252535
O        7.61346088      12.09821494      17.05294052
O        3.41690536      11.57028691      17.35443406
O        0.25524048      13.72547903      16.07122268
O       11.69366381       5.89324834      17.48129604
O        8.07965059       5.34916492      15.99553122
O       10.27719561       7.59963217      15.98711202
O        1.72430349       3.61911706      17.04102319
O       13.05046464       2.63548079      15.83026941
O       10.38350606       3.72732234      17.03505780
O        1.34940209      10.92188503      15.61540084
O        6.03861678       1.92686922      16.06751093
O        5.17809152       5.04663544      16.05972876
115
Lattice="13.75323 0.0 0.0 0.0 13.75323 0.0 0.0 0.0 23.89" Properties=species:S:1:pos:R:3 entry_id=28 rank=4 energy=-573.97998046875 pbc="T T F"
Pd       0.00000000       0.00000000      10.00000000
Pd       2.75064538       0.00000000      10.00000000
Pd       5.50129076       0.00000000      10.00000000
Pd       8.25193614       0.00000000      10.00000000
Pd      11.00258152       0.00000000      10.00000000
Pd       0.00000000       2.75064538      10.00000000
Pd       2.75064538       2.75064538      10.00000000
Pd       5.50129076       2.75064538      10.00000000
Pd       8.25193614       2.75064538      10.00000000
Pd      11.00258152       2.75064538      10.00000000
Pd       0.00000000       5.50129076      10.00000000
Pd       2.75064538       5.50129076      10.00000000
Pd       5.50129076       5.50129076      10.00000000
Pd       8.25193614       5.50129076      10.00000000
Pd      11.00258152       5.50129076      10.00000000
Pd       0.00000000       8.25193614      10.00000000
Pd       2.75064538       8.25193614      10.00000000
Pd       5.50129076       8.25193614      10.00000000
Pd       8.25193614       8.25193614      10.00000000
Pd      11.00258152       8.25193614      10.00000000
Pd       0.00000000      11.00258152      10.00000000
Pd       2.75064538      11.00258152      10.00000000
Pd       5.50129076      11.00258152      10.00000000
Pd       8.25193614      11.00258152      10.00000000
Pd      11.00258152      11.00258152      10.00000000
Pd       1.33305437       1.38035701      12.05221797
Pd       4.08925664       1.38750338      11.98771029
Pd       6.82888190       1.38154444      11.99332965
Pd       9.57512057       1.39592898      11.89594876
Pd      12.38684272       1.37174114      11.92044161
Pd       1.37065655       4.09970544      12.00656864
Pd       4.10125007       4.12393621      12.00820233
Pd       6.82444734       4.12497179      12.00908219
Pd       9.56728621       4.13975942      11.94281254
Pd      12.36578195       4.13265160      11.93417299
Pd       1.37110082       6.89256210      11.94010419
Pd       4.13935064       6.87026939      11.96482277
Pd       6.87097415       6.85831372      11.95140951
Pd       9.64205429       6.82915781      11.94515418
Pd      12.39111484       6.85622887      11.94896407
Pd       1.35216595       9.69735034      11.99083951
Pd       4.11777592       9.66324146      11.95099537
Pd       6.89476706       9.64088005      11.95142944
Pd       9.64982872       9.59779534      11.89439304
Pd      12.42487279       9.60955999      11.94161946
Pd       1.35802606      12.41462245      12.04582394
Pd       4.10624816      12.40887780      12.00662317
Pd       6.86816975      12.39901143      11.97280504
Pd       9.63028672      12.36702810      11.91406436
Pd      12.41879361      12.34804731      11.97632258
Pd      10.95800171       0.04439961      13.88008990
Pd      13.72704600       0.01580908      13.96133021
Pd       2.78496325       0.02563645      14.11706340
Pd       5.46683526       2.66377713      14.12623770
Pd       8.15369641       0.05528943      13.94572151
Pd       2.71672021       2.73711230      13.99878109
Pd       5.47956454       5.41406722      14.01648866
Pd       8.31656370       2.77872863      13.95623141
Pd      10.99451313       2.78752125      13.93909219
Pd      13.68066268       2.81720997      13.97820393
Pd      13.72361723       5.52178863      14.04570327
Pd       2.66750262       5.47212912      14.01643161
Pd       5.48530628       8.16609645      13.95766789
Pd       8.19359682       5.66259679      14.05054778
Pd      11.00262999       5.50982268      13.98137662
Pd      13.70604218       8.24880635      13.93989603
Pd       2.69466439       8.24956260      14.01521162
Pd       5.56178560      10.93927027      13.91616358
Pd       8.25310950       8.32606171      13.88452390
Pd      10.98322377       8.28743946      13.93116185
Pd       0.07186409      10.99095257      14.09810274
Pd       2.82990683      11.00553985      14.00795018
Pd       5.49490616      13.72398716      14.02942606
Pd       8.31715490      11.04602906      13.93788348
Pd      11.07220581      10.99816327      13.93241375
Pd      12.27344040       7.11895607      15.95112748
Pd       9.55759647       8.36405268      16.27514355
Pd       1.75073740      12.28339522      16.43302890
Pd       0.77100534       8.62817281      16.51729979
Pd      12.27678132      10.05301721      16.35002336
Pd       9.88375474      11.81205351      16.31449231
Pd       4.58394134       1.06956628      16.56396421
Pd       6.92491054       9.64101961      16.02503624
Pd       4.57660553      12.20657283      16.00158160
Pd      12.20171929      12.72530066      16.03368974
Pd      12.38871197       4.23981386      16.51596515
Pd       1.22991472       5.13321524      16.56361257
Pd       9.99775288       1.67383847      16.28224511
Pd       4.23838346       9.64111530      16.43903981
Pd       3.85126698       3.84019891      16.21213667
Pd       7.02162081      13.10536846      16.47788368
Pd       9.67260154       5.01328975      16.48262731
Pd       7.21365597       2.56315746      16.37835223
Pd       1.10657003       1.67405016      16.29424376
Pd       3.96961254       6.54851896      16.15728473
O        9.52760709      13.66363060      15.49849225
O       10.39577345       9.99831315      16.96758712
O        2.77756932       8.17264638      16.16424737
O       10.77440242       0.68399076      17.96203114
O       11.20355435      13.20363716      17.82124652
O        5.57283180       8.19503723      16.03856631
O        2.70679640       0.47467530      16.33008948
O        0.31471377       6.80031859      16.96478977
O        7.87087249      11.36323905      16.01714530
O        3.24848900      11.18911272      17.13836233
O        0.26966291      13.59445309      16.03346749
O       11.36630648       5.81382786      17.21926304
O        8.10994126       4.11351188      15.58246493
O        8.70250408       6.65562781      15.91081273
O        2.04548252       3.34402571      16.79867515
O       13.14506037       2.55930808      15.91535916
O       10.57480673       3.35048849      17.07520044
O        0.54510261      10.57966862      16.13827678
O        6.40622899       1.05172686      17.24865696
O        5.33081965       5.12265024      16.03100141
115
Lattice="13.75323 0.0 0.0 0.0 13.75323 0.0 0.0 0.0 23.89" Properties=species:S:1:pos:R:3 entry_id=31 rank=5 energy=-573.7507934570312 pbc="T T F"
Pd       0.00000000       0.00000000      10.00000000
Pd       2.75064538       0.00000000      10.00000000
Pd       5.50129076       0.00000000      10.00000000
Pd       8.25193614       0.00000000      10.00000000
Pd      11.00258152       0.00000000      10.00000000
Pd       0.00000000       2.75064538      10.00000000
Pd       2.75064538       2.75064538      10.00000000
Pd       5.50129076       2.75064538      10.00000000
Pd       8.25193614       2.75064538      10.00000000
Pd      11.00258152       2.75064538      10.00000000
Pd       0.00000000       5.50129076      10.00000000
Pd       2.75064538       5.50129076      10.00000000
Pd       5.50129076       5.50129076      10.00000000
Pd       8.25193614       5.50129076      10.00000000
Pd      11.00258152       5.50129076      10.00000000
Pd       0.00000000       8.25193614      10.00000000
Pd       2.75064538       8.25193614      10.00000000
Pd       5.50129076       8.25193614      10.00000000
Pd       8.25193614       8.25193614      10.00000000
Pd      11.00258152       8.25193614      10.00000000
Pd       0.00000000      11.00258152      10.00000000
Pd       2.75064538      11.00258152      10.00000000
Pd       5.50129076      11.00258152      10.00000000
Pd       8.25193614      11.00258152      10.00000000
Pd      11.00258152      11.00258152      10.00000000
Pd       1.33305437       1.38035701      12.05221797
Pd       4.08925664       1.38750338      11.98771029
Pd       6.82888190       1.38154444      11.99332965
Pd       9.57512057       1.39592898      11.89594876
Pd      12.38684272       1.37174114      11.92044161
Pd       1.37065655       4.09970544      12.00656864
Pd       4.10125007       4.12393621      12.00820233
Pd       6.82444734       4.12497179      12.00908219
Pd       9.56728621       4.13975942      11.94281254
Pd      12.36578195       4.13265160      11.93417299
Pd       1.37110082       6.89256210      11.94010419
Pd       4.13935064       6.87026939      11.96482277
Pd       6.87097415       6.85831372      11.95140951
Pd       9.64205429       6.82915781      11.94515418
Pd      12.39111484       6.85622887      11.94896407
Pd       1.35216595       9.69735034      11.99083951
Pd       4.11777592       9.66324146      11.95099537
Pd       6.89476706       9.64088005      11.95142944
Pd       9.64982872       9.59779534      11.89439304
Pd      12.42487279       9.60955999      11.94161946
Pd       1.35802606      12.41462245      12.04582394
Pd       4.10624816      12.40887780      12.00662317
Pd       6.86816975      12.39901143      11.97280504
Pd       9.63028672      12.36702810      11.91406436
Pd      12.41879361      12.34804731      11.97632258
Pd      11.01748492       0.02024908      13.90101498
Pd       0.01667816       0.03741381      13.99510362
Pd       2.80060672      13.64303904      14.04272077
Pd       5.51026942       2.72104499      14.09810915
Pd       8.15568059       0.00568105      13.99546782
Pd       2.74741215       2.77410713      14.01174994
Pd       5.47349277       5.45187009      14.01159347
Pd       8.31698479       2.74672944      13.95954429
Pd      10.97999576       2.76227274      13.94259719
Pd      13.64141912       2.81115783      14.01161606
Pd      13.72263933       5.49999432      14.01928501
Pd       2.66693024       5.49607788      14.03320598
Pd       5.48358255       8.23142692      13.94458845
Pd       8.19148998       5.67921100      14.05069872
Pd      10.99084332       5.47459275      13.98381156
Pd      13.66988123       8.22177417      13.92832670
Pd       2.69800604       8.21402492      14.00569310
Pd       5.58370076      11.01192682      13.97574573
Pd       8.21802743       8.34892823      13.90600352
Pd      10.93253853       8.23597439      13.90836341
Pd      13.70918883      11.00337500      14.05426412
Pd       2.86065066      10.92014136      14.05446026
Pd       5.52608884       0.02142427      14.02608343
Pd       8.30313152      11.02287526      13.94010772
Pd      11.00454311      10.99433418      13.85528284
Pd      12.26275409       7.00843407      15.91892138
Pd       9.51148024       8.36237013      16.29425489
Pd       1.89144207      12.38217290      16.62605667
Pd       0.88820081       8.87403397      16.32577984
Pd      12.16103044       9.73061042      15.95427870
Pd       9.90649639      11.75387825      16.23093932
Pd       4.62685311       1.36614205      16.45361393
Pd       7.07506972       9.91433305      16.17978475
Pd       4.59331649      12.45062892      16.06376397
Pd      12.40207983      12.47324403      15.98202612
Pd      12.30171410       4.21764402      16.57692286
Pd       1.05900082       5.36280413      16.59537024
Pd       9.96737434       1.63073942      16.29652265
Pd       4.40453555       9.83312866      16.51105194
Pd       3.68923808       4.08259550      16.28828214
Pd       7.02553214      13.24172187      16.83906886
Pd       9.62027920       5.00208376      16.49938197
Pd       7.22296004       2.57759470      16.42532905
Pd       1.06177061       1.81351564      16.28279091
Pd       4.06564581       6.72507093      16.10800116
O        9.60290369      13.61568279      15.45514261
O       10.41647105       9.97605289      16.94748850
O        2.93512948       8.35801821      16.15376059
O       11.10436751       0.66764770      17.78788333
O       11.40780925      13.15213133      17.67931244
O        5.74563163       8.44897718      15.96611414
O        2.87863395       1.29307937      15.58338964
O        0.26930479       7.12425798      16.96674128
O        7.94487932      11.52732117      16.82517408
O        3.42994634      11.36105844      17.29974953
O        0.42300518      13.61857349      16.06975343
O       11.30306216       5.80870012      17.26549884
O        8.10059294       4.09301518      15.55290158
O        8.65063814       6.65230144      15.92511779
O        1.86576049       3.57246657      16.80789260
O       13.00897867       2.51879340      15.98264228
O       10.47916549       3.32082873      17.11948802
O        1.34112778      10.66837998      15.56027903
O        6.29836167       1.21056273      17.43151785
O        5.28983386       5.18386315      16.02561366
115
Lattice="13.75323 0.0 0.0 0.0 13.75323 0.0 0.0 0.0 23.89" Properties=species:S:1:pos:R:3 entry_id=15 rank=6 energy=-573.6993408203125 pbc="T T F"
Pd       0.00000000       0.00000000      10.00000000
Pd       2.75064538       0.00000000      10.00000000
Pd       5.50129076       0.00000000      10.00000000
Pd       8.25193614       0.00000000      10.00000000
Pd      11.00258152       0.00000000      10.00000000
Pd       0.00000000       2.75064538      10.00000000
Pd       2.75064538       2.75064538      10.00000000
Pd       5.50129076       2.75064538      10.00000000
Pd       8.25193614       2.75064538      10.00000000
Pd      11.00258152       2.75064538      10.00000000
Pd       0.00000000       5.50129076      10.00000000
Pd       2.75064538       5.50129076      10.00000000
Pd       5.50129076       5.50129076      10.00000000
Pd       8.25193614       5.50129076      10.00000000
Pd      11.00258152       5.50129076      10.00000000
Pd       0.00000000       8.25193614      10.00000000
Pd       2.75064538       8.25193614      10.00000000
Pd       5.50129076       8.25193614      10.00000000
Pd       8.25193614       8.25193614      10.00000000
Pd      11.00258152       8.25193614      10.00000000
Pd       0.00000000      11.00258152      10.00000000
Pd       2.75064538      11.00258152      10.00000000
Pd       5.50129076      11.00258152      10.00000000
Pd       8.25193614      11.00258152      10.00000000
Pd      11.00258152      11.00258152      10.00000000
Pd       1.33305437       1.38035701      12.05221797
Pd       4.08925664       1.38750338      11.98771029
Pd       6.82888190       1.38154444      11.99332965
Pd       9.57512057       1.39592898      11.89594876
Pd      12.38684272       1.37174114      11.92044161
Pd       1.37065655       4.09970544      12.00656864
Pd       4.10125007       4.12393621      12.00820233
Pd       6.82444734       4.12497179      12.00908219
Pd       9.56728621       4.13975942      11.94281254
Pd      12.36578195       4.13265160      11.93417299
Pd       1.37110082       6.89256210      11.94010419
Pd       4.13935064       6.87026939      11.96482277
Pd       6.87097415       6.85831372      11.95140951
Pd       9.64205429       6.82915781      11.94515418
Pd      12.39111484       6.85622887      11.94896407
Pd       1.35216595       9.69735034      11.99083951
Pd       4.11777592       9.66324146      11.95099537
Pd       6.89476706       9.64088005      11.95142944
Pd       9.64982872       9.59779534      11.89439304
Pd      12.42487279       9.60955999      11.94161946
Pd       1.35802606      12.41462245      12.04582394
Pd       4.10624816      12.40887780      12.00662317
Pd       6.86816975      12.39901143      11.97280504
Pd       9.63028672      12.36702810      11.91406436
Pd      12.41879361      12.34804731      11.97632258
Pd      10.99747847      13.73469870      13.91133558
Pd      13.72211559       0.03717797      13.97651968
Pd       2.76584433      13.59329328      14.02831726
Pd       5.49274882      13.70044089      14.09047791
Pd       8.32896332       2.78592108      13.97223866
Pd       2.80357601       2.84195605      14.06221834
Pd       5.55890557       2.67294323      14.07546736
Pd       8.20939243       5.65431094      14.11027780
Pd      10.97424340       2.73211191      13.93959084
Pd      13.62989453       2.82657510      13.95846179
Pd      13.75152465       5.50991778      14.10796645
Pd       2.71514428       5.51882136      14.04091384
Pd       5.46822807       5.44300522      13.95709178
Pd       8.21355766       8.31662459      13.89381424
Pd      10.98959520       5.43725232      13.95415304
Pd      13.67660083       8.28948014      13.96052840
Pd       2.70367503       8.20494032      13.96193445
Pd       5.45303545       8.20423547      13.93256844
Pd       8.32058261      11.03679791      13.92144468
Pd      10.92677328       8.26648559      13.87288958
Pd       0.08324080      11.02429171      14.07150946
Pd       2.80657914      10.89855362      14.01805131
Pd       5.53673483      10.97187356      13.95370415
Pd       8.16167707       0.05237869      14.00546116
Pd      11.08320160      10.95815934      13.93755770
Pd      11.97157339       7.02469769      15.91531951
Pd       9.48835591       8.29424173      16.29194030
Pd       1.56405713      12.15031603      16.27509887
Pd       0.86924918       7.20389057      16.23476036
Pd      12.25358285       9.63562055      16.26700063
Pd       9.92676196      11.78539933      16.34192040
Pd       4.59344430       1.13351915      16.46845195
Pd       6.83178570       9.63516312      16.01968373
Pd       4.34168075      12.16205214      16.05825838
Pd      12.45561273      12.32510493      15.98193106
Pd      12.46619312       4.22751622      16.67366612
Pd       2.29493114       4.09491222      16.68339123
Pd      10.15087317       1.60031659      16.32938464
Pd       3.91323476       9.48977079      16.35433608
Pd       5.00276975       3.90614008      16.56160431
Pd       6.94355703      12.94879820      16.46752090
Pd       9.70776173       4.91221109      16.56452301
Pd       7.28884913       2.34539758      16.46722878
Pd       1.12448950       1.83913518      16.11038855
Pd       4.13435003       6.47711328      16.33240410
O        9.61809047      13.63170024      15.50263382
O       10.40798157       9.93957237      16.93457745
O        2.74996231       7.74828615      16.90300350
O       11.09588745       0.47951844      17.83156269
O       11.32469827      12.93773207      17.64204969
O        5.43597648       8.24539979      16.00821410
O        2.90537159       1.25543783      15.48945841
O        0.63881009       5.16539289      16.30043719
O        7.91480520      11.27774934      15.97645714
O        2.91436363      11.00728313      17.03644236
O        0.29605415      13.62561720      16.04846221
O       11.38053434       5.78661450      17.35590053
O        8.18203339       3.92177547      15.69558422
O        8.68723099       6.53438903      15.98955036
O        3.67583356       2.85058473      17.46452101
O       13.10267561       2.54071927      15.96410738
O       10.71926168       3.29615348      17.14028612
O        0.37797041       9.12792130      15.86954981
O        6.33586543       0.85311210      17.32217649
O        5.82426524       5.52145288      15.91777924
115
Lattice="13.75323 0.0 0.0 0.0 13.75323 0.0 0.0 0.0 23.89" Properties=species:S:1:pos:R:3 entry_id=21 rank=7 energy=-573.6871337890625 pbc="T T F"
Pd       0.00000000       0.00000000      10.00000000
Pd       2.75064538       0.00000000      10.00000000
Pd       5.50129076       0.00000000      10.00000000
Pd       8.25193614       0.00000000      10.00000000
Pd      11.00258152       0.00000000      10.00000000
Pd       0.00000000       2.75064538      10.00000000
Pd       2.75064538       2.75064538      10.00000000
Pd       5.50129076       2.75064538      10.00000000
Pd       8.25193614       2.75064538      10.00000000
Pd      11.00258152       2.75064538      10.00000000
Pd       0.00000000       5.50129076      10.00000000
Pd       2.75064538       5.50129076      10.00000000
Pd       5.50129076       5.50129076      10.00000000
Pd       8.25193614       5.50129076      10.00000000
Pd      11.00258152       5.50129076      10.00000000
Pd       0.00000000       8.25193614      10.00000000
Pd       2.75064538       8.25193614      10.00000000
Pd       5.50129076       8.25193614      10.00000000
Pd       8.25193614       8.25193614      10.00000000
Pd      11.00258152       8.25193614      10.00000000
Pd       0.00000000      11.00258152      10.00000000
Pd       2.75064538      11.00258152      10.00000000
Pd       5.50129076      11.00258152      10.00000000
Pd       8.25193614      11.00258152      10.00000000
Pd      11.00258152      11.00258152      10.00000000
Pd       1.33305437       1.38035701      12.05221797
Pd       4.08925664       1.38750338      11.98771029
Pd       6.82888190       1.38154444      11.99332965
Pd       9.57512057       1.39592898      11.89594876
Pd      12.38684272       1.37174114      11.92044161
Pd       1.37065655       4.09970544      12.00656864
Pd       4.10125007       4.12393621      12.00820233
Pd       6.82444734       4.12497179      12.00908219
Pd       9.56728621       4.13975942      11.94281254
Pd      12.36578195       4.13265160      11.93417299
Pd       1.37110082       6.89256210      11.94010419
Pd       4.13935064       6.87026939      11.96482277
Pd       6.87097415       6.85831372      11.95140951
Pd       9.64205429       6.82915781      11.94515418
Pd      12.39111484       6.85622887      11.94896407
Pd       1.35216595       9.69735034      11.99083951
Pd       4.11777592       9.66324146      11.95099537
Pd       6.89476706       9.64088005      11.95142944
Pd       9.64982872       9.59779534      11.89439304
Pd      12.42487279       9.60955999      11.94161946
Pd       1.35802606      12.41462245      12.04582394
Pd       4.10624816      12.40887780      12.00662317
Pd       6.86816975      12.39901143      11.97280504
Pd       9.63028672      12.36702810      11.91406436
Pd      12.41879361      12.34804731      11.97632258
Pd      11.00883643      13.72869591      13.90269102
Pd      13.71865534       0.07276885      13.96275375
Pd       2.76065417      13.63671750      14.02300916
Pd       5.50060918      13.68802241      14.03680782
Pd       8.33661544       2.78360768      13.96278349
Pd       2.76978923       2.82802314      14.07371916
Pd       5.53105397       2.66176813      14.10602637
Pd       8.21834705       5.66350050      14.09883266
Pd      11.00790728       2.72600710      13.93021920
Pd      13.65169477       2.84875554      14.16713486
Pd      13.72315284       5.55219520      14.03668677
Pd       2.75284621       5.54429061      13.85108144
Pd       5.52848294       5.39700194      14.01971727
Pd       8.20458494       8.31924173      13.88739241
Pd      10.98545786       5.42554651      13.95899152
Pd      13.65585092       8.26734813      13.97735367
Pd       2.65470045       8.24034605      14.02845078
Pd       5.44701528       8.16862249      13.95719722
Pd       8.31931278      11.03916553      13.90792092
Pd      10.91555701       8.26510221      13.88884081
Pd       0.08292517      11.02094359      14.07772094
Pd       2.80508935      10.93711873      14.00433607
Pd       5.53580475      10.95214938      13.95170923
Pd       8.16211309       0.05346607      13.98718128
Pd      11.08238021      10.96113207      13.94379207
Pd      11.75957523       6.99925336      15.99786815
Pd       9.36202807       8.32199837      16.34078769
Pd       1.55787531      12.24508596      16.23126549
Pd       0.55179091       7.24627075      16.48063242
Pd      12.08500821       9.64572502      16.29471153
Pd       9.89249981      11.81000262      16.36354675
Pd       4.69754514       1.10717706      16.42249281
Pd       6.82320700       9.61563953      16.02938638
Pd       4.35303036      12.20296476      16.04387559
Pd      12.47619925      12.34441669      15.98409352
Pd      12.36926015       4.27291456      16.94637254
Pd       1.64878122       4.65887458      15.99783611
Pd      10.08722868       1.61615990      16.28557689
Pd       3.98540245       9.57241449      16.34909882
Pd       4.15725243       3.79148015      16.51436699
Pd       6.96741245      12.94091916      16.45122592
Pd       9.57600960       4.93623774      16.57324892
Pd       7.25144876       2.37629080      16.41587871
Pd       1.22173936       1.80364131      16.45749578
Pd       3.99999251       6.46430878      16.13740924
O        9.61954216      13.63087785      15.46956078
O       10.27346167       9.96399155      17.00761177
O        2.62725554       7.89410083      16.16757036
O       11.07876330       0.51428809      17.77760149
O       11.31123612      12.96796097      17.59756619
O        5.42951991       8.21647553      16.04887770
O        2.94789405       1.22941705      15.55436954
O        0.29241343       5.41552521      17.25246395
O        7.90539910      11.26220963      15.94846722
O        2.90418576      11.06606595      16.97583306
O        0.31620852       0.01826015      15.98921521
O       11.17143451       5.80026718      17.48592628
O        8.07864810       3.98146241      15.63756511
O        8.55583635       6.57131087      16.01183768
O        2.39090384       3.23017198      17.25129733
O       13.18032467       2.62503764      16.21747526
O       10.58682704       3.31013858      17.11028361
O        0.17692216       9.13153242      15.84915742
O        6.40820465       0.85913165      17.31228451
O        5.47153415       5.16091752      16.03330907
115
Lattice="13.75323 0.0 0.0 0.0 13.75323 0.0 0.0 0.0 23.89" Properties=species:S:1:pos:R:3 entry_id=20 rank=8 energy=-573.6859130859375 pbc="T T F"
Pd       0.00000000       0.00000000      10.00000000
Pd       2.75064538       0.00000000      10.00000000
Pd       5.50129076       0.00000000      10.00000000
Pd       8.25193614       0.00000000      10.00000000
Pd      11.00258152       0.00000000      10.00000000
Pd       0.00000000       2.75064538      10.00000000
Pd       2.75064538       2.75064538      10.00000000
Pd       5.50129076       2.75064538      10.00000000
Pd       8.25193614       2.75064538      10.00000000
Pd      11.00258152       2.75064538      10.00000000
Pd       0.00000000       5.50129076      10.00000000
Pd       2.75064538       5.50129076      10.00000000
Pd       5.50129076       5.50129076      10.00000000
Pd       8.25193614       5.50129076      10.00000000
Pd      11.00258152       5.50129076      10.00000000
Pd       0.00000000       8.25193614      10.00000000
Pd       2.75064538       8.25193614      10.00000000
Pd       5.50129076       8.25193614      10.00000000
Pd       8.25193614       8.25193614      10.00000000
Pd      11.00258152       8.25193614      10.00000000
Pd       0.00000000      11.00258152      10.00000000
Pd       2.75064538      11.00258152      10.00000000
Pd       5.50129076      11.00258152      10.00000000
Pd       8.25193614      11.00258152      10.00000000
Pd      11.00258152      11.00258152      10.00000000
Pd       1.33305437       1.38035701      12.05221797
Pd       4.08925664       1.38750338      11.98771029
Pd       6.82888190       1.38154444      11.99332965
Pd       9.57512057       1.39592898      11.89594876
Pd      12.38684272       1.37174114      11.92044161
Pd       1.37065655       4.09970544      12.00656864
Pd       4.10125007       4.12393621      12.00820233
Pd       6.82444734       4.12497179      12.00908219
Pd       9.56728621       4.13975942      11.94281254
Pd      12.36578195       4.13265160      11.93417299
Pd       1.37110082       6.89256210      11.94010419
Pd       4.13935064       6.87026939      11.96482277
Pd       6.87097415       6.85831372      11.95140951
Pd       9.64205429       6.82915781      11.94515418
Pd      12.39111484       6.85622887      11.94896407
Pd       1.35216595       9.69735034      11.99083951
Pd       4.11777592       9.66324146      11.95099537
Pd       6.89476706       9.64088005      11.95142944
Pd       9.64982872       9.59779534      11.89439304
Pd      12.42487279       9.60955999      11.94161946
Pd       1.35802606      12.41462245      12.04582394
Pd       4.10624816      12.40887780      12.00662317
Pd       6.86816975      12.39901143      11.97280504
Pd       9.63028672      12.36702810      11.91406436
Pd      12.41879361      12.34804731      11.97632258
Pd      11.00893319      13.72853911      13.90821578
Pd      13.71174097       0.07192463      13.96505165
Pd       2.75846082      13.63782972      14.01922320
Pd       5.50567932      13.69425506      14.03768321
Pd       8.33403664       2.78170464      13.96483820
Pd       2.76643804       2.83238273      14.06983152
Pd       5.52800074       2.67126578      14.10315740
Pd       8.22397069       5.66066144      14.10427259
Pd      11.00322289       2.72440868      13.93467763
Pd      13.64718899       2.84495323      14.16429366
Pd      13.72569503       5.55072499      14.02787469
Pd       2.75509926       5.54848584      13.84855456
Pd       5.53064105       5.40567266      14.02506036
Pd       8.20538945       8.31681750      13.88709980
Pd      10.99060255       5.42808285      13.96518850
Pd      13.64971518       8.26520557      13.97459108
Pd       2.64798717       8.24483189      14.03257757
Pd       5.44438355       8.17091843      13.96199234
Pd       8.31653196      11.03668952      13.90875982
Pd      10.91550755       8.26696403      13.89774323
Pd       0.07687955      11.01982093      14.07493344
Pd       2.80283567      10.93873007      14.00924813
Pd       5.53666804      10.95385981      13.95226113
Pd       8.16826443       0.05067524      13.99421214
Pd      11.07623174      10.96548437      13.94617523
Pd      11.74210027       6.99704545      16.01896724
Pd       9.34672999       8.31046035      16.34789336
Pd       1.56707922      12.24623884      16.24056054
Pd       0.54099243       7.24438225      16.47638174
Pd      12.07095340       9.63965659      16.29728857
Pd       9.89352695      11.80702468      16.37815702
Pd       4.68891361       1.11553504      16.41819008
Pd       6.82820396       9.61089209      16.03898778
Pd       4.35460842      12.21516916      16.04055901
Pd      12.48754032      12.33025461      15.99471349
Pd      12.36330521       4.26873942      16.95576966
Pd       1.64134060       4.65074010      15.98524080
Pd      10.09528241       1.60936336      16.30491387
Pd       3.99676040       9.57721417      16.35297465
Pd       4.15208176       3.79962272      16.51496095
Pd       6.96894775      12.93180505      16.45394391
Pd       9.56929925       4.92069833      16.58946205
Pd       7.24579261       2.35880607      16.42025308
Pd       1.21861506       1.80398309      16.45851201
Pd       3.98766009       6.47176419      16.13987108
O        9.62791609      13.62877419      15.48035287
O       10.26127967       9.95375992      17.01613722
O        2.62008129       7.90613982      16.16728788
O       11.09306489       0.50050444      17.79189945
O       11.32106621      12.95125522      17.60562897
O        5.43252387       8.21458630      16.05566569
O        2.94187045       1.23936731      15.54343360
O        0.28921759       5.41215124      17.24244850
O        7.91228367      11.25583963      15.95112693
O        2.92423463      11.07484557      16.98672524
O        0.32150661       0.01353676      15.98920149
O       11.16313014       5.78949017      17.50366304
O        8.07763313       3.96141751      15.64914545
O        8.55024703       6.55249000      16.01839191
O        2.38758825       3.23264810      17.24990488
O       13.17730433       2.62697447      16.21562746
O       10.58647963       3.29971562      17.13628970
O        0.16256133       9.12773991      15.84570942
O        6.39286351       0.84563535      17.31282817
O        5.46223869       5.17421872      16.04048701
115
Lattice="13.75323 0.0 0.0 0.0 13.75323 0.0 0.0 0.0 23.89" Properties=species:S:1:pos:R:3 entry_id=27 rank=9 energy=-573.6710815429688 pbc="T T F"
Pd       0.00000000       0.00000000      10.00000000
Pd       2.75064538       0.00000000      10.00000000
Pd       5.50129076       0.00000000      10.00000000
Pd       8.25193614       0.00000000      10.00000000
Pd      11.00258152       0.00000000      10.00000000
Pd       0.00000000       2.75064538      10.00000000
Pd       2.75064538       2.75064538      10.00000000
Pd       5.50129076       2.75064538      10.00000000
Pd       8.25193614       2.75064538      10.00000000
Pd      11.00258152       2.75064538      10.00000000
Pd       0.00000000       5.50129076      10.00000000
Pd       2.75064538       5.50129076      10.00000000
Pd       5.50129076       5.50129076      10.00000000
Pd       8.25193614       5.50129076      10.00000000
Pd      11.00258152       5.50129076      10.00000000
Pd       0.00000000       8.25193614      10.00000000
Pd       2.75064538       8.25193614      10.00000000
Pd       5.50129076       8.25193614      10.00000000
Pd       8.25193614       8.25193614      10.00000000
Pd      11.00258152       8.25193614      10.00000000
Pd       0.00000000      11.00258152      10.00000000
Pd       2.75064538      11.00258152      10.00000000
Pd       5.50129076      11.00258152      10.00000000
Pd       8.25193614      11.00258152      10.00000000
Pd      11.00258152      11.00258152      10.00000000
Pd       1.33305437       1.38035701      12.05221797
Pd       4.08925664       1.38750338      11.98771029
Pd       6.82888190       1.38154444      11.99332965
Pd       9.57512057       1.39592898      11.89594876
Pd      12.38684272       1.37174114      11.92044161
Pd       1.37065655       4.09970544      12.00656864
Pd       4.10125007       4.12393621      12.00820233
Pd       6.82444734       4.12497179      12.00908219
Pd       9.56728621       4.13975942      11.94281254
Pd      12.36578195       4.13265160      11.93417299
Pd       1.37110082       6.89256210      11.94010419
Pd       4.13935064       6.87026939      11.96482277
Pd       6.87097415       6.85831372      11.95140951
Pd       9.64205429       6.82915781      11.94515418
Pd      12.39111484       6.85622887      11.94896407
Pd       1.35216595       9.69735034      11.99083951
Pd       4.11777592       9.66324146      11.95099537
Pd       6.89476706       9.64088005      11.95142944
Pd       9.64982872       9.59779534      11.89439304
Pd      12.42487279       9.60955999      11.94161946
Pd       1.35802606      12.41462245      12.04582394
Pd       4.10624816      12.40887780      12.00662317
Pd       6.86816975      12.39901143      11.97280504
Pd       9.63028672      12.36702810      11.91406436
Pd      12.41879361      12.34804731      11.97632258
Pd      10.94348156       0.04226009      13.88280641
Pd      13.70638425       0.03048133      13.95739342
Pd       2.76660250      13.62022159      14.02602794
Pd       5.51013517       2.70927223      14.09889881
Pd       8.12860338      13.74707843      13.97993413
Pd       2.74813957       2.75654443      14.01095123
Pd       5.47199297       5.44607973      14.01157873
Pd       8.31786348       2.73522969      13.95935907
Pd      10.98478488       2.78411484      13.94071228
Pd      13.65096086       2.81723811      14.02640591
Pd      13.71799296       5.51784318      14.04789165
Pd       2.66242778       5.48123634      14.03000169
Pd       5.47613058       8.21567970      13.92382071
Pd       8.19068730       5.65132184      14.03971047
Pd      10.99723182       5.50234851      13.98509881
Pd      13.68650498       8.24074424      13.94362479
Pd       2.67321446       8.22774119      14.01466102
Pd       5.59349967      10.99493224      13.98057937
Pd       8.23389444       8.32686597      13.88777861
Pd      10.96855175       8.28084779      13.92668315
Pd       0.08471258      11.00186505      14.08326923
Pd       2.85315714      10.93417278      14.00890319
Pd       5.50270261      13.75034461      14.03626616
Pd       8.32484769      11.00331465      13.92693147
Pd      11.08070604      10.99839116      13.91590652
Pd      12.21671537       7.09617129      15.96264577
Pd       9.52463001       8.31899223      16.26643927
Pd       1.76959099      12.22009714      16.38975879
Pd       0.73508521       8.59055021      16.52629210
Pd      12.24619436      10.02257851      16.32767171
Pd       9.84070144      11.72695364      16.21872320
Pd       4.65105450       1.28658033      16.43668736
Pd       7.02849456       9.79883750      16.13449337
Pd       4.48587454      12.37036796      16.04211830
Pd      12.21825914      12.71001404      16.01474844
Pd      12.32690486       4.17600395      16.54720803
Pd       1.12498559       5.14784113      16.59212167
Pd       9.96741179       1.61948546      16.27899496
Pd       4.32774104       9.71346268      16.38177494
Pd       3.78154461       4.00338733      16.27121366
Pd       6.95363244      13.13993110      16.77329758
Pd       9.62898122       4.97496922      16.47766867
Pd       7.22302153       2.53491609      16.42330620
Pd       1.09613368       1.73267217      16.27247309
Pd       4.00174573       6.67426259      16.12415532
O        9.51936480      13.59887948      15.48899668
O       10.37453467       9.95045174      16.92901430
O        2.79091865       8.26858529      16.15677724
O       10.88941216       0.72585435      17.94780130
O       11.46892247      13.31933886      17.83512496
O        5.70485036       8.32295898      15.95262664
O        2.90555195       1.22556020      15.56830149
O        0.22980488       6.79763954      17.02600741
O        7.87581616      11.42656582      16.76018915
O        3.25069602      11.17318338      17.11479365
O        0.37134863      13.59717630      16.00720209
O       11.31687607       5.77504392      17.22258880
O        8.08933367       4.06417398      15.56463156
O        8.65895553       6.61675975      15.90414921
O        1.99110688       3.41185462      16.84253068
O       13.03961752       2.46108567      15.99678702
O       10.50934481       3.30654694      17.08208572
O        0.47484076      10.50762769      16.10575530
O        6.32444617       1.13215480      17.40724395
O        5.31119197       5.20398454      16.02590962
115
Lattice="13.75323 0.0 0.0 0.0 13.75323 0.0 0.0 0.0 23.89" Properties=species:S:1:pos:R:3 entry_id=22 rank=10 energy=-573.6264038085938 pbc="T T F"
Pd       0.00000000       0.00000000      10.00000000
Pd       2.75064538       0.00000000      10.00000000
Pd       5.50129076       0.00000000      10.00000000
Pd       8.25193614       0.00000000      10.00000000
Pd      11.00258152       0.00000000      10.00000000
Pd       0.00000000       2.75064538      10.00000000
Pd       2.75064538       2.75064538      10.00000000
Pd       5.50129076       2.75064538      10.00000000
Pd       8.25193614       2.75064538      10.00000000
Pd      11.00258152       2.75064538      10.00000000
Pd       0.00000000       5.50129076      10.00000000
Pd       2.75064538       5.50129076      10.00000000
Pd       5.50129076       5.50129076      10.00000000
Pd       8.25193614       5.50129076      10.00000000
Pd      11.00258152       5.50129076      10.00000000
Pd       0.00000000       8.25193614      10.00000000
Pd       2.75064538       8.25193614      10.00000000
Pd       5.50129076       8.25193614      10.00000000
Pd       8.25193614       8.25193614      10.00000000
Pd      11.00258152       8.25193614      10.00000000
Pd       0.00000000      11.00258152      10.00000000
Pd       2.75064538      11.00258152      10.00000000
Pd       5.50129076      11.00258152      10.00000000
Pd       8.25193614      11.00258152      10.00000000
Pd      11.00258152      11.00258152      10.00000000
Pd       1.33305437       1.38035701      12.05221797
Pd       4.08925664       1.38750338      11.98771029
Pd       6.82888190       1.38154444      11.99332965
Pd       9.57512057       1.39592898      11.89594876
Pd      12.38684272       1.37174114      11.92044161
Pd       1.37065655       4.09970544      12.00656864
Pd       4.10125007       4.12393621      12.00820233
Pd       6.82444734       4.12497179      12.00908219
Pd       9.56728621       4.13975942      11.94281254
Pd      12.36578195       4.13265160      11.93417299
Pd       1.37110082       6.89256210      11.94010419
Pd       4.13935064       6.87026939      11.96482277
Pd       6.87097415       6.85831372      11.95140951
Pd       9.64205429       6.82915781      11.94515418
Pd      12.39111484       6.85622887      11.94896407
Pd       1.35216595       9.69735034      11.99083951
Pd       4.11777592       9.66324146      11.95099537
Pd       6.89476706       9.64088005      11.95142944
Pd       9.64982872       9.59779534      11.89439304
Pd      12.42487279       9.60955999      11.94161946
Pd       1.35802606      12.41462245      12.04582394
Pd       4.10624816      12.40887780      12.00662317
Pd       6.86816975      12.39901143      11.97280504
Pd       9.63028672      12.36702810      11.91406436
Pd      12.41879361      12.34804731      11.97632258
Pd      11.01193812      13.74637142      13.91340725
Pd      13.72869986       0.04163223      13.95064692
Pd       2.74187415      13.57277596      14.03348074
Pd       5.48140520      13.70826532      14.07850813
Pd       8.32495030       2.79682742      13.97729067
Pd       2.77956120       2.81934730      14.07798160
Pd       5.54167211       2.68327783      14.07066388
Pd       8.20304637       5.66455532      14.11435667
Pd      10.97503665       2.74828991      13.93630381
Pd      13.63743312       2.84452009      13.94244523
Pd      13.75119239       5.53295882      14.10162739
Pd       2.71325437       5.50169035      14.04658379
Pd       5.46510866       5.45267792      13.95738515
Pd       8.22032365       8.32395599      13.89305295
Pd      10.99164545       5.46098017      13.96511344
Pd      13.68960665       8.31998255      13.96590439
Pd       2.71496648       8.19363138      13.96226016
Pd       5.46387460       8.20639237      13.93714881
Pd       8.32737168      11.04740609      13.92848519
Pd      10.93568532       8.28634323      13.86855431
Pd       0.08718327      11.06542018      14.09563371
Pd       2.79650421      10.88810300      14.02899861
Pd       5.53636014      10.97169892      13.94811789
Pd       8.15794982       0.06572113      13.99140553
Pd      11.10194709      10.98542639      13.95368773
Pd      11.98772959       7.07927095      15.92503952
Pd       9.51456849       8.35029141      16.28346672
Pd       1.53123444      12.13867156      16.34833005
Pd       0.89043090       7.21232404      16.22814608
Pd      12.28748360       9.70776848      16.24603195
Pd       9.94511825      11.83209333      16.31820395
Pd       4.56207288       1.13683091      16.45992046
Pd       6.85154811       9.66744090      16.01839101
Pd       4.33694719      12.17287241      16.03598803
Pd      12.52127675      12.50496445      15.99369862
Pd      12.44470562       4.21626741      16.64505101
Pd       2.22201726       4.04149285      16.64579485
Pd      10.11667121       1.63895467      16.31798255
Pd       3.95458515       9.48186189      16.34852608
Pd       4.93253273       3.90976303      16.55558338
Pd       6.93367794      12.99990428      16.45185831
Pd       9.70881468       4.96067682      16.55872561
Pd       7.26309477       2.41676601      16.45574474
Pd       1.02052018       1.71312826      16.05136363
Pd       4.10800078       6.49997024      16.33194530
O        9.61133689      13.66655562      15.48172641
O       10.43745363       9.99578424      16.91586936
O        2.74804521       7.77842861      16.92892743
O       10.96890816       0.50387526      17.86323022
O       11.26992989      12.98193862      17.64062146
O        5.48809297       8.24752876      16.01177252
O        2.85596406       1.21304612      15.49959111
O        0.60073586       5.15756909      16.26141068
O        7.91375711      11.32604116      15.98102973
O        2.95053582      10.99929189      17.01188266
O        0.31861871      13.61528270      16.70909970
O       11.40359346       5.80465822      17.33640653
O        8.17220421       3.98896753      15.67862530
O        8.70239765       6.59443747      15.98332136
O        3.61165791       2.82624865      17.43915756
O       13.02357725       2.49868834      15.91244924
O       10.69013628       3.32763132      17.13747488
O        0.40506806       9.14952549      15.87181555
O        6.32174636       0.91066329      17.29461369
O        5.77845258       5.51722865      15.92491293
115
Lattice="13.75323 0.0 0.0 0.0 13.75323 0.0 0.0 0.0 23.89" Properties=species:S:1:pos:R:3 entry_id=16 rank=11 energy=-573.59326171875 pbc="T T F"
Pd       0.00000000       0.00000000      10.00000000
Pd       2.75064538       0.00000000      10.00000000
Pd       5.50129076       0.00000000      10.00000000
Pd       8.25193614       0.00000000      10.00000000
Pd      11.00258152       0.00000000      10.00000000
Pd       0.00000000       2.75064538      10.00000000
Pd       2.75064538       2.75064538      10.00000000
Pd       5.50129076       2.75064538      10.00000000
Pd       8.25193614       2.75064538      10.00000000
Pd      11.00258152       2.75064538      10.00000000
Pd       0.00000000       5.50129076      10.00000000
Pd       2.75064538       5.50129076      10.00000000
Pd       5.50129076       5.50129076      10.00000000
Pd       8.25193614       5.50129076      10.00000000
Pd      11.00258152       5.50129076      10.00000000
Pd       0.00000000       8.25193614      10.00000000
Pd       2.75064538       8.25193614      10.00000000
Pd       5.50129076       8.25193614      10.00000000
Pd       8.25193614       8.25193614      10.00000000
Pd      11.00258152       8.25193614      10.00000000
Pd       0.00000000      11.00258152      10.00000000
Pd       2.75064538      11.00258152      10.00000000
Pd       5.50129076      11.00258152      10.00000000
Pd       8.25193614      11.00258152      10.00000000
Pd      11.00258152      11.00258152      10.00000000
Pd       1.33305437       1.38035701      12.05221797
Pd       4.08925664       1.38750338      11.98771029
Pd       6.82888190       1.38154444      11.99332965
Pd       9.57512057       1.39592898      11.89594876
Pd      12.38684272       1.37174114      11.92044161
Pd       1.37065655       4.09970544      12.00656864
Pd       4.10125007       4.12393621      12.00820233
Pd       6.82444734       4.12497179      12.00908219
Pd       9.56728621       4.13975942      11.94281254
Pd      12.36578195       4.13265160      11.93417299
Pd       1.37110082       6.89256210      11.94010419
Pd       4.13935064       6.87026939      11.96482277
Pd       6.87097415       6.85831372      11.95140951
Pd       9.64205429       6.82915781      11.94515418
Pd      12.39111484       6.85622887      11.94896407
Pd       1.35216595       9.69735034      11.99083951
Pd       4.11777592       9.66324146      11.95099537
Pd       6.89476706       9.64088005      11.95142944
Pd       9.64982872       9.59779534      11.89439304
Pd      12.42487279       9.60955999      11.94161946
Pd       1.35802606      12.41462245      12.04582394
Pd       4.10624816      12.40887780      12.00662317
Pd       6.86816975      12.39901143      11.97280504
Pd       9.63028672      12.36702810      11.91406436
Pd      12.41879361      12.34804731      11.97632258
Pd      11.00635711      13.74487724      13.90148115
Pd      13.72719165       0.01571207      13.95164633
Pd       2.74544566      13.71261960      14.06150654
Pd       5.46190917      13.70446420      14.07268481
Pd       8.33695069       2.78200066      13.96771148
Pd       2.74803078       2.74122270      14.08969762
Pd       5.50178163       2.65192141      14.06243555
Pd       8.21083403       5.66317796      14.11895388
Pd      11.00552648       2.74150226      13.94470782
Pd      13.69878575       2.83830698      13.92921910
Pd      13.73270932       5.53640933      14.08317589
Pd       2.70427682       5.43485188      14.01978930
Pd       5.49719256       5.42093857      13.94860532
Pd       8.21512449       8.31992113      13.88980023
Pd      10.98214536       5.45412721      13.96293975
Pd      13.65557411       8.32459370      13.95292333
Pd       2.67932628       8.19675462      14.01645812
Pd       5.46776414       8.19079578      13.93846995
Pd       8.33838209      11.03967973      13.92138288
Pd      10.92025495       8.28449980      13.88407993
Pd       0.11477393      11.04960882      14.12491351
Pd       2.80987758      10.95171340      14.02554034
Pd       5.55202367      10.95961279      13.92420551
Pd       8.14300841       0.05609380      13.97383265
Pd      11.11407026      10.98219875      13.95835295
Pd      11.81323395       7.06255170      15.98987432
Pd       9.39883214       8.33856819      16.32655915
Pd       1.47454061      12.12887617      16.53172149
Pd       0.65197032       7.20366076      16.26064688
Pd      12.14426577       9.68526620      16.29517693
Pd       9.87398218      11.82245270      16.32746978
Pd       4.39072960       0.99415387      16.55524534
Pd       6.84799049       9.67207345      16.02505463
Pd       4.41259673      12.12214492      16.02733875
Pd      12.45150599      12.45587331      15.95626461
Pd      12.39694189       4.19618968      16.63594387
Pd       2.09645279       3.95370130      16.56066394
Pd      10.07763633       1.61842668      16.29966894
Pd       4.02986811       9.51869300      16.34225351
Pd       4.81278652       3.84160602      16.49744609
Pd       6.91714743      13.04834802      16.43460976
Pd       9.66058777       4.93690425      16.58132079
Pd       7.18629064       2.44376030      16.40582942
Pd       0.92583721       1.55553688      16.09101719
Pd       4.13239530       6.46225210      16.12893997
O        9.59140286      13.64985161      15.45605712
O       10.30653519       9.98706502      16.97068341
O        2.67692445       7.80045731      16.16685467
O       10.90594020       0.46829971      17.84963123
O       11.19870788      12.94460388      17.62530177
O        5.51705290       8.22327949      16.02964058
O        2.55888811       0.46539758      16.07032344
O        0.50564860       5.14857970      16.23765760
O        7.86721446      11.35660892      15.96382260
O        2.98627911      11.00972302      17.00690278
O        0.13805578      13.51674430      16.84132646
O       11.35291652       5.75106346      17.40389313
O        8.14545831       3.98718406      15.64958749
O        8.62819520       6.56855816      16.01640660
O        3.47533684       2.74466117      17.35026673
O       13.01588104       2.51483183      15.82845053
O       10.65264522       3.29704017      17.12680299
O        0.24604898       9.15165239      15.90128660
O        6.24300620       0.95574639      17.22661890
O        5.77877344       5.41446130      15.94682913
115
Lattice="13.75323 0.0 0.0 0.0 13.75323 0.0 0.0 0.0 23.89" Properties=species:S:1:pos:R:3 entry_id=18 rank=12 energy=-573.5625 pbc="T T F"
Pd       0.00000000       0.00000000      10.00000000
Pd       2.75064538       0.00000000      10.00000000
Pd       5.50129076       0.00000000      10.00000000
Pd       8.25193614       0.00000000      10.00000000
Pd      11.00258152       0.00000000      10.00000000
Pd       0.00000000       2.75064538      10.00000000
Pd       2.75064538       2.75064538      10.00000000
Pd       5.50129076       2.75064538      10.00000000
Pd       8.25193614       2.75064538      10.00000000
Pd      11.00258152       2.75064538      10.00000000
Pd       0.00000000       5.50129076      10.00000000
Pd       2.75064538       5.50129076      10.00000000
Pd       5.50129076       5.50129076      10.00000000
Pd       8.25193614       5.50129076      10.00000000
Pd      11.00258152       5.50129076      10.00000000
Pd       0.00000000       8.25193614      10.00000000
Pd       2.75064538       8.25193614      10.00000000
Pd       5.50129076       8.25193614      10.00000000
Pd       8.25193614       8.25193614      10.00000000
Pd      11.00258152       8.25193614      10.00000000
Pd       0.00000000      11.00258152      10.00000000
Pd       2.75064538      11.00258152      10.00000000
Pd       5.50129076      11.00258152      10.00000000
Pd       8.25193614      11.00258152      10.00000000
Pd      11.00258152      11.00258152      10.00000000
Pd       1.33305437       1.38035701      12.05221797
Pd       4.08925664       1.38750338      11.98771029
Pd       6.82888190       1.38154444      11.99332965
Pd       9.57512057       1.39592898      11.89594876
Pd      12.38684272       1.37174114      11.92044161
Pd       1.37065655       4.09970544      12.00656864
Pd       4.10125007       4.12393621      12.00820233
Pd       6.82444734       4.12497179      12.00908219
Pd       9.56728621       4.13975942      11.94281254
Pd      12.36578195       4.13265160      11.93417299
Pd       1.37110082       6.89256210      11.94010419
Pd       4.13935064       6.87026939      11.96482277
Pd       6.87097415       6.85831372      11.95140951
Pd       9.64205429       6.82915781      11.94515418
Pd      12.39111484       6.85622887      11.94896407
Pd       1.35216595       9.69735034      11.99083951
Pd       4.11777592       9.66324146      11.95099537
Pd       6.89476706       9.64088005      11.95142944
Pd       9.64982872       9.59779534      11.89439304
Pd      12.42487279       9.60955999      11.94161946
Pd       1.35802606      12.41462245      12.04582394
Pd       4.10624816      12.40887780      12.00662317
Pd       6.86816975      12.39901143      11.97280504
Pd       9.63028672      12.36702810      11.91406436
Pd      12.41879361      12.34804731      11.97632258
Pd      11.02361111      13.74006171      13.91227341
Pd      13.73542599       0.02726453      13.96660504
Pd       2.74659838      13.60424854      14.02671484
Pd       5.49366679      13.73247485      14.05660285
Pd       8.31634714       2.79184616      13.97908945
Pd       2.76347769       2.80142656      14.08767297
Pd       5.52832271       2.68008884      14.07629903
Pd       8.22942679       5.65774705      14.11936966
Pd      10.96944937       2.73879596      13.94616420
Pd      13.63720281       2.83656238      13.94038351
Pd      13.74619673       5.52635157      14.09424620
Pd       2.71538447       5.45382486      14.01207060
Pd       5.50582688       5.42381781      13.94525521
Pd       8.23253768       8.31566055      13.88470623
Pd      10.99419069       5.44989914      13.96754209
Pd      13.66972574       8.32009199      13.95122797
Pd       2.69411782       8.15514548      14.00450146
Pd       5.49651030       8.18669575      13.96223760
Pd       8.33423005      11.04237303      13.91528011
Pd      10.93345098       8.28396216      13.88248829
Pd       0.05119170      11.06303730      14.11279885
Pd       2.77197408      10.88794098      13.99758858
Pd       5.55198612      10.97096315      13.95568344
Pd       8.16458363       0.06290195      13.99048252
Pd      11.09533984      10.98611416      13.96028491
Pd      11.84723850       7.06481853      15.98528387
Pd       9.43663560       8.33622165      16.32370691
Pd       1.44433146      12.28622877      16.34561112
Pd       0.68355918       7.20064978      16.26127256
Pd      12.17157916       9.70376875      16.27446354
Pd       9.92957784      11.83489544      16.33040579
Pd       4.51865353       1.15476599      16.48910417
Pd       6.94587466       9.67744515      16.04391302
Pd       4.36800744      12.25657015      16.03264180
Pd      12.50132961      12.54878900      16.04028591
Pd      12.39976355       4.19646385      16.67259075
Pd       2.16918524       4.05246747      16.62778679
Pd      10.10117616       1.62619410      16.33320084
Pd       4.15976874       9.50606720      16.16087167
Pd       4.91097383       3.91037268      16.56081873
Pd       6.92092709      13.03212991      16.46573660
Pd       9.67458194       4.93407676      16.59760547
Pd       7.23425126       2.39487389      16.47153311
Pd       0.96207257       1.69839623      16.06861799
Pd       4.17492558       6.48615230      16.12101456
O        9.62616639      13.66094018      15.47126819
O       10.34023520       9.99257033      16.96445818
O        2.70731388       7.80358407      16.16488289
O       10.88257475       0.49072005      17.91033501
O       11.22018701      12.97914663      17.68074571
O        5.65148884       8.21661178      16.11356262
O        2.81501253       1.22114267      15.52648638
O        0.52639431       5.15447880      16.26359578
O        7.92163771      11.37912712      15.96153850
O        2.77760259      10.89281726      16.12152386
O        0.24519705      13.68193483      16.89925649
O       11.36238872       5.77138996      17.40936115
O        8.16489269       3.94793954      15.69237467
O        8.66303721       6.56276404      16.00815487
O        3.56234852       2.86378664      17.44014581
O       12.96617477       2.48832387      15.89539027
O       10.65875223       3.30322557      17.18111851
O        0.26473356       9.13943534      15.88819580
O        6.27113703       0.91311485      17.33380847
O        5.84837642       5.46653472      15.93187167
115
Lattice="13.75323 0.0 0.0 0.0 13.75323 0.0 0.0 0.0 23.89" Properties=species:S:1:pos:R:3 entry_id=17 rank=13 energy=-573.5571899414062 pbc="T T F"
Pd       0.00000000       0.00000000      10.00000000
Pd       2.75064538       0.00000000      10.00000000
Pd       5.50129076       0.00000000      10.00000000
Pd       8.25193614       0.00000000      10.00000000
Pd      11.00258152       0.00000000      10.00000000
Pd       0.00000000       2.75064538      10.00000000
Pd       2.75064538       2.75064538      10.00000000
Pd       5.50129076       2.75064538      10.00000000
Pd       8.25193614       2.75064538      10.00000000
Pd      11.00258152       2.75064538      10.00000000
Pd       0.00000000       5.50129076      10.00000000
Pd       2.75064538       5.50129076      10.00000000
Pd       5.50129076       5.50129076      10.00000000
Pd       8.25193614       5.50129076      10.00000000
Pd      11.00258152       5.50129076      10.00000000
Pd       0.00000000       8.25193614      10.00000000
Pd       2.75064538       8.25193614      10.00000000
Pd       5.50129076       8.25193614      10.00000000
Pd       8.25193614       8.25193614      10.00000000
Pd      11.00258152       8.25193614      10.00000000
Pd       0.00000000      11.00258152      10.00000000
Pd       2.75064538      11.00258152      10.00000000
Pd       5.50129076      11.00258152      10.00000000
Pd       8.25193614      11.00258152      10.00000000
Pd      11.00258152      11.00258152      10.00000000
Pd       1.33305437       1.38035701      12.05221797
Pd       4.08925664       1.38750338      11.98771029
Pd       6.82888190       1.38154444      11.99332965
Pd       9.57512057       1.39592898      11.89594876
Pd      12.38684272       1.37174114      11.92044161
Pd       1.37065655       4.09970544      12.00656864
Pd       4.10125007       4.12393621      12.00820233
Pd       6.82444734       4.12497179      12.00908219
Pd       9.56728621       4.13975942      11.94281254
Pd      12.36578195       4.13265160      11.93417299
Pd       1.37110082       6.89256210      11.94010419
Pd       4.13935064       6.87026939      11.96482277
Pd       6.87097415       6.85831372      11.95140951
Pd       9.64205429       6.82915781      11.94515418
Pd      12.39111484       6.85622887      11.94896407
Pd       1.35216595       9.69735034      11.99083951
Pd       4.11777592       9.66324146      11.95099537
Pd       6.89476706       9.64088005      11.95142944
Pd       9.64982872       9.59779534      11.89439304
Pd      12.42487279       9.60955999      11.94161946
Pd       1.35802606      12.41462245      12.04582394
Pd       4.10624816      12.40887780      12.00662317
Pd       6.86816975      12.39901143      11.97280504
Pd       9.63028672      12.36702810      11.91406436
Pd      12.41879361      12.34804731      11.97632258
Pd      11.01187493      13.74580825      13.90997562
Pd      13.72342089       0.02941002      13.96528115
Pd       2.72876583      13.59924897      14.02970915
Pd       5.47479060      13.73740815      14.06022418
Pd       8.31845678       2.78623893      13.98178072
Pd       2.75286572       2.78954052      14.09703831
Pd       5.51764146       2.68356825      14.07403270
Pd       8.21689976       5.65306825      14.10606491
Pd      10.97757612       2.74252402      13.95343594
Pd      13.64753505       2.85138626      13.93074878
Pd      13.73557693       5.53642908      14.09619563
Pd       2.70355018       5.44237493      14.01080316
Pd       5.49521547       5.42886139      13.95328075
Pd       8.22377726       8.31328601      13.87886557
Pd      10.98430770       5.45740881      13.97288983
Pd      13.66250457       8.32451140      13.95046276
Pd       2.67900556       8.14875673      14.00595087
Pd       5.48219750       8.19001181      13.96090655
Pd       8.33054584      11.03912489      13.91371447
Pd      10.92841613       8.28579292      13.88901296
Pd       0.04533599      11.06328828      14.10838221
Pd       2.76790331      10.88242249      14.00183370
Pd       5.54706438      10.97407339      13.95038977
Pd       8.14907197       0.05824395      13.97942723
Pd      11.08891033      10.99067432      13.96047573
Pd      11.79075075       7.06864579      16.01438432
Pd       9.38906178       8.33826586      16.32734351
Pd       1.41737725      12.27304907      16.34541163
Pd       0.62757265       7.20796368      16.27352087
Pd      12.12560380       9.70179313      16.28269466
Pd       9.89156509      11.83741191      16.33047933
Pd       4.46037361       1.14816330      16.48584914
Pd       6.91399444       9.67408115      16.03996223
Pd       4.34591355      12.24564405      16.02519627
Pd      12.47245470      12.52879325      16.02591554
Pd      12.32918679       4.20319888      16.67140528
Pd       2.09561179       4.04914653      16.63224357
Pd      10.04624128       1.62916970      16.32908131
Pd       4.13193602       9.49131025      16.16542149
Pd       4.83192006       3.89779879      16.56435070
Pd       6.89149180      13.02937606      16.45506657
Pd       9.60671736       4.93890332      16.59868653
Pd       7.17391578       2.39784004      16.45170933
Pd       0.89395642       1.70130448      16.07100881
Pd       4.12023761       6.48188175      16.12634395
O        9.60040370      13.66181834      15.46081969
O       10.29451530       9.99384755      16.97026081
O        2.65501393       7.80024750      16.16336036
O       10.86007158       0.48810465      17.89223782
O       11.18958982      12.97280434      17.66214070
O        5.62753660       8.20532992      16.10537642
O        2.74715374       1.20586074      15.53936145
O        0.45975471       5.16040196      16.26059120
O        7.88966837      11.37579765      15.95317252
O        2.75779765      10.88512034      16.13381238
O        0.20810371      13.66747112      16.88479801
O       11.28922888       5.77022505      17.42547447
O        8.10635396       3.95415602      15.68009869
O        8.60279538       6.57119105      16.00165491
O        3.48077333       2.85350849      17.44646114
O       12.90014042       2.50463435      15.87055992
O       10.58870884       3.30684747      17.18309441
O        0.21907917       9.14614260      15.89146372
O        6.22174108       0.90810509      17.31044740
O        5.78255670       5.45001934      15.94764973
115
Lattice="13.75323 0.0 0.0 0.0 13.75323 0.0 0.0 0.0 23.89" Properties=species:S:1:pos:R:3 entry_id=23 rank=14 energy=-573.5514526367188 pbc="T T F"
Pd       0.00000000       0.00000000      10.00000000
Pd       2.75064538       0.00000000      10.00000000
Pd       5.50129076       0.00000000      10.00000000
Pd       8.25193614       0.00000000      10.00000000
Pd      11.00258152       0.00000000      10.00000000
Pd       0.00000000       2.75064538      10.00000000
Pd       2.75064538       2.75064538      10.00000000
Pd       5.50129076       2.75064538      10.00000000
Pd       8.25193614       2.75064538      10.00000000
Pd      11.00258152       2.75064538      10.00000000
Pd       0.00000000       5.50129076      10.00000000
Pd       2.75064538       5.50129076      10.00000000
Pd       5.50129076       5.50129076      10.00000000
Pd       8.25193614       5.50129076      10.00000000
Pd      11.00258152       5.50129076      10.00000000
Pd       0.00000000       8.25193614      10.00000000
Pd       2.75064538       8.25193614      10.00000000
Pd       5.50129076       8.25193614      10.00000000
Pd       8.25193614       8.25193614      10.00000000
Pd      11.00258152       8.25193614      10.00000000
Pd       0.00000000      11.00258152      10.00000000
Pd       2.75064538      11.00258152      10.00000000
Pd       5.50129076      11.00258152      10.00000000
Pd       8.25193614      11.00258152      10.00000000
Pd      11.00258152      11.00258152      10.00000000
Pd       1.33305437       1.38035701      12.05221797
Pd       4.08925664       1.38750338      11.98771029
Pd       6.82888190       1.38154444      11.99332965
Pd       9.57512057       1.39592898      11.89594876
Pd      12.38684272       1.37174114      11.92044161
Pd       1.37065655       4.09970544      12.00656864
Pd       4.10125007       4.12393621      12.00820233
Pd       6.82444734       4.12497179      12.00908219
Pd       9.56728621       4.13975942      11.94281254
Pd      12.36578195       4.13265160      11.93417299
Pd       1.37110082       6.89256210      11.94010419
Pd       4.13935064       6.87026939      11.96482277
Pd       6.87097415       6.85831372      11.95140951
Pd       9.64205429       6.82915781      11.94515418
Pd      12.39111484       6.85622887      11.94896407
Pd       1.35216595       9.69735034      11.99083951
Pd       4.11777592       9.66324146      11.95099537
Pd       6.89476706       9.64088005      11.95142944
Pd       9.64982872       9.59779534      11.89439304
Pd      12.42487279       9.60955999      11.94161946
Pd       1.35802606      12.41462245      12.04582394
Pd       4.10624816      12.40887780      12.00662317
Pd       6.86816975      12.39901143      11.97280504
Pd       9.63028672      12.36702810      11.91406436
Pd      12.41879361      12.34804731      11.97632258
Pd      10.99219779      13.72366676      13.90511694
Pd      13.71065493       0.08428012      13.98336871
Pd       2.77580666       0.07043116      14.09148958
Pd       5.47652488      13.66013842      14.06131748
Pd       8.33074912       2.77571448      13.94577057
Pd       2.73046399       2.81629588      14.04814314
Pd       5.48718885       2.61588009      14.09963534
Pd       8.24420587       5.66964546      14.10611444
Pd      11.01022105       2.72180713      13.93740794
Pd      13.67156712       2.85524057      14.10833933
Pd      13.73934312       5.55627134      14.03857178
Pd       2.77668570       5.55217807      13.86447040
Pd       5.56439897       5.40206112      13.99112260
Pd       8.17302068       8.32426150      13.91423420
Pd      11.00074507       5.42331778      13.95684070
Pd      13.65998992       8.26509892      13.97414021
Pd       2.66808704       8.24973826      14.00629332
Pd       5.44179690       8.19102467      13.97157725
Pd       8.31411418      11.02521324      13.89615690
Pd      10.90539078       8.24905231      13.90416818
Pd       0.02831994      11.01360720      14.04413560
Pd       2.81102033      10.98909508      13.99955253
Pd       5.57282209      10.90453352      13.94261784
Pd       8.14142817       0.04425566      13.98108750
Pd      11.04807203      10.94422098      13.93164767
Pd      11.74223924       6.97029021      16.02286899
Pd       9.34173502       8.26499757      16.35862874
Pd       1.40282124      12.27182251      16.09870082
Pd       0.53943607       7.22221455      16.47457840
Pd      12.06115955       9.60913172      16.28426051
Pd       9.80362662      11.75895265      16.35075163
Pd       4.66741722       0.87358049      16.58508123
Pd       6.75604343       9.40862456      16.20156965
Pd       4.55401891      11.99542032      16.13078692
Pd      12.36573699      12.29120695      15.96427536
Pd      12.42426593       4.26669284      16.93091876
Pd       1.69033509       4.61125961      15.98344997
Pd      10.09592193       1.58209250      16.27287930
Pd       4.04150375       9.38452393      16.42568226
Pd       4.21490113       3.67019898      16.36405089
Pd       7.01768380      12.83572973      16.43879148
Pd       9.60084984       4.88301363      16.57611227
Pd       7.22946608       2.35344033      16.37116593
Pd       1.24308419       1.68920620      16.43692235
Pd       4.12190710       6.47541694      16.07526270
O        9.57413544      13.60422828      15.46969909
O       10.24188182       9.92168495      16.99125242
O        2.64045925       7.82007736      16.11964590
O       11.00026258       0.45406031      17.79293256
O       11.21547838      12.90507955      17.60429205
O        5.44593460       8.07614117      16.83072022
O        2.79121793       0.45267429      16.20424075
O        0.35468296       5.39445937      17.25157258
O        7.81648372      11.08595739      15.90550600
O        2.78533859      10.88238532      16.12359516
O        0.12375108       0.01067484      16.05765021
O       11.19165179       5.74725494      17.50628426
O        8.09017696       3.95425652      15.62671127
O        8.56098109       6.50784730      16.03581653
O        2.46768882       3.10542971      17.12943731
O       13.31176844       2.69165981      16.13294349
O       10.64817568       3.27111075      17.07540426
O        0.16436220       9.10352088      15.85228381
O        6.49103052       0.79195975      17.25059142
O        5.52082379       5.10542582      15.99041970
115
Lattice="13.75323 0.0 0.0 0.0 13.75323 0.0 0.0 0.0 23.89" Properties=species:S:1:pos:R:3 entry_id=33 rank=15 energy=-573.5458984375 pbc="T T F"
Pd       0.00000000       0.00000000      10.00000000
Pd       2.75064538       0.00000000      10.00000000
Pd       5.50129076       0.00000000      10.00000000
Pd       8.25193614       0.00000000      10.00000000
Pd      11.00258152       0.00000000      10.00000000
Pd       0.00000000       2.75064538      10.00000000
Pd       2.75064538       2.75064538      10.00000000
Pd       5.50129076       2.75064538      10.00000000
Pd       8.25193614       2.75064538      10.00000000
Pd      11.00258152       2.75064538      10.00000000
Pd       0.00000000       5.50129076      10.00000000
Pd       2.75064538       5.50129076      10.00000000
Pd       5.50129076       5.50129076      10.00000000
Pd       8.25193614       5.50129076      10.00000000
Pd      11.00258152       5.50129076      10.00000000
Pd       0.00000000       8.25193614      10.00000000
Pd       2.75064538       8.25193614      10.00000000
Pd       5.50129076       8.25193614      10.00000000
Pd       8.25193614       8.25193614      10.00000000
Pd      11.00258152       8.25193614      10.00000000
Pd       0.00000000      11.00258152      10.00000000
Pd       2.75064538      11.00258152      10.00000000
Pd       5.50129076      11.00258152      10.00000000
Pd       8.25193614      11.00258152      10.00000000
Pd      11.00258152      11.00258152      10.00000000
Pd       1.33305437       1.38035701      12.05221797
Pd       4.08925664       1.38750338      11.98771029
Pd       6.82888190       1.38154444      11.99332965
Pd       9.57512057       1.39592898      11.89594876
Pd      12.38684272       1.37174114      11.92044161
Pd       1.37065655       4.09970544      12.00656864
Pd       4.10125007       4.12393621      12.00820233
Pd       6.82444734       4.12497179      12.00908219
Pd       9.56728621       4.13975942      11.94281254
Pd      12.36578195       4.13265160      11.93417299
Pd       1.37110082       6.89256210      11.94010419
Pd       4.13935064       6.87026939      11.96482277
Pd       6.87097415       6.85831372      11.95140951
Pd       9.64205429       6.82915781      11.94515418
Pd      12.39111484       6.85622887      11.94896407
Pd       1.35216595       9.69735034      11.99083951
Pd       4.11777592       9.66324146      11.95099537
Pd       6.89476706       9.64088005      11.95142944
Pd       9.64982872       9.59779534      11.89439304
Pd      12.42487279       9.60955999      11.94161946
Pd       1.35802606      12.41462245      12.04582394
Pd       4.10624816      12.40887780      12.00662317
Pd       6.86816975      12.39901143      11.97280504
Pd       9.63028672      12.36702810      11.91406436
Pd      12.41879361      12.34804731      11.97632258
Pd      11.10673502       0.01491971      13.87718855
Pd       0.07652296       0.03462516      13.99713348
Pd       2.83186086      13.63995959      14.05089124
Pd       5.47859450       2.71933079      14.08860017
Pd       8.20215432       0.07346616      13.95702317
Pd       2.71896928       2.77584051      14.00627344
Pd       5.47011889       5.44916178      14.01326303
Pd       8.27741213       2.80246705      13.96389709
Pd      10.94078613       2.74518874      13.98864327
Pd      13.60572490       2.79923837      14.02093373
Pd      13.71561114       5.48693408      14.02380677
Pd       2.65988465       5.49970207      14.03151932
Pd       5.49094157       8.22043418      13.97260602
Pd       8.18994660       5.71343333      14.05902172
Pd      10.98429204       5.46280932      13.98950842
Pd      13.67053123       8.19906726      13.93875951
Pd       2.70121262       8.21854382      14.00101629
Pd       5.53814247      11.00095087      13.95756200
Pd       8.23691446       8.37589036      13.90347795
Pd      10.93979114       8.23199165      13.91161180
Pd      13.72411675      10.95843260      14.02848111
Pd       2.84564923      10.92001305      14.06716174
Pd       5.55567015       0.01605018      14.03764908
Pd       8.26641644      11.10057606      13.97251219
Pd      10.99089746      10.98480552      13.87247083
Pd      12.23611173       6.99303982      15.93349689
Pd       9.53211085       8.39190465      16.31600036
Pd       1.88670552      12.37532136      16.65051769
Pd       0.86301284       8.86691526      16.34347329
Pd      12.15065365       9.73106470      15.97665171
Pd      10.03764723      11.80883492      16.27331061
Pd       4.59983392       1.35577690      16.44164353
Pd       7.00337947       9.81771951      16.07271455
Pd       4.59442330      12.43714759      16.06671340
Pd      12.48198225      12.44109618      15.93642879
Pd      12.24908017       4.18191829      16.59916744
Pd       1.01310441       5.35717637      16.60460779
Pd       9.87820064       1.61955434      16.29409764
Pd       4.36130577       9.81335442      16.55170150
Pd       3.66581546       4.07903920      16.28231692
Pd       7.07236210      13.28351048      16.66190762
Pd       9.59017467       5.00443698      16.51868999
Pd       7.13266089       2.64365467      16.42082108
Pd       1.03117142       1.81407854      16.28942647
Pd       4.03557373       6.71309288      16.11672128
O        9.71894365      13.62533775      15.35416027
O       10.43136621      10.00323169      17.00865868
O        2.89372868       8.34177705      16.15280223
O        8.90509213       0.22430355      17.80774708
O        9.72691666      12.96668049      18.05148157
O        5.65918703       8.36682716      16.04729187
O        2.84938027       1.30202504      15.57890284
O        0.23407528       7.12058947      16.98721474
O        7.93507898      11.55212667      16.10680115
O        3.43074819      11.36816661      17.32324822
O        0.41312975      13.61225860      16.11249087
O       11.28108629       5.78377290      17.28266803
O        8.04067163       4.15132175      15.56884452
O        8.67548584       6.68186599      15.93621423
O        1.83735838       3.57661711      16.79748618
O       12.95677095       2.48425895      16.00235878
O       10.39362471       3.29034650      17.15760307
O        1.33134938      10.65897180      15.57283949
O        6.29184162       1.18997747      17.38840143
O        5.26991767       5.18160457      16.02776096
115
Lattice="13.75323 0.0 0.0 0.0 13.75323 0.0 0.0 0.0 23.89" Properties=species:S:1:pos:R:3 entry_id=13 rank=16 energy=-573.3668823242188 pbc="T T F"
Pd       0.00000000       0.00000000      10.00000000
Pd       2.75064538       0.00000000      10.00000000
Pd       5.50129076       0.00000000      10.00000000
Pd       8.25193614       0.00000000      10.00000000
Pd      11.00258152       0.00000000      10.00000000
Pd       0.00000000       2.75064538      10.00000000
Pd       2.75064538       2.75064538      10.00000000
Pd       5.50129076       2.75064538      10.00000000
Pd       8.25193614       2.75064538      10.00000000
Pd      11.00258152       2.75064538      10.00000000
Pd       0.00000000       5.50129076      10.00000000
Pd       2.75064538       5.50129076      10.00000000
Pd       5.50129076       5.50129076      10.00000000
Pd       8.25193614       5.50129076      10.00000000
Pd      11.00258152       5.50129076      10.00000000
Pd       0.00000000       8.25193614      10.00000000
Pd       2.75064538       8.25193614      10.00000000
Pd       5.50129076       8.25193614      10.00000000
Pd       8.25193614       8.25193614      10.00000000
Pd      11.00258152       8.25193614      10.00000000
Pd       0.00000000      11.00258152      10.00000000
Pd       2.75064538      11.00258152      10.00000000
Pd       5.50129076      11.00258152      10.00000000
Pd       8.25193614      11.00258152      10.00000000
Pd      11.00258152      11.00258152      10.00000000
Pd       1.33305437       1.38035701      12.05221797
Pd       4.08925664       1.38750338      11.98771029
Pd       6.82888190       1.38154444      11.99332965
Pd       9.57512057       1.39592898      11.89594876
Pd      12.38684272       1.37174114      11.92044161
Pd       1.37065655       4.09970544      12.00656864
Pd       4.10125007       4.12393621      12.00820233
Pd       6.82444734       4.12497179      12.00908219
Pd       9.56728621       4.13975942      11.94281254
Pd      12.36578195       4.13265160      11.93417299
Pd       1.37110082       6.89256210      11.94010419
Pd       4.13935064       6.87026939      11.96482277
Pd       6.87097415       6.85831372      11.95140951
Pd       9.64205429       6.82915781      11.94515418
Pd      12.39111484       6.85622887      11.94896407
Pd       1.35216595       9.69735034      11.99083951
Pd       4.11777592       9.66324146      11.95099537
Pd       6.89476706       9.64088005      11.95142944
Pd       9.64982872       9.59779534      11.89439304
Pd      12.42487279       9.60955999      11.94161946
Pd       1.35802606      12.41462245      12.04582394
Pd       4.10624816      12.40887780      12.00662317
Pd       6.86816975      12.39901143      11.97280504
Pd       9.63028672      12.36702810      11.91406436
Pd      12.41879361      12.34804731      11.97632258
Pd      10.95635887      13.70359033      13.90979406
Pd      13.70417430       0.03523726      13.97274420
Pd       2.76930012      13.57769033      14.01967442
Pd       5.51582459      13.70150236      14.10484559
Pd       8.20130237       0.12074654      14.10572027
Pd       2.73979143       2.85441035      14.05683563
Pd       5.49869012       2.67482997      14.06517575
Pd       8.26919170       2.82908658      13.96083604
Pd      10.92672984       2.73303285      13.89126749
Pd      13.58825283       2.82021491      13.98369720
Pd      13.75105923       5.49666823      14.11369603
Pd       2.71842755       5.52268744      14.03915600
Pd       5.48148740       5.44569605      13.96052359
Pd       8.22716445       5.67324709      14.09829929
Pd      10.99011608       5.43033832      13.95683649
Pd      13.67154680       8.27647926      13.96012459
Pd       2.70174142       8.20181136      13.96675958
Pd       5.45376649       8.20258451      13.93701188
Pd       8.21273917       8.34423208      13.88897060
Pd      10.92333020       8.25829299      13.87546929
Pd       0.08132634      11.01113396      14.05254574
Pd       2.80998261      10.88805668      14.01344205
Pd       5.53952817      10.97131788      13.94990246
Pd       8.31850158      11.09339264      13.92877759
Pd      11.06853673      10.94761486      13.94289301
Pd      11.94003330       7.00058116      15.92691609
Pd       9.44230940       8.23351235      16.28527787
Pd       1.58088779      12.08184857      16.27566036
Pd       0.84057827       7.20389259      16.24428335
Pd      12.20149600       9.60950488      16.25271065
Pd       9.91515881      11.80837673      16.38192028
Pd       4.46996249       1.10873213      16.45900268
Pd       6.85092777       9.64765725      16.01580254
Pd       4.33781676      12.14304741      16.05428591
Pd      12.45662596      12.28078782      15.95752832
Pd      12.42700547       4.24905311      16.76600388
Pd       2.19346003       4.06319557      16.68746493
Pd      11.09655251       1.40188113      16.18654287
Pd       3.94676214       9.45789566      16.35755751
Pd       4.89844907       3.89362593      16.56459160
Pd       6.91854118      12.95725665      16.49502869
Pd       9.66658780       4.81241146      16.56997164
Pd       7.11550753       2.28102702      16.45881060
Pd       1.02964983       1.79061148      16.12523467
Pd       4.09288797       6.48006124      16.32961503
O        9.66378919      13.72793110      15.67582616
O       10.35178892       9.90735110      16.89493759
O        2.72289226       7.75488851      16.90925054
O       11.30745345       0.27779838      17.95413779
O       11.42850933      12.72207911      17.72706308
O        5.48309611       8.23337452      16.00845739
O        2.80435922       1.26922012      15.44785182
O        0.56463549       5.15935562      16.31196589
O        7.92058857      11.30989757      15.98236377
O        2.93735238      10.95980259      17.05139935
O        0.32399342      13.55317577      16.03960737
O       11.28708840       5.79585011      17.37000456
O        8.16557737       3.76205590      15.75472472
O        8.66232818       6.44834591      15.99477929
O        3.57301338       2.82168707      17.45661936
O       12.94939661       2.42824971      16.19415736
O       10.75390565       3.25178313      17.18530272
O        0.33599452       9.12335348      15.87136144
O        6.18424232       0.80759767      17.35844868
O        5.76596260       5.48806005      15.93035311
115
Lattice="13.75323 0.0 0.0 0.0 13.75323 0.0 0.0 0.0 23.89" Properties=species:S:1:pos:R:3 entry_id=24 rank=17 energy=-573.3294677734375 pbc="T T F"
Pd       0.00000000       0.00000000      10.00000000
Pd       2.75064538       0.00000000      10.00000000
Pd       5.50129076       0.00000000      10.00000000
Pd       8.25193614       0.00000000      10.00000000
Pd      11.00258152       0.00000000      10.00000000
Pd       0.00000000       2.75064538      10.00000000
Pd       2.75064538       2.75064538      10.00000000
Pd       5.50129076       2.75064538      10.00000000
Pd       8.25193614       2.75064538      10.00000000
Pd      11.00258152       2.75064538      10.00000000
Pd       0.00000000       5.50129076      10.00000000
Pd       2.75064538       5.50129076      10.00000000
Pd       5.50129076       5.50129076      10.00000000
Pd       8.25193614       5.50129076      10.00000000
Pd      11.00258152       5.50129076      10.00000000
Pd       0.00000000       8.25193614      10.00000000
Pd       2.75064538       8.25193614      10.00000000
Pd       5.50129076       8.25193614      10.00000000
Pd       8.25193614       8.25193614      10.00000000
Pd      11.00258152       8.25193614      10.00000000
Pd       0.00000000      11.00258152      10.00000000
Pd       2.75064538      11.00258152      10.00000000
Pd       5.50129076      11.00258152      10.00000000
Pd       8.25193614      11.00258152      10.00000000
Pd      11.00258152      11.00258152      10.00000000
Pd       1.33305437       1.38035701      12.05221797
Pd       4.08925664       1.38750338      11.98771029
Pd       6.82888190       1.38154444      11.99332965
Pd       9.57512057       1.39592898      11.89594876
Pd      12.38684272       1.37174114      11.92044161
Pd       1.37065655       4.09970544      12.00656864
Pd       4.10125007       4.12393621      12.00820233
Pd       6.82444734       4.12497179      12.00908219
Pd       9.56728621       4.13975942      11.94281254
Pd      12.36578195       4.13265160      11.93417299
Pd       1.37110082       6.89256210      11.94010419
Pd       4.13935064       6.87026939      11.96482277
Pd       6.87097415       6.85831372      11.95140951
Pd       9.64205429       6.82915781      11.94515418
Pd      12.39111484       6.85622887      11.94896407
Pd       1.35216595       9.69735034      11.99083951
Pd       4.11777592       9.66324146      11.95099537
Pd       6.89476706       9.64088005      11.95142944
Pd       9.64982872       9.59779534      11.89439304
Pd      12.42487279       9.60955999      11.94161946
Pd       1.35802606      12.41462245      12.04582394
Pd       4.10624816      12.40887780      12.00662317
Pd       6.86816975      12.39901143      11.97280504
Pd       9.63028672      12.36702810      11.91406436
Pd      12.41879361      12.34804731      11.97632258
Pd      11.04333232      13.73609652      13.88306353
Pd      13.75033238       0.08421798      13.97933804
Pd       2.79685984       0.06962584      14.08496629
Pd       5.49238965      13.63697146      14.10000891
Pd       8.31643242       2.78138360      13.95964329
Pd       2.73134794       2.82069757      14.04396812
Pd       5.48440399       2.59374681      14.09075223
Pd       8.20488373       5.67315086      14.10194761
Pd      11.00293785       2.73075181      13.94317920
Pd      13.67008750       2.84251148      14.11954002
Pd      13.74311923       5.53674211      14.05439598
Pd       2.75671469       5.58144931      13.88023989
Pd       5.50851859       5.37612631      14.01008134
Pd       8.21526034       8.32958793      13.89303960
Pd      10.99056644       5.43178524      13.95503931
Pd      13.69663599       8.24495936      14.00283817
Pd       2.70202706       8.24971096      13.92172965
Pd       5.47091886       8.12020390      13.98689969
Pd       8.29976130      11.04345915      13.94645389
Pd      10.93666326       8.25618394      13.88181962
Pd       0.05904958      10.98930720      14.01391912
Pd       2.81947845      10.99112258      14.04714040
Pd       5.55878360      10.90026366      13.90907551
Pd       8.15346461       0.05052090      13.97632838
Pd      11.05510929      10.94517642      13.93175910
Pd      11.89984217       6.98314192      15.95479995
Pd       9.46346732       8.32284544      16.30195218
Pd       1.41418879      12.24434946      16.13070220
Pd       0.69842154       7.20922607      16.51231079
Pd      12.23554533       9.62666915      16.25963121
Pd       9.94866733      11.78386671      16.27399442
Pd       4.61896148       0.79581002      16.62608291
Pd       6.80951672       9.59526217      16.06527949
Pd       4.67486780      11.87763865      16.19105379
Pd      12.40423712      12.30147712      15.92217954
Pd      12.45703236       4.27871896      16.90749108
Pd       1.74628233       4.55155815      16.00561308
Pd      10.08921690       1.61134813      16.25265614
Pd       3.95812219       9.27129279      16.22882736
Pd       4.23837313       3.54582280      16.39946803
Pd       7.04472144      12.98318383      16.53349676
Pd       9.63405134       4.93544912      16.53878155
Pd       7.16025059       2.46415217      16.39366766
Pd       1.24358666       1.64510954      16.45423703
Pd       3.96175635       6.32884520      16.33958993
O        9.65018961      13.62885436      15.39941597
O       10.40061189       9.95946068      16.93335201
O        2.69615545       7.70763106      16.91030106
O       10.14274345       0.45246301      18.03235431
O        9.54280759      13.04916041      18.03197150
O        5.54464149       8.06946036      16.08856548
O        2.76157831       0.36138825      16.20895567
O        0.41217001       5.36769969      17.25731256
O        7.86838017      11.26093933      16.01229975
O        2.82714630      10.89213270      16.23712685
O        0.11457206      13.73268496      16.07191058
O       11.24269283       5.79115622      17.43281743
O        8.08761133       4.02123856      15.61329192
O        8.62714871       6.58319015      15.99974090
O        2.47702525       3.02569200      17.17867452
O       13.32410959       2.67316686      16.14946778
O       10.65552777       3.30665094      17.04660483
O        0.34844032       9.08084521      15.86210248
O        6.42792275       0.91762059      17.31198188
O        5.42890746       5.06861983      15.98845387
115
Lattice="13.75323 0.0 0.0 0.0 13.75323 0.0 0.0 0.0 23.89" Properties=species:S:1:pos:R:3 entry_id=19 rank=18 energy=-573.3115234375 pbc="T T F"
Pd       0.00000000       0.00000000      10.00000000
Pd       2.75064538       0.00000000      10.00000000
Pd       5.50129076       0.00000000      10.00000000
Pd       8.25193614       0.00000000      10.00000000
Pd      11.00258152       0.00000000      10.00000000
Pd       0.00000000       2.75064538      10.00000000
Pd       2.75064538       2.75064538      10.00000000
Pd       5.50129076       2.75064538      10.00000000
Pd       8.25193614       2.75064538      10.00000000
Pd      11.00258152       2.75064538      10.00000000
Pd       0.00000000       5.50129076      10.00000000
Pd       2.75064538       5.50129076      10.00000000
Pd       5.50129076       5.50129076      10.00000000
Pd       8.25193614       5.50129076      10.00000000
Pd      11.00258152       5.50129076      10.00000000
Pd       0.00000000       8.25193614      10.00000000
Pd       2.75064538       8.25193614      10.00000000
Pd       5.50129076       8.25193614      10.00000000
Pd       8.25193614       8.25193614      10.00000000
Pd      11.00258152       8.25193614      10.00000000
Pd       0.00000000      11.00258152      10.00000000
Pd       2.75064538      11.00258152      10.00000000
Pd       5.50129076      11.00258152      10.00000000
Pd       8.25193614      11.00258152      10.00000000
Pd      11.00258152      11.00258152      10.00000000
Pd       1.33305437       1.38035701      12.05221797
Pd       4.08925664       1.38750338      11.98771029
Pd       6.82888190       1.38154444      11.99332965
Pd       9.57512057       1.39592898      11.89594876
Pd      12.38684272       1.37174114      11.92044161
Pd       1.37065655       4.09970544      12.00656864
Pd       4.10125007       4.12393621      12.00820233
Pd       6.82444734       4.12497179      12.00908219
Pd       9.56728621       4.13975942      11.94281254
Pd      12.36578195       4.13265160      11.93417299
Pd       1.37110082       6.89256210      11.94010419
Pd       4.13935064       6.87026939      11.96482277
Pd       6.87097415       6.85831372      11.95140951
Pd       9.64205429       6.82915781      11.94515418
Pd      12.39111484       6.85622887      11.94896407
Pd       1.35216595       9.69735034      11.99083951
Pd       4.11777592       9.66324146      11.95099537
Pd       6.89476706       9.64088005      11.95142944
Pd       9.64982872       9.59779534      11.89439304
Pd      12.42487279       9.60955999      11.94161946
Pd       1.35802606      12.41462245      12.04582394
Pd       4.10624816      12.40887780      12.00662317
Pd       6.86816975      12.39901143      11.97280504
Pd       9.63028672      12.36702810      11.91406436
Pd      12.41879361      12.34804731      11.97632258
Pd      11.00215341      13.70641380      13.91074323
Pd      13.71826709       0.04402440      13.99332591
Pd       2.75915987      13.63722226      14.02275706
Pd       5.49323861      13.72208831      14.06363839
Pd       8.33133076       2.77520917      13.95453636
Pd       2.77494269       2.83824192      14.06369910
Pd       5.53551669       2.68471429      14.07409114
Pd       8.20217643       5.66864326      14.14682736
Pd      10.97909429       2.70712256      13.94478176
Pd      13.62557810       2.86503002      13.99355138
Pd      13.65824831       5.53833253      14.00608187
Pd       2.64658592       5.49278806      14.11676724
Pd       5.47535151       5.43831746      13.93789742
Pd       8.22404242       8.31669652      13.90581684
Pd      10.94982405       5.41418152      13.95404218
Pd      13.69597793       8.28516714      13.97643658
Pd       2.72354638       8.30083356      13.97319756
Pd       5.49290190       8.27329961      13.91865643
Pd       8.32564434      11.02099266      13.89581346
Pd      10.94420024       8.23749644      13.91168941
Pd       0.07542605      11.00673805      14.05201481
Pd       2.82185941      10.94751243      14.00469342
Pd       5.56401805      10.97601831      13.97745688
Pd       8.16093385       0.04173767      13.98794883
Pd      11.08114962      10.93247672      13.94073400
Pd      11.69339347       6.91778935      16.04317815
Pd       9.38265708       8.28939427      16.37018801
Pd       1.56694112      12.11599593      16.23323051
Pd       0.49588523       6.91882463      16.38007053
Pd      12.14352250       9.53328960      16.28863895
Pd       9.87537360      11.77205137      16.34782126
Pd       4.59700418       1.17855688      16.44963311
Pd       6.88717030       9.51079230      16.18190695
Pd       4.34227614      12.26560970      16.02191004
Pd      12.45207208      12.23733036      15.97728083
Pd      12.42321582       4.15094910      16.85612317
Pd       2.21928547       3.98771102      16.92905950
Pd      10.09374901       1.56409785      16.32421054
Pd       4.16799402       9.52919843      16.31037573
Pd       5.03012782       4.09138452      16.51075475
Pd       6.94877477      12.92483529      16.42415145
Pd       9.65546694       4.88211814      16.63163515
Pd       7.25853340       2.36404294      16.43323070
Pd       1.08240694       1.81726078      16.12707080
Pd       4.38207012       6.74236503      16.04343422
O        9.60106654      13.60117216      15.48172779
O       10.32516224       9.93520866      16.97357399
O        2.44452272       7.01577223      15.61496347
O       11.10238964       0.44147166      17.78358652
O       11.29434335      12.88802894      17.60205827
O        5.57800353       8.21305787      16.82693810
O        2.87597390       1.27707388      15.52301156
O        0.53789735       5.02206986      16.92041435
O        7.87832511      11.21897888      15.91221941
O        2.99952131      10.99698350      16.90058375
O        0.26503367      13.57105223      16.06442172
O       11.30417235       5.69321695      17.55496628
O        8.17894087       3.92264741      15.66494515
O        8.62922525       6.51208700      16.06873138
O        3.80116096       2.91832417      17.43063544
O       13.06344567       2.53137919      15.99349046
O       10.63830425       3.24160048      17.16480694
O        0.21527757       8.84846388      15.93954369
O        6.34678570       0.84365799      17.27147439
O        6.02614121       5.63679715      15.89569747
115
Lattice="13.75323 0.0 0.0 0.0 13.75323 0.0 0.0 0.0 23.89" Properties=species:S:1:pos:R:3 entry_id=32 rank=19 energy=-573.2820434570312 pbc="T T F"
Pd       0.00000000       0.00000000      10.00000000
Pd       2.75064538       0.00000000      10.00000000
Pd       5.50129076       0.00000000      10.00000000
Pd       8.25193614       0.00000000      10.00000000
Pd      11.00258152       0.00000000      10.00000000
Pd       0.00000000       2.75064538      10.00000000
Pd       2.75064538       2.75064538      10.00000000
Pd       5.50129076       2.75064538      10.00000000
Pd       8.25193614       2.75064538      10.00000000
Pd      11.00258152       2.75064538      10.00000000
Pd       0.00000000       5.50129076      10.00000000
Pd       2.75064538       5.50129076      10.00000000
Pd       5.50129076       5.50129076      10.00000000
Pd       8.25193614       5.50129076      10.00000000
Pd      11.00258152       5.50129076      10.00000000
Pd       0.00000000       8.25193614      10.00000000
Pd       2.75064538       8.25193614      10.00000000
Pd       5.50129076       8.25193614      10.00000000
Pd       8.25193614       8.25193614      10.00000000
Pd      11.00258152       8.25193614      10.00000000
Pd       0.00000000      11.00258152      10.00000000
Pd       2.75064538      11.00258152      10.00000000
Pd       5.50129076      11.00258152      10.00000000
Pd       8.25193614      11.00258152      10.00000000
Pd      11.00258152      11.00258152      10.00000000
Pd       1.33305437       1.38035701      12.05221797
Pd       4.08925664       1.38750338      11.98771029
Pd       6.82888190       1.38154444      11.99332965
Pd       9.57512057       1.39592898      11.89594876
Pd      12.38684272       1.37174114      11.92044161
Pd       1.37065655       4.09970544      12.00656864
Pd       4.10125007       4.12393621      12.00820233
Pd       6.82444734       4.12497179      12.00908219
Pd       9.56728621       4.13975942      11.94281254
Pd      12.36578195       4.13265160      11.93417299
Pd       1.37110082       6.89256210      11.94010419
Pd       4.13935064       6.87026939      11.96482277
Pd       6.87097415       6.85831372      11.95140951
Pd       9.64205429       6.82915781      11.94515418
Pd      12.39111484       6.85622887      11.94896407
Pd       1.35216595       9.69735034      11.99083951
Pd       4.11777592       9.66324146      11.95099537
Pd       6.89476706       9.64088005      11.95142944
Pd       9.64982872       9.59779534      11.89439304
Pd      12.42487279       9.60955999      11.94161946
Pd       1.35802606      12.41462245      12.04582394
Pd       4.10624816      12.40887780      12.00662317
Pd       6.86816975      12.39901143      11.97280504
Pd       9.63028672      12.36702810      11.91406436
Pd      12.41879361      12.34804731      11.97632258
Pd      10.97421365       0.03215524      13.82232438
Pd       0.04477920       0.00469209      14.00939046
Pd       2.85287926      13.64286003      14.05156724
Pd       5.51408782       2.69987724      14.11142888
Pd       8.26292259       0.07059053      14.01719487
Pd       2.75030776       2.75405882      14.00780233
Pd       5.48845024       5.43512732      14.00598338
Pd       8.31284935       2.76820549      13.92428468
Pd      10.97369646       2.76506901      13.96449410
Pd      13.64132666       2.78464665      14.02889383
Pd      13.73140981       5.48259264      14.01924016
Pd       2.67696093       5.48427809      14.03039880
Pd       5.49727036       8.20214844      13.95990948
Pd       8.20761180       5.63924161      14.04409704
Pd      10.99434762       5.47737934      13.97530517
Pd      13.68589182       8.21903553      13.92349153
Pd       2.71492201       8.20690674      14.00444360
Pd       5.54206563      10.96839451      13.95479349
Pd       8.25424521       8.32824149      13.89219053
Pd      10.95057788       8.25592603      13.90422320
Pd      13.68067067      11.01011575      14.06421736
Pd       2.81956942      10.91560178      14.06705934
Pd       5.61125860      13.73520604      14.04904373
Pd       8.28163016      11.09060186      13.93461086
Pd      10.98312274      11.01615146      13.90108335
Pd      12.27560112       6.97400918      15.90162190
Pd       9.55910504       8.14868070      16.31742968
Pd       1.90209706      12.33167497      16.65706319
Pd       0.89655849       8.82837095      16.33751041
Pd      12.21478636       9.70949202      15.93001789
Pd      10.25458172      11.50703858      16.52601901
Pd       4.74227815       1.23800114      16.44628350
Pd       7.07043775       9.66229749      16.03788835
Pd       4.60401128      12.36693163      16.03688287
Pd      12.20418502      13.31014659      16.15085115
Pd      12.36268208       4.19075120      16.58079776
Pd       1.13227230       5.32553296      16.57346481
Pd      10.17078832       1.54753016      16.38029040
Pd       4.39220321       9.76078158      16.53959699
Pd       3.79218798       4.02619270      16.24048267
Pd       7.22291701      12.99325866      16.58349784
Pd       9.64480259       4.88710216      16.50200408
Pd       7.36735477       2.29876371      16.39487954
Pd       1.15367533       1.78518901      16.29348125
Pd       4.06051813       6.66888878      16.13069307
O       10.20844920      13.39599910      15.80679121
O       10.55416416       9.64569103      17.08397151
O        2.91617411       8.30155236      16.15558481
O        8.45533084      12.98431559      18.31439638
O        9.45548893      12.16607999      18.38636305
O        5.65795543       8.28520098      16.04506569
O        2.96942937       1.26528457      15.60976188
O        0.29418359       7.06079145      16.94650064
O        8.13858372      11.31210945      16.00209738
O        3.45059741      11.31267148      17.30917011
O        0.43287542      13.60935073      16.15196587
O       11.32272459       5.76070916      17.23706310
O        8.11148619       3.93137814      15.62723721
O        8.63424185       6.49138505      15.91830905
O        1.96484035       3.54762998      16.77701467
O       13.08961635       2.47963840      16.03285585
O       10.56369269       3.25830076      17.16237493
O        1.28607309      10.65748687      15.59534443
O        6.44164655       0.88932063      17.34522535
O        5.35366548       5.18257702      16.01893057
115
Lattice="13.75323 0.0 0.0 0.0 13.75323 0.0 0.0 0.0 23.89" Properties=species:S:1:pos:R:3 entry_id=26 rank=20 energy=-573.2783203125 pbc="T T F"
Pd       0.00000000       0.00000000      10.00000000
Pd       2.75064538       0.00000000      10.00000000
Pd       5.50129076       0.00000000      10.00000000
Pd       8.25193614       0.00000000      10.00000000
Pd      11.00258152       0.00000000      10.00000000
Pd       0.00000000       2.75064538      10.00000000
Pd       2.75064538       2.75064538      10.00000000
Pd       5.50129076       2.75064538      10.00000000
Pd       8.25193614       2.75064538      10.00000000
Pd      11.00258152       2.75064538      10.00000000
Pd       0.00000000       5.50129076      10.00000000
Pd       2.75064538       5.50129076      10.00000000
Pd       5.50129076       5.50129076      10.00000000
Pd       8.25193614       5.50129076      10.00000000
Pd      11.00258152       5.50129076      10.00000000
Pd       0.00000000       8.25193614      10.00000000
Pd       2.75064538       8.25193614      10.00000000
Pd       5.50129076       8.25193614      10.00000000
Pd       8.25193614       8.25193614      10.00000000
Pd      11.00258152       8.25193614      10.00000000
Pd       0.00000000      11.00258152      10.00000000
Pd       2.75064538      11.00258152      10.00000000
Pd       5.50129076      11.00258152      10.00000000
Pd       8.25193614      11.00258152      10.00000000
Pd      11.00258152      11.00258152      10.00000000
Pd       1.33305437       1.38035701      12.05221797
Pd       4.08925664       1.38750338      11.98771029
Pd       6.82888190       1.38154444      11.99332965
Pd       9.57512057       1.39592898      11.89594876
Pd      12.38684272       1.37174114      11.92044161
Pd       1.37065655       4.09970544      12.00656864
Pd       4.10125007       4.12393621      12.00820233
Pd       6.82444734       4.12497179      12.00908219
Pd       9.56728621       4.13975942      11.94281254
Pd      12.36578195       4.13265160      11.93417299
Pd       1.37110082       6.89256210      11.94010419
Pd       4.13935064       6.87026939      11.96482277
Pd       6.87097415       6.85831372      11.95140951
Pd       9.64205429       6.82915781      11.94515418
Pd      12.39111484       6.85622887      11.94896407
Pd       1.35216595       9.69735034      11.99083951
Pd       4.11777592       9.66324146      11.95099537
Pd       6.89476706       9.64088005      11.95142944
Pd       9.64982872       9.59779534      11.89439304
Pd      12.42487279       9.60955999      11.94161946
Pd       1.35802606      12.41462245      12.04582394
Pd       4.10624816      12.40887780      12.00662317
Pd       6.86816975      12.39901143      11.97280504
Pd       9.63028672      12.36702810      11.91406436
Pd      12.41879361      12.34804731      11.97632258
Pd      10.93305579       0.05117531      13.90706625
Pd      13.70858652       0.04224338      13.94739215
Pd       2.76995237      13.60620418      14.00824531
Pd       5.52417584      13.74742522      14.05648515
Pd       8.19010101       2.82308402      13.91146359
Pd       2.71412663       2.78086171      13.98854953
Pd       5.47040275       2.69613575      14.14881494
Pd       8.27981216       5.63878929      14.05077280
Pd      10.91558620       2.77523404      13.93224800
Pd      13.58425193       2.81844231      14.03637431
Pd      13.74407566       5.50705822      14.04299403
Pd       2.69497245       5.49152475      14.01766405
Pd       5.54682714       5.42361252      14.02633842
Pd       8.22621714       8.33878898      13.89257684
Pd      11.02354746       5.48789732      13.99273230
Pd      13.68797323       8.22760189      13.94241587
Pd       2.67422569       8.22667645      14.01689089
Pd       5.47819956       8.19961619      13.92271001
Pd       8.30541608      11.02694562      13.93301271
Pd      10.96400678       8.26367888      13.92815505
Pd       0.07648134      10.99239201      14.07318310
Pd       2.84636622      10.92452377      14.00545237
Pd       5.58980446      10.98313427      13.97407255
Pd       8.14540510       0.03558538      14.04742217
Pd      11.05656422      10.99019308      13.87944738
Pd      12.24092754       7.04781865      15.95279004
Pd       9.47098421       8.11367792      16.23731887
Pd       1.73642867      12.22365939      16.37358981
Pd       0.73778359       8.58686410      16.52718351
Pd      12.19464007       9.90141100      16.24011593
Pd       9.82258623      11.69158667      16.19096875
Pd       4.52681413       1.21834929      16.47727052
Pd       7.01397131       9.73804860      16.13224345
Pd       4.44351077      12.34026716      16.00215059
Pd      12.26291570      12.56795418      15.90988132
Pd      12.37182170       4.21749539      16.62186786
Pd       1.18204330       5.15780964      16.58406807
Pd      10.09603680       1.60976757      16.56291030
Pd       4.29610284       9.70219141      16.38286641
Pd       3.81377379       3.97648333      16.25175956
Pd       6.87043574      12.97261201      16.94452273
Pd       9.71193488       4.76918301      16.59725767
Pd       7.20134272       1.98808978      16.51243184
Pd       1.07524176       1.74815281      16.25957471
Pd       4.01225391       6.64726221      16.13171360
O        9.58012035      13.65293597      15.55983737
O       10.30234944       9.82345081      16.77724170
O        2.79068840       8.23599712      16.16131985
O       11.23286796       0.59574704      17.90107548
O       11.46310810      13.06342701      17.73284603
O        5.65345711       8.29204781      15.95953013
O        2.85450212       1.25974833      15.49006335
O        0.26329583       6.79179760      17.02864736
O        7.89496940      11.33484797      16.79611962
O        3.20923680      11.16323352      17.09978141
O        0.34632208      13.60852646      15.99703893
O       11.31059523       5.81617437      17.27248674
O        8.66728588       3.10530550      15.85200843
O        8.66619198       6.32471339      15.94181193
O        2.01561419       3.40869548      16.83185315
O       13.02968102       2.49884402      16.02492886
O       10.71180192       3.26332545      17.43965776
O        0.43620699      10.48895715      16.10606946
O        6.05517882       0.88099431      17.61636560
O        5.34136166       5.19143413      16.03376958
115
Lattice="13.75323 0.0 0.0 0.0 13.75323 0.0 0.0 0.0 23.89" Properties=species:S:1:pos:R:3 entry_id=25 rank=21 energy=-573.2305908203125 pbc="T T F"
Pd       0.00000000       0.00000000      10.00000000
Pd       2.75064538       0.00000000      10.00000000
Pd       5.50129076       0.00000000      10.00000000
Pd       8.25193614       0.00000000      10.00000000
Pd      11.00258152       0.00000000      10.00000000
Pd       0.00000000       2.75064538      10.00000000
Pd       2.75064538       2.75064538      10.00000000
Pd       5.50129076       2.75064538      10.00000000
Pd       8.25193614       2.75064538      10.00000000
Pd      11.00258152       2.75064538      10.00000000
Pd       0.00000000       5.50129076      10.00000000
Pd       2.75064538       5.50129076      10.00000000
Pd       5.50129076       5.50129076      10.00000000
Pd       8.25193614       5.50129076      10.00000000
Pd      11.00258152       5.50129076      10.00000000
Pd       0.00000000       8.25193614      10.00000000
Pd       2.75064538       8.25193614      10.00000000
Pd       5.50129076       8.25193614      10.00000000
Pd       8.25193614       8.25193614      10.00000000
Pd      11.00258152       8.25193614      10.00000000
Pd       0.00000000      11.00258152      10.00000000
Pd       2.75064538      11.00258152      10.00000000
Pd       5.50129076      11.00258152      10.00000000
Pd       8.25193614      11.00258152      10.00000000
Pd      11.00258152      11.00258152      10.00000000
Pd       1.33305437       1.38035701      12.05221797
Pd       4.08925664       1.38750338      11.98771029
Pd       6.82888190       1.38154444      11.99332965
Pd       9.57512057       1.39592898      11.89594876
Pd      12.38684272       1.37174114      11.92044161
Pd       1.37065655       4.09970544      12.00656864
Pd       4.10125007       4.12393621      12.00820233
Pd       6.82444734       4.12497179      12.00908219
Pd       9.56728621       4.13975942      11.94281254
Pd      12.36578195       4.13265160      11.93417299
Pd       1.37110082       6.89256210      11.94010419
Pd       4.13935064       6.87026939      11.96482277
Pd       6.87097415       6.85831372      11.95140951
Pd       9.64205429       6.82915781      11.94515418
Pd      12.39111484       6.85622887      11.94896407
Pd       1.35216595       9.69735034      11.99083951
Pd       4.11777592       9.66324146      11.95099537
Pd       6.89476706       9.64088005      11.95142944
Pd       9.64982872       9.59779534      11.89439304
Pd      12.42487279       9.60955999      11.94161946
Pd       1.35802606      12.41462245      12.04582394
Pd       4.10624816      12.40887780      12.00662317
Pd       6.86816975      12.39901143      11.97280504
Pd       9.63028672      12.36702810      11.91406436
Pd      12.41879361      12.34804731      11.97632258
Pd      10.98427202       0.00226400      13.89962074
Pd      13.71907117       0.02765585      13.99990701
Pd       2.77266688       0.00456158      14.06480421
Pd       5.47900203      13.68330507      14.10015328
Pd       8.33440375       2.70392949      13.95544821
Pd       2.72723469       2.77540008      14.02858617
Pd       5.51379732       2.62158803      14.04191553
Pd       8.20118530       5.67542996      14.07567505
Pd      11.00336351       2.75490257      13.90918192
Pd      13.65088078       2.84606019      14.03666372
Pd      13.73247137       5.53914665      14.06404276
Pd       2.73166958       5.53627020      13.91549978
Pd       5.51464832       5.41720212      14.02817002
Pd       8.19944008       8.33391853      13.89620735
Pd      10.99651969       5.45215704      13.95144801
Pd      13.66272724       8.23959784      13.95887690
Pd       2.67337964       8.26630020      14.00984035
Pd       5.46733587       8.18687372      13.92058875
Pd       8.31837579      10.99406840      13.94070686
Pd      10.91442813       8.27532323      13.88538319
Pd       0.09799531      11.00864457      14.12753507
Pd       2.84251278      10.99972872      14.01648087
Pd       5.59038028      10.95473365      13.95070929
Pd       8.12044833      13.73318123      13.98399243
Pd      11.07511621      10.96949317      13.91207619
Pd      11.80793767       7.02719388      15.98258064
Pd       9.36481521       8.30775040      16.31687210
Pd       1.55561689      12.10877958      16.30282081
Pd       0.59845560       7.41775947      16.49207016
Pd      12.10351237       9.67149819      16.25696439
Pd       9.79327087      11.71370080      16.21534482
Pd       4.56790951       0.99454024      16.59654717
Pd       6.90744571       9.82441571      16.16823111
Pd       4.53780508      12.11178453      16.10357229
Pd      12.27824613      12.36486127      15.98829957
Pd      12.47310543       4.33168733      16.85560601
Pd       1.71892457       4.95242983      16.28886798
Pd      10.09573488       1.60431775      16.19989246
Pd       4.12213675       9.54827669      16.33131688
Pd       4.32183784       3.84248145      16.19231801
Pd       6.93744572      13.15292094      16.77321961
Pd       9.62750643       4.93459755      16.50385606
Pd       7.10739833       2.59962587      16.38662365
Pd       1.16397299       1.56580272      16.23732468
Pd       4.05550161       6.57660561      16.15625732
O        9.54904783      13.59195383      15.45411593
O       10.27838320       9.93586454      16.94445825
O        2.66081372       7.98655933      16.14715019
O       11.03740729       0.61544021      17.79103773
O       11.31490451      13.09145724      17.70025470
O        5.64928729       8.30389271      15.95321891
O        2.75151130       0.38814845      16.16026731
O        0.25350719       5.64651079      17.37946359
O        7.82677720      11.42509511      16.77081422
O        3.01541777      11.01346040      16.98152476
O        0.18257959      13.54738993      16.10952842
O       11.20353977       5.78198246      17.43877501
O        8.12235947       4.03859530      15.51943548
O        8.56580093       6.56400012      15.99981940
O        2.47141872       3.08071176      16.18023632
O       13.31804309       2.71081192      16.03687248
O       10.68348255       3.31463648      16.93428798
O        0.21759100       9.30861537      15.75885354
O        6.32156777       1.15498058      17.38866816
O        5.57794354       5.32879963      16.08808207
115
Lattice="13.75323 0.0 0.0 0.0 13.75323 0.0 0.0 0.0 23.89" Properties=species:S:1:pos:R:3 entry_id=10 rank=22 energy=-572.5022583007812 pbc="T T F"
Pd       0.00000000       0.00000000      10.00000000
Pd       2.75064538       0.00000000      10.00000000
Pd       5.50129076       0.00000000      10.00000000
Pd       8.25193614       0.00000000      10.00000000
Pd      11.00258152       0.00000000      10.00000000
Pd       0.00000000       2.75064538      10.00000000
Pd       2.75064538       2.75064538      10.00000000
Pd       5.50129076       2.75064538      10.00000000
Pd       8.25193614       2.75064538      10.00000000
Pd      11.00258152       2.75064538      10.00000000
Pd       0.00000000       5.50129076      10.00000000
Pd       2.75064538       5.50129076      10.00000000
Pd       5.50129076       5.50129076      10.00000000
Pd       8.25193614       5.50129076      10.00000000
Pd      11.00258152       5.50129076      10.00000000
Pd       0.00000000       8.25193614      10.00000000
Pd       2.75064538       8.25193614      10.00000000
Pd       5.50129076       8.25193614      10.00000000
Pd       8.25193614       8.25193614      10.00000000
Pd      11.00258152       8.25193614      10.00000000
Pd       0.00000000      11.00258152      10.00000000
Pd       2.75064538      11.00258152      10.00000000
Pd       5.50129076      11.00258152      10.00000000
Pd       8.25193614      11.00258152      10.00000000
Pd      11.00258152      11.00258152      10.00000000
Pd       1.33305437       1.38035701      12.05221797
Pd       4.08925664       1.38750338      11.98771029
Pd       6.82888190       1.38154444      11.99332965
Pd       9.57512057       1.39592898      11.89594876
Pd      12.38684272       1.37174114      11.92044161
Pd       1.37065655       4.09970544      12.00656864
Pd       4.10125007       4.12393621      12.00820233
Pd       6.82444734       4.12497179      12.00908219
Pd       9.56728621       4.13975942      11.94281254
Pd      12.36578195       4.13265160      11.93417299
Pd       1.37110082       6.89256210      11.94010419
Pd       4.13935064       6.87026939      11.96482277
Pd       6.87097415       6.85831372      11.95140951
Pd       9.64205429       6.82915781      11.94515418
Pd      12.39111484       6.85622887      11.94896407
Pd       1.35216595       9.69735034      11.99083951
Pd       4.11777592       9.66324146      11.95099537
Pd       6.89476706       9.64088005      11.95142944
Pd       9.64982872       9.59779534      11.89439304
Pd      12.42487279       9.60955999      11.94161946
Pd       1.35802606      12.41462245      12.04582394
Pd       4.10624816      12.40887780      12.00662317
Pd       6.86816975      12.39901143      11.97280504
Pd       9.63028672      12.36702810      11.91406436
Pd      12.41879361      12.34804731      11.97632258
Pd      10.92058126      13.73496907      13.93030822
Pd      13.72412103       0.08192004      14.02038621
Pd       2.74830524      13.62437788      14.04261082
Pd       5.51866871       0.06368223      14.09061684
Pd       8.19014567      13.66920366      14.04450376
Pd       2.73782544       2.86646949      14.01525326
Pd       5.49636057       2.76786606      14.07026973
Pd       8.28296734       2.60934243      13.93585188
Pd      11.01513882       2.81166802      13.85240154
Pd      13.69198174       2.80324064      14.06152032
Pd      13.71172787       5.50884121      13.98820445
Pd       2.83745679       5.61473608      13.96753036
Pd       5.51255267       5.53483901      13.95706141
Pd       8.21701753       5.41012893      14.03973111
Pd      11.01119120       5.46111142      13.97638198
Pd       0.01710010       8.30623978      13.93260757
Pd       2.75549299       8.28142700      14.03256449
Pd       5.47653437       8.31332638      13.99074760
Pd       8.20687071       8.18569046      13.90875231
Pd      10.96729918       8.23561783      14.05580736
Pd      13.73599206      11.03841543      14.05264177
Pd       2.76249424      10.95068976      14.03995193
Pd       5.50811693      11.07391657      13.92338648
Pd       8.26716975      10.94075648      13.95725857
Pd      11.01003170      10.96372127      13.92668434
Pd      12.32610329       6.90159114      16.12727253
Pd       9.14829179       9.36071026      16.33157567
Pd       1.37999493      11.86033706      16.31235296
Pd       1.35754114       8.15969426      16.93154248
Pd      11.90204444       9.81738814      16.35532212
Pd       9.63907063      12.30613055      15.91622160
Pd       4.33487631       1.39561546      16.40200902
Pd       6.73134680      10.62872254      16.33659238
Pd       4.29945132      12.33145549      16.00783230
Pd      12.37879987      12.46755035      15.96503693
Pd      13.64147170       4.66186861      17.52421771
Pd       2.28447650       4.32327573      16.46349579
Pd      11.90890059       2.09927642      16.39837511
Pd       3.77216952       9.68512822      16.38994609
Pd       4.95087613       4.25273541      16.55217545
Pd       6.81086930      13.62489465      16.71975114
Pd       9.53531054       6.60644878      16.04306006
Pd       7.13384047       2.73874307      16.40068847
Pd       1.01611594       1.95178389      16.47257200
Pd       4.48933652       6.87599888      16.46508331
O       10.45971566       1.48731162      15.25087844
O       10.33246158      10.74186947      17.04840616
O        3.21622187       7.90465642      17.51838056
O       11.27748995       0.79866727      17.84865737
O       11.17849479      13.28345504      17.52067003
O        5.58998920       9.08809975      15.92156962
O        2.61912326       1.37224636      15.43666084
O        1.41850733       5.68685922      15.37174018
O        7.89212516      12.05351420      16.95274911
O        1.98198050      10.15016429      17.00119475
O        0.41766052      13.56880524      16.06369986
O        0.05611201       6.58090993      17.55943918
O        8.34482718       3.91220935      15.46398140
O        8.03728142       7.82842077      15.91845361
O        3.57041889       3.12552018      17.38904739
O       13.34679801       2.73572607      17.57013706
O       11.06380219       5.39274939      16.06623384
O       13.41531579       8.57678514      15.96253382
O        6.00784445       1.50338692      17.41716196
O        5.99935059       5.75175579      15.89032232
115
Lattice="13.75323 0.0 0.0 0.0 13.75323 0.0 0.0 0.0 23.89" Properties=species:S:1:pos:R:3 entry_id=9 rank=23 energy=-572.464599609375 pbc="T T F"
Pd       0.00000000       0.00000000      10.00000000
Pd       2.75064538       0.00000000      10.00000000
Pd       5.50129076       0.00000000      10.00000000
Pd       8.25193614       0.00000000      10.00000000
Pd      11.00258152       0.00000000      10.00000000
Pd       0.00000000       2.75064538      10.00000000
Pd       2.75064538       2.75064538      10.00000000
Pd       5.50129076       2.75064538      10.00000000
Pd       8.25193614       2.75064538      10.00000000
Pd      11.00258152       2.75064538      10.00000000
Pd       0.00000000       5.50129076      10.00000000
Pd       2.75064538       5.50129076      10.00000000
Pd       5.50129076       5.50129076      10.00000000
Pd       8.25193614       5.50129076      10.00000000
Pd      11.00258152       5.50129076      10.00000000
Pd       0.00000000       8.25193614      10.00000000
Pd       2.75064538       8.25193614      10.00000000
Pd       5.50129076       8.25193614      10.00000000
Pd       8.25193614       8.25193614      10.00000000
Pd      11.00258152       8.25193614      10.00000000
Pd       0.00000000      11.00258152      10.00000000
Pd       2.75064538      11.00258152      10.00000000
Pd       5.50129076      11.00258152      10.00000000
Pd       8.25193614      11.00258152      10.00000000
Pd      11.00258152      11.00258152      10.00000000
Pd       1.33305437       1.38035701      12.05221797
Pd       4.08925664       1.38750338      11.98771029
Pd       6.82888190       1.38154444      11.99332965
Pd       9.57512057       1.39592898      11.89594876
Pd      12.38684272       1.37174114      11.92044161
Pd       1.37065655       4.09970544      12.00656864
Pd       4.10125007       4.12393621      12.00820233
Pd       6.82444734       4.12497179      12.00908219
Pd       9.56728621       4.13975942      11.94281254
Pd      12.36578195       4.13265160      11.93417299
Pd       1.37110082       6.89256210      11.94010419
Pd       4.13935064       6.87026939      11.96482277
Pd       6.87097415       6.85831372      11.95140951
Pd       9.64205429       6.82915781      11.94515418
Pd      12.39111484       6.85622887      11.94896407
Pd       1.35216595       9.69735034      11.99083951
Pd       4.11777592       9.66324146      11.95099537
Pd       6.89476706       9.64088005      11.95142944
Pd       9.64982872       9.59779534      11.89439304
Pd      12.42487279       9.60955999      11.94161946
Pd       1.35802606      12.41462245      12.04582394
Pd       4.10624816      12.40887780      12.00662317
Pd       6.86816975      12.39901143      11.97280504
Pd       9.63028672      12.36702810      11.91406436
Pd      12.41879361      12.34804731      11.97632258
Pd      10.95043757      13.72091501      13.97532340
Pd      13.69305863       0.05220430      14.04408144
Pd       2.70717055      13.65352049      14.06731922
Pd       5.50979724       0.07389774      14.07647864
Pd       8.18548916      13.69899345      14.01383717
Pd       2.72291163       2.84450836      14.02611060
Pd       5.47544390       2.77912610      14.07269010
Pd       8.26602377       2.63157892      13.89841912
Pd      10.98676545       2.79109578      13.84634271
Pd      13.67490986       2.77879929      14.02925606
Pd      13.71807193       5.49148664      13.99172665
Pd       2.84351969       5.60707732      13.92512612
Pd       5.50776348       5.54868827      13.98898341
Pd       8.21924500       5.42441379      14.10081128
Pd      10.99791321       5.43823326      13.95397802
Pd       0.06395315       8.29499627      13.98146945
Pd       2.78296733       8.28164917      14.01510444
Pd       5.51454679       8.31031188      13.94280348
Pd       8.25108645       8.19015203      13.91929391
Pd      11.03441421       8.22025536      14.02967015
Pd      13.71488342      11.03072545      14.07382202
Pd       2.75545747      10.96911837      14.01595043
Pd       5.50223183      11.07755784      13.96285948
Pd       8.24437911      10.95061820      13.91935400
Pd      11.00749950      10.96129812      13.91295004
Pd      12.38768396       6.66262860      16.12880432
Pd       9.57938507       9.60124946      16.16810867
Pd       1.36322501      11.92216661      16.24156079
Pd       1.64920261       8.13614245      17.02744737
Pd      12.30520689       9.68023181      16.21187765
Pd       9.56708385      12.35451897      15.84415963
Pd       4.30458484       1.38899657      16.38810514
Pd       6.85671461      10.49956894      16.33795628
Pd       4.29023801      12.40039413      15.99276089
Pd      12.35501435      12.41681591      16.27542682
Pd       0.18098427       5.01459816      17.68735711
Pd       2.43053398       4.36381816      16.42247054
Pd      11.94670455       2.33006249      16.40197615
Pd       3.92659977       9.73889136      16.24443338
Pd       5.10503205       4.32512319      16.56323876
Pd       6.85645526      13.49479618      16.70346257
Pd       9.62338772       6.69082028      16.04368305
Pd       7.15316313       2.64829029      16.36172043
Pd       0.96403931       2.14085013      16.48742699
Pd       4.83810756       6.99312261      16.60600531
O       10.58577515       1.48604248      15.30420033
O       10.93662829      11.00936805      16.84930698
O        3.55550520       8.12005080      17.57104375
O       11.53287164       1.05389495      17.97086323
O       11.26371723      13.56024246      17.72093221
O        5.72222545       8.92890762      15.92130611
O        2.53979248       1.39121986      15.50378086
O        1.45726491       5.66606429      15.34900758
O        7.96636802      11.93911910      17.01023527
O        2.10771613      10.20618776      16.78271195
O        0.24400116      13.56734002      16.06609286
O        1.04640932       6.62891598      18.11408840
O        8.36623168       3.85850173      15.46810783
O        8.31927781       8.11236240      15.96429424
O        3.72016658       3.18555601      17.35559105
O       13.35709762       3.16210335      17.47924002
O       11.00658083       5.30140875      16.03586877
O       13.64352693       8.20546982      16.07424742
O        6.02061736       1.38824866      17.33138736
O        6.20808960       5.78344311      15.88904688
115
Lattice="13.75323 0.0 0.0 0.0 13.75323 0.0 0.0 0.0 23.89" Properties=species:S:1:pos:R:3 entry_id=7 rank=24 energy=-572.349365234375 pbc="T T F"
Pd       0.00000000       0.00000000      10.00000000
Pd       2.75064538       0.00000000      10.00000000
Pd       5.50129076       0.00000000      10.00000000
Pd       8.25193614       0.00000000      10.00000000
Pd      11.00258152       0.00000000      10.00000000
Pd       0.00000000       2.75064538      10.00000000
Pd       2.75064538       2.75064538      10.00000000
Pd       5.50129076       2.75064538      10.00000000
Pd       8.25193614       2.75064538      10.00000000
Pd      11.00258152       2.75064538      10.00000000
Pd       0.00000000       5.50129076      10.00000000
Pd       2.75064538       5.50129076      10.00000000
Pd       5.50129076       5.50129076      10.00000000
Pd       8.25193614       5.50129076      10.00000000
Pd      11.00258152       5.50129076      10.00000000
Pd       0.00000000       8.25193614      10.00000000
Pd       2.75064538       8.25193614      10.00000000
Pd       5.50129076       8.25193614      10.00000000
Pd       8.25193614       8.25193614      10.00000000
Pd      11.00258152       8.25193614      10.00000000
Pd       0.00000000      11.00258152      10.00000000
Pd       2.75064538      11.00258152      10.00000000
Pd       5.50129076      11.00258152      10.00000000
Pd       8.25193614      11.00258152      10.00000000
Pd      11.00258152      11.00258152      10.00000000
Pd       1.33305437       1.38035701      12.05221797
Pd       4.08925664       1.38750338      11.98771029
Pd       6.82888190       1.38154444      11.99332965
Pd       9.57512057       1.39592898      11.89594876
Pd      12.38684272       1.37174114      11.92044161
Pd       1.37065655       4.09970544      12.00656864
Pd       4.10125007       4.12393621      12.00820233
Pd       6.82444734       4.12497179      12.00908219
Pd       9.56728621       4.13975942      11.94281254
Pd      12.36578195       4.13265160      11.93417299
Pd       1.37110082       6.89256210      11.94010419
Pd       4.13935064       6.87026939      11.96482277
Pd       6.87097415       6.85831372      11.95140951
Pd       9.64205429       6.82915781      11.94515418
Pd      12.39111484       6.85622887      11.94896407
Pd       1.35216595       9.69735034      11.99083951
Pd       4.11777592       9.66324146      11.95099537
Pd       6.89476706       9.64088005      11.95142944
Pd       9.64982872       9.59779534      11.89439304
Pd      12.42487279       9.60955999      11.94161946
Pd       1.35802606      12.41462245      12.04582394
Pd       4.10624816      12.40887780      12.00662317
Pd       6.86816975      12.39901143      11.97280504
Pd       9.63028672      12.36702810      11.91406436
Pd      12.41879361      12.34804731      11.97632258
Pd      10.95472529      13.65721946      13.90672494
Pd      13.65995589       0.05907694      14.00521651
Pd       2.65738641       0.03136812      14.11068736
Pd       5.44929036       0.06167199      14.09042905
Pd       8.14577145      13.68449332      13.96107082
Pd       2.77698630       2.88799421      14.00198473
Pd       5.50041720       2.75349912      14.06356195
Pd       8.28007710       2.63146115      13.86512809
Pd      10.97925530       2.68690388      13.91327419
Pd      13.66016284       2.77557452      14.06992001
Pd      13.71246571       5.50917376      13.91557450
Pd       2.72301476       5.64965056      14.09845498
Pd       5.39733613       5.52598071      13.94881695
Pd       8.16154913       5.38233300      14.21626252
Pd      10.94220584       5.36101493      13.96603666
Pd       0.11192747       8.27165523      13.94247613
Pd       2.82463495       8.32775860      14.02033656
Pd       5.53723278       8.30784812      13.93021003
Pd       8.27945554       8.18247450      13.90246575
Pd      11.07938379       8.16930028      14.01896604
Pd      13.74727741      11.01501634      14.12226337
Pd       2.75185163      11.03092767      14.01671450
Pd       5.53299995      11.08857768      14.01421397
Pd       8.31585069      10.98576528      13.93431102
Pd      11.02644392      10.92548878      13.94765539
Pd      12.45705578       6.50704930      16.10801291
Pd       9.73077241       9.59073444      16.11110082
Pd       1.40283667      12.25121606      16.24140456
Pd       2.00414899       7.79459627      16.60696069
Pd      12.55933146       9.39189764      16.21836509
Pd       9.43169109      13.31704893      16.21990106
Pd       4.25439131       1.41976481      16.41167025
Pd       7.04959956      10.43405419      16.29079444
Pd       4.17070862      12.48961680      16.01573044
Pd      12.30349768      12.20396827      16.25775580
Pd       0.16712094       4.81833567      17.56499448
Pd       2.82156612       4.72337101      17.51892841
Pd      11.77438489       2.14909995      16.51271654
Pd       4.13075857       9.85963576      16.32252750
Pd       5.29232978       4.20072570      16.54068896
Pd       6.74268762      13.19462270      16.54867626
Pd       9.65296404       6.71622292      16.04312936
Pd       7.22080321       2.38475027      16.32360150
Pd       0.86725899       2.25183012      16.63612601
Pd       4.98832988       6.87159059      16.49581972
O       10.42820660       1.17605599      15.45623746
O       11.21585091      10.66373594      16.83120908
O        3.75205454       8.09737041      17.38918631
O       11.45775798       0.78449663      18.03638294
O       11.05036356      13.32415855      17.66726055
O        5.80988202       8.86341182      15.89773295
O        2.45448825       1.59606418      15.60900855
O        1.33396957       4.26983645      14.85200403
O        8.20138618      11.89893357      16.95200041
O        2.87145336      11.22054223      16.99923681
O       13.70740246      13.58025640      16.01106496
O        1.53049581       6.18917673      17.78233857
O        8.41805317       3.69295200      15.52390394
O        8.37988226       8.17729407      15.94162721
O        4.01466587       3.17248891      17.56649811
O       13.10922989       3.05984026      17.59412680
O       10.96889087       5.26629806      16.05090512
O        0.11869211       7.89509618      15.98401855
O        6.01133244       1.14474953      17.24293842
O        6.36086903       5.64552674      15.74916092
115
Lattice="13.75323 0.0 0.0 0.0 13.75323 0.0 0.0 0.0 23.89" Properties=species:S:1:pos:R:3 entry_id=8 rank=25 energy=-572.1316528320312 pbc="T T F"
Pd       0.00000000       0.00000000      10.00000000
Pd       2.75064538       0.00000000      10.00000000
Pd       5.50129076       0.00000000      10.00000000
Pd       8.25193614       0.00000000      10.00000000
Pd      11.00258152       0.00000000      10.00000000
Pd       0.00000000       2.75064538      10.00000000
Pd       2.75064538       2.75064538      10.00000000
Pd       5.50129076       2.75064538      10.00000000
Pd       8.25193614       2.75064538      10.00000000
Pd      11.00258152       2.75064538      10.00000000
Pd       0.00000000       5.50129076      10.00000000
Pd       2.75064538       5.50129076      10.00000000
Pd       5.50129076       5.50129076      10.00000000
Pd       8.25193614       5.50129076      10.00000000
Pd      11.00258152       5.50129076      10.00000000
Pd       0.00000000       8.25193614      10.00000000
Pd       2.75064538       8.25193614      10.00000000
Pd       5.50129076       8.25193614      10.00000000
Pd       8.25193614       8.25193614      10.00000000
Pd      11.00258152       8.25193614      10.00000000
Pd       0.00000000      11.00258152      10.00000000
Pd       2.75064538      11.00258152      10.00000000
Pd       5.50129076      11.00258152      10.00000000
Pd       8.25193614      11.00258152      10.00000000
Pd      11.00258152      11.00258152      10.00000000
Pd       1.33305437       1.38035701      12.05221797
Pd       4.08925664       1.38750338      11.98771029
Pd       6.82888190       1.38154444      11.99332965
Pd       9.57512057       1.39592898      11.89594876
Pd      12.38684272       1.37174114      11.92044161
Pd       1.37065655       4.09970544      12.00656864
Pd       4.10125007       4.12393621      12.00820233
Pd       6.82444734       4.12497179      12.00908219
Pd       9.56728621       4.13975942      11.94281254
Pd      12.36578195       4.13265160      11.93417299
Pd       1.37110082       6.89256210      11.94010419
Pd       4.13935064       6.87026939      11.96482277
Pd       6.87097415       6.85831372      11.95140951
Pd       9.64205429       6.82915781      11.94515418
Pd      12.39111484       6.85622887      11.94896407
Pd       1.35216595       9.69735034      11.99083951
Pd       4.11777592       9.66324146      11.95099537
Pd       6.89476706       9.64088005      11.95142944
Pd       9.64982872       9.59779534      11.89439304
Pd      12.42487279       9.60955999      11.94161946
Pd       1.35802606      12.41462245      12.04582394
Pd       4.10624816      12.40887780      12.00662317
Pd       6.86816975      12.39901143      11.97280504
Pd       9.63028672      12.36702810      11.91406436
Pd      12.41879361      12.34804731      11.97632258
Pd      10.94859852      13.66821678      13.91140557
Pd      13.65130503       0.11706278      14.00777675
Pd       2.65156474      13.72865541      14.08300233
Pd       5.44216057       0.07328732      14.09474353
Pd       8.13632773      13.68034003      13.95509617
Pd       2.82035005       2.82768788      14.04246478
Pd       5.52933150       2.76365756      14.08076243
Pd       8.30069361       2.62336897      13.87708013
Pd      11.02243053       2.70524748      13.90354103
Pd      13.73544982       2.85078262      14.09431377
Pd      13.62693291       5.61557820      13.87929532
Pd       2.73552346       5.62162852      13.96268719
Pd       5.40798635       5.53454975      13.95693592
Pd       8.17291297       5.38604782      14.22871271
Pd      10.91781935       5.37232713      13.98122192
Pd       0.12924867       8.33608229      13.97283949
Pd       2.83163823       8.30880864      14.02831195
Pd       5.54570843       8.32378662      13.92809538
Pd       8.29150979       8.18549256      13.90020818
Pd      11.10143312       8.17263188      14.03168048
Pd       0.00275939      11.06692174      14.12994385
Pd       2.75567915      10.99715045      14.02490499
Pd       5.53783722      11.10337170      14.00545181
Pd       8.32633372      10.98405097      13.92490335
Pd      11.03977040      10.93200145      13.94437498
Pd      12.49104389       6.53090646      16.16090662
Pd       9.72537544       9.61292499      16.10155976
Pd       1.40166181      12.25770295      16.25379955
Pd       2.04418029       7.77547328      16.64322851
Pd      12.57504595       9.42950261      16.22042792
Pd       9.41438715      13.42934245      16.21869915
Pd       4.27724779       1.40035243      16.45141392
Pd       7.07639638      10.54788334      16.29469250
Pd       4.17335969      12.48238123      16.02359571
Pd      12.30291298      12.26179778      16.24400725
Pd       0.20491401       4.78152123      17.63824295
Pd       2.54323282       4.28399086      16.46213603
Pd      11.78916229       2.19818847      16.53109527
Pd       4.12157969       9.87385454      16.34655560
Pd       5.31039014       4.29535694      16.53307881
Pd       6.72152707      13.29316164      16.57027893
Pd       9.67422433       6.73831760      16.05259825
Pd       7.22522605       2.44638933      16.36304568
Pd       0.86136010       2.09765816      16.63336588
Pd       5.17133856       6.96315922      16.45635530
O       10.44677326       1.25971282      15.43657887
O       11.21348364      10.70826574      16.78383398
O        3.82611119       8.06050991      17.35493262
O       11.44497078       0.82474729      18.03347162
O       11.03002442      13.37175172      17.64422377
O        5.84769657       8.97498274      15.88311845
O        2.47443624       1.45670975      15.60648924
O        1.21585701       4.58496263      14.96981148
O        8.20058002      12.01707685      16.96951359
O        2.85174214      11.21883972      17.02132936
O       13.73519723      13.63328714      16.02576170
O        1.68587263       6.00894726      17.57197214
O        8.44788382       3.69911334      15.52674514
O        8.39113697       8.18529433      15.93783397
O        3.93902825       3.27024985      17.45194457
O       13.16276459       3.00997539      17.64363224
O       11.00021960       5.29518378      16.07066209
O        0.15047376       7.92499824      16.02630221
O        6.01960256       1.23725994      17.32199960
O        6.47696395       5.66493056      15.72724476
115
Lattice="13.75323 0.0 0.0 0.0 13.75323 0.0 0.0 0.0 23.89" Properties=species:S:1:pos:R:3 entry_id=11 rank=26 energy=-572.0263671875 pbc="T T F"
Pd       0.00000000       0.00000000      10.00000000
Pd       2.75064538       0.00000000      10.00000000
Pd       5.50129076       0.00000000      10.00000000
Pd       8.25193614       0.00000000      10.00000000
Pd      11.00258152       0.00000000      10.00000000
Pd       0.00000000       2.75064538      10.00000000
Pd       2.75064538       2.75064538      10.00000000
Pd       5.50129076       2.75064538      10.00000000
Pd       8.25193614       2.75064538      10.00000000
Pd      11.00258152       2.75064538      10.00000000
Pd       0.00000000       5.50129076      10.00000000
Pd       2.75064538       5.50129076      10.00000000
Pd       5.50129076       5.50129076      10.00000000
Pd       8.25193614       5.50129076      10.00000000
Pd      11.00258152       5.50129076      10.00000000
Pd       0.00000000       8.25193614      10.00000000
Pd       2.75064538       8.25193614      10.00000000
Pd       5.50129076       8.25193614      10.00000000
Pd       8.25193614       8.25193614      10.00000000
Pd      11.00258152       8.25193614      10.00000000
Pd       0.00000000      11.00258152      10.00000000
Pd       2.75064538      11.00258152      10.00000000
Pd       5.50129076      11.00258152      10.00000000
Pd       8.25193614      11.00258152      10.00000000
Pd      11.00258152      11.00258152      10.00000000
Pd       1.33305437       1.38035701      12.05221797
Pd       4.08925664       1.38750338      11.98771029
Pd       6.82888190       1.38154444      11.99332965
Pd       9.57512057       1.39592898      11.89594876
Pd      12.38684272       1.37174114      11.92044161
Pd       1.37065655       4.09970544      12.00656864
Pd       4.10125007       4.12393621      12.00820233
Pd       6.82444734       4.12497179      12.00908219
Pd       9.56728621       4.13975942      11.94281254
Pd      12.36578195       4.13265160      11.93417299
Pd       1.37110082       6.89256210      11.94010419
Pd       4.13935064       6.87026939      11.96482277
Pd       6.87097415       6.85831372      11.95140951
Pd       9.64205429       6.82915781      11.94515418
Pd      12.39111484       6.85622887      11.94896407
Pd       1.35216595       9.69735034      11.99083951
Pd       4.11777592       9.66324146      11.95099537
Pd       6.89476706       9.64088005      11.95142944
Pd       9.64982872       9.59779534      11.89439304
Pd      12.42487279       9.60955999      11.94161946
Pd       1.35802606      12.41462245      12.04582394
Pd       4.10624816      12.40887780      12.00662317
Pd       6.86816975      12.39901143      11.97280504
Pd       9.63028672      12.36702810      11.91406436
Pd      12.41879361      12.34804731      11.97632258
Pd      11.00801324      13.72788936      13.97041091
Pd      13.73746158       0.02611759      14.04102219
Pd       2.78689523      13.73957258      14.08129343
Pd       5.53528501       0.00351399      14.08281118
Pd       8.22755205      13.70158606      14.00636018
Pd       2.71999817       2.81467766      14.06006175
Pd       5.46089205       2.70721173      14.07040964
Pd       8.22940191       2.72122298      13.94357397
Pd      10.97452148       2.77158764      13.92298032
Pd      13.64016869       2.87817812      13.96037086
Pd       0.09512251       5.58780760      14.08762359
Pd       2.79072244       5.54218808      14.05220178
Pd       5.48548019       5.49922571      13.93024689
Pd       8.23570915       5.45937165      13.97713739
Pd      11.09478524       5.51789055      13.95889575
Pd       0.00307592       8.28171378      13.92884666
Pd       2.75208206       8.24847080      13.98174645
Pd       5.49437982       8.28383044      13.95751515
Pd       8.23461440       8.14758102      14.00015503
Pd      10.96238636       8.28364409      13.91407070
Pd      13.69728974      11.00951499      13.99664408
Pd       2.71966897      10.98191707      14.08236052
Pd       5.49990733      11.02523058      13.92208466
Pd       8.24536909      10.89787092      13.95004466
Pd      10.97807490      11.01004989      13.90174469
Pd      11.61810003       7.37978491      16.29197026
Pd       9.42083104       9.02992837      16.29017046
Pd       1.03408201      11.57313665      16.35182390
Pd       1.37472985       7.91138736      16.57680233
Pd      12.12354839      10.10850797      16.21078830
Pd       9.52042281      12.24485879      15.87145138
Pd       4.38198947       1.18110531      16.50422858
Pd       6.73442658      10.29711294      16.27493907
Pd       4.34084846      12.18976534      16.00256703
Pd      12.02999091      13.37206310      16.61104043
Pd      12.86366024       4.93480492      16.77469618
Pd       2.25031531       4.26795325      16.51434653
Pd      11.45115241       2.19764663      16.69496001
Pd       3.68329347       9.58057971      16.36451729
Pd       4.95325287       4.14218639      16.44042503
Pd       6.81013865      13.44707802      16.69350662
Pd       9.75848532       5.61209917      16.34746995
Pd       7.23004893       2.79903092      16.45313834
Pd       1.06289619       1.80951346      16.12288245
Pd       4.54926466       6.73879072      16.37756804
O        9.61705954       1.36803290      14.74718108
O       10.35254136      10.67567456      16.89161316
O        3.18271486       7.72435353      17.32263120
O        9.91962669       1.23154065      17.45498218
O       10.25255483      13.63001187      17.44007527
O        5.50103819       8.80441753      15.96374111
O        2.59208835       0.61867934      16.01608875
O        0.89456178       5.72365079      16.14358948
O        7.79191133      11.79247033      16.87402320
O        1.83422297       9.91011226      16.96605098
O        0.15097809      13.32804965      16.05728788
O       12.50253886       6.52416775      17.78224418
O        8.39744033       4.11742285      15.61084213
O        8.62895450       7.25878688      15.89902926
O        3.59606594       3.01153010      17.25075926
O       13.18891526       2.98542381      16.04309131
O       11.02319651       4.23000243      17.09562545
O       13.36213663       8.50018193      15.91328675
O        6.16390635       1.43061335      17.29944086
O        6.07122246       5.63354236      15.84329454
115
Lattice="13.75323 0.0 0.0 0.0 13.75323 0.0 0.0 0.0 23.89" Properties=species:S:1:pos:R:3 entry_id=29 rank=27 energy=-572.01025390625 pbc="T T F"
Pd       0.00000000       0.00000000      10.00000000
Pd       2.75064538       0.00000000      10.00000000
Pd       5.50129076       0.00000000      10.00000000
Pd       8.25193614       0.00000000      10.00000000
Pd      11.00258152       0.00000000      10.00000000
Pd       0.00000000       2.75064538      10.00000000
Pd       2.75064538       2.75064538      10.00000000
Pd       5.50129076       2.75064538      10.00000000
Pd       8.25193614       2.75064538      10.00000000
Pd      11.00258152       2.75064538      10.00000000
Pd       0.00000000       5.50129076      10.00000000
Pd       2.75064538       5.50129076      10.00000000
Pd       5.50129076       5.50129076      10.00000000
Pd       8.25193614       5.50129076      10.00000000
Pd      11.00258152       5.50129076      10.00000000
Pd       0.00000000       8.25193614      10.00000000
Pd       2.75064538       8.25193614      10.00000000
Pd       5.50129076       8.25193614      10.00000000
Pd       8.25193614       8.25193614      10.00000000
Pd      11.00258152       8.25193614      10.00000000
Pd       0.00000000      11.00258152      10.00000000
Pd       2.75064538      11.00258152      10.00000000
Pd       5.50129076      11.00258152      10.00000000
Pd       8.25193614      11.00258152      10.00000000
Pd      11.00258152      11.00258152      10.00000000
Pd       1.33305437       1.38035701      12.05221797
Pd       4.08925664       1.38750338      11.98771029
Pd       6.82888190       1.38154444      11.99332965
Pd       9.57512057       1.39592898      11.89594876
Pd      12.38684272       1.37174114      11.92044161
Pd       1.37065655       4.09970544      12.00656864
Pd       4.10125007       4.12393621      12.00820233
Pd       6.82444734       4.12497179      12.00908219
Pd       9.56728621       4.13975942      11.94281254
Pd      12.36578195       4.13265160      11.93417299
Pd       1.37110082       6.89256210      11.94010419
Pd       4.13935064       6.87026939      11.96482277
Pd       6.87097415       6.85831372      11.95140951
Pd       9.64205429       6.82915781      11.94515418
Pd      12.39111484       6.85622887      11.94896407
Pd       1.35216595       9.69735034      11.99083951
Pd       4.11777592       9.66324146      11.95099537
Pd       6.89476706       9.64088005      11.95142944
Pd       9.64982872       9.59779534      11.89439304
Pd      12.42487279       9.60955999      11.94161946
Pd       1.35802606      12.41462245      12.04582394
Pd       4.10624816      12.40887780      12.00662317
Pd       6.86816975      12.39901143      11.97280504
Pd       9.63028672      12.36702810      11.91406436
Pd      12.41879361      12.34804731      11.97632258
Pd      10.99782684      13.74460111      14.00574286
Pd      13.72729309       0.00507511      14.01757614
Pd       2.78977624      13.74426547      14.05603252
Pd       5.53772016       0.00651052      14.06492747
Pd       8.24985438      13.68864668      14.03562300
Pd       2.72869146       2.81371132      14.05641551
Pd       5.47098994       2.73785635      14.04301086
Pd       8.19558719       2.71481969      13.92532801
Pd      10.95377111       2.78474021      13.94361707
Pd      13.64462890       2.84166677      13.97555697
Pd       0.11951227       5.56526818      14.08836318
Pd       2.83322105       5.53406928      14.06026995
Pd       5.57667030       5.52118114      13.92078523
Pd       8.37087889       5.44728576      14.08827662
Pd      11.11610471       5.51461043      14.04695547
Pd      13.71801763       8.26323354      13.96310778
Pd       2.72448241       8.23707528      13.99625156
Pd       5.46988959       8.30128538      13.99179685
Pd       8.19150982       8.15047127      13.87260849
Pd      10.93983144       8.26468231      13.87926466
Pd      13.70803952      10.99262736      13.99101970
Pd       2.71376150      10.97127230      14.08452502
Pd       5.46926164      11.03794449      13.91587861
Pd       8.20778954      10.91274082      13.94252604
Pd      10.96598327      11.01241219      13.90804959
Pd      11.42068122       7.82573406      16.45796252
Pd       9.19441343       9.28763061      15.92470383
Pd       1.06399122      11.52310571      16.36957530
Pd       1.23857432       7.84528202      16.60245349
Pd      12.23956316      10.40522291      16.24168646
Pd       9.47082133      12.14709405      15.92408461
Pd       4.52880642       1.28483864      16.38867651
Pd       6.59897240      10.43857268      16.32119663
Pd       4.28992792      12.20371896      16.01532974
Pd      12.12593415      13.11207718      16.59049156
Pd      12.77954809       4.67932843      16.73558951
Pd       2.15590351       4.26506611      16.47731362
Pd      11.54048316       1.86765195      16.67848812
Pd       3.58381829       9.54772985      16.41038733
Pd       4.85723312       4.18620108      16.40237212
Pd       6.90257435      13.59382678      16.59474537
Pd      10.04744185       5.46671248      16.85496545
Pd       7.35905228       3.23449375      16.39697199
Pd       1.19468941       1.66388443      16.11348075
Pd       4.32700444       6.75094908      16.34536262
O        9.55358466       1.43786945      14.78559630
O       10.35975287      10.60775406      16.96688817
O        3.01465981       7.66396260      17.39801329
O       10.04054123       0.91536459      17.52285997
O       10.35691657      13.31651308      17.48660661
O        5.43112754       8.91434903      15.97271276
O        2.77071359       0.50065441      16.05348805
O        0.72464450       5.68686894      16.15656939
O        7.70762822      11.88342293      16.96479708
O        1.73302409       9.82471917      17.01720711
O        0.24500005      13.30590584      16.03170888
O       11.83467128       6.18903065      17.59401517
O        8.38886729       4.83988192      16.02453205
O        9.54113529       7.47984317      16.90385815
O        3.52811730       3.01002293      17.19856142
O       13.26805166       2.75676210      16.04831511
O       11.09926541       3.77245343      17.28145620
O       13.23409759       8.43615070      15.94995374
O        6.37353290       1.67244196      16.98416161
O        5.91566275       5.74463269      15.86343800
115
Lattice="13.75323 0.0 0.0 0.0 13.75323 0.0 0.0 0.0 23.89" Properties=species:S:1:pos:R:3 entry_id=14 rank=28 energy=-572.0072631835938 pbc="T T F"
Pd       0.00000000       0.00000000      10.00000000
Pd       2.75064538       0.00000000      10.00000000
Pd       5.50129076       0.00000000      10.00000000
Pd       8.25193614       0.00000000      10.00000000
Pd      11.00258152       0.00000000      10.00000000
Pd       0.00000000       2.75064538      10.00000000
Pd       2.75064538       2.75064538      10.00000000
Pd       5.50129076       2.75064538      10.00000000
Pd       8.25193614       2.75064538      10.00000000
Pd      11.00258152       2.75064538      10.00000000
Pd       0.00000000       5.50129076      10.00000000
Pd       2.75064538       5.50129076      10.00000000
Pd       5.50129076       5.50129076      10.00000000
Pd       8.25193614       5.50129076      10.00000000
Pd      11.00258152       5.50129076      10.00000000
Pd       0.00000000       8.25193614      10.00000000
Pd       2.75064538       8.25193614      10.00000000
Pd       5.50129076       8.25193614      10.00000000
Pd       8.25193614       8.25193614      10.00000000
Pd      11.00258152       8.25193614      10.00000000
Pd       0.00000000      11.00258152      10.00000000
Pd       2.75064538      11.00258152      10.00000000
Pd       5.50129076      11.00258152      10.00000000
Pd       8.25193614      11.00258152      10.00000000
Pd      11.00258152      11.00258152      10.00000000
Pd       1.33305437       1.38035701      12.05221797
Pd       4.08925664       1.38750338      11.98771029
Pd       6.82888190       1.38154444      11.99332965
Pd       9.57512057       1.39592898      11.89594876
Pd      12.38684272       1.37174114      11.92044161
Pd       1.37065655       4.09970544      12.00656864
Pd       4.10125007       4.12393621      12.00820233
Pd       6.82444734       4.12497179      12.00908219
Pd       9.56728621       4.13975942      11.94281254
Pd      12.36578195       4.13265160      11.93417299
Pd       1.37110082       6.89256210      11.94010419
Pd       4.13935064       6.87026939      11.96482277
Pd       6.87097415       6.85831372      11.95140951
Pd       9.64205429       6.82915781      11.94515418
Pd      12.39111484       6.85622887      11.94896407
Pd       1.35216595       9.69735034      11.99083951
Pd       4.11777592       9.66324146      11.95099537
Pd       6.89476706       9.64088005      11.95142944
Pd       9.64982872       9.59779534      11.89439304
Pd      12.42487279       9.60955999      11.94161946
Pd       1.35802606      12.41462245      12.04582394
Pd       4.10624816      12.40887780      12.00662317
Pd       6.86816975      12.39901143      11.97280504
Pd       9.63028672      12.36702810      11.91406436
Pd      12.41879361      12.34804731      11.97632258
Pd      10.99126066      13.74147555      13.99615326
Pd      13.72180997       0.00545565      14.01318044
Pd       2.79014458      13.74351366      14.04972088
Pd       5.54046633       0.01027074      14.06887198
Pd       8.24891170      13.68270128      14.03660023
Pd       2.73699213       2.81291965      14.05479452
Pd       5.47490826       2.73908566      14.04642373
Pd       8.19550531       2.70356341      13.93101592
Pd      10.96053300       2.78291231      13.94212686
Pd      13.65408170       2.84101963      13.97470179
Pd       0.11068990       5.56619417      14.08263444
Pd       2.82800144       5.53870536      14.05653822
Pd       5.57105473       5.52326959      13.92345612
Pd       8.36325629       5.42969968      14.09516894
Pd      11.10777681       5.51768762      14.04258161
Pd      13.73235376       8.26650757      13.96028715
Pd       2.74219122       8.24302432      13.98721563
Pd       5.48913093       8.30412976      13.98788617
Pd       8.20597529       8.14152345      13.87863338
Pd      10.94890729       8.27004413      13.88060520
Pd      13.70367506      10.99529730      13.98683653
Pd       2.71021187      10.97200088      14.07990287
Pd       5.47119844      11.04171624      13.92076970
Pd       8.21020958      10.90493284      13.94880771
Pd      10.96510688      11.01309429      13.90748318
Pd      11.43435360       7.79651660      16.44813634
Pd       9.19751676       9.26803939      15.94549328
Pd       1.06497478      11.51375333      16.36274329
Pd       1.26544955       7.83405545      16.58515327
Pd      12.23845609      10.37207462      16.23421325
Pd       9.48029226      12.13850568      15.92433457
Pd       4.53061085       1.27739039      16.40458041
Pd       6.61123234      10.43759491      16.32328434
Pd       4.27992885      12.21061956      16.00934299
Pd      12.12625194      13.09141262      16.57709320
Pd      12.79921272       4.66487489      16.73611299
Pd       2.15890737       4.25515569      16.46677862
Pd      11.54988789       1.84980519      16.68773754
Pd       3.59833634       9.55513130      16.40136375
Pd       4.86473156       4.16729147      16.40538201
Pd       6.89860703      13.58902841      16.60921600
Pd      10.06839421       5.43860031      16.86293931
Pd       7.37073194       3.20094084      16.41717209
Pd       1.20115920       1.64830191      16.10597321
Pd       4.39312692       6.74532652      16.33616283
O        9.56754473       1.43792590      14.78465396
O       10.36604901      10.59582134      16.97129173
O        3.05986515       7.67030660      17.35565650
O       10.05270151       0.89791608      17.53874090
O       10.36519806      13.29881074      17.49227472
O        5.44573121       8.91051452      15.97116745
O        2.77804820       0.48479914      16.05115423
O        0.73894903       5.68124473      16.14054430
O        7.71885358      11.88132891      16.96414962
O        1.74424313       9.81790956      17.00667796
O        0.24758146      13.29757204      16.02489821
O       11.85849759       6.17475043      17.59840072
O        8.42154259       4.79033650      16.02416682
O        9.55783373       7.44785980      16.90230532
O        3.52176481       3.00356105      17.20076364
O       13.27464745       2.74040573      16.04508568
O       11.12503570       3.75429068      17.29615048
O       13.25056636       8.41584966      15.94942616
O        6.36685811       1.65955571      17.02569126
O        5.96081880       5.70213616      15.86584733
115
Lattice="13.75323 0.0 0.0 0.0 13.75323 0.0 0.0 0.0 23.89" Properties=species:S:1:pos:R:3 entry_id=12 rank=29 energy=-571.9495239257812 pbc="T T F"
Pd       0.00000000       0.00000000      10.00000000
Pd       2.75064538       0.00000000      10.00000000
Pd       5.50129076       0.00000000      10.00000000
Pd       8.25193614       0.00000000      10.00000000
Pd      11.00258152       0.00000000      10.00000000
Pd       0.00000000       2.75064538      10.00000000
Pd       2.75064538       2.75064538      10.00000000
Pd       5.50129076       2.75064538      10.00000000
Pd       8.25193614       2.75064538      10.00000000
Pd      11.00258152       2.75064538      10.00000000
Pd       0.00000000       5.50129076      10.00000000
Pd       2.75064538       5.50129076      10.00000000
Pd       5.50129076       5.50129076      10.00000000
Pd       8.25193614       5.50129076      10.00000000
Pd      11.00258152       5.50129076      10.00000000
Pd       0.00000000       8.25193614      10.00000000
Pd       2.75064538       8.25193614      10.00000000
Pd       5.50129076       8.25193614      10.00000000
Pd       8.25193614       8.25193614      10.00000000
Pd      11.00258152       8.25193614      10.00000000
Pd       0.00000000      11.00258152      10.00000000
Pd       2.75064538      11.00258152      10.00000000
Pd       5.50129076      11.00258152      10.00000000
Pd       8.25193614      11.00258152      10.00000000
Pd      11.00258152      11.00258152      10.00000000
Pd       1.33305437       1.38035701      12.05221797
Pd       4.08925664       1.38750338      11.98771029
Pd       6.82888190       1.38154444      11.99332965
Pd       9.57512057       1.39592898      11.89594876
Pd      12.38684272       1.37174114      11.92044161
Pd       1.37065655       4.09970544      12.00656864
Pd       4.10125007       4.12393621      12.00820233
Pd       6.82444734       4.12497179      12.00908219
Pd       9.56728621       4.13975942      11.94281254
Pd      12.36578195       4.13265160      11.93417299
Pd       1.37110082       6.89256210      11.94010419
Pd       4.13935064       6.87026939      11.96482277
Pd       6.87097415       6.85831372      11.95140951
Pd       9.64205429       6.82915781      11.94515418
Pd      12.39111484       6.85622887      11.94896407
Pd       1.35216595       9.69735034      11.99083951
Pd       4.11777592       9.66324146      11.95099537
Pd       6.89476706       9.64088005      11.95142944
Pd       9.64982872       9.59779534      11.89439304
Pd      12.42487279       9.60955999      11.94161946
Pd       1.35802606      12.41462245      12.04582394
Pd       4.10624816      12.40887780      12.00662317
Pd       6.86816975      12.39901143      11.97280504
Pd       9.63028672      12.36702810      11.91406436
Pd      12.41879361      12.34804731      11.97632258
Pd      10.96205431      13.70177026      14.00078250
Pd      13.66763331       0.01478317      13.97704032
Pd       2.74435568      13.63580579      14.02359191
Pd       5.53473184       0.01997681      14.10638577
Pd       8.22833227      13.70232664      14.08024574
Pd       2.72518320       2.84806831      14.05706400
Pd       5.47692751       2.73153665      14.06964551
Pd       8.23654043       2.74052134      13.95640039
Pd      10.96869211       2.75671518      13.91405711
Pd      13.61535992       2.84212563      13.92914637
Pd       0.01234590       5.54387950      14.00732401
Pd       2.77051086       5.54434649      14.05901024
Pd       5.48461222       5.49043295      13.95953250
Pd       8.21973326       5.58537981      14.09983471
Pd      11.03058663       5.48014763      13.98602938
Pd       0.03268630       8.30009043      14.02951297
Pd       2.75168039       8.23375398      13.97610942
Pd       5.49579932       8.25890982      13.89063978
Pd       8.23683775       8.26499335      13.87273596
Pd      10.99033768       8.24166303      13.91852815
Pd       0.00951892      11.02671530      14.09619913
Pd       2.75390321      10.93257412      13.99604245
Pd       5.52084496      11.03139115      13.98968642
Pd       8.25985897      10.95203816      13.88070075
Pd      11.04819979      10.99406180      13.89806567
Pd      11.72303704       7.12952134      16.22521320
Pd       9.40124467       8.55549814      16.24964387
Pd       1.45426268      12.13074588      16.19776184
Pd       1.62962337       6.99674089      16.38128890
Pd      12.18349431       9.77042758      16.06788726
Pd       9.54938879      12.00493398      15.87947145
Pd       4.38146516       1.31133561      16.43400614
Pd       6.92087775       9.99496779      16.19047466
Pd       4.30623896      12.37865924      16.02149798
Pd      12.01941824      13.13154398      16.60189692
Pd      12.59123709       4.59024825      16.91482514
Pd       2.10400731       4.16114247      16.58156934
Pd      11.19833993       1.83113602      16.89215273
Pd       4.09094805       9.70294138      16.19446251
Pd       4.83846814       4.13527518      16.52009685
Pd       6.83658898      13.29317664      16.69852630
Pd       9.76379647       5.25754329      16.51625205
Pd       7.10234545       2.66936071      16.46584661
Pd       0.88368316       1.88846047      16.14816013
Pd       4.38200744       6.79546223      16.41224585
O        9.63901091       1.38528113      14.82235318
O       10.35066271      10.24023820      16.68275888
O        3.06699903       8.10988055      17.08772875
O        9.80137716       0.68713846      17.67864705
O       10.27141664      13.12313460      17.54836294
O        5.68863599       8.47400295      15.91303542
O        2.65420388       1.28942383      15.50623690
O        0.55001071       5.29984043      16.04646598
O        7.79115796      11.60174603      16.81057095
O        2.94021140      11.11927114      16.91419175
O        0.10237789      13.56060950      16.02170489
O       12.32974177       6.25190944      17.83945941
O        8.27192024       4.00109726      15.64399730
O        8.61134269       6.76570107      15.92850656
O        3.51529608       3.02222382      17.39031730
O       12.84339818       2.72977525      16.14196454
O       10.82423408       3.84192432      17.42370449
O       13.62031085       8.29218113      16.06080270
O        6.11118275       1.24296404      17.34089700
O        5.88984902       5.64166162      15.91932161
115
Lattice="13.75323 0.0 0.0 0.0 13.75323 0.0 0.0 0.0 23.89" Properties=species:S:1:pos:R:3 entry_id=6 rank=30 energy=-571.8129272460938 pbc="T T F"
Pd       0.00000000       0.00000000      10.00000000
Pd       2.75064538       0.00000000      10.00000000
Pd       5.50129076       0.00000000      10.00000000
Pd       8.25193614       0.00000000      10.00000000
Pd      11.00258152       0.00000000      10.00000000
Pd       0.00000000       2.75064538      10.00000000
Pd       2.75064538       2.75064538      10.00000000
Pd       5.50129076       2.75064538      10.00000000
Pd       8.25193614       2.75064538      10.00000000
Pd      11.00258152       2.75064538      10.00000000
Pd       0.00000000       5.50129076      10.00000000
Pd       2.75064538       5.50129076      10.00000000
Pd       5.50129076       5.50129076      10.00000000
Pd       8.25193614       5.50129076      10.00000000
Pd      11.00258152       5.50129076      10.00000000
Pd       0.00000000       8.25193614      10.00000000
Pd       2.75064538       8.25193614      10.00000000
Pd       5.50129076       8.25193614      10.00000000
Pd       8.25193614       8.25193614      10.00000000
Pd      11.00258152       8.25193614      10.00000000
Pd       0.00000000      11.00258152      10.00000000
Pd       2.75064538      11.00258152      10.00000000
Pd       5.50129076      11.00258152      10.00000000
Pd       8.25193614      11.00258152      10.00000000
Pd      11.00258152      11.00258152      10.00000000
Pd       1.33305437       1.38035701      12.05221797
Pd       4.08925664       1.38750338      11.98771029
Pd       6.82888190       1.38154444      11.99332965
Pd       9.57512057       1.39592898      11.89594876
Pd      12.38684272       1.37174114      11.92044161
Pd       1.37065655       4.09970544      12.00656864
Pd       4.10125007       4.12393621      12.00820233
Pd       6.82444734       4.12497179      12.00908219
Pd       9.56728621       4.13975942      11.94281254
Pd      12.36578195       4.13265160      11.93417299
Pd       1.37110082       6.89256210      11.94010419
Pd       4.13935064       6.87026939      11.96482277
Pd       6.87097415       6.85831372      11.95140951
Pd       9.64205429       6.82915781      11.94515418
Pd      12.39111484       6.85622887      11.94896407
Pd       1.35216595       9.69735034      11.99083951
Pd       4.11777592       9.66324146      11.95099537
Pd       6.89476706       9.64088005      11.95142944
Pd       9.64982872       9.59779534      11.89439304
Pd      12.42487279       9.60955999      11.94161946
Pd       1.35802606      12.41462245      12.04582394
Pd       4.10624816      12.40887780      12.00662317
Pd       6.86816975      12.39901143      11.97280504
Pd       9.63028672      12.36702810      11.91406436
Pd      12.41879361      12.34804731      11.97632258
Pd      10.89452609      13.72334848      13.92321429
Pd      13.64429779       0.09363862      14.02526082
Pd       2.66532564       0.04616367      14.13939000
Pd       5.44137731       0.10421364      14.05416904
Pd       8.15406049      13.66067419      13.93221281
Pd       2.82634655       2.84010800      14.01284037
Pd       5.57740307       2.81024208      14.07975429
Pd       8.34566536       2.60009707      14.00083475
Pd      11.03353852       2.64761669      13.88767319
Pd      13.67885517       2.82516074      13.98633606
Pd      13.74915703       5.60589160      14.04963106
Pd       2.71347946       5.53887028      14.03231525
Pd       5.46942248       5.53967302      13.97139213
Pd       8.19534919       5.36514113      13.98465960
Pd      11.03208312       5.35499829      13.94384553
Pd      13.69314384       8.30365631      14.00395731
Pd       2.67727896       8.24845337      13.92604083
Pd       5.50108427       8.28943231      14.02084716
Pd       8.22815786       8.17514865      13.96597316
Pd      11.00386919       8.13323031      14.05903040
Pd       0.03187358      11.05445281      14.16639354
Pd       2.75035945      11.10402673      13.94077913
Pd       5.55545357      11.08530284      13.98836592
Pd       8.32558008      10.96349279      13.88182550
Pd      11.04726055      10.95498054      13.91770021
Pd      12.33306242       6.52431404      16.35716456
Pd       9.53648744       9.58151290      16.03921379
Pd       1.50616653      12.40199014      16.32479160
Pd       1.54828909       7.53246205      16.82112181
Pd      12.33397273       9.56528069      16.18857917
Pd       9.20226255       0.29170321      16.29507305
Pd       4.41452838       1.63292899      16.37374591
Pd       7.14909986      11.00816906      16.28701587
Pd       4.26989850      12.51451701      16.00876639
Pd      12.32740795      12.51821528      16.10362215
Pd       0.11942682       4.80101215      17.69826748
Pd       2.73160591       4.71443626      17.88187003
Pd      11.19200765       2.90119504      16.63954037
Pd       3.80871444       9.63045609      16.01030938
Pd       5.04526241       4.49382364      16.63366035
Pd       6.68449618      13.63070211      16.51835758
Pd       9.60387500       6.46001365      16.11468680
Pd       7.34820758       3.30565385      16.43894911
Pd       0.80119107       2.21846436      16.49939452
Pd       3.93803355       6.93016816      16.06632658
O        9.37309813       2.28373416      15.96848474
O       10.96407264      11.02939972      16.01147117
O        1.90267721       9.09563728      15.69968488
O       11.50159300       1.19822434      17.75006951
O       11.02717855       0.02973804      17.29953547
O        5.79802514       9.68927199      15.69729359
O        2.53756578       1.58197235      15.66290212
O        1.29563106       4.18892048      14.88467001
O        8.30295917      12.40484050      16.98038118
O        2.99621064      11.31517255      16.98183501
O        0.10530201       0.04002747      16.09394444
O        1.41660255       6.14318261      18.21211085
O        8.15572037       5.01498125      15.95205324
O        8.39591615       8.00606067      16.02761108
O        4.00245694       3.24064048      17.69235910
O       13.01917017       3.14130350      17.30206992
O       11.04024599       5.01764318      16.01244938
O       13.32629976       8.08067727      16.98362356
O        6.27666103       1.74412227      17.04773732
O        5.77029869       6.12306676      15.88419775
115
Lattice="13.75323 0.0 0.0 0.0 13.75323 0.0 0.0 0.0 23.89" Properties=species:S:1:pos:R:3 entry_id=30 rank=31 energy=-571.525146484375 pbc="T T F"
Pd       0.00000000       0.00000000      10.00000000
Pd       2.75064538       0.00000000      10.00000000
Pd       5.50129076       0.00000000      10.00000000
Pd       8.25193614       0.00000000      10.00000000
Pd      11.00258152       0.00000000      10.00000000
Pd       0.00000000       2.75064538      10.00000000
Pd       2.75064538       2.75064538      10.00000000
Pd       5.50129076       2.75064538      10.00000000
Pd       8.25193614       2.75064538      10.00000000
Pd      11.00258152       2.75064538      10.00000000
Pd       0.00000000       5.50129076      10.00000000
Pd       2.75064538       5.50129076      10.00000000
Pd       5.50129076       5.50129076      10.00000000
Pd       8.25193614       5.50129076      10.00000000
Pd      11.00258152       5.50129076      10.00000000
Pd       0.00000000       8.25193614      10.00000000
Pd       2.75064538       8.25193614      10.00000000
Pd       5.50129076       8.25193614      10.00000000
Pd       8.25193614       8.25193614      10.00000000
Pd      11.00258152       8.25193614      10.00000000
Pd       0.00000000      11.00258152      10.00000000
Pd       2.75064538      11.00258152      10.00000000
Pd       5.50129076      11.00258152      10.00000000
Pd       8.25193614      11.00258152      10.00000000
Pd      11.00258152      11.00258152      10.00000000
Pd       1.33305437       1.38035701      12.05221797
Pd       4.08925664       1.38750338      11.98771029
Pd       6.82888190       1.38154444      11.99332965
Pd       9.57512057       1.39592898      11.89594876
Pd      12.38684272       1.37174114      11.92044161
Pd       1.37065655       4.09970544      12.00656864
Pd       4.10125007       4.12393621      12.00820233
Pd       6.82444734       4.12497179      12.00908219
Pd       9.56728621       4.13975942      11.94281254
Pd      12.36578195       4.13265160      11.93417299
Pd       1.37110082       6.89256210      11.94010419
Pd       4.13935064       6.87026939      11.96482277
Pd       6.87097415       6.85831372      11.95140951
Pd       9.64205429       6.82915781      11.94515418
Pd      12.39111484       6.85622887      11.94896407
Pd       1.35216595       9.69735034      11.99083951
Pd       4.11777592       9.66324146      11.95099537
Pd       6.89476706       9.64088005      11.95142944
Pd       9.64982872       9.59779534      11.89439304
Pd      12.42487279       9.60955999      11.94161946
Pd       1.35802606      12.41462245      12.04582394
Pd       4.10624816      12.40887780      12.00662317
Pd       6.86816975      12.39901143      11.97280504
Pd       9.63028672      12.36702810      11.91406436
Pd      12.41879361      12.34804731      11.97632258
Pd      10.98930206       0.06121096      13.95633303
Pd      13.71679280      13.71996414      14.06448457
Pd       2.74379818      13.75144688      14.02470596
Pd       5.50488026       0.02356302      14.09653566
Pd       8.18858598      13.68350414      14.06354926
Pd       2.71180777       2.79782477      14.07955177
Pd       5.47771121       2.77424812      14.00793784
Pd       8.20591155       2.70640759      13.93243522
Pd      10.93389043       2.82068420      13.94509562
Pd      13.63131828       2.79879983      13.97074832
Pd       0.10196162       5.52461822      14.06941055
Pd       2.82844789       5.50825650      14.06581658
Pd       5.59301752       5.56630983      13.95292549
Pd       8.36166112       5.45982905      14.05194620
Pd      11.10274306       5.52647743      14.06090813
Pd      13.74334201       8.23325287      13.94796932
Pd       2.73466684       8.20160440      13.99627367
Pd       5.51341826       8.33251837      13.95760389
Pd       8.23667866       8.17826834      13.88115122
Pd      10.96312805       8.27086882      13.93267380
Pd       0.02828528      10.98716180      13.94452195
Pd       2.72747200      10.94022559      14.03982358
Pd       5.45515816      11.07627884      13.99392264
Pd       8.14271487      10.95434277      13.92949412
Pd      11.08338090      11.09109377      13.91226544
Pd      11.43519597       7.68037356      16.55987598
Pd       9.31449419       9.10670546      16.13410951
Pd       1.11645837      11.24092030      16.43320880
Pd       1.11617937       7.56665393      16.75105154
Pd      12.40539295      10.20028100      16.10220786
Pd       8.51147770      11.82009853      16.66949336
Pd       4.41141535       1.43019342      16.25575574
Pd       6.13606559      10.59889682      16.65827078
Pd       4.00224578      12.28493122      16.04181327
Pd      12.07070809      12.83475374      16.41818334
Pd      12.62053558       4.47054911      16.71791393
Pd       2.03126636       4.20236239      16.50519446
Pd      11.43547299       1.61802083      16.62119868
Pd       3.54913765       9.42584348      16.35367638
Pd       4.74124404       4.35342760      16.30034894
Pd       6.56897017      13.69258770      16.82513417
Pd       9.95582588       5.39255953      16.87802899
Pd       7.24448528       3.40737389      16.30755342
Pd       1.10326584       1.56110298      16.10244301
Pd       3.86869591       6.75648270      16.65302089
O        9.51231364       1.34613268      14.77872466
O        9.63106026      10.89050408      15.35325562
O        2.44882633       6.81400166      17.88917557
O        9.98111973       0.55663701      17.42498088
O       10.24704896      12.95008294      17.22353676
O        5.39917877       8.98083824      15.88341538
O        2.71912305       0.43369804      16.07233470
O        0.53093187       5.51787532      16.15669776
O        6.90507283      12.02387207      17.78071542
O        1.75296121       9.50734780      17.12262313
O        0.23780504      12.99589180      16.03218458
O       11.76107638       5.97461097      17.65289998
O        8.24398354       5.02828089      16.01409035
O        9.53700383       7.40936452      17.10429726
O        3.51537221       3.08846842      17.17493695
O       13.14614358       2.59028108      16.02012315
O       10.91422406       3.57271866      17.17877014
O       13.22264576       8.28567597      15.94388185
O        6.25110345       1.85700394      16.87318596
O        5.56094459       6.10256017      15.87392545
115
Lattice="13.75323 0.0 0.0 0.0 13.75323 0.0 0.0 0.0 23.89" Properties=species:S:1:pos:R:3 entry_id=5 rank=32 energy=-571.3924560546875 pbc="T T F"
Pd       0.00000000       0.00000000      10.00000000
Pd       2.75064538       0.00000000      10.00000000
Pd       5.50129076       0.00000000      10.00000000
Pd       8.25193614       0.00000000      10.00000000
Pd      11.00258152       0.00000000      10.00000000
Pd       0.00000000       2.75064538      10.00000000
Pd       2.75064538       2.75064538      10.00000000
Pd       5.50129076       2.75064538      10.00000000
Pd       8.25193614       2.75064538      10.00000000
Pd      11.00258152       2.75064538      10.00000000
Pd       0.00000000       5.50129076      10.00000000
Pd       2.75064538       5.50129076      10.00000000
Pd       5.50129076       5.50129076      10.00000000
Pd       8.25193614       5.50129076      10.00000000
Pd      11.00258152       5.50129076      10.00000000
Pd       0.00000000       8.25193614      10.00000000
Pd       2.75064538       8.25193614      10.00000000
Pd       5.50129076       8.25193614      10.00000000
Pd       8.25193614       8.25193614      10.00000000
Pd      11.00258152       8.25193614      10.00000000
Pd       0.00000000      11.00258152      10.00000000
Pd       2.75064538      11.00258152      10.00000000
Pd       5.50129076      11.00258152      10.00000000
Pd       8.25193614      11.00258152      10.00000000
Pd      11.00258152      11.00258152      10.00000000
Pd       1.33305437       1.38035701      12.05221797
Pd       4.08925664       1.38750338      11.98771029
Pd       6.82888190       1.38154444      11.99332965
Pd       9.57512057       1.39592898      11.89594876
Pd      12.38684272       1.37174114      11.92044161
Pd       1.37065655       4.09970544      12.00656864
Pd       4.10125007       4.12393621      12.00820233
Pd       6.82444734       4.12497179      12.00908219
Pd       9.56728621       4.13975942      11.94281254
Pd      12.36578195       4.13265160      11.93417299
Pd       1.37110082       6.89256210      11.94010419
Pd       4.13935064       6.87026939      11.96482277
Pd       6.87097415       6.85831372      11.95140951
Pd       9.64205429       6.82915781      11.94515418
Pd      12.39111484       6.85622887      11.94896407
Pd       1.35216595       9.69735034      11.99083951
Pd       4.11777592       9.66324146      11.95099537
Pd       6.89476706       9.64088005      11.95142944
Pd       9.64982872       9.59779534      11.89439304
Pd      12.42487279       9.60955999      11.94161946
Pd       1.35802606      12.41462245      12.04582394
Pd       4.10624816      12.40887780      12.00662317
Pd       6.86816975      12.39901143      11.97280504
Pd       9.63028672      12.36702810      11.91406436
Pd      12.41879361      12.34804731      11.97632258
Pd      10.94217232      13.71687811      13.90528580
Pd      13.68361678       0.01083250      14.00698980
Pd       2.71663565       0.08599596      14.07424154
Pd       5.42347976       0.13004657      13.96716599
Pd       8.26083142      13.71893681      13.96986482
Pd       2.77390323       2.88892695      14.09632216
Pd       5.53924226       2.81976969      14.14495521
Pd       8.26374124       2.64204407      13.90767796
Pd      10.93738971       2.63515593      13.87853491
Pd      13.62767389       2.80020808      13.96760654
Pd       0.02193896       5.54017794      14.01297378
Pd       2.69521791       5.56440623      14.02059108
Pd       5.46458576       5.55001228      13.95488052
Pd       8.21239976       5.36734562      13.97652010
Pd      11.05496373       5.32978272      13.94811759
Pd      13.68517492       8.26579424      13.98060453
Pd       2.87035564       8.29528394      13.93362175
Pd       5.60109604       8.37226667      14.03116376
Pd       8.27889150       8.16742548      13.95851444
Pd      11.01622706       8.10316093      14.02169797
Pd      13.73279998      10.98988912      14.07495650
Pd       2.77918398      11.03439982      13.98045421
Pd       5.54791753      11.16668616      14.07318021
Pd       8.27179305      10.97947256      13.93704838
Pd      10.98261534      10.92825551      13.91559500
Pd      12.35306441       6.39763045      16.37555383
Pd       9.59617726       9.38778586      16.06688248
Pd       1.36009926      11.88395072      16.27804590
Pd       1.48253539       7.23421901      16.44032188
Pd      12.34407305       9.42527202      16.25695754
Pd       8.95361740       0.34811724      16.97109464
Pd       4.92170641       1.32816062      16.55782573
Pd       7.23553532      10.57987179      16.43678427
Pd       3.98475808      12.41441036      16.12361575
Pd      12.28849082      12.34090253      16.05304197
Pd       0.43531597       4.51345980      16.63587275
Pd       3.05828598       4.37793444      17.65846378
Pd      11.29574061       2.72249901      16.57788811
Pd       4.33592308       9.73305146      16.24805741
Pd       5.42945525       4.43344070      16.61324424
Pd       6.63619352      13.08967188      16.07717336
Pd       9.68118096       6.29931302      16.15228087
Pd       7.67268341       3.11351133      16.45075759
Pd       1.17474022       1.52608149      16.19048506
Pd       4.01364423       6.89576499      16.03376919
O        9.44247565       2.27755359      17.07805754
O       10.94650323      10.86982205      16.00925083
O        1.43999825       8.77652586      15.24718196
O       11.74505644       1.01654299      17.53337682
O       11.00373016      13.68027445      17.17383411
O        6.12310141       9.03186032      15.94756228
O        3.06181358       0.64583875      16.15356393
O        2.11844459       3.26510039      16.07492962
O        8.13563639      12.23176020      17.13178158
O        2.85214577      10.80706459      16.91680856
O        0.17345747      13.49262386      16.09362434
O        1.59237516       5.71545350      17.69981258
O        8.22415020       4.91133282      15.94001461
O        8.47475050       7.81554329      16.03543217
O        4.53460106       3.06616448      17.68026949
O       13.24048296       2.84957074      16.03331341
O       11.09958005       4.85912313      16.01573831
O       13.34444466       7.92977125      17.05514972
O        6.88724834       1.36945118      17.04443016
O        5.86976851       6.14367027      15.83668224
115
Lattice="13.75323 0.0 0.0 0.0 13.75323 0.0 0.0 0.0 23.89" Properties=species:S:1:pos:R:3 entry_id=4 rank=33 energy=-570.5682373046875 pbc="T T F"
Pd       0.00000000       0.00000000      10.00000000
Pd       2.75064538       0.00000000      10.00000000
Pd       5.50129076       0.00000000      10.00000000
Pd       8.25193614       0.00000000      10.00000000
Pd      11.00258152       0.00000000      10.00000000
Pd       0.00000000       2.75064538      10.00000000
Pd       2.75064538       2.75064538      10.00000000
Pd       5.50129076       2.75064538      10.00000000
Pd       8.25193614       2.75064538      10.00000000
Pd      11.00258152       2.75064538      10.00000000
Pd       0.00000000       5.50129076      10.00000000
Pd       2.75064538       5.50129076      10.00000000
Pd       5.50129076       5.50129076      10.00000000
Pd       8.25193614       5.50129076      10.00000000
Pd      11.00258152       5.50129076      10.00000000
Pd       0.00000000       8.25193614      10.00000000
Pd       2.75064538       8.25193614      10.00000000
Pd       5.50129076       8.25193614      10.00000000
Pd       8.25193614       8.25193614      10.00000000
Pd      11.00258152       8.25193614      10.00000000
Pd       0.00000000      11.00258152      10.00000000
Pd       2.75064538      11.00258152      10.00000000
Pd       5.50129076      11.00258152      10.00000000
Pd       8.25193614      11.00258152      10.00000000
Pd      11.00258152      11.00258152      10.00000000
Pd       1.33305437       1.38035701      12.05221797
Pd       4.08925664       1.38750338      11.98771029
Pd       6.82888190       1.38154444      11.99332965
Pd       9.57512057       1.39592898      11.89594876
Pd      12.38684272       1.37174114      11.92044161
Pd       1.37065655       4.09970544      12.00656864
Pd       4.10125007       4.12393621      12.00820233
Pd       6.82444734       4.12497179      12.00908219
Pd       9.56728621       4.13975942      11.94281254
Pd      12.36578195       4.13265160      11.93417299
Pd       1.37110082       6.89256210      11.94010419
Pd       4.13935064       6.87026939      11.96482277
Pd       6.87097415       6.85831372      11.95140951
Pd       9.64205429       6.82915781      11.94515418
Pd      12.39111484       6.85622887      11.94896407
Pd       1.35216595       9.69735034      11.99083951
Pd       4.11777592       9.66324146      11.95099537
Pd       6.89476706       9.64088005      11.95142944
Pd       9.64982872       9.59779534      11.89439304
Pd      12.42487279       9.60955999      11.94161946
Pd       1.35802606      12.41462245      12.04582394
Pd       4.10624816      12.40887780      12.00662317
Pd       6.86816975      12.39901143      11.97280504
Pd       9.63028672      12.36702810      11.91406436
Pd      12.41879361      12.34804731      11.97632258
Pd      10.97380664      13.75280483      13.84782949
Pd      13.69497592       0.03049909      14.11762311
Pd       2.64329647       0.05870270      13.97250107
Pd       5.56273508       0.01201974      13.95758122
Pd       8.31233538       0.03381053      14.00776737
Pd       2.68345750       2.80745836      14.07206554
Pd       5.46164208       2.79395368      14.06553175
Pd       8.19889637       2.71976294      14.05592518
Pd      10.88346609       2.66016369      13.93370408
Pd      13.61605267       2.73967751      13.94510928
Pd       0.02274730       5.53460416      13.96721847
Pd       2.73892458       5.55443606      14.02581922
Pd       5.40133878       5.52360893      13.90543571
Pd       8.33327929       5.43727837      13.93283760
Pd      11.06549872       5.34566678      13.98374101
Pd       0.09075426       8.26151216      14.03866071
Pd       2.82419045       8.30821633      13.95800652
Pd       5.54368070       8.32537659      13.89867898
Pd       8.38431073       8.25182282      13.95066256
Pd      11.12646846       8.12122029      14.10687461
Pd      13.64486626      11.03974276      13.98655304
Pd       2.72783406      11.02798167      14.02438711
Pd       5.49869758      11.04512066      14.09177862
Pd       8.25705986      11.01970916      14.01180362
Pd      10.92263354      10.91098408      13.89928310
Pd      12.55951571       6.16489401      16.44939191
Pd       9.92557145       9.65434759      16.16915404
Pd       0.79614121      11.66918710      16.50146471
Pd       1.57390601       7.03282319      15.96446829
Pd      12.57178434       9.09561216      16.77445059
Pd       9.31562087       0.65988093      17.44974321
Pd       6.23719763       1.22935544      16.63103908
Pd       6.94878910       9.57947282      15.95877966
Pd       3.91901612      12.74674800      16.05179589
Pd      12.05550158      12.39492188      15.83417748
Pd       0.85200487       4.30381731      16.41231536
Pd       3.80762629       4.40333076      16.50845576
Pd      11.58608536       2.84492929      16.69970245
Pd       4.21246879       9.70555938      16.32599073
Pd       6.63315609       4.89283032      16.16423500
Pd       7.02811880      12.44181626      16.00915206
Pd       9.76723688       6.51117500      16.15769863
Pd       8.30147373       3.50537407      17.51924284
Pd       1.80535850       0.90307583      16.51963367
Pd       4.33786743       6.99118813      15.97540301
O       10.01383198       2.51369073      17.79427769
O       11.43036595      10.72630965      16.80552961
O        0.32043253       9.92345087      15.67205650
O       12.18413202       1.02094567      17.33167566
O       11.25648969       0.00906235      17.23622654
O        5.53624430       8.40706365      16.86727759
O        4.66693183       0.73541142      15.65262154
O        2.39731313       2.73201958      16.11023940
O        8.49611552      12.68541476      17.23159901
O        2.84480213      11.09442159      16.17782000
O        1.18246582      13.20161763      17.52907665
O        2.25582418       5.48513641      17.14007351
O        8.36014087       5.41319401      17.17527708
O        8.62062757       8.19303908      16.08777536
O        5.42814282       3.27859294      16.17519880
O       13.37261591       2.90819705      15.90604138
O       11.09298976       4.89735094      16.05426630
O       13.73237205       7.54855609      17.14523719
O        7.64595527       1.67801764      17.88621342
O        6.90076916       6.53607839      14.93124132
115
Lattice="13.75323 0.0 0.0 0.0 13.75323 0.0 0.0 0.0 23.89" Properties=species:S:1:pos:R:3 entry_id=3 rank=34 energy=-570.2501831054688 pbc="T T F"
Pd       0.00000000       0.00000000      10.00000000
Pd       2.75064538       0.00000000      10.00000000
Pd       5.50129076       0.00000000      10.00000000
Pd       8.25193614       0.00000000      10.00000000
Pd      11.00258152       0.00000000      10.00000000
Pd       0.00000000       2.75064538      10.00000000
Pd       2.75064538       2.75064538      10.00000000
Pd       5.50129076       2.75064538      10.00000000
Pd       8.25193614       2.75064538      10.00000000
Pd      11.00258152       2.75064538      10.00000000
Pd       0.00000000       5.50129076      10.00000000
Pd       2.75064538       5.50129076      10.00000000
Pd       5.50129076       5.50129076      10.00000000
Pd       8.25193614       5.50129076      10.00000000
Pd      11.00258152       5.50129076      10.00000000
Pd       0.00000000       8.25193614      10.00000000
Pd       2.75064538       8.25193614      10.00000000
Pd       5.50129076       8.25193614      10.00000000
Pd       8.25193614       8.25193614      10.00000000
Pd      11.00258152       8.25193614      10.00000000
Pd       0.00000000      11.00258152      10.00000000
Pd       2.75064538      11.00258152      10.00000000
Pd       5.50129076      11.00258152      10.00000000
Pd       8.25193614      11.00258152      10.00000000
Pd      11.00258152      11.00258152      10.00000000
Pd       1.33305437       1.38035701      12.05221797
Pd       4.08925664       1.38750338      11.98771029
Pd       6.82888190       1.38154444      11.99332965
Pd       9.57512057       1.39592898      11.89594876
Pd      12.38684272       1.37174114      11.92044161
Pd       1.37065655       4.09970544      12.00656864
Pd       4.10125007       4.12393621      12.00820233
Pd       6.82444734       4.12497179      12.00908219
Pd       9.56728621       4.13975942      11.94281254
Pd      12.36578195       4.13265160      11.93417299
Pd       1.37110082       6.89256210      11.94010419
Pd       4.13935064       6.87026939      11.96482277
Pd       6.87097415       6.85831372      11.95140951
Pd       9.64205429       6.82915781      11.94515418
Pd      12.39111484       6.85622887      11.94896407
Pd       1.35216595       9.69735034      11.99083951
Pd       4.11777592       9.66324146      11.95099537
Pd       6.89476706       9.64088005      11.95142944
Pd       9.64982872       9.59779534      11.89439304
Pd      12.42487279       9.60955999      11.94161946
Pd       1.35802606      12.41462245      12.04582394
Pd       4.10624816      12.40887780      12.00662317
Pd       6.86816975      12.39901143      11.97280504
Pd       9.63028672      12.36702810      11.91406436
Pd      12.41879361      12.34804731      11.97632258
Pd      11.01109934      13.70081126      13.89804621
Pd       0.00118243      13.72908056      14.14473776
Pd       2.79042123       0.12409306      14.06455161
Pd       5.57883760       0.01668404      13.93247279
Pd       8.33591205       0.05951103      13.98890105
Pd       2.67717857       2.88958223      14.05127929
Pd       5.41998397       2.79284219      14.14515118
Pd       8.18812689       2.75337477      14.04104011
Pd      10.88819981       2.62162711      13.92169645
Pd      13.62727099       2.71704506      13.99754559
Pd       0.04404609       5.45954443      13.95639095
Pd       2.72668818       5.59808068      14.08443533
Pd       5.39643186       5.50747775      13.85309887
Pd       8.27220228       5.48271338      13.95068344
Pd      11.02077752       5.30386967      13.98253402
Pd       0.06135499       8.21207209      14.01340137
Pd       2.82160912       8.36189246      13.91324519
Pd       5.56918032       8.30716613      13.89493113
Pd       8.36045734       8.31334522      14.08135973
Pd      11.06481267       8.11989629      14.05041076
Pd      13.68158724      10.95830852      13.96687364
Pd       2.65476794      11.07149415      14.05271745
Pd       5.44129782      11.01134292      13.96951599
Pd       8.20969321      11.02758121      13.92777482
Pd      10.90732246      10.88304527      13.92247844
Pd      12.47415793       6.33260517      16.14562761
Pd       9.10329437      10.45018561      16.45539988
Pd       0.84685096      12.40615742      16.70684998
Pd       1.86027097       7.34600740      16.12411858
Pd      12.21111959       9.28241235      16.45841591
Pd       9.19626512       0.49448666      16.96733016
Pd       5.53971949       1.13744157      16.41445701
Pd       6.62425069       9.68517928      16.01804955
Pd       4.28083599      12.43469942      15.99681027
Pd      12.04541915      12.29885072      15.96523888
Pd       0.80455514       4.51850575      16.55355109
Pd       3.59889445       4.54593863      16.69048340
Pd      11.57528513       2.79612671      16.59957983
Pd       3.81933717       9.71812025      16.35064324
Pd       6.41290100       5.04417942      16.19187864
Pd       6.92325297      12.43762181      15.88568279
Pd       9.76633394       6.56206956      16.17363724
Pd       8.13829799       3.32683443      16.84036177
Pd       1.63075267       1.53714026      16.15560998
Pd       4.40633279       6.97837317      15.92796448
O        9.81155794       2.37070091      17.31984495
O       11.02634994      10.74203239      16.98794598
O       13.59265392      10.83439320      15.99461451
O       12.06948282       0.98831881      17.30172404
O       11.15272640      13.72125950      17.14666620
O        5.23509379       8.52267550      16.95495685
O        3.59653073       0.67952789      16.02817059
O        2.19167995       3.15637193      17.26733929
O        8.56393942      12.32827418      16.99328500
O        2.56430017      11.25688637      16.16866271
O        1.29302641       0.22889067      17.58087949
O        2.11999472       5.77537922      17.34525885
O        8.34187846       5.28316025      16.96263611
O        8.97418876       8.42924473      16.06449849
O        5.17212472       3.40910669      16.22510227
O       13.51698658       2.89730769      16.02814446
O       11.10884024       4.90002689      16.06769630
O       13.62365598       7.93142562      16.14072388
O        7.38540167       1.49807774      17.02488768
O        6.86673415       6.71015095      14.97516606
115
Lattice="13.75323 0.0 0.0 0.0 13.75323 0.0 0.0 0.0 23.89" Properties=species:S:1:pos:R:3 entry_id=2 rank=35 energy=-570.2268676757812 pbc="T T F"
Pd       0.00000000       0.00000000      10.00000000
Pd       2.75064538       0.00000000      10.00000000
Pd       5.50129076       0.00000000      10.00000000
Pd       8.25193614       0.00000000      10.00000000
Pd      11.00258152       0.00000000      10.00000000
Pd       0.00000000       2.75064538      10.00000000
Pd       2.75064538       2.75064538      10.00000000
Pd       5.50129076       2.75064538      10.00000000
Pd       8.25193614       2.75064538      10.00000000
Pd      11.00258152       2.75064538      10.00000000
Pd       0.00000000       5.50129076      10.00000000
Pd       2.75064538       5.50129076      10.00000000
Pd       5.50129076       5.50129076      10.00000000
Pd       8.25193614       5.50129076      10.00000000
Pd      11.00258152       5.50129076      10.00000000
Pd       0.00000000       8.25193614      10.00000000
Pd       2.75064538       8.25193614      10.00000000
Pd       5.50129076       8.25193614      10.00000000
Pd       8.25193614       8.25193614      10.00000000
Pd      11.00258152       8.25193614      10.00000000
Pd       0.00000000      11.00258152      10.00000000
Pd       2.75064538      11.00258152      10.00000000
Pd       5.50129076      11.00258152      10.00000000
Pd       8.25193614      11.00258152      10.00000000
Pd      11.00258152      11.00258152      10.00000000
Pd       1.33305437       1.38035701      12.05221797
Pd       4.08925664       1.38750338      11.98771029
Pd       6.82888190       1.38154444      11.99332965
Pd       9.57512057       1.39592898      11.89594876
Pd      12.38684272       1.37174114      11.92044161
Pd       1.37065655       4.09970544      12.00656864
Pd       4.10125007       4.12393621      12.00820233
Pd       6.82444734       4.12497179      12.00908219
Pd       9.56728621       4.13975942      11.94281254
Pd      12.36578195       4.13265160      11.93417299
Pd       1.37110082       6.89256210      11.94010419
Pd       4.13935064       6.87026939      11.96482277
Pd       6.87097415       6.85831372      11.95140951
Pd       9.64205429       6.82915781      11.94515418
Pd      12.39111484       6.85622887      11.94896407
Pd       1.35216595       9.69735034      11.99083951
Pd       4.11777592       9.66324146      11.95099537
Pd       6.89476706       9.64088005      11.95142944
Pd       9.64982872       9.59779534      11.89439304
Pd      12.42487279       9.60955999      11.94161946
Pd       1.35802606      12.41462245      12.04582394
Pd       4.10624816      12.40887780      12.00662317
Pd       6.86816975      12.39901143      11.97280504
Pd       9.63028672      12.36702810      11.91406436
Pd      12.41879361      12.34804731      11.97632258
Pd      11.02002615       0.07032340      13.78699966
Pd      13.73397399       0.01357115      14.11327107
Pd       2.78904202       0.16641282      14.09651469
Pd       5.57477581      13.72574035      13.95841245
Pd       8.36576235      13.72456109      14.08927383
Pd       2.73992242       2.91563635      14.05949540
Pd       5.50678318       2.73421747      14.02662357
Pd       8.26123838       2.67756818      13.98851241
Pd      10.93504366       2.71033454      13.92841101
Pd      13.65431415       2.73920113      14.01102410
Pd       0.02558500       5.48046856      13.97329426
Pd       2.72433171       5.61365472      14.01069275
Pd       5.41630218       5.48351656      13.95977644
Pd       8.27630036       5.39358094      14.02365794
Pd      11.01153668       5.38986675      13.98048584
Pd       0.03991672       8.24650460      13.90648587
Pd       2.76350120       8.31319061      13.98743348
Pd       5.42512709       8.30025775      13.94530162
Pd       8.31331259       8.23759342      13.90578907
Pd      11.03857748       8.17239056      14.01280813
Pd      13.61383075      10.92474281      14.18311459
Pd       2.73430195      11.11840850      13.93193291
Pd       5.46355891      10.97840772      14.07848500
Pd       8.21838637      10.97144788      13.94026210
Pd      10.93177809      10.90415107      13.89739452
Pd      12.43654105       6.68548816      16.05606232
Pd       9.54145168       9.58760257      15.96768831
Pd       1.35743453      12.40881195      16.71272396
Pd       1.50205976       7.08559157      16.22445985
Pd      12.24640209       9.55241785      16.36263122
Pd       9.21631720       1.00779730      16.89194826
Pd       5.46743655       1.04990427      16.48628048
Pd       6.83592788       9.49240692      16.00443646
Pd       4.13446225      12.45835846      16.03441623
Pd      11.06448794      12.51136190      15.97960154
Pd       1.34536943       4.43395711      16.24194834
Pd       4.22767747       4.49261454      16.28363619
Pd      11.52035921       3.21086054      16.58656728
Pd       3.41057301       9.88572092      16.22402081
Pd       6.41360913       6.17960621      16.67795918
Pd       6.90637189      12.30380645      15.95608851
Pd       9.64150401       6.72243462      16.35545133
Pd       7.72589549       3.34890990      16.65964825
Pd       1.60185400       1.69229698      16.13499012
Pd       4.09958078       7.31153160      16.68231393
O        9.63862895       2.90480730      17.32960339
O       10.86724074      10.74715124      17.00532582
O       13.10053725      12.44122132      15.61027559
O       12.09420682       1.37932592      17.13691973
O       11.13408287       0.45631009      17.35861893
O        5.04578313       9.03171224      16.91425168
O        3.47716343       0.70880084      16.12404251
O        1.25760456       1.17179994      18.06678261
O        8.95702002      12.94701485      16.13343146
O        1.65594365      10.74775306      15.66897438
O        1.00468116      13.64288417      18.20978093
O        2.80292044       5.71390010      16.98018824
O        8.15191136       5.23151363      16.17983491
O        8.37695570       8.19207469      16.84917776
O        5.68159721       3.17535966      16.04313432
O       13.66830093       3.04799160      16.03604822
O       11.08095956       5.22549154      16.07509768
O       13.67224062       8.24943525      15.97859184
O        7.27389152       1.49771569      17.21786086
O        6.73671569       6.91193577      14.76969105
115
Lattice="13.75323 0.0 0.0 0.0 13.75323 0.0 0.0 0.0 23.89" Properties=species:S:1:pos:R:3 entry_id=1 rank=36 energy=-568.8598022460938 pbc="T T F"
Pd       0.00000000       0.00000000      10.00000000
Pd       2.75064538       0.00000000      10.00000000
Pd       5.50129076       0.00000000      10.00000000
Pd       8.25193614       0.00000000      10.00000000
Pd      11.00258152       0.00000000      10.00000000
Pd       0.00000000       2.75064538      10.00000000
Pd       2.75064538       2.75064538      10.00000000
Pd       5.50129076       2.75064538      10.00000000
Pd       8.25193614       2.75064538      10.00000000
Pd      11.00258152       2.75064538      10.00000000
Pd       0.00000000       5.50129076      10.00000000
Pd       2.75064538       5.50129076      10.00000000
Pd       5.50129076       5.50129076      10.00000000
Pd       8.25193614       5.50129076      10.00000000
Pd      11.00258152       5.50129076      10.00000000
Pd       0.00000000       8.25193614      10.00000000
Pd       2.75064538       8.25193614      10.00000000
Pd       5.50129076       8.25193614      10.00000000
Pd       8.25193614       8.25193614      10.00000000
Pd      11.00258152       8.25193614      10.00000000
Pd       0.00000000      11.00258152      10.00000000
Pd       2.75064538      11.00258152      10.00000000
Pd       5.50129076      11.00258152      10.00000000
Pd       8.25193614      11.00258152      10.00000000
Pd      11.00258152      11.00258152      10.00000000
Pd       1.33305437       1.38035701      12.05221797
Pd       4.08925664       1.38750338      11.98771029
Pd       6.82888190       1.38154444      11.99332965
Pd       9.57512057       1.39592898      11.89594876
Pd      12.38684272       1.37174114      11.92044161
Pd       1.37065655       4.09970544      12.00656864
Pd       4.10125007       4.12393621      12.00820233
Pd       6.82444734       4.12497179      12.00908219
Pd       9.56728621       4.13975942      11.94281254
Pd      12.36578195       4.13265160      11.93417299
Pd       1.37110082       6.89256210      11.94010419
Pd       4.13935064       6.87026939      11.96482277
Pd       6.87097415       6.85831372      11.95140951
Pd       9.64205429       6.82915781      11.94515418
Pd      12.39111484       6.85622887      11.94896407
Pd       1.35216595       9.69735034      11.99083951
Pd       4.11777592       9.66324146      11.95099537
Pd       6.89476706       9.64088005      11.95142944
Pd       9.64982872       9.59779534      11.89439304
Pd      12.42487279       9.60955999      11.94161946
Pd       1.35802606      12.41462245      12.04582394
Pd       4.10624816      12.40887780      12.00662317
Pd       6.86816975      12.39901143      11.97280504
Pd       9.63028672      12.36702810      11.91406436
Pd      12.41879361      12.34804731      11.97632258
Pd      10.99330662       0.07460001      13.76980227
Pd      13.68454589      13.71454057      14.10882922
Pd       2.80053862       0.18592339      14.30192373
Pd       5.54681468      13.62507498      13.93975774
Pd       8.29223226       0.11639606      14.02944180
Pd       2.62377911       2.93622410      14.18673583
Pd       5.46639938       2.61852036      14.09374775
Pd       8.22467592       2.74271989      13.95783868
Pd      10.89277305       2.71873831      13.87058954
Pd      13.58580178       2.74735601      13.98265855
Pd       0.01384199       5.50622782      13.95107007
Pd       2.70487331       5.64204725      14.03080359
Pd       5.45995139       5.55108386      14.02129259
Pd       8.19506092       5.48387828      14.06954865
Pd      10.97610718       5.39646753      13.96708260
Pd       0.06116661       8.29229676      13.97807629
Pd       2.77545985       8.33478270      13.90610539
Pd       5.54029758       8.29000290      13.95739664
Pd       8.39926957       8.20842338      13.83296603
Pd      11.07977123       8.17919790      13.96899474
Pd      13.55145793      10.94636390      14.41512624
Pd       2.73224746      11.16171819      13.97716225
Pd       5.49822582      10.93202438      14.01116128
Pd       8.30115503      11.02125907      13.91125329
Pd      10.99490068      10.86993043      13.83261183
Pd      12.44034704       6.57886595      16.10019452
Pd       8.76837811       9.65645701      16.22297331
Pd       1.75835689      12.67930058      16.74126085
Pd       1.43861444       7.01442934      16.29468342
Pd      11.87480005       9.37674683      16.31007913
Pd       8.30423918       1.38515077      17.01523337
Pd       5.48216913       0.88809894      16.41244936
Pd       5.55300563       9.90674980      16.93102937
Pd       4.26765689      12.17518617      16.07323794
Pd      10.85857950      12.42895349      15.90730726
Pd       0.81073570       4.29183147      16.35375178
Pd       3.86888533       4.63379372      16.32583629
Pd      11.12630919       3.14390838      16.54875516
Pd       3.00933867       9.68020128      16.23938741
Pd       7.31551716       7.45874957      17.17884931
Pd       6.89285941      12.10075678      16.06978416
Pd       9.72657833       6.95550526      16.03651228
Pd       7.49444396       3.79941989      16.34117281
Pd       0.91552794       1.45304359      16.09794785
Pd       4.13729734       7.25095272      15.96969417
O        9.19991121       3.12831861      17.11588384
O       10.41820778      10.55367668      16.85917835
O       12.85712501      12.51742058      15.63339148
O       11.36821700       1.29134177      17.25243924
O       10.33073774       0.44336120      17.15778947
O        5.27350472       7.89275110      17.43724252
O        3.96728691       1.67337092      15.38065854
O        1.63420282       1.39456881      17.97918116
O        8.88012792      12.46410454      15.42124820
O        1.49220660      11.00047183      15.69210238
O        2.21333368       0.20935243      18.16769949
O        2.24694864       5.37125154      17.12759730
O        7.94221093       5.83037936      16.22878154
O        7.38023578       9.35205470      17.80546748
O        5.65190847       4.12789599      15.57949734
O       13.11899179       2.98399822      16.00893666
O       11.06160842       5.14271596      16.03722433
O       13.54599153       8.24268068      16.06049442
O        6.98445559      13.73337718      17.28868796
O        7.12800513       8.67229379      15.30365606
115
Lattice="13.75323 0.0 0.0 0.0 13.75323 0.0 0.0 0.0 23.89" Properties=species:S:1:pos:R:3 entry_id=0 rank=37 energy=-568.3694458007812 pbc="T T F"
Pd       0.00000000       0.00000000      10.00000000
Pd       2.75064538       0.00000000      10.00000000
Pd       5.50129076       0.00000000      10.00000000
Pd       8.25193614       0.00000000      10.00000000
Pd      11.00258152       0.00000000      10.00000000
Pd       0.00000000       2.75064538      10.00000000
Pd       2.75064538       2.75064538      10.00000000
Pd       5.50129076       2.75064538      10.00000000
Pd       8.25193614       2.75064538      10.00000000
Pd      11.00258152       2.75064538      10.00000000
Pd       0.00000000       5.50129076      10.00000000
Pd       2.75064538       5.50129076      10.00000000
Pd       5.50129076       5.50129076      10.00000000
Pd       8.25193614       5.50129076      10.00000000
Pd      11.00258152       5.50129076      10.00000000
Pd       0.00000000       8.25193614      10.00000000
Pd       2.75064538       8.25193614      10.00000000
Pd       5.50129076       8.25193614      10.00000000
Pd       8.25193614       8.25193614      10.00000000
Pd      11.00258152       8.25193614      10.00000000
Pd       0.00000000      11.00258152      10.00000000
Pd       2.75064538      11.00258152      10.00000000
Pd       5.50129076      11.00258152      10.00000000
Pd       8.25193614      11.00258152      10.00000000
Pd      11.00258152      11.00258152      10.00000000
Pd       1.33305437       1.38035701      12.05221797
Pd       4.08925664       1.38750338      11.98771029
Pd       6.82888190       1.38154444      11.99332965
Pd       9.57512057       1.39592898      11.89594876
Pd      12.38684272       1.37174114      11.92044161
Pd       1.37065655       4.09970544      12.00656864
Pd       4.10125007       4.12393621      12.00820233
Pd       6.82444734       4.12497179      12.00908219
Pd       9.56728621       4.13975942      11.94281254
Pd      12.36578195       4.13265160      11.93417299
Pd       1.37110082       6.89256210      11.94010419
Pd       4.13935064       6.87026939      11.96482277
Pd       6.87097415       6.85831372      11.95140951
Pd       9.64205429       6.82915781      11.94515418
Pd      12.39111484       6.85622887      11.94896407
Pd       1.35216595       9.69735034      11.99083951
Pd       4.11777592       9.66324146      11.95099537
Pd       6.89476706       9.64088005      11.95142944
Pd       9.64982872       9.59779534      11.89439304
Pd      12.42487279       9.60955999      11.94161946
Pd       1.35802606      12.41462245      12.04582394
Pd       4.10624816      12.40887780      12.00662317
Pd       6.86816975      12.39901143      11.97280504
Pd       9.63028672      12.36702810      11.91406436
Pd      12.41879361      12.34804731      11.97632258
Pd      13.67355514      13.72215858      14.12262929
Pd       2.72768592       0.12310014      14.15945067
Pd       5.56754538      13.60114154      14.03146255
Pd       8.31118951       0.10875369      14.01780751
Pd      10.99886316       0.07540564      13.76843718
Pd      13.57165585       2.74683491      13.98584689
Pd       2.62555624       2.87339212      14.11566322
Pd       5.40193203       2.67055657      14.14058086
Pd       8.19854647       2.74837664      13.97310889
Pd      10.87861535       2.72220580      13.87373511
Pd       0.01989737       5.52494636      13.94845208
Pd       2.72466460       5.57285175      14.00072773
Pd       5.45477254       5.48842966      14.05954136
Pd       8.28008080       5.48938456      14.03834260
Pd      11.00294333       5.40182961      13.97635041
Pd       0.04912078       8.32336988      13.97686549
Pd       2.75232277       8.28646295      13.88482409
Pd       5.49352926       8.26824177      13.94855896
Pd       8.39948895       8.22304325      13.82619611
Pd      11.08113720       8.19362139      13.93867444
Pd      13.58971632      10.96560154      14.50006511
Pd       2.73930908      11.07839023      14.00481116
Pd       5.55267962      10.91634446      13.94877694
Pd       8.34369196      11.01733049      13.92627039
Pd      11.03788288      10.87945796      13.83009630
Pd      12.43895808       6.59669611      16.10733761
Pd       8.74130518       9.62858062      16.23303903
Pd       2.03139931      12.73128492      16.63109149
Pd       1.42343740       7.00713708      16.24451698
Pd      11.88120578       9.39352676      16.29954510
Pd       8.31856429       1.39048166      16.93522422
Pd       4.98860951       0.39790578      17.14384605
Pd       5.65199452       9.65531102      17.05088768
Pd       4.39267091      11.78497110      16.13396718
Pd      10.86541586      12.42624789      15.90934971
Pd       0.85348742       4.27801707      16.29457931
Pd       3.89334908       4.40296691      16.30288185
Pd      11.16106214       3.15607848      16.54451713
Pd       2.99538610       9.50867895      16.26850172
Pd       7.25990027       7.15752988      16.87815858
Pd       6.97150893      11.98347014      16.16347728
Pd       9.73212662       6.99020510      15.98108373
Pd       7.45782204       3.74134221      16.41284297
Pd       1.06466076       1.47708287      16.03847258
Pd       4.09240601       7.08677449      15.90583068
O        9.24121327       3.12135952      17.09436091
O       10.39850500      10.53763914      16.84671822
O       12.86233991      12.54272713      15.65053238
O       11.39799426       1.29048174      17.22387719
O       10.35702441       0.44789266      17.12722028
O        5.25844052       7.65557192      17.37445470
O        4.37098411       1.04514445      15.18390172
O        2.38411299       1.64748534      17.52425164
O        8.88468341      12.46920913      15.43477129
O        1.54111764      10.98648712      15.78700662
O        3.01319695       0.39611201      17.68360463
O        2.31858350       5.37232853      16.99719201
O        6.97058495       5.60262000      15.66516876
O        7.54596540       8.90631253      17.78067823
O        5.53529243       3.35650801      16.06108398
O       13.14787129       2.97486320      16.00726009
O       11.04172663       5.17901086      16.06203010
O       13.55114250       8.25315796      16.06167457
O        6.93199773       0.04113907      17.13178090
O        7.07091543       8.66532765      15.26525312
