60
Properties=species:S:1:pos:R:3 trial_index=159 seed_entry_id=122 discovered_entry_id=123 energy=-496.1542663574219 status=accepted pbc="F F F"
C        0.57298098      -4.73688221       0.27008455
C        2.67938261      -1.66034684      -1.81062181
C        3.46208605       1.98670580       1.11353334
C        1.83806673      -4.29821665       0.74730702
C       -0.20492018       2.72687083       1.28196525
C        3.80017235      -0.26387907       0.07525163
C       -1.83198947      -3.00435643       0.34545657
C        1.12195515      -0.50565439       2.33891664
C      -16.95945013       4.54996033       3.43643157
C        1.21951240      -1.90065959       1.94957640
C        1.65710623       2.24911778       2.53182487
C        2.91300422       2.77518607      -1.50258835
C        0.02904868      -4.09117905      -0.83513260
C        0.67250215       3.32537943      -1.55880140
C        1.43038652       1.43334715      -3.00330622
C        2.42628811      -2.09074044       1.18588759
C        2.38543433       0.36951417      -2.95954435
C       -2.33853115       0.44074301      -0.75437587
C       -0.93066147       1.74615710      -2.28740782
C        3.60360692      -0.69695253      -1.28392030
C      -18.24165642       4.47781197       3.26101726
C       -1.27204624      -2.59295446      -1.98381282
C       -1.70632842      -1.22107326       1.38663089
C       -0.92181718       2.26139374       0.13959471
C       -1.20059743       0.10319945       1.43455165
C       -1.63058809       0.99909264       0.35550977
C       -2.10924246      -1.47039913      -2.04793941
C        0.20960778      -2.87909297       1.92057602
C       -2.52983685      -1.72172358       0.32293391
C        3.92855629       1.18403872       0.04761553
C        0.55572244      -1.31109346      -3.09122923
C        2.15714213      -2.82895099      -1.14722625
C        0.00527197       0.41553118       2.19445231
C       -1.97169611       0.82706210      -2.07206871
C        2.71377629       1.37705017       2.16111545
C        0.06831892      -2.48797740      -2.47455567
C       -1.06986467      -2.53287271       1.50125696
C        0.34368583       1.79665945       2.22125526
C        1.85486548       3.48463059       1.84120204
C        2.88972736       3.28927501       0.88411461
C        0.68033384      -4.16917578       1.55453622
C       -1.25526622      -3.48943314      -0.85108425
C        3.71828431       1.63301194      -1.29381255
C        3.13994356      -0.84582021       1.18607236
C        2.48502374      -3.14215105       0.22317590
C       -2.64997576      -0.95754372      -0.82843954
C       -0.37278469      -0.25331857      -3.34469141
C        1.91848510      -0.98506481      -2.84284842
C        2.61752014       3.68272511      -0.43248420
C       -1.70329327      -0.35938750      -2.83744856
C        1.71239530       2.61330994      -2.26396304
C        3.52036889       0.48780459      -2.10790553
C        0.05342676       1.10303499      -3.12163224
C        0.59655375       3.92186647       1.30302853
C        0.90298018      -3.30318379      -1.62696911
C        2.44711469       0.01233052       2.10056982
C      -19.35335239       5.14419462       3.26095430
C        1.29676369       4.24295255      -0.65622567
C       -0.53802815       2.63346112      -1.23838152
C        0.56145791       4.86779127       0.31706991
