60
Properties=species:S:1:pos:R:3 trial_index=1 seed_entry_id=0 discovered_entry_id=1 energy=-476.79180908203125 status=accepted pbc="F F F"
C        1.69278259      -3.58420533      -0.70682410
C        2.17523560      -0.14314108      -2.23077394
C        1.96700127       1.91085785       2.00523952
C        2.68909566      -2.57478135      -0.99749148
C       -2.84540114       1.06430778       2.34314495
C        2.64194612       0.67792946       0.07256418
C       -0.26492141      -3.41951258       1.21018811
C        2.59745171      -1.62423567       2.39324723
C       -3.04896282       0.99766945      -3.41454804
C        0.06735473      -1.49311699       0.10036934
C       -1.14241638       1.59007265       3.76293854
C        1.01345493       3.48692562      -0.14371997
C        0.41896623      -3.33141133      -1.26527186
C       -1.14884665       3.87113127      -0.82503192
C        0.25244222       3.00125414      -2.47569662
C        0.25552685      -0.41596713       1.03805452
C        1.26563671       1.98711178      -2.53439150
C       -3.00568732      -2.80827861      -0.15350184
C       -3.28341078      -1.68491544       0.38783437
C        2.83089085       0.78979844      -1.36004022
C       -3.49612045       1.89263407      -2.40164978
C       -1.65451986      -1.49606693      -1.77056837
C       -0.42313965      -2.79144273       2.52275516
C       -2.19341446       0.32947511       1.29881150
C       -1.10683330      -1.90986701       3.27665330
C       -0.72088343       0.21513758       1.89121610
C       -2.43598230      -0.35753519      -1.27104420
C        2.17816553      -2.72122437       1.70858946
C       -1.77787028      -2.60804372      -0.85056997
C        2.59604408       1.95345347       0.69622029
C       -0.07236706      -0.14226019      -3.29501562
C        1.84093720      -1.50632249      -1.73653827
C       -1.34580740      -0.62201220       3.06534578
C       -1.97803187       3.52802078      -1.96498396
C        2.34436596       0.83537848       2.78590776
C       -0.45598182      -1.39590703      -2.58603156
C        0.84600145      -3.19550114       1.96359975
C       -2.12170240       0.60120668       3.55067253
C       -0.34150076       1.52138246       2.65178546
C        0.60659133       2.41737385       2.02838668
C        2.42857459      -3.04768096       0.32872272
C       -0.48337632      -2.84156405      -0.17324775
C        2.20967516       2.81835581      -0.36208864
C        1.49494263      -0.08267778       0.33048376
C        1.14563264      -1.03705746      -0.57430856
C       -3.04515283       0.56498429      -2.09412586
C       -0.99361925       0.36443464      -4.17112881
C        1.13649344       0.57069989      -2.88830703
C        0.17346807       3.27645074       0.98430523
C       -3.32409130       3.15225760      -1.97079152
C        0.18815482       3.72921936      -1.24113709
C        2.33626216       2.10049265      -1.61161777
C       -1.05433847       3.07879914      -2.96564512
C       -3.01164866       2.40009129       1.97757987
C        0.61972410      -2.25745696      -2.22847977
C        2.63359182      -0.42253758       2.85137394
C       -2.17273639       0.74770564      -4.43818876
C       -1.21276300       3.58074546       0.59154438
C       -2.74797906      -0.40263364       0.20906327
C       -2.33998092       3.22313394       1.31115902
