60
Properties=species:S:1:pos:R:3 trial_index=44 seed_entry_id=31 discovered_entry_id=32 energy=-489.3415832519531 status=accepted pbc="F F F"
C        3.91294901      -5.05723705      -3.18297631
C        2.00566946      -0.61128490      -2.04648452
C        1.37614447       2.06449094       3.24428587
C        2.84561147      -2.77923260      -3.09380774
C       -2.45271833       2.36296248       1.92296569
C        2.00782688      -1.41825891       0.32884280
C        1.92962794      -4.98617119      -0.85573086
C        1.58390336       1.59498614       4.55916007
C       -4.37692720       2.86759267      -3.05499953
C       -0.65319974      -2.38643221      -0.34070566
C       -1.35067085       1.59505371       3.82149403
C        1.00982368       3.01611301       0.69002569
C        3.59922937      -6.03190745      -2.37548110
C       -0.97335537       3.95576907      -0.04736470
C        0.27373328       2.49234665      -1.57102589
C       -0.37713410      -1.67281929       0.85851005
C        1.21653801       1.46547841      -1.59193569
C       -2.50131731      -1.04616983       0.09379538
C       -2.14488820       2.85257656      -1.82531661
C        2.20024185      -0.36651795      -0.64207834
C       -2.56083892       1.11069675      -3.32197302
C       -1.87049473      -1.68672546      -2.31607019
C        0.89532015      -0.18406077       2.31716711
C       -2.85271692       2.44030197       0.54208734
C       -0.31594721      -0.19749998       3.09801814
C       -1.57374605      -0.96146041       1.18885307
C       -2.93752934      -1.24133951      -3.10045832
C        2.15903398      -2.72380942       0.01788923
C       -1.87144224      -1.88824217      -0.90015505
C        1.50773085       1.13123850       2.15049221
C       -0.19144805       0.04061168      -3.00971961
C        1.91106794      -1.89022539      -2.69103371
C       -1.51694233      -0.09100534       2.28353907
C       -3.47921168       1.24614098       0.13837072
C       -0.46618536       0.59483322       4.25536032
C       -0.53049778      -1.33205337      -2.77889162
C        1.46251123      -3.70308518      -0.58247304
C       -2.07459134       1.17986746       2.64165466
C       -0.94002717       2.92078181       3.56629977
C        0.36896480       3.06927879       3.02441344
C        3.52869468      -3.80446004      -3.35375059
C        2.67630105      -5.83335418      -1.39758829
C        1.62496453       1.72684063       0.82455543
C        0.88868431      -1.18369014       1.27906683
C        0.30504509      -2.97511600      -1.19105379
C       -3.18804477      -0.09560308      -3.57846271
C       -1.16085344       1.11521297      -3.03793084
C        1.10762821       0.39806022      -2.51243970
C        0.39146107       3.68422419       1.76145464
C       -3.41049756       0.00673259      -0.03453012
C        0.24317293       3.33891488      -0.46572618
C        1.83693833       1.00994913      -0.39444040
C       -0.92255432       2.28287590      -2.26069052
C       -1.96881506       3.48722538       2.68120102
C        0.51917361      -2.22123152      -2.36213280
C        0.64437926       0.89293756       5.04093805
C       -3.19421166       2.33523869      -2.72964493
C       -0.76711055       4.40922873       1.29258358
C       -2.19302977       3.31729305      -0.45235787
C       -1.81853652       4.72427986       2.11142801
