60
Properties=species:S:1:pos:R:3 trial_index=148 seed_entry_id=112 discovered_entry_id=113 energy=-496.1542663574219 status=accepted pbc="F F F"
C        2.72791241      -4.36999490      -0.23329740
C        2.97272516      -0.25903220      -1.36819585
C        1.14483721       2.44527058       2.06678290
C        3.44222384      -3.45220852       0.58412483
C       -2.28227809       1.06008779       1.43960507
C        2.83819212       1.03445978       0.88259806
C       -0.22321574      -4.25583269      -0.53340888
C        0.49432871      -1.11287095       2.38557597
C       -9.22677267       9.56857338       1.01125644
C        1.41712114      -2.10698698       1.86930971
C       -0.65929024       1.36945155       3.02971312
C        0.59894263       3.40536482      -0.49001323
C        2.06543066      -3.87253665      -1.35034226
C       -1.52655286       2.67375369      -1.01497457
C        0.35553855       1.87316917      -2.44942614
C        2.60874765      -1.44358530       1.40461001
C        1.73030527       1.50479366      -2.30404261
C       -2.44521987      -1.46156080      -1.30766345
C       -1.83658428       0.70700646      -2.28946164
C        3.10633252       0.89476956      -0.52517036
C      -10.01856956      10.51750623       1.39802816
C        0.31084035      -3.07534634      -2.59053850
C       -1.27282814      -2.97903053       0.70978018
C       -2.44907411       0.56560079       0.11151450
C       -1.61968244      -1.64216396       1.03352547
C       -2.33551940      -0.88936693      -0.00178848
C       -0.99830853      -2.59297144      -2.72235962
C        1.15572328      -3.43393418       1.48645945
C       -1.51577416      -3.57689965      -0.57205084
C        2.12254148       2.28821295       1.05822962
C        1.21585976      -0.80434427      -3.06939385
C        3.12375068      -1.64317635      -0.99246360
C       -0.91755134      -0.92315805       2.09133756
C       -2.18977587      -0.64442844      -2.44251173
C        0.74307671       1.30671511       2.82176579
C        1.40620089      -2.16507999      -2.73089595
C       -0.02706998      -3.73676279       0.81927911
C       -1.43048705       0.37513589       2.36406792
C       -1.10810148       2.64179188       2.55898001
C       -0.02938794       3.25601187       1.86327000
C        2.31940878      -4.15000846       1.09681920
C        0.68255867      -4.05978871      -1.60182019
C        1.87481561       2.85504603      -0.23098180
C        2.48190639      -0.05005930       1.72267202
C        3.38428106      -2.04506522       0.36973793
C       -1.89327230      -2.74837851      -1.61935994
C       -0.10633695      -0.37817186      -3.41038082
C        2.10581804       0.12677096      -2.46426620
C       -0.29901285       3.74000598       0.57681972
C       -1.19462575      -1.28936899      -3.25451254
C       -0.18389902       2.81083179      -1.52926337
C        2.47334894       2.00693823      -1.19821981
C       -0.56047966       0.90045833      -2.93264458
C       -2.30886372       2.45536715       1.79232348
C        2.43502199      -2.58315931      -1.81100700
C        1.30864089       0.06772363       2.53585241
C       -8.02656687       9.28041115       0.61444457
C       -1.66069894       3.54545071       0.11080835
C       -2.16128548       1.39325173      -1.07911865
C       -2.74241634       3.43647181       0.94533725
