60
Properties=species:S:1:pos:R:3 trial_index=103 seed_entry_id=73 discovered_entry_id=74 energy=-491.25823974609375 status=accepted pbc="F F F"
C        2.57286100      -3.09791642      -1.08362606
C        2.49885863       0.98256193      -1.95390608
C        1.36128415       1.83490387       2.40655374
C        3.24916519      -2.15825957      -0.24886754
C       -2.03439084       0.41142442       2.48568308
C        2.78273168       1.36416547       0.46821611
C       -0.23625280      -3.55810026      -1.19185225
C        0.77053106      -1.76273410       1.79694922
C       -4.15293832       2.43159073      -1.10588597
C        0.05332231      -0.68085207      -0.64653911
C        0.02044041       0.35004343       3.46141901
C        0.06200248       3.54842783       0.65075634
C        1.80888234      -2.62953898      -2.14658737
C       -2.25442826       2.99738211       0.37168389
C       -0.52135717       2.77696826      -1.55568873
C        0.96181956       0.05793730      -0.17827050
C        0.84851277       2.58963067      -1.86889942
C       -2.84925732      -1.13837704      -0.85539467
C       -2.35579004       1.27707155      -1.18100671
C        2.77740029       1.85861445      -0.86812810
C       -3.60664262       3.30055525      -0.29826426
C       -0.20846415      -1.90420071      -2.96777377
C       -1.37223895      -3.11266715       0.43250539
C       -2.43628128       0.38406552       1.10779141
C       -1.64731718      -1.93851727       1.13429953
C       -2.49218302      -0.95580411       0.51074771
C       -1.55385639      -1.58863034      -2.72952904
C        1.04714909      -2.85653182       0.93270280
C       -1.62532288      -3.22585046      -0.95952358
C        2.03884291       2.28116576       1.26714872
C        0.36940023       0.49289316      -3.11897853
C        2.79511677      -0.39383556      -1.81370574
C       -0.62751378      -1.52463282       2.04931167
C       -3.00332253       0.00576291      -1.78842773
C        1.24750906       0.45691422       2.74743493
C        0.75856757      -0.85539186      -3.14708869
C        0.00072529      -3.46746346       0.23088745
C       -0.96654515      -0.43419555       2.85434559
C       -0.57044000       1.64573254       3.63163556
C        0.18774335       2.52596879       2.84311186
C        2.26950889      -3.00237603       0.28393285
C        0.44630511      -2.95369657      -2.24535600
C        1.40436281       3.20169139       0.40364049
C        2.25677577      -0.04223123       0.51867413
C        3.12481031      -0.79119736      -0.46552048
C       -2.21115803      -2.15424617      -1.60808069
C       -1.02553024       0.76735658      -2.97836611
C        1.28674728       1.41109888      -2.55350842
C       -0.49599129       3.33657055       1.93099457
C       -2.00043354      -0.26628127      -2.87777163
C       -0.92391908       3.37762695      -0.33123027
C        1.82252720       2.91480790      -0.90925879
C       -1.36704861       1.78357102      -2.05627709
C       -1.95571392       1.60730563       3.25443075
C        1.99019410      -1.28209322      -2.55383348
C        1.67985271      -0.59222365       1.88072804
C       -3.78537792       1.26221413      -1.67200206
C       -1.92645061       3.28587207       1.83469229
C       -2.27189928       1.46874331       0.24377202
C       -2.61892816       2.73836882       2.86015659
