60
Properties=species:S:1:pos:R:3 trial_index=167 seed_entry_id=128 discovered_entry_id=129 energy=-496.1546325683594 status=accepted pbc="F F F"
C       -0.24363098      -4.53468143       0.11069875
C        2.12446871      -1.81574379      -2.17947041
C        4.21057448       1.30105957       0.71862982
C        1.15024916      -4.42278655       0.36412526
C        0.89407714       2.80432665       1.61098318
C        3.84048026      -0.86812096      -0.47148708
C       -2.13833100      -2.33271978       0.72089196
C        1.60360349      -0.72139191       2.23763307
C      -20.53484593       3.79382929       1.63403516
C        1.31099725      -2.06413116       1.77055545
C        2.78346472       1.82170298       2.45990730
C        3.41806198       2.41981767      -1.70630176
C       -0.80545356      -3.68856401      -0.83977965
C        1.38736614       3.44375533      -1.31147740
C        1.43129408       1.56992466      -2.96347888
C        2.29307902      -2.44328254       0.78724166
C        2.11005131       0.32492857      -3.15212832
C       -2.02377798       1.22413725      -0.09763199
C       -0.63588139       2.32268342      -1.80228195
C        3.32073063      -1.12571020      -1.78912509
C      -21.59386130       2.72834204       3.60017171
C       -1.90430064      -1.84686670      -1.64858905
C       -1.43282962      -0.71881423       1.80557629
C       -0.09669291       2.60902848       0.60290997
C       -0.63696718       0.45534183       1.82106427
C       -1.02848183       1.51597177       0.88659836
C       -2.46109394      -0.56920027      -1.50089667
C        0.11530356      -2.79436234       1.88685516
C       -2.51876209      -0.93292442       0.89159334
C        4.29106688       0.51416959      -0.45277358
C       -0.05045579      -0.90029260      -3.01853314
C        1.46961219      -2.89725257      -1.48634529
C        0.72090764       0.42934744       2.35391271
C       -1.80759760       1.63619032      -1.44064313
C        3.53125388       0.77779893       1.85597471
C       -0.68145027      -1.99293672      -2.37798465
C       -1.10334400      -2.14226496       1.73571043
C        1.36766024       1.69603586       2.38342989
C        3.13905225       3.04092919       1.80512585
C        3.92304201       2.71234609       0.66378243
C        0.20817426      -4.11804671       1.37804359
C       -1.89898717      -2.82248499      -0.58390926
C        3.96328332       1.11595028      -1.70779342
C        3.26195410      -1.38792979       0.71295164
C        1.94573013      -3.39409463      -0.21735989
C       -2.65523731      -0.06144638      -0.17908050
C       -0.74087730       0.35185012      -3.04014797
C        1.37266047      -0.90168620      -3.01623384
C        3.52801723       3.27209756      -0.55811060
C       -1.95291564       0.49245998      -2.29833598
C        2.09885239       2.58928991      -2.23310463
C        3.37085604       0.11786169      -2.52435862
C        0.01630105       1.55819805      -2.83627653
C        1.94201894       3.78827587       1.53549873
C        0.07656219      -3.04230123      -1.74311981
C        2.95057764      -0.48437608       1.77980521
C      -21.26080340       3.02518666       2.38347227
C        2.35177067       4.12230208      -0.50191518
C        0.12303739       3.00702210      -0.80377687
C        1.95731874       4.80337410       0.62032763
