60
Properties=species:S:1:pos:R:3 trial_index=91 seed_entry_id=61 discovered_entry_id=62 energy=-491.0406188964844 status=accepted pbc="F F F"
C        1.97628062      -3.33196921      -0.90622566
C        2.22324633       0.59611643      -2.15513265
C        2.00095051       1.85313450       2.28348661
C        2.84538757      -2.47325320      -0.20235244
C       -1.56260328       1.16570016       2.96561851
C        2.75340421       0.99280492       0.14399383
C       -0.57787220      -3.69543746      -0.71952140
C        0.65166839      -1.61386382       2.05817788
C       -3.71754306      -2.43085842      -4.91600768
C       -0.51823067      -0.65009554      -0.47513429
C        0.57292454       0.70642183       3.61738646
C        0.86682439       3.80644835       0.65632162
C        1.21106397      -2.89031978      -1.97902690
C       -1.38617167       3.38780415       0.88291816
C       -0.32055643       2.88462340      -1.30723379
C        0.64283459      -0.36152971      -0.18439740
C        0.88837937       2.44987315      -1.87610564
C       -2.85957761      -0.32220480      -0.11790209
C       -2.47382665       1.90721873      -0.62924507
C        2.78496430       1.45535673      -1.18285784
C       -3.47238397      -1.36850008      -4.02772679
C       -0.83542023      -2.11211014      -2.60611990
C       -1.66226662      -2.18394043       0.59954395
C       -2.29171967       1.17946243       1.73942137
C       -1.76341682      -1.28112820       1.69383669
C       -2.54784250      -0.13481088       1.25418028
C       -2.05585960      -1.71451644      -2.02868174
C        0.61717124      -2.74948865       1.19460324
C       -1.83496545      -1.28405745      -0.61947942
C        2.49251787       2.08658692       0.99643444
C       -0.16171067       0.35421976      -2.82370146
C        2.39450363      -0.78337344      -1.93180320
C       -0.62024104      -1.08801299       2.49042995
C       -3.13969091       0.71312863      -1.01189568
C        1.66481316       0.53349315       2.72438523
C        0.11166295      -1.06547270      -2.88972084
C       -0.59720070      -3.13083489       0.52415117
C       -0.63778253       0.11031372       3.23149067
C        0.30710910       2.10519442       3.79186191
C        1.12104320       2.80342317       2.87386811
C        1.74851564      -3.09109589       0.45114904
C       -0.16089875      -3.18047740      -1.89151605
C        2.01856379       3.15254519       0.18520103
C        1.99330815      -0.29150857       0.36968509
C        2.82251528      -1.12676321      -0.58544535
C       -2.91225316      -0.92577298      -2.83190487
C       -1.42011536       0.99810753      -2.50859681
C        0.98169226       1.16225010      -2.52567989
C        0.52546164       3.77146775       2.05086382
C       -2.71220272       0.39285883      -2.37099826
C       -0.33264525       3.58451864      -0.07510284
C        2.09302086       2.70773698      -1.17205813
C       -1.45371503       2.11108708      -1.59738390
C       -1.09870138       2.34219984       3.63211625
C        1.38925820      -1.59207451      -2.47725611
C        1.71002298      -0.61239053       1.86685522
C       -4.14017271      -1.15537949      -5.23934082
C       -0.91751110       3.85012734       2.15835318
C       -2.24063792       2.25955322       0.74666570
C       -1.58645924       3.57860799       3.31757829
