60
Properties=species:S:1:pos:R:3 trial_index=153 seed_entry_id=117 discovered_entry_id=118 energy=-496.154541015625 status=accepted pbc="F F F"
C        2.34216569      -4.46069567       0.27636795
C        3.08204048      -0.62068466      -1.43992514
C        1.61092473       2.75946806       1.53895658
C        3.16515999      -3.52655363       0.96194198
C       -1.96179504       1.72446929       1.06725193
C        3.11293965       0.99422126       0.59683433
C       -0.57188782      -4.03199612      -0.08125298
C        0.52980646      -0.60838196       2.36270166
C      -11.26748861       6.27158775       2.43759197
C        1.32341010      -1.77179721       2.01078666
C       -0.30918159       2.06396953       2.62013701
C        1.17959699       3.39460305      -1.13848884
C        1.74277549      -4.05731868      -0.91208426
C       -1.02063008       2.85730219      -1.58295079
C        0.74467708       1.63316016      -2.85808243
C        2.58477111      -1.33319243       1.47065744
C        2.06407330       1.12545305      -2.64085770
C       -2.43888484      -1.13399267      -1.28565048
C       -1.57215619       0.77729700      -2.56283639
C        3.35819243       0.61866308      -0.77116165
C      -11.90945532       8.18457660       3.86860561
C        0.09424658      -3.24293569      -2.28094668
C       -1.45607644      -2.47087364       0.94910680
C       -2.19147742       1.06430526      -0.17684384
C       -1.63709142      -1.06900027       1.07031959
C       -2.25739500      -0.39468174      -0.07507791
C       -1.14616914      -2.62822305      -2.49962849
C        0.90124468      -3.09934483       1.81963089
C       -1.77285174      -3.21544975      -0.23670490
C        2.55794883       2.33792620       0.57814128
C        1.26871404      -1.19214706      -3.07022304
C        3.06330657      -1.94274022      -0.86485140
C       -0.84926546      -0.29335809       2.02266318
C       -2.08876529      -0.52890451      -2.52319516
C        1.07447460       1.80117707       2.44586608
C        1.29217456      -2.50206964      -2.53558269
C       -0.31017965      -3.34907146       1.18469097
C       -1.19828948       1.08397424       2.09498405
C       -0.59958077       3.29854411       1.96215072
C        0.54487408       3.66917450       1.20196249
C        1.96746564      -4.00044329       1.55357548
C        0.34626500      -4.10993039      -1.15384177
C        2.37864963       2.73640016      -0.78314406
C        2.62953823       0.09653804       1.58073122
C        3.27695370      -2.16885189       0.54490409
C       -2.04942360      -2.51000360      -1.39855124
C        0.00798950      -0.66236356      -3.48852389
C        2.26695751      -0.29687957      -2.59374579
C        0.33290928       3.98880615      -0.14530977
C       -1.18307216      -1.40191394      -3.21817539
C        0.32691934       2.75380560      -2.09170437
C        2.86555442       1.68944079      -1.60810911
C       -0.28433598       0.71816888      -3.20801697
C       -1.81570318       3.14923111       1.21185552
C        2.26480300      -2.90272015      -1.54923469
C        1.48269756       0.47405529       2.35153202
C      -11.51607366       7.01644075       3.46857725
C       -1.04380829       3.89439302      -0.59830749
C       -1.80738375       1.66772764      -1.47041337
C       -2.12886912       4.04277093       0.22594999
