60
Properties=species:S:1:pos:R:3 trial_index=19 seed_entry_id=13 discovered_entry_id=14 energy=-483.51776123046875 status=accepted pbc="F F F"
C        2.49938753      -3.56095936      -0.99604795
C        2.13277768      -0.29950851      -2.39964186
C        1.50793518       1.28893100       2.27722535
C        2.82469696      -2.41127531      -1.76326703
C       -1.62903880       1.89041677       2.67702414
C        2.05205956      -0.31284329       0.13986109
C        0.74125049      -3.10249732       1.05124854
C        0.04775915      -1.63851426       4.46808488
C       -3.50902327       1.05730444      -4.30424461
C       -1.12822180      -1.49537838      -0.76199054
C       -0.20008934       1.37774347       4.44540420
C        1.21364899       3.17746013       0.30142490
C        1.39323321      -4.29764613      -0.81010451
C       -1.02520784       3.54644691       0.20066324
C        0.09067005       2.51442689      -1.73995936
C       -0.63516547      -0.56794367       0.18985242
C        1.23868593       1.80404015      -2.13460203
C       -3.14564775      -0.45598772      -1.51659441
C       -2.21442657       1.91828473      -1.13107487
C        2.59922994       0.23201792      -1.18119723
C       -4.36468294       0.11196158      -3.65761453
C       -1.76630572      -1.62909841      -3.10933341
C        0.56466405      -2.29264005       2.17455398
C       -1.67916974       1.51954955       1.32575821
C       -0.18588741      -1.49900365       3.09418319
C       -1.19169994       0.13578727       1.29824443
C       -2.87747150      -1.74543128      -3.93106233
C        2.68538060      -1.57886045       0.66065171
C       -2.11117156      -1.37117237      -1.74865861
C        1.98590082       1.00488824       1.01815435
C       -0.09471709       0.11950615      -3.32305768
C        1.98229026      -1.67023703      -2.60616592
C       -0.83648052      -0.28987569       2.63725855
C       -3.25724632       0.93945920      -1.33127407
C        0.24841207       0.63004387       5.50483860
C       -0.34632971      -1.27946033      -3.31574149
C        1.78901863      -2.30662432       1.47943899
C       -1.06293274       0.83636741       3.43925162
C        0.08898040       2.66613274       3.82098641
C        0.94832402       2.49956067       2.65569858
C        3.03630152      -2.38363958      -0.41774315
C        0.52357603      -3.34597119      -0.30822304
C        2.06263832       2.08357087       0.09162266
C        0.70180390      -0.81462690      -0.24288512
C        0.25585957      -2.05523985      -1.04763243
C       -3.99555527      -1.20009699      -4.09106171
C       -1.17940870       1.09156577      -3.25898469
C        1.13130064       0.59392550      -2.85269734
C        0.70929285       3.41371893       1.60082311
C       -4.01531971       0.24534225      -2.29192251
C        0.14650103       3.34119824      -0.60196321
C        2.29519527       1.63355465      -1.21174722
C       -1.16781638       1.95685653      -2.08789335
C       -1.17194428       3.12228341       3.22798401
C        0.60004635      -1.99749636      -2.51574725
C        0.19855681      -0.66925154       5.29599091
C       -2.29785188       1.15165124      -4.02338608
C       -0.57627408       4.01458882       1.49618716
C       -1.87980151       2.41063679       0.19672831
C       -1.35356560       4.30318819       2.57938451
