60
Properties=species:S:1:pos:R:3 trial_index=11 seed_entry_id=7 discovered_entry_id=9 energy=-484.1525573730469 status=accepted pbc="F F F"
C        2.42320456      -3.61653380      -0.91170695
C        2.14299467      -0.32456062      -2.19242870
C        1.46707509       1.42440707       2.60673454
C        2.81212684      -2.45216894      -1.61924036
C       -1.73110160       1.85623750       2.72198338
C        1.93429090      -0.37791759       0.37789921
C        0.56781837      -3.25672842       1.05757987
C        0.60453743      -1.38333998       4.13245452
C       -3.38526600       1.11879418      -4.37953619
C       -1.19679554      -1.50970554      -0.76720813
C       -0.08118138       1.36522076       4.22330615
C        1.14496151       3.18014044       0.42283304
C        1.29731082      -4.34160863      -0.84147081
C       -1.09725333       3.54273579       0.22080104
C        0.09990606       2.50039046      -1.65272387
C       -0.75749287      -0.61181633       0.23334014
C        1.26371720       1.77940756      -1.96556836
C       -3.16873743      -0.44764552      -1.60122592
C       -2.22939103       1.90774352      -1.12976222
C        2.53157196       0.17815467      -0.92823498
C       -4.27672732       0.17037108      -3.78759266
C       -1.72023222      -1.60439335      -3.14440713
C        0.34889081      -2.39909858       2.14042546
C       -1.79187765       1.50901086       1.35992524
C       -0.29184740      -1.52030939       3.04651775
C       -1.35328048       0.09424650       1.32956518
C       -2.79161902      -1.69507995      -4.02122786
C        2.52593298      -1.70321349       0.82673843
C       -2.13045104      -1.36734869      -1.79866101
C        1.89665358       1.00281603       1.28425684
C       -0.02084208       0.13099525      -3.25264302
C        2.00057130      -1.68160960      -2.46337231
C       -0.99584670      -0.33860260       2.65136908
C       -3.27444289       0.94532297      -1.39416806
C        1.17897669       0.77587208       3.86741440
C       -0.28955081      -1.26406349      -3.27835847
C        1.61943624      -2.50124066       1.55667894
C       -1.12885261       0.80678481       3.47277470
C       -0.06668894       2.74669450       3.80797921
C        0.86143760       2.72404197       2.74778828
C        2.93615949      -2.46113708      -0.26062888
C        0.42041021      -3.40546071      -0.32687577
C        1.96975926       2.04201011       0.32653346
C        0.60486269      -0.86027453      -0.10770246
C        0.19773069      -2.07416890      -0.99277647
C       -3.89568118      -1.13702665      -4.22454449
C       -1.10630429       1.10434898      -3.22990258
C        1.18207152       0.58277427      -2.70181648
C        0.60632864       3.54192544       1.66905011
C       -3.98955662       0.27780969      -2.40564175
C        0.11023855       3.33001110      -0.52650711
C        2.24384797       1.57471588      -0.96602452
C       -1.14775293       1.95040359      -2.04842189
C       -1.35567986       3.10383852       3.27050449
C        0.61267104      -1.99412827      -2.44231868
C        1.46169081      -0.48418662       4.40859998
C       -2.18589734       1.18809857      -4.04499994
C       -0.71158365       4.07459202       1.50482085
C       -1.94783957       2.40007153       0.21488149
C       -1.55048973       4.24451020       2.55994849
