60
Properties=species:S:1:pos:R:3 trial_index=138 seed_entry_id=105 discovered_entry_id=106 energy=-499.6829528808594 status=accepted pbc="F F F"
C        2.93461534      -3.53833349      -1.54085253
C        1.86215827       0.49009341      -2.48148287
C        1.26565148       2.96006112       1.52605494
C        3.73459383      -2.46367200      -1.06672515
C       -1.86375411       0.93681089       2.29023600
C        2.48217829       1.83306812      -0.34144193
C        0.17454642      -4.01218489      -0.54982887
C        1.42603445      -0.65699187       1.90389230
C       -3.76635225       3.96784685       3.20622785
C        2.22299791      -1.47792160       1.01001889
C        0.21150781       1.58829033       3.05271291
C       -2.14269726       4.34939511       1.27323795
C        1.77638608      -3.22983788      -2.24621792
C       -2.70240986       2.48721866      -0.16057367
C       -1.31978898       1.99796602      -2.15424585
C        2.96143406      -0.62117390       0.11683779
C        0.00773800       1.92240747      -2.66821180
C       -2.68567703      -1.76345888      -0.19005974
C       -2.99589922       0.42060798      -1.23712866
C        2.12153195       1.68247150      -1.72625619
C       -4.55252621       4.41476723       4.05916768
C       -0.45694882      -2.84941229      -2.58675732
C       -0.48043838      -2.90180036       1.07012172
C       -2.50747563       0.29137151       1.17431706
C       -0.92080344      -1.64460267       1.56020148
C       -2.15214460      -1.11004720       0.96801042
C       -1.76550087      -2.64227298      -2.13105753
C        2.08883018      -2.84535869       0.71989824
C       -1.11850571      -3.60332786      -0.00714733
C        1.68881182       2.93384967       0.18391459
C       -0.30744771      -0.46429601      -3.28963671
C        2.42746331      -0.82142441      -2.27404976
C        0.00716340      -0.74127102       2.23047114
C       -3.10498799      -0.97577947      -1.29465921
C        1.39407601       1.77768294       2.30607879
C        0.27179618      -1.74571621      -3.13450694
C        0.81788865      -3.39731532       0.60934169
C       -0.57821145       0.45268405       2.73220118
C       -0.60081813       2.75103808       2.84990395
C        0.02457373       3.58598792       1.88156713
C        3.09315551      -3.34030806      -0.15538130
C        0.48416093      -3.69676959      -1.89362230
C        0.76886184       3.35467670      -0.82087151
C        2.72371853       0.73425610       0.52078457
C        3.32032256      -1.10521797      -1.17550234
C       -2.06269362      -2.92283204      -0.76087468
C       -1.70094955      -0.32063125      -3.01185159
C        0.54757666       0.64999494      -3.07056494
C       -0.79376349       4.16911709       0.89001762
C       -2.42353234      -1.42998183      -2.47483591
C       -1.60414354       2.85546631      -1.03319240
C        1.04075830       2.60584532      -1.98619068
C       -2.14525614       0.85225371      -2.30378549
C       -1.92226440       2.32270464       2.64649262
C        1.65400728      -1.91359799      -2.76032189
C        2.00058104       0.65678863       1.75336926
C       -0.57321748       3.66726737      -0.44634366
C       -3.06083043       3.44397040       0.79584326
C       -2.95253797       1.07578074       0.01836469
C       -2.87656165       3.36493298       2.25995376
