60
Properties=species:S:1:pos:R:3 trial_index=160 seed_entry_id=123 discovered_entry_id=124 energy=-496.154541015625 status=accepted pbc="F F F"
C        0.92845880      -4.81344660       0.06661301
C        2.53481783      -1.57551708      -2.20810054
C        3.80584437       1.93487170       0.71064687
C        2.25385951      -4.36429911       0.31534362
C        0.22754635       2.56554418       1.63263939
C        3.97563366      -0.24873411      -0.49914190
C       -1.44821626      -3.15370832       0.70694743
C        1.79042253      -0.68035176       2.22162507
C      -20.88860570       5.60487507       2.55430199
C        1.83576221      -2.05011069       1.74355600
C        2.30696224       2.07347933       2.46406147
C        2.74427961       2.84262672      -1.69893590
C        0.16816468      -4.12481374      -0.87256738
C        0.52665865       3.33109486      -1.28633915
C        1.02133519       1.54019853      -2.95678823
C        2.87525595      -2.16725367       0.75297120
C        1.98558962       0.50315743      -3.16046485
C       -2.22175487       0.32870944      -0.07808421
C       -1.15993401       1.74941249      -1.77847081
C        3.52695277      -0.61527270      -1.81746518
C      -21.41570284       6.46235245       1.73811954
C       -1.35752425      -2.60540597      -1.65849830
C       -1.15607046      -1.42445442       1.80416369
C       -0.69123372       2.14020563       0.62722663
C       -0.67459410      -0.09026181       1.82697268
C       -1.32199895       0.84857084       0.90423553
C       -2.21158330      -1.50600001      -1.49610235
C        0.85783741      -3.05373236       1.85783791
C       -2.16129418      -1.89246994       0.89263713
C        4.07001935       1.20168202      -0.46854971
C        0.19516909      -1.21842209      -3.02802305
C        2.17278517      -2.79061385      -1.52137676
C        0.65146954       0.21554752       2.35330189
C       -2.12384418       0.79237006      -1.41832797
C        3.28552757       1.25154171       1.84682860
C       -0.14137998      -2.43804292      -2.39434109
C       -0.48533765      -2.72180422       1.71879213
C        0.96549751       1.60242644       2.39231618
C        2.34559100       3.34756299       1.81857794
C        3.17806185       3.23156325       0.67044222
C        1.27154030      -4.30911606       1.33597281
C       -1.10422427      -3.55864611      -0.60356170
C        3.59504742       1.71440572      -1.71582947
C        3.55223049      -0.90441496       0.68369696
C        2.76646001      -3.16574992      -0.25971217
C       -2.51573087      -1.07252382      -0.16877250
C       -0.78370008      -0.17570646      -3.03500163
C        1.57460577      -0.86842161      -3.03245000
C        2.64789089       3.68613871      -0.54357370
C       -1.98760086      -0.34513543      -2.28604130
C        1.42107427       2.68643011      -2.21929219
C        3.26302831       0.60851222      -2.54049405
C       -0.34617937       1.17841170      -2.82287884
C        0.99939055       3.77818007       1.56153912
C        0.85683815      -3.27264482      -1.77297310
C        3.03424998      -0.11423722       1.76063246
C      -21.08668747       4.87863882       3.60935116
C        1.29884035       4.21934911      -0.47389610
C       -0.58669273       2.59150072      -0.77663128
C        0.75612436       4.77307772       0.65638679
