60
Properties=species:S:1:pos:R:3 trial_index=85 seed_entry_id=54 discovered_entry_id=57 energy=-491.6269836425781 status=accepted pbc="F F F"
C        1.67978941      -3.45343233      -0.83842541
C        2.14722907       0.43509166      -2.15002263
C        2.01821245       1.79756811       2.25484224
C        2.59837747      -2.62833173      -0.15529339
C       -1.57782373       1.32955111       2.93155962
C        2.73126584       0.85364976       0.13802503
C       -0.86347663      -3.63730876      -0.66714443
C        0.47521420      -1.59515091       2.09418977
C       -1.80330676      -2.33609033      -4.10342467
C       -0.61230899      -0.61145274      -0.48299778
C        0.52373456       0.76123270       3.60579151
C        0.99349748       3.77846496       0.58255124
C        0.93364760      -2.99118103      -1.92258195
C       -1.28059343       3.49935697       0.80986447
C       -0.24727256       2.89776845      -1.36902299
C        0.54248450      -0.34359778      -0.14605036
C        0.93291389       2.37190261      -1.92144481
C       -2.93233540      -0.13519087      -0.12916336
C       -2.45565422       2.05661702      -0.67960938
C        2.76926826       1.28101156      -1.20136364
C       -2.83825149      -1.33440751      -4.14282852
C       -1.13442674      -2.21219112      -2.76629605
C       -1.86702834      -2.05551430       0.63466599
C       -2.30228280       1.36293995       1.70396007
C       -1.91089618      -1.12688077       1.70502858
C       -2.61991876       0.05568641       1.23786218
C       -2.21980908      -1.59506251      -1.97682022
C        0.36845502      -2.74343204       1.25070844
C       -1.95894383      -1.16756646      -0.60644469
C        2.52533598       1.97873914       0.96450237
C       -0.24566424       0.32389693      -2.84568970
C        2.23581588      -0.94506091      -1.90006482
C       -0.76324892      -0.98442116       2.50635402
C       -3.18334458       0.89009969      -1.04498763
C        1.60918345       0.50740151       2.72495356
C       -0.04095228      -1.10585906      -2.87978188
C       -0.86094731      -3.06509069       0.57589951
C       -0.71603067       0.22844295       3.22123222
C        0.33679710       2.17631055       3.75204801
C        1.18975223       2.80744055       2.82129476
C        1.47613348      -3.17232637       0.51556433
C       -0.45048084      -3.26213758      -1.88537422
C        2.10470314       3.04855517       0.12788666
C        1.89855723      -0.37612741       0.39544551
C        2.64983631      -1.28694440      -0.55378993
C       -2.96592646      -0.77590016      -2.85822205
C       -1.46034331       1.06905837      -2.55420078
C        0.94886322       1.06830047      -2.54411247
C        0.64919347       3.78836112       1.97609962
C       -2.78003880       0.53668083      -2.40389975
C       -0.21661073       3.61779445      -0.14864047
C        2.14963609       2.56891810      -1.21775278
C       -1.42578427       2.19162702      -1.65179191
C       -1.05279199       2.48931256       3.58097479
C        1.17817948      -1.70417419      -2.42685757
C        1.59465715      -0.65957527       1.89408647
C       -2.62148054      -2.22442688      -5.20882616
C       -0.78642595       3.95327571       2.07887123
C       -2.19890078       2.42000416       0.69135698
C       -1.47051827       3.74491836       3.24232428
