60
Properties=species:S:1:pos:R:3 trial_index=18 seed_entry_id=9 discovered_entry_id=10 energy=-494.6676940917969 status=accepted pbc="F F F"
C       -2.01460005      -1.18944829      -0.74699951
C        0.80953970       1.27324341      -1.04248041
C        2.43148258      -0.31283495       2.65537331
C       -0.60571248      -0.79659013      -0.69081040
C       -2.14577172       2.52828403       5.14785284
C        2.19079125      -0.39042533       0.34072698
C       -1.59199003      -3.93045124       1.34687333
C        0.30609237      -3.51055220       3.07512195
C       -1.02085908       4.66942676       0.58198302
C       -1.04368143      -0.86998628       1.71992068
C        0.17488510       1.91257533       4.81721164
C        3.32062010       2.33965682       2.13135784
C       -2.42223482       0.01062948      -0.06104935
C        2.26788130       4.29485163       2.76642832
C        2.52591133       4.00590543       0.49238998
C       -0.41861102      -1.14662244       3.02357708
C        2.32324268       2.95238621      -0.42121140
C       -3.10667749       1.05980735       3.41905927
C       -3.14154713       2.28077726       4.13768698
C        2.02805289       0.66301550      -0.58807798
C       -0.60984718       5.06299160       2.99087565
C       -2.53103351       2.38946322       1.37878772
C       -0.77221500      -4.19116016       2.32427137
C       -1.83549511       3.78082780       4.53312890
C       -2.69376095      -0.00416016       4.21720525
C       -0.30049796      -0.22314912       4.11167082
C       -2.43981150       3.58178118       2.16901908
C        0.02439416      -4.81503788       3.34283656
C       -2.72090819       1.12534032       2.05377025
C        3.02732311       0.07276467       1.41358124
C       -1.28695384       3.57725764      -0.33795162
C       -0.45977044       0.62020622      -1.01128674
C       -1.46525494       0.27265282       4.77276075
C        1.47798261       5.32637992       2.13590884
C        1.59711000      -1.44791364       2.30751675
C       -1.96382188       2.40591550       0.05348226
C       -2.17653409      -3.36655771       0.35962046
C       -1.13003660       1.58557734       5.23193579
C        0.77714208       0.71250210       4.26450067
C        2.00374782       0.74646236       3.52895722
C       -2.44142573      -2.43721135      -0.48118387
C       -2.21123664      -0.05488210       1.37141979
C        3.46327186       1.38205756       1.11626707
C        1.22968913      -1.23369651       0.92394451
C       -0.14229181      -1.16654895       0.61978658
C       -1.46774081       4.58892473       1.90858206
C        0.05606024       3.69245987      -0.85730768
C        1.03272440       2.70054196      -0.99731347
C        2.51737005       2.05988834       3.28568844
C        0.42288221       5.93630926       2.73134175
C        3.08832102       3.68554501       1.76361913
C        2.94120119       1.70393183      -0.17780579
C        1.50724300       4.98199252       0.71968607
C       -0.53526606       4.15015571       4.13718226
C       -1.72294777       1.15982208      -0.58085252
C        0.62312526      -2.15893166       3.03965534
C        0.30456584       4.82404417       0.04146809
C        1.80538746       3.28055465       3.64749427
C       -2.81116142       3.51008661       3.51964400
C        0.53616591       3.21848889       4.33608996
