60
Properties=species:S:1:pos:R:3 trial_index=4 seed_entry_id=2 discovered_entry_id=3 energy=-486.83465576171875 status=accepted pbc="F F F"
C       -1.78759513      -3.24964573       0.76564262
C        0.66169158      -0.52846024      -0.20637206
C        2.36096753      -0.05884958       4.18108492
C       -0.47612656      -2.88221810       0.57028704
C       -3.09550552       2.37443331       4.93672409
C        1.78209190      -0.94947417       2.02051647
C       -2.76409086      -2.53709213       3.37739040
C        0.76727271      -3.28518663       4.05083998
C       -2.06075761       2.62415232       0.14564763
C       -1.57020182      -0.93285596       2.52931870
C       -0.59488470       2.21843722       4.96281319
C        2.68589227       2.23126844       2.46143302
C       -2.66865622      -2.13923854       0.80223697
C        1.28155489       4.06498791       2.32046099
C        1.60255395       2.89868144       0.36161538
C       -0.50849743      -0.75963918       3.56463108
C        1.70857750       1.57150176      -0.09362286
C       -5.13938347      -0.35972118       2.69982629
C       -5.49018916       0.81590765       3.06331043
C        1.84271525      -0.60187957       0.61743339
C       -2.13485686       3.80140289       2.19987393
C       -3.51372989       0.48239927       1.16913400
C       -3.01247929      -1.87673136       4.59873186
C       -4.00913794       2.43408429       4.08281922
C       -2.78591685      -0.76853981       5.15881208
C       -0.53042374      -0.05983239       4.79451949
C       -3.67031453       1.79396055       1.74257121
C       -0.30888218      -3.56534873       3.33227851
C       -3.96026119      -0.60329785       1.99045864
C        2.69513929      -0.15315359       2.77138480
C       -1.95372432       1.31134541      -0.45201990
C       -0.54487680      -1.33519550       0.21717918
C       -1.85457135       0.25841036       5.27123967
C        0.24379113       4.47278651       1.43485010
C        2.07812659      -1.27231112       4.77432985
C       -2.59569664       0.19287298       0.10265901
C       -1.64932980      -3.36538731       3.15888373
C       -1.91928970       1.71585291       5.27320779
C        0.31406001       1.10108950       4.93996443
C        1.63490456       1.17115818       4.43795243
C       -0.93691856      -3.51195579       1.91275938
C       -2.88976434      -1.61809835       2.19856499
C        2.99127824       0.96790518       1.93776398
C        0.46531412      -0.93886919       2.50171007
C       -0.57966148      -0.96166840       1.59538210
C       -2.76077271       2.83570353       1.35133930
C       -0.59038168       1.58250698      -0.82766072
C        0.58629231       0.84388155      -0.62931513
C        1.92798408       2.32045611       3.66651816
C       -0.99921205       4.61714642       2.05796924
C        2.22002424       3.25422870       1.59444299
C        2.51474514       0.66092080       0.62354866
C        0.35938027       3.61761064       0.28984955
C       -1.28861715       4.00639939       3.31565030
C       -2.06425941      -1.11599779      -0.00993675
C        1.57365427      -2.43507219       4.60162194
C       -0.71668712       2.94357233      -0.28354423
C        1.00048693       3.40787786       3.54774293
C       -4.52747341       1.88002551       2.92120793
C       -0.30353117       3.33519033       4.12090086
