60
Properties=species:S:1:pos:R:3 trial_index=31 seed_entry_id=12 discovered_entry_id=15 energy=-498.93792724609375 status=accepted pbc="F F F"
C       -2.66200547      -3.26510940      -0.93981543
C       -1.87818786       0.38748128      -1.03559660
C        1.44811838      -0.28469636       1.37891351
C       -1.71875911      -2.16445922      -1.20866249
C       -2.18884792      -1.04115225       5.86943199
C        0.58898210      -0.13526101      -0.78532183
C       -1.58184670      -3.81952828       1.76051341
C        0.68205846      -3.96449618       0.72388423
C       -4.41499154       1.68461641       2.06360017
C       -0.81101913      -3.49030680       2.90383933
C       -0.25218374      -0.00459092       4.78350456
C        0.64918891       2.45944620       1.55179733
C       -3.25587675      -2.76800971       0.28851046
C       -0.90895688       3.27997102       3.04552610
C       -1.50051476       3.41815550       0.82119362
C        0.47687728      -2.88459451       2.79216866
C       -1.44950244       2.56707581      -0.30007160
C       -2.77447339      -2.59545653       4.01921563
C       -3.17075107      -1.78956733       5.10310565
C       -0.47737297       0.67840140      -1.21653742
C       -3.34550589       2.04060857       4.26034988
C       -4.04859956      -1.12695535       2.46122352
C       -0.72330273      -4.27827520       0.73137247
C       -2.91134828       0.15930893       5.59178209
C       -1.43728097      -3.03652266       4.09183239
C        0.59568381      -1.95440147       3.87133673
C       -4.22713750      -0.19077335       3.54287414
C       -0.12868243      -3.74194138      -0.40915758
C       -3.35567290      -2.37272369       2.71743342
C        1.30102815       0.56269755       0.24020205
C       -4.38403044       0.76022466       0.94833400
C       -2.40687604      -0.92827248      -0.84640100
C       -0.46956749      -2.26865649       4.79043107
C       -2.30903709       3.63587640       3.01847046
C        1.19412192      -1.63691660       0.85227152
C       -4.09438925      -0.61162667       1.10929204
C       -3.06514748      -5.53566122      -2.20029125
C       -0.86054442      -1.09807011       5.45151971
C        0.70388531      -0.52622488       3.81462799
C        1.12088606       0.26403251       2.68625084
C       -2.80441639      -4.48168636      -1.56632373
C       -2.84368358      -3.14707757       1.60163002
C        0.84350071       1.89429803       0.28381902
C        0.56452373      -1.50066801      -0.44532220
C       -0.35516069      -2.44523535      -0.96780618
C       -4.15574321       1.22198535       3.36118838
C       -3.68019193       1.74190888       0.15710716
C       -0.33101162       2.12813957       3.64459887
C        0.69128718       1.63660185       2.72641165
C       -3.17266138       3.38842152       4.03477447
C       -0.39143312       3.40251484       1.71747123
C       -0.21336615       1.99612073      -0.68127832
C       -2.68316848       3.51024969       1.61622738
C       -2.32250577       1.29190338       4.99678105
C       -3.43408981      -1.34989006       0.09124943
C        1.11244462      -2.85948987       1.54007397
C       -3.75318165       2.69149176       1.27185545
C       -2.48054536       1.60748674      -0.55123170
C       -3.88359970      -0.58925511       4.84618309
C       -0.93903120       1.23990076       4.60557447
