60
Properties=species:S:1:pos:R:3 trial_index=2 seed_entry_id=0 discovered_entry_id=1 energy=-487.1119689941406 status=accepted pbc="F F F"
C       -1.84030136      -2.76335943       0.84399354
C        0.54066732      -0.22914895      -0.63376844
C        2.45232416       0.27007898       3.67077702
C       -0.51725269      -2.43627353       0.41475400
C       -2.50226880       3.02807796       4.11360070
C        1.70496964      -0.59521100       1.56481707
C       -3.02184132      -1.99904676       3.15576173
C        0.52157797      -2.71656503       3.80072504
C       -2.05469978       2.97182488      -0.23409571
C       -1.61357389      -0.39720242       2.22556939
C       -0.33416172       2.56966034       4.73684569
C        2.65812959       2.52864054       1.90087747
C       -2.76836042      -1.72012004       0.65778399
C        1.20095864       4.32056239       1.76516138
C        1.56041597       3.18576699      -0.21190438
C       -0.49933833      -0.26088536       3.19238024
C        1.63760218       1.84322677      -0.63406305
C       -5.17679860       0.21378770       2.47612639
C       -5.47444986       1.40205387       2.84458580
C        1.74195953      -0.30337025       0.14879824
C       -1.94515763       4.18944855       1.91316158
C       -3.57299809       0.93635574       0.85347175
C       -2.62573436      -1.51392226       4.47840666
C       -3.77304002       2.86910853       3.70153419
C       -2.59837131      -0.33291440       5.08758738
C       -0.41188214       0.34503390       4.45861495
C       -3.61556379       2.26194171       1.40581522
C       -0.64921076      -2.95778991       3.15103780
C       -4.03122160      -0.08432867       1.74108411
C        2.71450923       0.15671540       2.24710702
C       -2.02982226       1.63422924      -0.80133573
C       -0.65715179      -0.96047835      -0.09636323
C       -1.72288764       0.70685278       5.01382259
C        0.15779859       4.76657074       0.86888338
C        2.14658216      -0.90875076       4.29899608
C       -2.70104334       0.55153785      -0.22113643
C       -1.91455398      -2.55517240       3.70900278
C       -1.68322372       2.16275810       4.94847938
C        0.51428537       1.43601090       4.63793251
C        1.76559555       1.50776909       3.97485142
C       -0.80810870      -2.94729097       1.72954792
C       -2.95832479      -1.07583748       1.99075830
C        2.97713824       1.26703574       1.38481108
C        0.42258558      -0.41876477       2.08806256
C       -0.66987402      -0.37070301       1.22618146
C       -2.65452335       3.24483141       1.01508269
C       -0.69282465       1.85893730      -1.29224409
C        0.48596387       1.12063148      -1.11301743
C        1.95408083       2.63397449       3.13714194
C       -1.07439316       5.08850438       1.31544038
C        2.14559255       3.52824152       1.03716668
C        2.44361734       0.94013929       0.09376806
C        0.34007265       3.92367463      -0.31686463
C       -1.59617321       3.79091611       3.26938007
C       -2.18649494      -0.77508203      -0.27398002
C        1.50148691      -2.02354050       4.24482814
C       -0.75871620       3.24016096      -0.80791060
C        0.97018506       3.69092674       3.01368705
C       -4.41594307       2.39232726       2.63580624
C       -0.25706154       3.57486364       3.72667969
