115
Lattice="13.75323 0.0 0.0 0.0 13.75323 0.0 0.0 0.0 23.89" Properties=species:S:1:pos:R:3 entry_id=21 rank=16 energy=-572.4285888671875 pbc="T T F"
Pd       0.00000000       0.00000000      10.00000000
Pd       2.75064538       0.00000000      10.00000000
Pd       5.50129076       0.00000000      10.00000000
Pd       8.25193614       0.00000000      10.00000000
Pd      11.00258152       0.00000000      10.00000000
Pd       0.00000000       2.75064538      10.00000000
Pd       2.75064538       2.75064538      10.00000000
Pd       5.50129076       2.75064538      10.00000000
Pd       8.25193614       2.75064538      10.00000000
Pd      11.00258152       2.75064538      10.00000000
Pd       0.00000000       5.50129076      10.00000000
Pd       2.75064538       5.50129076      10.00000000
Pd       5.50129076       5.50129076      10.00000000
Pd       8.25193614       5.50129076      10.00000000
Pd      11.00258152       5.50129076      10.00000000
Pd       0.00000000       8.25193614      10.00000000
Pd       2.75064538       8.25193614      10.00000000
Pd       5.50129076       8.25193614      10.00000000
Pd       8.25193614       8.25193614      10.00000000
Pd      11.00258152       8.25193614      10.00000000
Pd       0.00000000      11.00258152      10.00000000
Pd       2.75064538      11.00258152      10.00000000
Pd       5.50129076      11.00258152      10.00000000
Pd       8.25193614      11.00258152      10.00000000
Pd      11.00258152      11.00258152      10.00000000
Pd       1.33305437       1.38035701      12.05221797
Pd       4.08925664       1.38750338      11.98771029
Pd       6.82888190       1.38154444      11.99332965
Pd       9.57512057       1.39592898      11.89594876
Pd      12.38684272       1.37174114      11.92044161
Pd       1.37065655       4.09970544      12.00656864
Pd       4.10125007       4.12393621      12.00820233
Pd       6.82444734       4.12497179      12.00908219
Pd       9.56728621       4.13975942      11.94281254
Pd      12.36578195       4.13265160      11.93417299
Pd       1.37110082       6.89256210      11.94010419
Pd       4.13935064       6.87026939      11.96482277
Pd       6.87097415       6.85831372      11.95140951
Pd       9.64205429       6.82915781      11.94515418
Pd      12.39111484       6.85622887      11.94896407
Pd       1.35216595       9.69735034      11.99083951
Pd       4.11777592       9.66324146      11.95099537
Pd       6.89476706       9.64088005      11.95142944
Pd       9.64982872       9.59779534      11.89439304
Pd      12.42487279       9.60955999      11.94161946
Pd       1.35802606      12.41462245      12.04582394
Pd       4.10624816      12.40887780      12.00662317
Pd       6.86816975      12.39901143      11.97280504
Pd       9.63028672      12.36702810      11.91406436
Pd      12.41879361      12.34804731      11.97632258
Pd      13.68283338       0.01681041      14.00219778
Pd       2.71727971      13.72497529      14.00754869
Pd       5.48497401       0.03589131      14.03487927
Pd       8.22214390      13.75250949      14.00446631
Pd      10.94195315       0.03097617      13.85334821
Pd      13.69551021       2.75864710      13.96115546
Pd       2.69490216       2.71008349      13.97770944
Pd       5.40370637       2.72230193      14.09657406
Pd       8.23096269       2.73084153      14.00103920
Pd      10.95657868       2.79076952      14.02056860
Pd      13.71633471       5.49066231      13.97197043
Pd       2.68870761       5.46940285      13.98056432
Pd       5.47194508       5.53865230      13.99122014
Pd       8.31918395       5.49407047      13.99493129
Pd      11.03851034       5.46173997      13.99026527
Pd       0.04542377       8.22537626      13.99485715
Pd       2.75919801       8.20919411      13.98219974
Pd       5.48839933       8.33490145      14.01726575
Pd       8.23564202       8.26751255      13.91342167
Pd      11.03322921       8.16975593      13.93939048
Pd       0.00101484      10.98556009      13.92490636
Pd       2.74575699      10.90332837      14.01738531
Pd       5.49501671      11.06439743      13.96267430
Pd       8.22270084      11.03213845      14.00572314
Pd      10.95493807      11.06744642      13.93357309
Pd      12.46762999       6.90215474      16.32852110
Pd       8.95323587       9.58091320      16.24231959
Pd       1.23314507      12.35951008      15.85413789
Pd       1.36522685       6.49407538      16.13031310
Pd      12.54700500      10.32957043      16.26472797
Pd       8.57759456       1.26982469      16.74073874
Pd       5.14416894       1.05140397      17.01549994
Pd       5.38564275       9.97902326      16.41712541
Pd       3.91219340      12.29215159      15.94519923
Pd       9.85311379      12.35248410      16.37282738
Pd      13.12266326       3.95321220      16.45573620
Pd       2.99019010       3.76877181      16.46368934
Pd      10.33019808       4.32345333      16.44500182
Pd       1.75553320       9.18547354      16.44123514
Pd       6.93781806       7.38086306      16.26231135
Pd       6.87930701      12.36190359      15.99847605
Pd       9.65180997       6.91990817      15.92553835
Pd       6.74203501       3.68016306      16.40988128
Pd       1.80857461       1.32624446      16.27220829
Pd       3.98756142       7.38371725      16.31157725
O        8.75967720       3.19004064      16.06277741
O       10.80355125       9.57659883      15.48350114
O       11.66319108      12.02017312      15.78712700
O       11.30987842       1.15605681      15.54418908
O       10.54200964       0.70612462      16.60200017
O        3.64310805       9.14893877      17.07474061
O        3.33251270       0.30651955      16.89549517
O        4.77611373      12.03406788      17.84203397
O        8.28720240      13.11799777      17.24883762
O        0.55328845      10.90881576      17.01412372
O        5.76004120      12.97872808      17.79851220
O        1.30584097       4.65910974      16.92179863
O        6.86452441       5.50556458      15.54803451
O        7.18359909       9.18476008      17.00561378
O        4.75313090       2.90464773      16.18450857
O        0.15126262       2.25110726      15.88399014
O       11.85698099       5.26804028      17.19955329
O       13.52085295       8.60172265      16.05799962
O        6.84010816       1.96942855      17.39347121
O        4.06818848       5.56050589      15.58379314
