115
Lattice="13.75323 0.0 0.0 0.0 13.75323 0.0 0.0 0.0 23.89" Properties=species:S:1:pos:R:3 entry_id=29 rank=10 energy=-572.82861328125 pbc="T T F"
Pd       0.00000000       0.00000000      10.00000000
Pd       2.75064538       0.00000000      10.00000000
Pd       5.50129076       0.00000000      10.00000000
Pd       8.25193614       0.00000000      10.00000000
Pd      11.00258152       0.00000000      10.00000000
Pd       0.00000000       2.75064538      10.00000000
Pd       2.75064538       2.75064538      10.00000000
Pd       5.50129076       2.75064538      10.00000000
Pd       8.25193614       2.75064538      10.00000000
Pd      11.00258152       2.75064538      10.00000000
Pd       0.00000000       5.50129076      10.00000000
Pd       2.75064538       5.50129076      10.00000000
Pd       5.50129076       5.50129076      10.00000000
Pd       8.25193614       5.50129076      10.00000000
Pd      11.00258152       5.50129076      10.00000000
Pd       0.00000000       8.25193614      10.00000000
Pd       2.75064538       8.25193614      10.00000000
Pd       5.50129076       8.25193614      10.00000000
Pd       8.25193614       8.25193614      10.00000000
Pd      11.00258152       8.25193614      10.00000000
Pd       0.00000000      11.00258152      10.00000000
Pd       2.75064538      11.00258152      10.00000000
Pd       5.50129076      11.00258152      10.00000000
Pd       8.25193614      11.00258152      10.00000000
Pd      11.00258152      11.00258152      10.00000000
Pd       1.33305437       1.38035701      12.05221797
Pd       4.08925664       1.38750338      11.98771029
Pd       6.82888190       1.38154444      11.99332965
Pd       9.57512057       1.39592898      11.89594876
Pd      12.38684272       1.37174114      11.92044161
Pd       1.37065655       4.09970544      12.00656864
Pd       4.10125007       4.12393621      12.00820233
Pd       6.82444734       4.12497179      12.00908219
Pd       9.56728621       4.13975942      11.94281254
Pd      12.36578195       4.13265160      11.93417299
Pd       1.37110082       6.89256210      11.94010419
Pd       4.13935064       6.87026939      11.96482277
Pd       6.87097415       6.85831372      11.95140951
Pd       9.64205429       6.82915781      11.94515418
Pd      12.39111484       6.85622887      11.94896407
Pd       1.35216595       9.69735034      11.99083951
Pd       4.11777592       9.66324146      11.95099537
Pd       6.89476706       9.64088005      11.95142944
Pd       9.64982872       9.59779534      11.89439304
Pd      12.42487279       9.60955999      11.94161946
Pd       1.35802606      12.41462245      12.04582394
Pd       4.10624816      12.40887780      12.00662317
Pd       6.86816975      12.39901143      11.97280504
Pd       9.63028672      12.36702810      11.91406436
Pd      12.41879361      12.34804731      11.97632258
Pd      13.73955822      13.74290835      14.04076075
Pd       2.80156199       0.09823051      14.05883783
Pd       5.49857874       0.02378751      13.97032551
Pd       8.25078312      13.73958433      14.01580881
Pd      11.00447213       0.08829999      13.91533748
Pd      13.54898336       2.75928015      14.00598938
Pd       2.59182372       2.84359817      14.07536618
Pd       5.35027940       2.73135678      14.02814522
Pd       8.18289318       2.67732658      14.00312302
Pd      10.86624855       2.71565834      13.84255307
Pd       0.01125694       5.48952299      14.03701751
Pd       2.70810714       5.59245693      14.00749288
Pd       5.57130620       5.50630623      13.99061536
Pd       8.33510283       5.42589492      14.00594303
Pd      11.06117974       5.38607854      13.97339480
Pd       0.03675242       8.21573923      14.00176278
Pd       2.74376175       8.34443991      13.95495121
Pd       5.49408198       8.27280642      13.92160189
Pd       8.24967665       8.21496501      13.99394484
Pd      11.02908254       8.15955518      13.96419075
Pd       0.01879134      10.95906279      14.05919282
Pd       2.77686932      11.05750081      14.00923517
Pd       5.49639143      11.03966501      13.91209591
Pd       8.26133771      10.98788423      14.04960832
Pd      11.02253112      10.97208418      13.87196351
Pd      12.42215960       6.05704154      16.60899499
Pd       9.30622961       9.33328543      16.34860630
Pd       1.52219977      12.42701024      16.11235737
Pd       1.45205888       6.99553535      16.01195330
Pd      12.52110706       8.70905031      16.40843646
Pd       8.37646409       0.91106548      17.30875920
Pd       4.78654964       0.78865791      16.54401042
Pd       6.56358216       9.72832976      15.91406342
Pd       4.28098865      11.10653075      16.31886182
Pd       9.46653982      12.33317951      16.25925607
Pd       0.57620723       4.18205099      16.55532829
Pd       3.51123263       4.29181962      16.64299964
Pd      10.92313198       2.88474926      16.52132046
Pd       1.84947412       9.76502001      16.40419016
Pd       7.17166439       7.02129177      16.39546789
Pd       6.57020478      12.45486662      15.95927434
Pd       9.78397329       6.71583148      16.00084577
Pd       6.96114633       3.31504851      16.46390767
Pd       1.03242305       1.40935409      16.08849689
Pd       4.12258129       7.67037570      16.26087869
O        8.93431173       2.82003117      17.08245929
O       11.06363326       9.66736546      15.51502650
O       11.13086484      12.39479896      15.28068080
O       11.27716754       1.00198896      17.03394321
O       10.28471668       0.25308578      17.55817620
O        3.64917044       9.35626253      17.11417694
O        2.75716944       0.28945666      16.14620689
O        1.58833745       2.58048693      17.76356514
O        7.89680501      12.71689815      17.43096501
O        0.23802104      10.89209419      16.09275201
O        2.92508302       2.78802098      17.84667839
O        1.95966161       5.40493626      17.22170921
O        7.01146493       5.19460828      15.61086639
O        7.65703379       8.72940934      17.25771615
O        5.00302772       3.13605227      16.01202144
O       13.06350330       2.72425373      16.03918979
O       10.93303477       4.88918629      16.04804549
O       13.67169923       7.40687824      17.30588466
O        6.50351485       1.55627192      17.30759034
O        4.19694395       5.82841861      15.51844330
