115
Lattice="13.75323 0.0 0.0 0.0 13.75323 0.0 0.0 0.0 23.89" Properties=species:S:1:pos:R:3 entry_id=1 rank=34 energy=-568.599365234375 pbc="T T F"
Pd       0.00000000       0.00000000      10.00000000
Pd       2.75064538       0.00000000      10.00000000
Pd       5.50129076       0.00000000      10.00000000
Pd       8.25193614       0.00000000      10.00000000
Pd      11.00258152       0.00000000      10.00000000
Pd       0.00000000       2.75064538      10.00000000
Pd       2.75064538       2.75064538      10.00000000
Pd       5.50129076       2.75064538      10.00000000
Pd       8.25193614       2.75064538      10.00000000
Pd      11.00258152       2.75064538      10.00000000
Pd       0.00000000       5.50129076      10.00000000
Pd       2.75064538       5.50129076      10.00000000
Pd       5.50129076       5.50129076      10.00000000
Pd       8.25193614       5.50129076      10.00000000
Pd      11.00258152       5.50129076      10.00000000
Pd       0.00000000       8.25193614      10.00000000
Pd       2.75064538       8.25193614      10.00000000
Pd       5.50129076       8.25193614      10.00000000
Pd       8.25193614       8.25193614      10.00000000
Pd      11.00258152       8.25193614      10.00000000
Pd       0.00000000      11.00258152      10.00000000
Pd       2.75064538      11.00258152      10.00000000
Pd       5.50129076      11.00258152      10.00000000
Pd       8.25193614      11.00258152      10.00000000
Pd      11.00258152      11.00258152      10.00000000
Pd       1.33305437       1.38035701      12.05221797
Pd       4.08925664       1.38750338      11.98771029
Pd       6.82888190       1.38154444      11.99332965
Pd       9.57512057       1.39592898      11.89594876
Pd      12.38684272       1.37174114      11.92044161
Pd       1.37065655       4.09970544      12.00656864
Pd       4.10125007       4.12393621      12.00820233
Pd       6.82444734       4.12497179      12.00908219
Pd       9.56728621       4.13975942      11.94281254
Pd      12.36578195       4.13265160      11.93417299
Pd       1.37110082       6.89256210      11.94010419
Pd       4.13935064       6.87026939      11.96482277
Pd       6.87097415       6.85831372      11.95140951
Pd       9.64205429       6.82915781      11.94515418
Pd      12.39111484       6.85622887      11.94896407
Pd       1.35216595       9.69735034      11.99083951
Pd       4.11777592       9.66324146      11.95099537
Pd       6.89476706       9.64088005      11.95142944
Pd       9.64982872       9.59779534      11.89439304
Pd      12.42487279       9.60955999      11.94161946
Pd       1.35802606      12.41462245      12.04582394
Pd       4.10624816      12.40887780      12.00662317
Pd       6.86816975      12.39901143      11.97280504
Pd       9.63028672      12.36702810      11.91406436
Pd      12.41879361      12.34804731      11.97632258
Pd      13.63881386      13.70848030      14.10935393
Pd       2.68575178       0.07238522      14.20176758
Pd       5.49791865      13.64326292      13.94995715
Pd       8.25925983       0.11451982      14.02585178
Pd      10.96766000       0.07620025      13.76704998
Pd      13.59186641       2.74399054      13.98580915
Pd       2.64970815       2.84840701      14.16234906
Pd       5.45788877       2.73058012      14.07588085
Pd       8.22041111       2.75280371      13.97607858
Pd      10.89237998       2.72027105      13.88279053
Pd       0.02088520       5.51262173      13.95282273
Pd       2.73112549       5.56385870      14.00073933
Pd       5.46408337       5.51588980      14.08008777
Pd       8.26920502       5.48279977      14.05482246
Pd      10.99605675       5.39763115      13.97619545
Pd       0.03995705       8.29347560      13.96953430
Pd       2.74341327       8.28813152      13.88890267
Pd       5.47976576       8.29399742      13.95464787
Pd       8.39604660       8.21833270      13.82052677
Pd      11.07354317       8.19156006      13.94254770
Pd      13.58700182      10.93980123      14.42237583
Pd       2.77826829      11.08303897      13.97612021
Pd       5.55706887      10.94807282      14.02039075
Pd       8.32978297      11.02656766      13.93358216
Pd      11.01910449      10.87983816      13.83026156
Pd      12.43304052       6.59738976      16.10081073
Pd       8.75651313       9.62368379      16.22351131
Pd       1.83590565      12.62477300      16.70833514
Pd       1.42557695       7.00142845      16.23755355
Pd      11.89202560       9.38523777      16.29692965
Pd       8.41096812       1.37527824      17.14021793
Pd       5.60471961       0.75755931      16.47162554
Pd       5.67444550       9.79153953      16.99548457
Pd       4.35692778      12.06862507      16.14064569
Pd      10.87155270      12.42819301      15.90952350
Pd       0.95396579       4.26892870      16.27353537
Pd       3.97189272       4.37266980      16.28840150
Pd      11.21430044       3.15462411      16.56394872
Pd       3.11580222       9.60348422      16.22841529
Pd       7.21792204       7.17971244      16.87553628
Pd       6.98272950      12.03405234      16.19880207
Pd       9.71351624       6.97753983      15.98233231
Pd       7.54327811       3.71433722      16.44454386
Pd       0.97953540       1.41307994      16.06238616
Pd       4.08509254       7.09524193      15.91180154
O        9.31123740       3.11960594      17.16206301
O       10.41184703      10.53415597      16.83797983
O       12.87082668      12.49609490      15.64192137
O       11.47048544       1.28934728      17.23812408
O       10.42411725       0.44678865      17.19036949
O        5.20698684       7.80600676      17.35032932
O        4.15193724       1.25042219      15.15953145
O        1.76501007       1.36461413      17.91696948
O        8.89169324      12.48990934      15.43373676
O        1.55972984      10.93036622      15.69227620
O        2.32574943       0.17168400      18.10981488
O        2.40958854       5.39687488      16.95888439
O        6.96394852       5.57328401      15.70147091
O        7.52968805       8.94073230      17.74977120
O        5.60728742       3.25241468      16.11113009
O       13.20922368       2.99259971      16.01975015
O       11.05207632       5.16828885      16.05995942
O       13.55887508       8.24372189      16.05734459
O        7.11759091      13.69727277      17.42433837
O        7.06976692       8.64352525      15.26077077
