115
Lattice="13.75323 0.0 0.0 0.0 13.75323 0.0 0.0 0.0 23.89" Properties=species:S:1:pos:R:3 entry_id=3 rank=32 energy=-570.1822509765625 pbc="T T F"
Pd       0.00000000       0.00000000      10.00000000
Pd       2.75064538       0.00000000      10.00000000
Pd       5.50129076       0.00000000      10.00000000
Pd       8.25193614       0.00000000      10.00000000
Pd      11.00258152       0.00000000      10.00000000
Pd       0.00000000       2.75064538      10.00000000
Pd       2.75064538       2.75064538      10.00000000
Pd       5.50129076       2.75064538      10.00000000
Pd       8.25193614       2.75064538      10.00000000
Pd      11.00258152       2.75064538      10.00000000
Pd       0.00000000       5.50129076      10.00000000
Pd       2.75064538       5.50129076      10.00000000
Pd       5.50129076       5.50129076      10.00000000
Pd       8.25193614       5.50129076      10.00000000
Pd      11.00258152       5.50129076      10.00000000
Pd       0.00000000       8.25193614      10.00000000
Pd       2.75064538       8.25193614      10.00000000
Pd       5.50129076       8.25193614      10.00000000
Pd       8.25193614       8.25193614      10.00000000
Pd      11.00258152       8.25193614      10.00000000
Pd       0.00000000      11.00258152      10.00000000
Pd       2.75064538      11.00258152      10.00000000
Pd       5.50129076      11.00258152      10.00000000
Pd       8.25193614      11.00258152      10.00000000
Pd      11.00258152      11.00258152      10.00000000
Pd       1.33305437       1.38035701      12.05221797
Pd       4.08925664       1.38750338      11.98771029
Pd       6.82888190       1.38154444      11.99332965
Pd       9.57512057       1.39592898      11.89594876
Pd      12.38684272       1.37174114      11.92044161
Pd       1.37065655       4.09970544      12.00656864
Pd       4.10125007       4.12393621      12.00820233
Pd       6.82444734       4.12497179      12.00908219
Pd       9.56728621       4.13975942      11.94281254
Pd      12.36578195       4.13265160      11.93417299
Pd       1.37110082       6.89256210      11.94010419
Pd       4.13935064       6.87026939      11.96482277
Pd       6.87097415       6.85831372      11.95140951
Pd       9.64205429       6.82915781      11.94515418
Pd      12.39111484       6.85622887      11.94896407
Pd       1.35216595       9.69735034      11.99083951
Pd       4.11777592       9.66324146      11.95099537
Pd       6.89476706       9.64088005      11.95142944
Pd       9.64982872       9.59779534      11.89439304
Pd      12.42487279       9.60955999      11.94161946
Pd       1.35802606      12.41462245      12.04582394
Pd       4.10624816      12.40887780      12.00662317
Pd       6.86816975      12.39901143      11.97280504
Pd       9.63028672      12.36702810      11.91406436
Pd      12.41879361      12.34804731      11.97632258
Pd      13.71772482       0.05412634      14.12192895
Pd       2.76124084      13.74695619      14.13236236
Pd       5.52391954       0.01354061      13.95508577
Pd       8.30469066      13.68431153      13.93061399
Pd      11.01574227       0.08305989      13.79639149
Pd      13.60141817       2.80036558      14.00016297
Pd       2.74326820       2.84120317      14.08696828
Pd       5.51450633       2.78120475      14.01709401
Pd       8.25702248       2.64375432      13.97675205
Pd      10.91368550       2.72419208      13.92136094
Pd       0.03318864       5.50910735      13.92870134
Pd       2.72849867       5.56093622      14.03355297
Pd       5.43303618       5.52780969      14.01504287
Pd       8.25409991       5.32357870      14.11982557
Pd      10.99323058       5.41086043      13.99369295
Pd       0.04974228       8.25705136      13.93737092
Pd       2.77588090       8.27642388      13.92456972
Pd       5.49702689       8.38320119      13.95111760
Pd       8.38087587       8.26510759      13.97591335
Pd      11.06241176       8.23217239      13.91226901
Pd      13.57878761      10.94085641      14.19493371
Pd       2.77311395      11.03738820      13.94702873
Pd       5.51377443      11.07129664      13.94187514
Pd       8.18946754      10.94227205      14.19948754
Pd      10.90507803      10.93159308      13.86062472
Pd      12.56692264       6.57450812      16.10957146
Pd       9.00495410       9.58395802      16.65300358
Pd       1.59660551      12.38925106      16.66819892
Pd       1.61193644       7.24342564      16.30949689
Pd      12.02764166       9.41165561      16.23484127
Pd       9.31885855       1.01735801      16.28288887
Pd       4.98628809       1.06369542      16.40207870
Pd       6.15568118       9.99444987      16.27528952
Pd       4.27719339      12.21642560      16.05795497
Pd      11.17325617      12.46193140      15.97275810
Pd       1.06252112       4.62236537      16.38090286
Pd       3.99110911       4.44697999      16.31737836
Pd      11.38265319       3.17690706      16.61399526
Pd       3.06571368       9.70555200      16.32925199
Pd       7.38882376       6.75488722      16.79495905
Pd       6.92852080      12.69808351      16.10747032
Pd       9.91057334       7.06646277      16.02813307
Pd       7.46818219       3.04230614      16.59994550
Pd       1.25521301       1.92592010      16.13906090
Pd       4.32202138       7.10116674      16.02496145
O        9.44044515       2.78130597      17.12600740
O       10.64827972      10.62898749      16.82724885
O       13.16180772      12.48066225      15.62496207
O       11.96976264       1.40182772      17.37410934
O       11.03465604       0.44838602      17.42848128
O        4.63652316       8.83339828      17.03984366
O        3.09404421       1.24816284      15.74146209
O        1.08477307       1.10395666      17.99637062
O        9.12312129      12.83694180      15.83248469
O        1.51904905      10.73839753      15.58847320
O        1.66354180      13.68440929      18.14914000
O        2.62299256       5.68271268      17.06725800
O        7.81525516       4.94263904      16.12545711
O        7.38044285       8.66903788      17.23708420
O        5.47581353       3.13677637      16.07929980
O       13.39856347       3.21066624      16.07350596
O       11.15898847       5.16517182      16.06551198
O       13.64710723       8.25374398      16.01966957
O        6.86411265       0.99112311      17.00077863
O        6.86044107       7.03585252      14.78191949
