60
Properties=species:S:1:pos:R:3 entry_id=16 rank=31 energy=-473.38262939453125 pbc="F F F"
C        3.39404973      -4.39049041      -1.67712845
C        1.97799564      -1.25557698      -0.17779561
C       -0.23298294       3.34340152       3.47621783
C        1.40949744      -2.73149429      -2.03431905
C       -0.07426323       5.56507731       4.18204470
C       -0.29474364       3.35988810       5.73567448
C        1.51400762      -0.51903232       4.42015060
C        6.21353828      -7.01334478      -1.19855591
C       -2.68604064      -1.95702027      -4.61479043
C        2.63321309      -0.65982606       2.19731716
C        0.01108599       7.46375737       2.24756481
C       -3.18383817       2.87007957      -1.51825516
C        2.48815843      -3.54436976      -1.77350465
C       -0.50233115       5.51807954      -0.77264428
C       -2.30166627       1.73448041      -3.86770986
C       -0.89085515      -0.06557078       0.50139584
C       -1.43347078       1.28668064      -2.82297364
C        0.45472676      -4.48852976      -3.46145642
C       -2.12642334      -2.24534053       0.10757540
C       -0.54919431       0.32914316      -0.80680277
C       -1.32844177       4.90127344      -3.12031799
C       -0.61057483      -2.29975064      -3.35205561
C       -0.93030756      -0.89268321       4.82229023
C       -1.51460351      -0.80566930       2.32330906
C       -1.80365425      -1.12272426       3.63424998
C       -0.89403744       0.42562379       1.86328095
C       -2.52582244      -2.97196525      -2.31469242
C        5.25498145      -6.13540534      -1.40610982
C        0.41943909      -5.64589652      -3.93650256
C       -0.15883199       4.25980704       4.54571547
C       -0.47850116      -0.96009126      -2.91910561
C        1.17796307      -1.53725632      -1.25893427
C       -2.38002491      -2.72085783      -1.06805402
C       -1.99715305       4.13017977      -3.84730294
C       -0.45582613       1.99052524       3.89369240
C        0.42229143      -3.18221149      -2.96979682
C        0.35854360      -0.64452330       4.91153752
C       -2.28479981      -1.25186945       4.91450731
C       -0.58294236       1.59282411       2.52511097
C       -0.34859395       3.13560315       2.07559521
C        4.37514275      -5.25305653      -1.51790262
C        2.33939613      -0.52201261       3.41312752
C       -2.24379839       2.27198808      -0.83602686
C       -0.45904859       2.08779673       5.31241893
C        2.43858820      -0.92769816       0.93307439
C       -2.04733705      -2.65244387      -3.56936484
C       -2.11997796       0.38339323      -4.52081308
C       -1.13986048       0.10438250      -3.49996418
C       -0.32343160       3.99082558       1.07257473
C       -0.83593012       5.32087521      -1.95030148
C       -3.74394573       3.18352641      -2.64401605
C       -1.33609211       1.39397184      -1.42037544
C       -2.88773418       3.04782450      -3.80184954
C       -0.05508740       6.23605732       3.05903831
C        0.08799776      -0.68733305      -1.63904950
C        6.93349720      -8.05220009      -1.32544227
C       -2.73834378      -0.75897335      -5.03576941
C       -0.29182057       5.27871168       0.59334086
C       -1.59227346      -1.31453161       0.90586794
C       -0.11458303       6.28750830       1.60189019
