60
Properties=species:S:1:pos:R:3 entry_id=19 rank=9 energy=-479.6070251464844 pbc="F F F"
C        1.82717529      -4.16845658       0.35132004
C        1.49596954      -0.70492415      -0.83147878
C        1.58689424       3.34779818       1.31850808
C        1.27348389      -2.82684123      -1.69017876
C       -2.49703653       2.96441570       3.27109537
C        2.17028984       1.46518398       0.13854573
C        1.17526859      -2.39943643       3.89983995
C        2.42514863      -7.71239706       1.67743777
C       -2.08348449       2.26152712      -7.17403711
C        1.54300140      -1.31537881       1.63231374
C       -4.17712307       4.47297391       2.27059768
C       -0.52689324       3.26728444      -0.46890849
C        1.62208632      -3.00121932      -0.29829949
C       -2.75103784       3.82888043      -0.31545628
C       -1.07793132       2.18788593      -3.37373534
C        1.45774388       0.10100973       2.01088128
C       -0.04070263       1.26545480      -2.86166342
C        0.17017513      -2.66985709      -5.17078362
C        0.00860015      -1.67079360       5.98538990
C        1.56518662       0.69469599      -0.88909604
C       -4.09700817       3.97562108      -2.18670618
C        0.93072104      -3.56669827      -2.88723510
C       -0.77818083      -0.64971741       6.23119277
C       -0.66348981       0.11443370       3.43938850
C       -1.36541809       0.38942656       5.77010438
C        0.46255766       0.75271914       2.79292546
C        0.91612994      -4.86955177      -3.18187899
C        2.24602851      -6.50716307       1.27380619
C       -0.13261011      -2.94724902      -6.38508297
C        1.74454558       2.79605607       0.02511915
C        0.13319767       0.07370822      -3.52639791
C        1.14712160      -1.46866634      -1.94709324
C       -1.42651056       0.95733911       4.52355377
C       -3.21245412       3.46984342      -3.02991014
C        2.04346387       2.32865507       2.23415757
C        0.52594560      -2.47357159      -3.90887878
C        0.70318881      -2.27509222       5.10892223
C       -2.05124833       2.08400899       4.01398340
C        0.69502480       2.16883560       2.74645587
C        0.23655357       3.20190404       1.82528798
C        2.02265145      -5.33779199       0.76372261
C        1.43641299      -2.21250582       2.67797689
C        0.70187136       2.80453799      -0.93001084
C        2.30583386       1.10986014       1.48187860
C        1.67875945      -1.63410831       0.25479165
C       -0.43112989      -3.21947379      -7.60568738
C       -1.40728131       2.08625715      -4.70805607
C       -2.44188013       2.57988512      -8.33995896
C       -0.82483142       3.40048055       0.91703998
C       -3.98533521       4.15279064      -0.87161408
C       -1.71237787       3.37426457      -1.20790008
C        0.75789585       1.57960614      -1.69861693
C       -1.94283918       3.02398829      -2.57323850
C       -2.95751071       3.78975175       2.22723327
C        0.60453959      -1.15686028      -3.22333514
C        2.74535362      -8.82326082       2.23097888
C       -1.76063657       2.22122210      -5.89673810
C       -5.22840507       5.08153916       2.56578963
C       -1.14903561      -1.09257236       3.11505002
C       -2.21508098       3.74746809       1.02384965
