60
Properties=species:S:1:pos:R:3 entry_id=29 rank=13 energy=-478.68096923828125 pbc="F F F"
C        2.98260518      -3.82743280       0.30084647
C        1.66476457      -0.67390549      -1.10151524
C        1.81806356       3.22316245       1.41724092
C        1.93693028      -2.88256637      -1.75723195
C       -2.45651911       2.27559695       2.68601084
C        2.26473101       1.38851985       0.09347394
C        0.34531061      -2.57769502       3.25682524
C        4.72978379      -6.78817720       1.98546555
C       -2.57769086       1.71779480      -6.48126736
C        1.47132194      -1.34582730       1.34914156
C       -4.10315562       3.94256319       2.04090607
C       -0.06704286       3.70803316      -0.46353075
C        2.36103548      -2.85116270      -0.44106703
C       -2.34434499       4.20084933      -0.45670794
C       -0.61239141       2.91125581      -3.41823940
C        1.39664681      -0.02393352       1.81833938
C        0.30447242       1.87100404      -3.07433634
C       -1.67316117      -3.00273522      -3.70400405
C       -0.78615877      -1.98886435       1.18069602
C        1.67837182       0.76360631      -1.06650183
C       -3.57741849       4.15407647      -2.52458893
C       -1.01640119      -2.66773753      -1.35050648
C       -1.45651172      -1.84059128       4.85318890
C       -1.04691529       0.18115010       2.43139704
C       -2.20609068      -0.77443022       4.79963852
C        0.30058307       0.65551484       2.39827473
C       -0.97331185      -2.41063976      -0.14871632
C        4.12533282      -5.78962514       1.45740596
C       -2.47696818      -3.50835583      -4.56069284
C        2.01008065       2.76016540       0.09251332
C        0.16302014      -0.54787098      -3.88668247
C        1.38591220      -1.66755993      -2.14257574
C       -2.55292475       0.32995302       4.27137794
C       -2.46039024       3.86715418      -3.30433819
C        2.10488556       2.09423583       2.26600700
C       -0.81066238      -2.56953974      -2.75538706
C       -0.49317020      -2.41390313       4.19930192
C       -2.11451091       1.06333422       3.15843232
C        0.69458895       2.00850743       2.62669092
C        0.41872114       3.15481338       1.80813940
C        3.56182115      -4.79275300       0.83296758
C        0.50345344      -2.26175813       1.94041424
C        1.07355726       3.02478004      -0.92150577
C        2.35381176       0.93907462       1.41922883
C        1.96801270      -1.52017772       0.03778349
C       -3.29052746      -3.98784889      -5.44498328
C       -1.83543242       2.94393687      -4.29538788
C        0.25542490       0.69362000      -3.81060193
C       -0.53675408       3.54862020       0.86591313
C       -3.51956034       4.29505606      -1.22430180
C       -1.14747228       4.11589544      -1.24302623
C        1.03068273       1.88059400      -1.82849474
C       -1.19679389       3.90828724      -2.59914614
C       -2.81642068       3.35826025       1.93214373
C        0.28772158      -1.64966633      -3.07876191
C        5.15339114      -7.79754623       2.65647672
C       -2.20329752       2.28964639      -5.42687018
C       -5.22368332       4.44511874       2.25825314
C       -1.39749393      -0.97864567       1.85086417
C       -1.95075814       3.79973750       0.87819788
