60
Properties=species:S:1:pos:R:3 entry_id=6 rank=34 energy=-472.2463073730469 pbc="F F F"
C        2.63168265      -4.27332683      -0.03636193
C        1.36862101      -0.19553276      -2.08198721
C        2.19167779       1.68186617       1.15120447
C        1.42491207      -3.85357734      -2.33644510
C       -3.15927986       2.35673225       3.87729086
C        2.94402470       1.55487378      -1.15931571
C       -1.04349097      -2.97528841       1.88923482
C        3.81415236      -1.53683375       2.05374465
C       -1.53092499       1.66864713      -4.73234547
C        0.79800034      -1.88969459       0.46122159
C       -0.04989288      -0.11702101       3.55312763
C        0.99994308       3.90100119      -0.19035299
C        1.86090697      -3.64584709      -1.01975958
C       -1.21956076       4.58125581       0.06432553
C       -0.85370172       2.62002172      -2.65358146
C        0.88892831      -0.58827063       0.99717767
C       -1.92678654       1.90007246      -3.40345179
C       -1.37173532      -2.44925885      -1.67949202
C       -3.39021263       0.53344136      -0.15496192
C        2.04238853       0.49948066      -0.98528343
C       -3.34111308       0.74192948      -1.60060229
C       -1.23093386      -1.71127233      -2.87797337
C       -2.65516106      -2.43766068       3.73703186
C       -2.45739988       0.03297597       2.25548664
C       -3.25743749      -1.38107534       4.09344038
C        0.20598478      -0.31846140       2.21119859
C       -1.84256180      -0.51353378      -2.99180220
C        3.65659460      -2.72532801       1.67307316
C       -1.11813331      -2.81124508      -0.53156657
C        2.74987906       2.44419238      -0.12298493
C        0.36124695      -1.21510042      -4.65612498
C        1.33788563      -1.57243056      -1.93383757
C       -3.27365097      -0.07923837       3.64830682
C       -2.11208857       4.17733168      -0.93613548
C        3.21960369       0.90810426       1.85063353
C       -0.04855579      -2.09265396      -3.72052797
C       -1.80182827      -2.99406801       2.88070259
C       -3.53730194       1.17783088       4.12892208
C       -1.10771085      -0.09795392       2.63981703
C        1.14766286       2.47771713       1.78860828
C        3.24720676      -3.74498044       0.95056728
C       -0.42445229      -2.70950182       0.69289061
C        2.29240436       3.66826396      -0.53535163
C        1.62909308       0.42834453       0.36103106
C        1.51842938      -2.23818908      -0.70748858
C       -2.41398854       0.66824297      -2.71187075
C        0.27782841       0.12161360      -4.38237133
C        0.67981834       0.63818550      -3.05748759
C        0.49395268       3.43779176       1.11735704
C       -4.55077548       0.88662679      -1.02142685
C       -0.12813160       4.38649952      -0.89407062
C        0.27648315       1.87448087      -2.63210100
C       -1.04183067       3.75556668      -1.79096658
C       -2.44537656       3.25114836       3.21891671
C        0.97325741      -2.64875474      -2.84508866
C        3.69155311      -0.21676851       2.12872224
C       -0.57731684       0.96159046      -5.13311991
C       -0.84259774       4.01224985       1.32574134
C       -2.90197871       0.30951403       1.03285976
C       -1.67129178       3.73640733       2.36860721
