60
Properties=species:S:1:pos:R:3 entry_id=24 rank=32 energy=-472.59271240234375 pbc="F F F"
C        1.77714386      -4.21062958       0.38285628
C        1.43847490      -0.80228213      -0.93190351
C        0.91487243       2.86782299       2.18022217
C        1.38309932      -2.98463147      -1.76499021
C       -2.14035609       3.19277135       3.25009927
C        2.77933521       0.90641267       0.12125172
C        1.30924057      -2.49109303       3.82439628
C        2.24607593      -7.65548868       1.99781971
C       -2.42708304       3.14588421      -7.15822258
C        1.55746638      -1.41406188       1.54136249
C       -4.01555145       4.76385810       3.01616939
C       -0.40781270       1.91476673      -0.44806076
C        1.61714113      -3.07239285      -0.32639265
C       -3.91862941       4.49462937       0.33694260
C       -1.46712696       2.18526568      -3.46005814
C        1.40061197       0.02213462       1.88628648
C       -0.62398081       1.07462376      -3.36424828
C        0.99721750      -2.77403317      -5.40262979
C        0.81313995      -2.33113767       5.03834609
C        1.75264068       0.58995648      -0.85354723
C       -3.93226463       4.49890519      -2.02174305
C        1.31641908      -4.07109340      -2.61632458
C       -0.86589792      -0.70964509       5.26182555
C       -0.72804842      -0.44382198       2.92545103
C       -0.91081863       0.68216317       5.47339993
C        0.18518803       0.45919143       2.41479633
C        1.31047216      -5.19817387      -3.17317116
C        2.05904897      -6.50634098       1.46040644
C        1.14923545      -3.68663707      -6.35059799
C        1.89341142       3.85757069       0.08216656
C        0.07177484       0.06752905      -3.40259913
C        1.19186639      -1.61051754      -2.09496299
C       -1.00482414       1.66854165       4.71107137
C       -3.06117732       3.75792843      -2.55422172
C        1.53837553       3.60044456       1.38700199
C        0.85328945      -2.01549303      -4.43511229
C        0.00204096      -1.67545520       5.78214426
C       -1.17202353       2.30682990       3.46485459
C       -0.22254545       1.92808579       2.27155894
C       -0.88578325       2.17027291       0.91561782
C        1.92445721      -5.35238368       0.88326845
C        1.53302871      -2.31151234       2.59426333
C        1.59001204       2.99274383      -0.79787544
C        2.43089486       0.80309772       1.34205641
C        1.61805393      -1.71874249       0.16561719
C        1.36009035      -4.36378867      -7.38731293
C       -1.88351711       2.60020701      -4.71417422
C       -2.53943842       3.21882558      -8.41117290
C       -2.00419243       2.93410926       0.41539937
C       -4.36142160       4.85047619      -0.79799571
C       -1.59684177       2.59697351      -0.97462338
C        0.93465773       1.77592524      -0.98385094
C       -2.02838790       2.85598059      -2.31641672
C       -3.01601413       3.89200404       2.51125678
C        0.73664962      -1.16233513      -3.35500324
C        2.24149494      -8.80689917       2.56086825
C       -2.09893463       2.81543816      -5.91829309
C       -4.87946765       5.52149675       3.49153670
C       -1.32035702      -0.99429370       3.88727052
C       -2.99307453       3.76770112       1.05510114
