60
Properties=species:S:1:pos:R:3 entry_id=21 rank=16 energy=-477.76434326171875 pbc="F F F"
C        3.08543636      -3.55842292       0.29670296
C        2.23485377      -0.15448130      -0.58228218
C        1.77673669       3.63466563       2.05387260
C        1.87883435      -2.20974341      -1.45666562
C       -3.34579213       2.23682975       3.54996508
C        2.36996680       1.98120002       0.58317066
C        1.60126925      -2.08931940       3.41982768
C        4.17664114      -7.06986763       1.36633740
C       -0.51612059       0.86975523      -7.15767646
C        3.08369205      -0.84679733       1.76320829
C       -3.92909983       4.47833842       4.46455747
C       -0.55047135       3.74203359      -0.64613953
C        2.63366311      -2.39106865      -0.25171411
C       -2.28729354       4.60836211      -1.40173963
C       -0.40584953       1.91133783      -3.37782292
C        3.31678554       0.45524431       2.36914629
C        0.40017389       1.25170761      -2.34463096
C       -2.30050367      -3.66488581      -4.76733787
C       -3.54184438      -2.12195998      -0.15365109
C        1.98946617       1.20013738      -0.48574401
C       -3.08923008       4.47408950      -3.51818112
C       -2.82087408      -2.78005155      -2.51010946
C       -0.82099342      -1.61027253       3.95005017
C       -3.48292569      -1.01700822       2.13915407
C       -1.93191219      -1.04169893       3.82916699
C        3.36845991       0.87063349       3.76381859
C       -3.18155832      -2.45567653      -1.35092791
C        3.82137087      -5.87803465       1.05476401
C       -2.55643211      -4.46553997      -5.72819926
C        1.53761734       3.14715668       0.75244316
C       -0.23908717      -1.01667220      -3.19410214
C        1.57307199      -0.87036766      -1.64017651
C       -2.99928372      -0.35654215       3.25641274
C       -2.23142577       3.58967344      -4.00061848
C        2.63300564       2.72641466       2.71572014
C       -2.07758494      -2.83031438      -3.69162315
C        0.40801662      -2.03294202       3.89703743
C       -3.25439855       1.01559539       3.49068082
C        3.01557527       2.14266744       3.96989446
C       -2.24508138       4.40599476       1.22368102
C        3.44469733      -4.71089927       0.62136267
C        2.57210378      -1.77911033       2.65600094
C        0.62368840       3.06052795      -0.37866696
C        2.97834713       1.66498997       1.76133211
C        2.80835039      -1.05856828       0.35739745
C       -2.79273687      -5.27307768      -6.71760809
C       -0.43615298       1.42509903      -4.64388298
C        0.63947057      -0.17373454      -2.49368629
C       -1.70341947       4.48907777      -0.03513862
C       -3.24535691       5.02631108      -2.30193307
C       -1.24533945       3.72507997      -1.87150256
C        0.97001292       1.89673625      -1.20730912
C       -1.23520436       3.08062297      -3.12087657
C       -3.36313210       3.66062672       3.47908885
C       -1.01686733      -1.88770695      -3.58410488
C        4.53073649      -8.18866758       1.88470730
C       -0.48279358       1.13847047      -5.89610166
C       -4.39324259       5.42067920       5.14058352
C       -3.55557887      -1.61040780       1.03395983
C       -2.77335956       4.18674020       2.31869734
