60
Properties=species:S:1:pos:R:3 entry_id=15 rank=5 energy=-480.2886962890625 pbc="F F F"
C        3.13347975      -3.81340823       0.18560138
C        1.75366296      -0.68142076      -1.19779960
C        1.49528450       3.11412331       1.53907867
C        2.13996692      -2.86881109      -1.91760141
C       -2.80896859       2.49009905       3.32714873
C        2.14274160       1.35277183       0.16123103
C       -0.05316085      -3.02454100       2.64438109
C        5.08263253      -6.50955657       2.08013287
C       -2.78628156      -0.19442889      -3.50541081
C        1.34897000      -1.49621868       1.17425587
C       -3.34531414       5.15945515       3.13054181
C       -0.30737111       3.62047911      -0.53168056
C        2.51447472      -2.85907346      -0.57619303
C       -2.29729991       4.79558268      -0.51180878
C       -0.96790809       2.71644231      -3.29294688
C        1.10197936      -0.16322487       1.66114964
C        0.14675360       1.89961833      -2.88184488
C       -0.00978303      -4.04516995      -3.60253385
C       -1.84468028      -1.44335323      -0.13411908
C        1.66972248       0.74250714      -1.06187324
C       -3.46740892       5.19923357      -2.41240710
C       -1.53922668      -2.32321596      -2.64287324
C       -2.09998583      -2.38281219       3.79831287
C       -1.36681423      -0.22372572       2.12969242
C       -2.67864370      -1.23795680       3.85810379
C       -0.09456549       0.44723849       2.15011027
C       -1.96587684      -1.70437100      -1.45403349
C        4.40421491      -5.60256748       1.48142098
C        0.07750163      -5.23716340      -3.98653214
C        1.78442374       2.70971313       0.20983516
C        0.16108246      -0.39549176      -3.81052745
C        1.57614524      -1.65551202      -2.30074705
C       -2.34835146      -0.03919883       3.24679224
C       -2.76078291       4.49460020      -3.27342513
C        1.67158323       1.92985338       2.32311135
C       -0.35934422      -2.74007271      -3.31240247
C       -1.11697928      -3.12538738       3.38753348
C       -2.71182782       1.26924643       3.47969844
C        0.23446002       1.82149863       2.48458601
C        0.07047175       3.12132177       1.81223027
C        3.77317700      -4.69998576       0.78395747
C        0.82374373      -2.57972268       1.84814358
C        0.87675161       2.93213632      -0.82621545
C        2.07488132       0.83694988       1.46287640
C        2.01109450      -1.56925774      -0.08643680
C       -2.41587760      -1.21821381      -2.73404894
C       -1.42378000       1.64539015      -4.16983587
C       -0.15515443       0.86731800      -3.85588236
C       -0.74446962       3.72619481       0.82815042
C       -3.39869147       5.40868276      -1.10611996
C       -1.33433894       4.13799290      -1.35802067
C        0.95476808       1.83988449      -1.74989001
C       -1.63047740       3.83316931      -2.71903676
C       -2.93686335       3.80333437       3.08938976
C        0.56627087      -1.56421521      -3.33384136
C        5.67397755      -7.33968028       2.85994314
C       -2.59514211       0.90628129      -4.11642789
C       -1.94216578       4.50536078       0.85718965
C       -1.68809018      -1.02145563       1.03593510
C       -2.66366347       4.71628234       2.02084718
