60
Properties=species:S:1:pos:R:3 entry_id=26 rank=0 energy=-497.47723388671875 pbc="F F F"
C        2.95015188      -3.37607864      -1.07095110
C        2.28740615       0.09399942      -2.26036679
C        2.00993693       1.74740542       1.85754183
C        1.84285246      -4.05521687      -1.62634792
C       -2.58384148       2.87832297       2.66452308
C        3.12374925       0.93138567      -0.00584189
C       -0.01995480      -3.16226804       0.28380711
C        0.77243965      -1.68251541       1.87853890
C       -2.92763326      -0.61858140      -1.71843367
C       -0.43689401      -2.14518737       1.27607069
C       -1.41183517       2.33662157       3.28470136
C        0.71349747       3.46653949      -0.07308634
C        0.75186756      -3.27500265      -2.01848000
C       -1.67541753       3.51195216      -0.78590424
C       -0.11354552       2.67150845      -2.23492460
C        2.72639775      -1.53705343       0.40971936
C        1.15888425       2.12679392      -2.51589907
C       -2.49579480      -1.74099198      -0.92253785
C       -2.70070534      -1.41260745       0.45802528
C        2.88705825       1.05499786      -1.39344661
C       -3.51267720       0.31333540      -0.85507502
C       -1.24861703      -1.65563737      -2.81894734
C       -3.59366292      -0.29050036       0.41955643
C       -1.49149446       0.00483434       2.02177227
C       -3.64434045       0.72501724       1.39245080
C       -0.24421365       0.33661632       2.82600852
C       -1.30921628       0.97258042       0.93374931
C        1.85921148      -2.34041156       1.20237532
C       -1.45086779      -2.39416288      -1.61938452
C        2.63652033       2.12151260       0.63445322
C        0.08075439       0.10840788      -3.34995789
C        2.24614056      -1.32798389      -2.04740186
C       -2.83069256       0.48208968       2.52717156
C       -2.32255335       2.42350693      -1.47700615
C        2.03736725       0.32869561       1.93259852
C        0.05691572      -1.30320579      -3.20067072
C        1.31065266      -3.50910620       0.64226165
C       -2.63407215       1.64463957       3.27430104
C       -0.12031435       1.73189298       3.14466783
C        0.83690237       2.40670603       2.28012948
C        2.13039523      -4.19531018      -0.24578883
C       -0.34864605      -3.14982584      -1.10352002
C        2.00884890       2.94675471      -0.34547803
C        2.81590448      -0.17525442       0.82728695
C        2.92675497      -1.96793464      -0.94726752
C       -1.02288713       2.24498850       0.88338335
C       -1.23230515       0.64636904      -3.06350828
C        1.24327033       0.78147506      -2.97575234
C        0.17597914       2.95308759       1.15477357
C       -3.28614637       1.69370160      -0.70786718
C       -0.27054718       3.55316772      -1.13925027
C        2.22407131       2.32383502      -1.60208031
C       -1.33369420       1.91803754      -2.42530079
C       -3.04947111       3.12196300       1.32868019
C        1.13267636      -2.03745913      -2.62324954
C        0.92496800      -0.38795249       2.42714042
C       -2.08079749      -0.47779939      -2.82569061
C       -1.88229510       3.37541921       0.59894554
C       -1.61562570      -1.36702360       1.36857485
C       -3.58388740       1.96808463       0.70121981
60
Properties=species:S:1:pos:R:3 entry_id=27 rank=1 energy=-497.3850402832031 pbc="F F F"
C        2.93417168      -3.32107834      -1.01552803
C        2.26611624       0.12659607      -2.23369792
C        1.72142737       1.79535602       1.74266668
C        1.84132996      -4.00924426      -1.58490767
C       -2.48836688       2.85565637       2.76164763
C        3.03023615       0.97701255       0.02418903
C       -0.05032260      -3.16392964       0.31396176
C        0.70750168      -1.68205189       1.92196073
C       -2.90408686      -0.57314050      -1.69274100
C       -0.49299246      -2.16707599       1.31865194
C       -1.46010418       2.27503572       3.48340167
C        0.69403816       3.57187376      -0.13954909
C        0.74558079      -3.24055873      -1.98363881
C       -1.51351385       3.42804853      -0.70461744
C       -0.08536083       2.74151852      -2.34022537
C        2.65613546      -1.48949903       0.46088686
C        1.17157900       2.16322136      -2.56419201
C       -2.49633282      -1.70627003      -0.90290538
C       -2.75114259      -1.41697229       0.47352767
C        2.84488924       1.09328603      -1.36765846
C       -3.49721732       0.35144759      -0.84012344
C       -1.24132029      -1.61951728      -2.79264409
C       -3.62052123      -0.26584519       0.43359988
C       -1.55589320      -0.02000978       2.06904626
C       -3.63856293       0.75027611       1.41253534
C       -0.32130405       0.30716799       2.90299959
C       -1.15759249       0.70171737       0.86705647
C        1.80851015      -2.31501271       1.24542008
C       -1.45131464      -2.36332463      -1.59620537
C        2.48018491       2.16209095       0.62219951
C        0.08662449       0.13555801      -3.35938548
C        2.22148703      -1.28714792      -1.99924697
C       -2.86602081       0.47599434       2.56407653
C       -2.21507284       2.42747063      -1.41637413
C        1.86661645       0.39038442       1.91534814
C        0.05927562      -1.27464612      -3.18166731
C        1.28210137      -3.49198850       0.68310810
C       -2.71232008       1.60475068       3.38385256
C       -0.24162667       1.74033968       3.06735360
C        0.51393958       2.45689953       2.08989220
C        2.11755428      -4.15453494      -0.20582768
C       -0.35703328      -3.12569758      -1.07526954
C        1.94097027       2.99146064      -0.36975257
C        2.69808377      -0.11890609       0.85539593
C        2.89017334      -1.91555139      -0.88804316
C       -0.39471956       0.99821993      -0.07883322
C       -1.22229641       0.68805232      -3.08030520
C        1.24612507       0.80647873      -2.98453738
C       -0.04919848       3.33528150       1.09188123
C       -3.18571901       1.71176654      -0.67834180
C       -0.21761295       3.59190299      -1.22118528
C        2.19856859       2.36191917      -1.61394477
C       -1.30865850       1.97328922      -2.47912711
C       -2.55764955       2.93831145       1.37048879
C        1.12498099      -2.00308277      -2.58587998
C        0.84213926      -0.39029534       2.47798065
C       -2.06327120      -0.43431335      -2.80223007
C       -1.44486967       3.42537986       0.70680629
C       -1.69112996      -1.41700960       1.42598184
C       -3.34028171       1.97411223       0.72768919
60
Properties=species:S:1:pos:R:3 entry_id=24 rank=2 energy=-497.2953186035156 pbc="F F F"
C        2.91781682      -3.33363756      -1.02880149
C        2.25521296       0.11577740      -2.24762760
C        1.83366080       1.82343955       1.75600026
C        1.81254959      -4.01778271      -1.57789880
C       -2.53163752       2.91393313       2.73796311
C        3.07455208       0.98275297      -0.00815350
C       -0.01371132      -3.07168484       0.30183159
C        0.76155615      -1.63916365       1.93388146
C       -2.95766820      -0.58592545      -1.69260301
C       -0.39452542      -2.03795953       1.25254311
C       -1.42549267       2.35219667       3.42041633
C        0.73141153       3.58561031      -0.13925909
C        0.71863355      -3.25045548      -1.98607983
C       -1.52326397       3.34477052      -0.69199036
C       -0.10612231       2.71223272      -2.32102075
C        2.69078180      -1.48568930       0.45293361
C        1.16002308       2.15081633      -2.57347921
C       -2.57215655      -1.72887156      -0.90731756
C       -2.76524877      -1.40249579       0.48067626
C        2.85426922       1.08920384      -1.39797901
C       -3.52954030       0.35297067      -0.83600416
C       -1.27111400      -1.62391457      -2.76889623
C       -3.60533808      -0.25212169       0.44194022
C       -1.60665772      -0.24495944       2.49891556
C       -3.52008889       0.75000911       1.41151610
C       -0.32469747       0.34022303       2.90058904
C       -1.08313813       0.19189926       0.44588121
C        1.86603366      -2.30441971       1.27668374
C       -1.49474934      -2.37026608      -1.58460862
C        2.55656464       2.18018690       0.59730330
C        0.06174935       0.11907309      -3.35437028
C        2.20513509      -1.29945037      -2.00730195
C       -2.77470403       0.51191805       2.57891828
C       -2.29081549       2.42954277      -1.47269847
C        1.90941886       0.41471504       1.89462300
C        0.02982611      -1.28787605      -3.17202674
C        1.29661426      -3.45498606       0.69040776
C       -2.64329156       1.66086231       3.36787167
C       -0.23463556       1.75752271       3.00237073
C        0.65649690       2.49513994       2.14260265
C        2.10423006      -4.15007906      -0.19872423
C       -0.37969709      -3.11514820      -1.07196238
C        1.98017275       2.99968896      -0.39443189
C        2.73734560      -0.11074904       0.83431338
C        2.88029951      -1.92628419      -0.90039175
C       -1.06723934       1.42440347       0.51440000
C       -1.24974557       0.66952129      -3.07124456
C        1.22936576       0.79159306      -2.99380793
C        0.05472698       3.32514384       1.11902314
C       -3.27457038       1.71867813      -0.70693726
C       -0.22926214       3.57413207      -1.21101876
C        2.20865026       2.35854186      -1.64158793
C       -1.34369606       1.95906589      -2.48431179
C       -2.61415980       2.96392117       1.33878325
C        1.10310146      -2.01670193      -2.59053238
C        0.85823946      -0.33064689       2.45275805
C       -2.09424199      -0.44590196      -2.78488145
C       -1.31211410       2.83264869       0.69796502
C       -1.48185191      -1.03100841       1.18010212
C       -3.43633092       1.98721971       0.72974576
60
Properties=species:S:1:pos:R:3 entry_id=23 rank=3 energy=-496.9153747558594 pbc="F F F"
C        2.87869466      -3.30967919      -0.98980510
C        2.26696611       0.13705241      -2.21024005
C        1.76185058       1.87278874       1.72377507
C        1.79450448      -3.99098508      -1.57352758
C       -2.51541095       2.90671958       2.82659766
C        3.08807846       1.02755999       0.01929221
C       -0.07585539      -2.98820724       0.19501307
C        0.67515050      -1.52999030       1.82451164
C       -3.04980735      -0.68294428      -1.61875324
C       -0.48655647      -1.69670692       0.88401300
C       -1.46374171       2.32362304       3.54968929
C        0.75278061       3.62887851      -0.19467970
C        0.69844977      -3.25143262      -2.02311831
C       -1.47423064       3.54476777      -0.74019287
C       -0.03238125       2.81616395      -2.38622862
C        2.66670230      -1.43875352       0.46951788
C        1.21579319       2.19657959      -2.58332263
C       -2.62016340      -1.78787882      -0.81972934
C       -2.85873949      -1.44239098       0.58104730
C        2.88571494       1.11560851      -1.37512582
C       -3.53170798       0.29907896      -0.76252195
C       -1.29528401      -1.56117486      -2.65179340
C       -3.67183074      -0.30308648       0.53655102
C       -1.69141797      -0.30840099       2.51718216
C       -3.48102700       0.71132119       1.50886312
C       -0.42534302       0.35338873       2.76378682
C       -0.63365254      -0.49233174      -0.03836470
C        1.77375765      -2.23186609       1.24702776
C       -1.55594098      -2.40175166      -1.56600213
C        2.54564125       2.22953703       0.60507172
C        0.04401164       0.15709847      -3.24091024
C        2.20063526      -1.28224173      -1.97199871
C       -2.85452922       0.45623303       2.73273751
C       -2.09604605       2.45885531      -1.41546731
C        1.88872889       0.46708175       1.90056514
C        0.00153629      -1.23854411      -3.05314806
C        1.19219825      -3.36670721       0.65040126
C       -2.70344391       1.65076788       3.48104033
C       -0.34646041       1.75875604       2.91803727
C        0.51266247       2.49742428       2.02977416
C        2.02775888      -4.10743685      -0.18105141
C       -0.42991887      -3.17367537      -1.13992499
C        2.01028548       3.04711165      -0.41023063
C        2.73731734      -0.06367942       0.85998001
C        2.87277110      -1.90442686      -0.87192629
C       -1.27679237       0.55966060      -0.25397626
C       -1.25150766       0.72185823      -2.97236460
C        1.23512766       0.81990675      -2.94153339
C        0.00072553       3.39488666       1.02582725
C       -2.49411283       1.35360344      -0.50150786
C       -0.16590334       3.68339529      -1.26971340
C        2.26185751       2.39464131      -1.64563005
C       -1.26469241       2.07202718      -2.51584531
C       -2.44387472       2.94822807       1.41724316
C        1.08284401      -1.98938122      -2.53476034
C        0.80162338      -0.28161367       2.40443638
C       -2.11626599      -0.40687715      -2.64199560
C       -1.38763147       3.53536593       0.69382632
C       -1.79391912      -1.37699153       1.53328285
C       -2.98904720       1.83036161       0.83130841
60
Properties=species:S:1:pos:R:3 entry_id=28 rank=4 energy=-496.85845947265625 pbc="F F F"
C        2.91718773      -3.35600833      -1.03559771
C        2.25228801       0.09266615      -2.26198742
C        1.98706753       1.74578295       1.99663023
C        1.82436434      -4.04642782      -1.60353726
C       -2.32711615       2.80056924       2.65077548
C        2.96393809       0.96267429       0.02881204
C       -0.04889113      -3.08541684       0.25584194
C        0.73693485      -1.64743708       1.92214500
C       -2.97664313      -0.63725283      -1.84172142
C       -0.47440140      -2.05739361       1.23426750
C       -1.39739844       2.20583498       3.58304849
C        0.52700926       3.54189888      -0.31338894
C        0.73599302      -3.28141111      -2.02870836
C       -1.70574806       3.57109598      -1.00987128
C       -0.13810992       2.71486781      -2.48549944
C        2.68425300      -1.51119755       0.43882137
C        1.13846107       2.12323306      -2.62064542
C       -2.57019739      -1.76938151      -1.03763228
C       -2.80601970      -1.43574849       0.33600242
C        2.78853779       1.06382842      -1.36800697
C       -3.55796572       0.30974068      -0.98304336
C       -1.25099502      -1.67588476      -2.88773131
C       -3.70104465      -0.29702936       0.30152795
C       -1.76760749      -0.08528928       1.94972487
C       -3.68532827       0.73192465       1.29078874
C       -0.01066030       0.39944228       3.09831948
C       -0.69150837       0.80762589       1.86343399
C        1.81457134      -2.31414735       1.22736213
C       -1.48634649      -2.41040480      -1.69171330
C        2.41429476       2.13176599       0.66875980
C        0.09028949       0.07830220      -3.43043996
C        2.21387919      -1.32512790      -2.03333596
C       -2.95718272       0.46790627       2.48218660
C       -2.29480850       2.42021673      -1.61704357
C        2.10335770       0.31495099       2.04774858
C        0.06213599      -1.33012401      -3.25376321
C        1.25746577      -3.46464044       0.64390856
C       -2.63574896       1.60055411       3.30245633
C        0.02505735       1.72070544       3.73134394
C        0.81655450       2.29535663       2.61228373
C        2.08779290      -4.17383896      -0.21726922
C       -0.38092496      -3.13552072      -1.13289570
C        1.80240526       2.93235981      -0.36938039
C        2.77511084      -0.15261653       0.86947484
C        2.88174654      -1.94676118      -0.91839190
C       -0.17472471       2.12743011       1.58988546
C       -1.22885983       0.61994210      -3.16991383
C        1.24228333       0.76411515      -3.03952866
C       -0.37955352       3.21474145       0.73463391
C       -3.20236457       1.67235445      -0.80675011
C       -0.33082913       3.67257861      -1.45834922
C        2.12135056       2.31746750      -1.61456279
C       -1.33762981       1.92055798      -2.59805884
C       -2.65690815       2.97405536       1.25450094
C        1.12725972      -2.05039231      -2.64063677
C        1.05012521      -0.43938884       2.62021778
C       -2.08668280      -0.50025416      -2.92171914
C       -1.69743127       3.57467574       0.41115937
C       -1.72164702      -1.34816554       1.26560364
C       -3.36352564       1.94720958       0.61447881
60
Properties=species:S:1:pos:R:3 entry_id=29 rank=5 energy=-496.314453125 pbc="F F F"
C        2.88462581      -3.39215786      -0.95896934
C        2.30696578       0.01636596      -2.37425120
C        2.42223302       1.93404397       1.71611503
C        1.76841139      -4.07841228      -1.47640540
C       -2.86612416       2.59270948       2.78957499
C        3.28442100       0.92149457      -0.19775931
C       -0.06767916      -2.92075058       0.30096972
C        0.74713185      -1.34319507       1.84978589
C       -3.00457149      -0.67581105      -1.88012657
C       -0.46599918      -1.80092786       1.18060304
C       -1.92383986       1.95859620       3.72799355
C        0.88667974       3.38159531      -0.13982516
C        0.70832971      -3.30734276      -1.96029079
C       -1.54498136       3.23896473      -0.63677136
C       -0.07294454       2.58900097      -2.28191590
C        2.72472146      -1.45717504       0.38540488
C        1.18644626       2.06086847      -2.64610993
C       -2.59245264      -1.78864918      -1.05946895
C       -2.83412506      -1.42830891       0.30384074
C        2.95417742       0.99661500      -1.57242482
C       -3.66113131       0.24084271      -1.04439945
C       -1.26327762      -1.71369465      -2.89489915
C       -3.85364985      -0.40709273       0.21390541
C       -1.86752211       0.14629073       1.82339928
C       -3.94772262       0.58621269       1.21333645
C        0.05265026       0.82565809       2.98704944
C       -0.85339641       1.18157586       1.89320878
C        1.80429053      -2.13184491       1.22940035
C       -1.50611420      -2.42978946      -1.69083886
C        2.93392392       2.17136183       0.39530041
C        0.08621642       0.02883224      -3.42883735
C        2.23581408      -1.39092077      -2.08030939
C       -3.15830049       0.37167619       2.36429053
C       -2.24197765       2.28658907      -1.44205862
C        2.24521526       0.50798402       1.83302740
C        0.05433508      -1.37868469      -3.24672657
C        1.21938716      -3.30702327       0.72936260
C       -3.20098611       1.37771917       3.36614129
C       -0.67034048       1.47176421       3.98936265
C        1.53755325       2.84386075       2.22118969
C        2.02275831      -4.10734754      -0.08062081
C       -0.40644465      -3.10478613      -1.07737343
C        2.16751869       2.92105509      -0.53664063
C        2.91104751      -0.09402312       0.71598285
C        2.90284446      -1.97866440      -0.94221415
C       -0.71547953       2.51267828       1.39782750
C       -1.22348184       0.59024873      -3.14812158
C        1.25777973       0.70219713      -3.08833695
C        0.57133158       3.11307374       1.25524594
C       -3.30491314       1.58769652      -0.79121214
C       -0.18789611       3.35306582      -1.08320229
C        2.29824395       2.26580892      -1.79049119
C       -1.30744266       1.85224535      -2.48705541
C       -2.99375446       2.80484670       1.37763860
C        1.11352310      -2.10803346      -2.62615977
C        1.10395549      -0.08098493       2.46347694
C       -2.09333598      -0.52969948      -2.93975872
C       -1.78365947       3.15808178       0.76144060
C       -1.72368260      -1.11603763       1.15704903
C       -3.65838018       1.84091409       0.59666305
60
Properties=species:S:1:pos:R:3 entry_id=30 rank=6 energy=-496.0269470214844 pbc="F F F"
C        2.92947957      -3.29026016      -1.00867972
C        2.29002078       0.17979559      -2.24752494
C        1.75583393       1.82648807       1.72589328
C        1.81267164      -3.96139670      -1.55049756
C       -2.49965452       2.88298877       2.78247433
C        3.07753663       1.02348766       0.00432186
C       -0.06345867      -3.25990121       0.44134413
C        0.66637099      -1.67628848       1.89879821
C       -3.00480501      -0.58224422      -1.67962432
C       -0.55407304      -2.28527494       1.44069471
C       -1.45108046       2.29031909       3.48643771
C        0.71819599       3.62620939      -0.15668252
C        0.73556856      -3.12806026      -1.87518944
C       -1.50992812       3.50964997      -0.71439775
C       -0.06794800       2.80622493      -2.34369716
C        2.64077013      -1.45910650       0.43309204
C        1.19197383       2.22173700      -2.56746801
C       -2.60859926      -1.70643359      -0.84554724
C       -2.91924277      -1.47374547       0.53189299
C        2.88421157       1.14898959      -1.38791114
C       -3.52164022       0.36014595      -0.82081812
C       -1.20129213      -1.49917403      -2.65100414
C       -3.65077654      -0.25208976       0.44733150
C       -1.55205597      -0.10945352       1.98810957
C       -3.60585381       0.78114688       1.40066712
C       -0.34377926       0.31496430       2.77004223
C       -1.11897830       0.13911751       0.50027521
C        1.76941115      -2.27334845       1.20353320
C       -1.19556763      -1.87004195      -1.21019771
C        2.52749030       2.20916316       0.61189345
C        0.08418804       0.19278271      -3.33577612
C        2.24492149      -1.23425119      -2.01276049
C       -2.79129644       0.50435613       2.48677988
C       -2.19390591       2.46899209      -1.41105581
C        1.88504693       0.41027506       1.87678445
C        0.06783161      -1.20644066      -3.16098278
C        1.30791412      -3.50681816       0.74311721
C       -2.68885812       1.59788995       3.37250900
C       -0.27303789       1.73181957       2.97779213
C        0.52444818       2.47005089       2.05044534
C        2.13458025      -4.12351804      -0.18088164
C       -0.28217741      -2.97979156      -0.92034454
C        1.97632678       3.04521548      -0.38072316
C        2.72060142      -0.08545518       0.82548891
C        2.90691166      -1.88479539      -0.90220751
C       -0.71859025      -0.56762847      -0.48894959
C       -1.22722863       0.73718757      -3.02965388
C        1.25459431       0.85966492      -2.97608952
C       -0.03067116       3.36607304       1.06360754
C       -3.15372674       1.72005088      -0.67410572
C       -0.20357412       3.68302654      -1.23810741
C        2.23763181       2.42160238      -1.62956745
C       -1.29137379       2.02707094      -2.45503262
C       -2.54616380       2.97724420       1.37934533
C        1.12756364      -1.93384159      -2.55672937
C        0.82652565      -0.37290575       2.39490808
C       -2.07972988      -0.37941300      -2.73142446
C       -1.43379646       3.47559033       0.70450001
C       -1.80144031      -1.54924762       1.51123094
C       -3.31740488       2.00277809       0.72534160
60
Properties=species:S:1:pos:R:3 entry_id=22 rank=7 energy=-495.74298095703125 pbc="F F F"
C        2.81967462      -3.31546978      -0.93192659
C        2.23877228       0.12303093      -2.18383130
C        1.76192437       1.86037626       1.71702081
C        1.74530527      -3.99237160      -1.52486677
C       -2.49053947       2.86091835       2.82011509
C        3.08809358       1.02001437       0.02088956
C       -0.01440866      -2.78034644       0.13311088
C        1.13627348      -1.68024828       2.43399986
C       -3.06301103      -0.68315656      -1.64662365
C       -0.56480186      -1.50474094       0.52819423
C       -1.43645619       2.27519846       3.53217509
C        0.73886281       3.60587452      -0.19085057
C        0.67468181      -3.26995867      -2.05208911
C       -1.49272324       3.54763946      -0.74564191
C       -0.05049983       2.80158011      -2.37616275
C        2.63760813      -1.43722845       0.51697739
C        1.19701256       2.18149206      -2.56550405
C       -2.66010997      -1.80410003      -0.87519079
C       -2.84366314      -1.45027584       0.53669844
C        2.87403403       1.10282935      -1.36765449
C       -3.55059076       0.29450836      -0.78715321
C       -1.31407594      -1.56814759      -2.68124450
C       -3.65090844      -0.30933998       0.50716631
C       -1.61395421      -0.33443871       2.47254070
C       -3.45550563       0.69136498       1.48533987
C       -0.35139490       0.29395953       2.81251196
C       -0.68802513      -0.37715749      -0.27167509
C        1.86081659      -2.26331174       1.42040554
C       -1.59407266      -2.42908666      -1.62400262
C        2.54610256       2.22104401       0.60429108
C        0.02576424       0.15402043      -3.22284788
C        2.15473373      -1.29217843      -1.93040028
C       -2.78827414       0.41749450       2.68116578
C       -2.15678454       2.50843216      -1.45800322
C        1.91346627       0.46669344       1.90946907
C       -0.01189943      -1.24166973      -3.05664442
C        1.14221596      -3.29037016       0.71458173
C       -2.66693739       1.59582653       3.45899457
C       -0.30923926       1.71258611       2.92153214
C        0.51018527       2.46654356       2.02121703
C        1.94074317      -4.07985233      -0.12325371
C       -0.43531282      -3.14238866      -1.15907573
C        2.00236528       3.03722678      -0.40690254
C        2.72810594      -0.06632817       0.87264181
C        2.80363497      -1.90713618      -0.81823764
C       -1.33003362       0.70135866      -0.33177374
C       -1.26648791       0.72387080      -2.97083796
C        1.21308565       0.80707858      -2.91239518
C       -0.01351546       3.36515626       1.02415869
C       -2.58730976       1.41281701      -0.55310340
C       -0.18094482       3.66371031      -1.26292351
C        2.25201191       2.38390733      -1.64060023
C       -1.29055178       2.08343528      -2.53142530
C       -2.45785286       2.93444605       1.41359013
C        1.06612171      -1.99850320      -2.54014839
C        0.93361996      -0.34209872       2.56424842
C       -2.12855787      -0.40689463      -2.66328986
C       -1.40130195       3.50796883       0.68760173
C       -1.70215768      -1.34045361       1.42038805
C       -3.04638131       1.84602460       0.81026502
60
Properties=species:S:1:pos:R:3 entry_id=25 rank=8 energy=-495.20050048828125 pbc="F F F"
C        3.04173963      -3.39670220      -1.38964509
C        2.27104177       0.01462470      -2.33492433
C        1.81183104       1.83740998       1.85621320
C        1.79011517      -4.12119214      -1.64554775
C       -2.52790400       2.89357182       2.65444206
C        3.01936697       0.88745026       0.09285253
C        0.05939712      -3.04573753       0.28830010
C        0.74323933      -1.63025652       1.99562091
C       -2.95150725      -0.61379162      -1.67394131
C       -0.42105644      -2.10855852       1.32035534
C       -1.46145449       2.34779065       3.35652414
C        0.68005986       3.52048435      -0.16539208
C        0.71096423      -3.30409244      -2.03710617
C       -1.60286057       3.50558911      -0.80112404
C       -0.11581859       2.65240624      -2.31084224
C        3.00802632      -1.49057093       1.14723137
C        1.14147919       2.05851845      -2.54609132
C       -2.52174229      -1.73249146      -0.86805757
C       -2.72999685      -1.40575577       0.51052217
C        2.79285417       0.93233115      -1.33153740
C       -3.50521086       0.34369099      -0.82412527
C       -1.31627116      -1.67839709      -2.79328142
C       -3.59981631      -0.25221320       0.45533006
C       -1.55441006      -0.02826529       2.12995510
C       -3.64398085       0.78423610       1.40459961
C       -0.31442854       0.36754602       2.93102587
C       -1.26582328       0.79831466       0.99157053
C        1.91629804      -2.26248133       1.43229603
C       -1.48737780      -2.39794293      -1.57326815
C        2.47327795       2.09909567       0.63468832
C        0.02962500       0.06583068      -3.36346282
C        2.32334784      -1.44163069      -2.39273194
C       -2.89154348       0.50534464       2.57388578
C       -2.29502419       2.44161220      -1.47435678
C        1.94098595       0.44668804       2.09416605
C       -0.02156989      -1.34308938      -3.21424866
C        1.43026305      -3.30948058       0.58789767
C       -2.69628939       1.67700950       3.30716538
C       -0.20043185       1.79238258       3.15238213
C        0.64264350       2.52852354       2.24454888
C        2.24675358      -3.96535009      -0.33235555
C       -0.36137684      -3.12209232      -1.07283770
C        1.92848861       2.90815197      -0.38010702
C        2.88448925      -0.12884284       1.13218936
C        3.35886809      -2.21102470      -1.89294402
C       -0.87893328       1.94632643       0.65217078
C       -1.27077573       0.62351789      -3.06004916
C        1.21208038       0.71764379      -3.00756896
C       -0.04692537       3.09420067       1.04797118
C       -3.24394159       1.72248925      -0.69415776
C       -0.25025321       3.58023624      -1.25377452
C        2.16825047       2.21647355      -1.59285464
C       -1.34448110       1.91001408      -2.44700115
C       -2.79740299       3.09745642       1.30450772
C        1.06572474      -2.09947139      -2.72039996
C        0.86284940      -0.33193494       2.55409096
C       -2.12920392      -0.49071137      -2.79898320
C       -1.57247267       3.33556707       0.62619788
C       -1.65344458      -1.40019100       1.44940999
C       -3.48340133       2.02091343       0.69961630
60
Properties=species:S:1:pos:R:3 entry_id=21 rank=9 energy=-492.92266845703125 pbc="F F F"
C        2.42320781      -3.22877530      -0.44298976
C        2.12278767       0.05475459      -2.11907627
C        2.08722297       1.95701065       1.83241437
C        1.30855214      -3.84922362      -1.01789911
C       -2.35061530       2.44346587       2.89842171
C        3.13864922       1.01748412       0.01987027
C       -0.33501952      -1.96482106       0.04951575
C        1.07247114      -0.75270391       2.60184613
C       -3.22697293      -0.60739794      -1.87391929
C        0.44718946      -0.88797276      -0.71292762
C       -1.25659413       1.81096043       3.49479733
C        0.76625153       3.49211920      -0.13021292
C        0.38284538      -3.23360928      -1.84361000
C       -1.44711682       3.29297661      -0.61786126
C       -0.05382354       2.73143865      -2.34646427
C        2.59381513      -1.27607389       0.78458990
C        1.17169294       2.11111882      -2.57889665
C       -2.91506116      -1.79200340      -1.18750019
C       -2.94195357      -1.54842529       0.21592449
C        2.79651195       1.02405121      -1.35173025
C       -3.71229616       0.27467272      -0.89459860
C       -1.39161572      -1.52275505      -2.79521549
C       -3.84548687      -0.44976679       0.35858364
C       -1.47893644      -0.54355405       2.03144624
C       -3.54175252       0.43854351       1.43220680
C       -0.20315263      -0.08446409       2.57137357
C       -0.28314344       0.22462796      -0.86575527
C        1.49781476      -1.70083303       1.60767075
C       -1.79097691      -2.35796125      -1.78824126
C        2.66402129       2.24477005       0.57947535
C        0.02345459       0.09947908      -3.33808210
C        1.67423557      -1.23535449      -1.49752010
C       -2.66290562       0.05414511       2.47511731
C       -2.08333126       2.27926821      -1.35807809
C        2.62786308       0.68545737       2.25009016
C       -0.07215845      -1.30180163      -3.15702320
C        0.60124878      -2.62058229       0.99856183
C       -2.48357441       1.11600760       3.40328387
C       -0.09979082       1.33920164       2.85714844
C        0.71436706       2.25318169       2.06673862
C        1.34177297      -3.64322350       0.37096940
C       -0.75041136      -2.89496030      -1.04512767
C        2.03522845       3.00599105      -0.42225223
C        3.03875078       0.03570921       1.01626628
C        2.64405394      -1.85269764      -0.53864434
C       -1.47341865       0.23374457      -0.28213113
C       -1.25496394       0.71579748      -3.08160975
C        1.19706059       0.73524637      -2.95419702
C        0.07941762       3.13203393       1.10045634
C       -2.62800571       1.19061725      -0.52204050
C       -0.17630165       3.53245531      -1.18120052
C        2.21051008       2.30358391      -1.64182795
C       -1.27404667       1.99399258      -2.49740785
C       -2.38791951       2.60991509       1.49808054
C        0.91883435      -2.08586419      -2.49845391
C        2.10315123      -0.05498059       3.26035074
C       -2.16751788      -0.34919653      -2.78615185
C       -1.32930968       3.19761677       0.80188351
C       -1.59036131      -1.04713647       0.59701937
C       -3.07751419       1.61587296       0.82955615
60
Properties=species:S:1:pos:R:3 entry_id=19 rank=10 energy=-492.3944091796875 pbc="F F F"
C        2.40061825      -4.54955459      -0.15466799
C        2.33474513       0.16206978      -2.41908671
C        2.04668064       1.91733742       1.76788395
C        1.52918748      -3.78044366      -0.93457640
C       -2.34316420       2.45207875       2.87715994
C        3.15718003       1.03941290      -0.06408466
C       -0.59113160      -2.57993483       0.48993422
C        1.06261224      -0.81544381       2.65906935
C       -3.12824513      -0.62314640      -1.85660315
C        0.52049986      -0.54195231      -0.63674966
C       -1.24612537       1.79848775       3.44495644
C        0.72240401       3.49678643      -0.13697099
C        0.60864265      -3.06561557      -1.70087988
C       -1.51386062       3.42445982      -0.64828011
C       -0.09751949       2.76430810      -2.32821430
C        2.35241049      -1.18087389       0.66527230
C        1.14601894       2.16853881      -2.57473501
C       -2.71516596      -1.76060798      -1.12189119
C       -2.78641670      -1.53770281       0.25114949
C        2.88973697       1.11568208      -1.47411948
C       -3.66908444       0.26317627      -0.91123031
C       -1.30081508      -1.52632234      -2.82106703
C       -3.66758473      -0.44523898       0.35933255
C       -1.47377002      -0.73588083       2.14076884
C       -3.44535445       0.45798284       1.41156422
C       -0.20799681      -0.17024372       2.59720060
C       -0.61204308       0.00606439      -0.70716097
C        1.44318235      -1.75077656       1.65698658
C       -1.60296962      -2.31326449      -1.71827181
C        2.63083964       2.22833011       0.52612989
C        0.05160963       0.17015352      -3.31867596
C        2.12247798      -1.20084107      -2.01614951
C       -2.62531746       0.04459565       2.46157620
C       -2.22192434       2.47773382      -1.44959733
C        2.61615194       0.66124068       2.18793078
C        0.00933272      -1.23046560      -3.16041847
C        0.64640892      -2.83625114       1.16772861
C       -2.46938031       1.12010451       3.37198592
C       -0.11697890       1.27780631       2.80415018
C        0.66982634       2.19597455       2.00397843
C        1.45591456      -3.74061797       0.45701714
C       -0.58497838      -2.84408215      -0.93893108
C        2.00167387       3.02433161      -0.43814437
C        3.02069579       0.02864182       0.93985333
C        1.71310467      -1.12595663      -0.62506049
C       -1.56303298       0.74617469      -0.35250034
C       -1.25563760       0.75474958      -3.07117501
C        1.23163737       0.83543918      -3.03750814
C        0.02428361       3.11263740       1.07028441
C       -2.80167845       1.41658286      -0.60154163
C       -0.22118605       3.57901851      -1.18246276
C        2.20633742       2.36273182      -1.67122476
C       -1.32611408       2.07185073      -2.53474810
C       -2.45285451       2.70076915       1.49388024
C        1.04296831      -2.00750738      -2.61738609
C        2.11304028      -0.06083369       3.22231359
C       -2.13009832      -0.35779840      -2.82676748
C       -1.38562590       3.25548838       0.77590035
C       -1.63443836      -1.71617564       1.05507597
C       -3.18279647       1.72796642       0.82680867
60
Properties=species:S:1:pos:R:3 entry_id=20 rank=11 energy=-492.1279296875 pbc="F F F"
C        2.29014477      -2.97595441      -0.44018655
C        2.21079749       0.12347783      -2.28560863
C        2.06396266       1.98620157       1.81538156
C        1.35576047      -3.82671135      -1.01529505
C       -2.32605013       2.45888739       2.87121813
C        3.11870692       1.04884798      -0.00254597
C       -0.42499612      -2.36252351       0.36077273
C        1.05618612      -0.83742634       2.74396110
C       -3.14039708      -0.62040297      -1.86673676
C        0.31009163      -1.28271235      -0.35094278
C       -1.23275110       1.79561275       3.43760141
C        0.75229063       3.51768524      -0.15478200
C        0.45222446      -3.19181950      -1.86555782
C       -1.47648103       3.43389226      -0.66636734
C       -0.06494759       2.79176830      -2.36263727
C        2.32317251      -1.15449889       0.79425242
C        1.17304999       2.18320271      -2.59452958
C       -2.74443453      -1.76975761      -1.14620292
C       -2.77664248      -1.54106544       0.23645833
C        2.82771758       1.08103262      -1.39876665
C       -3.61449403       0.28063168      -0.91074782
C       -1.35523434      -1.52918113      -2.85016612
C       -3.64797792      -0.43938855       0.34842383
C       -1.46415279      -0.72945002       2.12546038
C       -3.39347592       0.45616753       1.39625191
C       -0.19597069      -0.17070747       2.59848566
C       -0.44115222      -0.22927888      -0.71941179
C        1.46520823      -1.79804177       1.76715802
C       -1.69008100      -2.36879461      -1.79561336
C        2.65061386       2.27099080       0.56200370
C        0.01937088       0.16769562      -3.33029676
C        1.97949641      -1.23311427      -1.94947840
C       -2.61409772       0.03612588       2.47136176
C       -2.15545983       2.45413197      -1.44864254
C        2.59660606       0.71802401       2.26244730
C       -0.04800687      -1.24115934      -3.17703590
C        0.63806221      -2.90000906       1.26307234
C       -2.45845415       1.12157792       3.37088797
C       -0.10884369       1.28573881       2.78076235
C        0.67661434       2.22771271       2.00095401
C        1.43667427      -3.69507740       0.40758609
C       -0.69000866      -2.99198183      -1.04924010
C        2.02971223       3.04206106      -0.43599792
C        2.94677330       0.06480394       1.01772726
C        1.84163862      -1.55370049      -0.53662104
C       -1.35802061       0.58748175      -0.47593976
C       -1.26849219       0.76235685      -3.09133165
C        1.20042751       0.82265931      -3.00602526
C        0.05260798       3.14306432       1.05457526
C       -2.60078617       1.32466130      -0.60647385
C       -0.18706258       3.60324995      -1.20765548
C        2.22479012       2.36075878      -1.66279848
C       -1.29646949       2.08640982      -2.55889732
C       -2.38909946       2.68885653       1.47671079
C        0.95052447      -2.02741479      -2.59360807
C        2.07835357      -0.02158842       3.27420720
C       -2.15594852      -0.34964928      -2.84045197
C       -1.34616293       3.28640401       0.75939689
C       -1.63272843      -1.68352910       1.03440010
C       -3.02576604       1.67393908       0.80008627
60
Properties=species:S:1:pos:R:3 entry_id=18 rank=12 energy=-489.8285827636719 pbc="F F F"
C        2.39013618      -4.55042854      -0.22689945
C        2.36508266       0.15870088      -2.39491247
C        2.06078404       1.89070869       1.76362785
C        1.46335559      -3.78065315      -0.93743341
C       -2.36209369       2.26239210       2.70790719
C        3.20929986       1.04464489      -0.05820484
C       -0.54544386      -2.58060405       0.56786498
C        1.16025289      -0.82674627       2.71247216
C       -2.92006835      -0.13165645      -1.50793662
C        0.43343406      -0.29511739      -0.55924703
C       -1.24934269       1.76604566       3.39850479
C        0.74507376       3.47408483      -0.14620171
C        0.53109282      -3.02641640      -1.64984138
C       -1.50057198       3.38346037      -0.74761323
C        0.00982043       2.81737978      -2.38340489
C        2.30999226      -1.11925124       0.65146950
C        1.23791994       2.18757074      -2.60047400
C       -2.76920707      -1.54740629      -0.89962708
C       -2.83455889      -1.71870060       0.51280522
C        2.94520182       1.11495166      -1.46790476
C       -3.96148493       0.93687042      -1.72399019
C       -1.33746180      -1.40159604      -2.66933616
C       -3.94042895      -1.11354407       1.07893570
C       -1.36894295      -0.85107314       2.29195309
C       -3.38805085       0.05026807       1.52978477
C       -0.12483210      -0.20778895       2.67799403
C       -0.70715034       0.20513739      -0.54143359
C        1.49095598      -1.74170376       1.67449965
C       -1.67052742      -2.12986772      -1.53915792
C        2.65549100       2.21699388       0.53039122
C        0.09413550       0.19704941      -3.32168750
C        2.05638776      -1.16073793      -1.93819995
C       -2.53630680      -0.14082795       2.66135498
C       -2.24620248       2.70177889      -1.78411018
C        2.67241417       0.65864441       2.19870925
C       -0.02713682      -1.18352899      -3.07501083
C        0.71262844      -2.84211989       1.19999867
C       -2.44042659       1.02671825       3.42871630
C       -0.08692588       1.23936902       2.82432794
C        0.67534106       2.13649705       1.97980957
C        1.49120264      -3.74016962       0.45068492
C       -0.63154948      -2.76350188      -0.85291520
C        2.03539680       3.01878645      -0.43455901
C        3.06658494       0.02924179       0.93905034
C        1.60461884      -0.97732428      -0.58882406
C       -1.99992977       0.49839818      -0.44859672
C       -1.18595142       0.82975404      -3.10485762
C        1.28748335       0.84496240      -3.04310446
C        0.01730768       3.01206809       1.01214498
C       -3.50393136       2.12114158      -1.79330433
C       -0.17053020       3.58144449      -1.21312460
C        2.27497849       2.36574380      -1.67034903
C       -1.22903176       2.15902041      -2.66193604
C       -2.35241686       2.24161693       1.28696766
C        0.99234565      -1.97292264      -2.54239580
C        2.21303890      -0.06659291       3.24770220
C       -2.06798750      -0.20308084      -2.71939490
C       -1.39091859       3.04425102       0.64007756
C       -1.56451879      -1.80221362       1.20408796
C       -2.69089135       1.02104990       0.70915477
60
Properties=species:S:1:pos:R:3 entry_id=17 rank=13 energy=-489.37127685546875 pbc="F F F"
C        2.38500482      -4.57509307      -0.25122054
C        2.37320435       0.15077134      -2.38215415
C        2.07380509       1.90863657       1.75109783
C        1.46696116      -3.78952722      -0.95668154
C       -2.42792642       2.24836683       2.48820532
C        3.22467469       1.03062118      -0.05554375
C       -0.53796953      -2.61525872       0.55386867
C        1.12323483      -0.81636727       2.69297214
C       -2.92524636      -0.14616084      -1.49460252
C        0.37717469      -0.34228416      -0.54007637
C       -1.34289477       1.78330824       3.22289126
C        0.85164960       3.55127544      -0.18099513
C        0.53021231      -3.03814614      -1.66810873
C       -1.36498529       3.58652725      -0.79876040
C        0.07522392       2.86296000      -2.39729802
C        2.28467902      -1.11909611       0.65234648
C        1.28956581       2.20238547      -2.60699789
C       -2.79391724      -1.60997734      -0.90571348
C       -2.85051715      -1.83725253       0.49478311
C        2.97611577       1.10036519      -1.46650189
C       -3.89172011       0.97285361      -1.76863891
C       -1.34018371      -1.38982807      -2.66125440
C       -3.96794004      -1.56384880       1.30938430
C       -1.39886938      -0.86939416       2.25732898
C       -3.82417326      -0.85893430       2.35541509
C       -0.15449310      -0.19468686       2.62552044
C       -0.75214620       0.17136195      -0.46570578
C        1.47284536      -1.74931596       1.67442299
C       -1.68083543      -2.14880638      -1.55019691
C        2.69904476       2.22018985       0.52543890
C        0.09611833       0.21994732      -3.28274868
C        2.04201950      -1.16156979      -1.92583746
C       -2.61264333      -0.28404170       2.75186349
C       -2.14178178       2.82028826      -1.72640789
C        2.64951238       0.66168258       2.19747206
C       -0.02988249      -1.16847262      -3.06703449
C        0.71884521      -2.86126574       1.18710221
C       -2.54352862       1.04073579       3.22585107
C       -0.12672395       1.26931366       2.74068411
C        0.68964189       2.17704564       1.93711082
C        1.50415148      -3.75002571       0.43187892
C       -0.63412003      -2.79081926      -0.86951718
C        2.11988928       3.03564042      -0.45388740
C        3.04731476       0.02327626       0.94285514
C        1.57081122      -0.98290710      -0.58417628
C       -2.04789686       0.49373654      -0.41685761
C       -1.17310580       0.86156266      -3.03811157
C        1.30566582       0.85165223      -3.02977059
C        0.09391556       3.11091104       0.97241972
C       -3.26290767       2.08287519      -1.22782207
C       -0.04280770       3.70584062      -1.27032284
C        2.34065982       2.36928502      -1.68580361
C       -1.19352970       2.20523456      -2.60059334
C       -2.37595209       2.51557810       1.10012756
C        0.98893499      -1.97115964      -2.54778736
C        2.16870756      -0.05263171       3.24486989
C       -2.06082140      -0.18300127      -2.68955814
C       -1.29932506       3.24890209       0.58577995
C       -1.57246720      -1.86163690       1.19624494
C       -2.77133836       1.60955319       0.08376056
60
Properties=species:S:1:pos:R:3 entry_id=16 rank=14 energy=-489.20867919921875 pbc="F F F"
C        2.32179271      -4.56734772      -0.21975396
C        2.37636979       0.14344813      -2.39297918
C        2.02325803       1.90369145       1.74626424
C        1.41330863      -3.78199627      -0.93615574
C       -2.45576990       2.26810395       2.65697754
C        3.20997037       1.03953616      -0.04463793
C       -0.56529268      -2.52724316       0.55588310
C        1.11281711      -0.77608935       2.67235274
C       -2.87735501      -0.08299113      -1.53891161
C        0.57221501      -0.33618994      -0.53763132
C       -1.33336393       1.78576401       3.34131130
C        0.77438829       3.51407739      -0.17870838
C        0.49906750      -3.00855530      -1.65429207
C       -1.46005057       3.46909491      -0.80143533
C        0.05082571       2.83126350      -2.41166107
C        2.39380371      -1.15958538       0.68520577
C        1.26938216       2.18073726      -2.61330286
C       -2.80051646      -1.50175673      -0.92240231
C       -2.86809964      -1.70187685       0.48295623
C        2.95724985       1.09826660      -1.46030228
C       -3.89841930       0.99689379      -1.68185245
C       -1.34660867      -1.37900265      -2.69760052
C       -3.96561727      -1.39780931       1.29381072
C       -1.42095538      -0.80140418       2.26886520
C       -3.82954188      -0.75563183       2.38002409
C       -0.17059651      -0.15309321       2.62858884
C       -0.56048238       0.14242020      -0.65914280
C        1.48738995      -1.72471912       1.68253369
C       -1.69670416      -2.08878968      -1.55603518
C        2.64406852       2.21612840       0.52508403
C        0.10949794       0.20350140      -3.34366304
C        2.08923326      -1.19214947      -1.95569833
C       -2.61762395      -0.24061936       2.82514514
C       -2.20149867       2.76688188      -1.82705763
C        2.63043079       0.67983140       2.20163279
C       -0.02740391      -1.17302182      -3.08981709
C        0.68970861      -2.80072972       1.18901977
C       -2.52598570       1.04265677       3.38884148
C       -0.14447541       1.29340859       2.79342339
C        0.64141356       2.18363235       1.95293214
C        1.44748836      -3.72523779       0.45146991
C       -0.66064651      -2.72328785      -0.86233632
C        2.05451773       3.02224125      -0.45186961
C        3.07954835       0.03817717       0.96864973
C        1.72521636      -1.04684985      -0.57596099
C       -1.84955914       0.48265164      -0.52018275
C       -1.16803800       0.85334205      -3.14829327
C        1.30753035       0.83476463      -3.04791889
C        0.02389344       3.07867280       0.97594060
C       -3.45105925       2.17761272      -1.78362472
C       -0.12493162       3.62586308      -1.25789290
C        2.30070187       2.35547356      -1.67817884
C       -1.19446520       2.18385189      -2.68800190
C       -2.32666710       2.27052001       1.21267727
C        0.97983149      -1.96457146      -2.54156589
C        2.15720846      -0.03215300       3.25593012
C       -2.06881958      -0.17468718      -2.77216182
C       -1.37724250       3.15441908       0.59669268
C       -1.60085644      -1.76068956       1.18387920
C       -2.35654871       1.10232397       0.56994534
60
Properties=species:S:1:pos:R:3 entry_id=14 rank=15 energy=-488.0723571777344 pbc="F F F"
C        1.47335676      -3.77530084      -0.97969077
C        2.33420767       0.15443214      -2.43402392
C        2.06192003       1.96642926       1.69941716
C        2.45420227      -4.48034413      -0.27561734
C       -2.42306645       2.31933082       2.69465786
C        3.19320354       1.07570209      -0.12074869
C       -0.51943462      -2.65031807       0.51945125
C        1.17051829      -0.73207204       2.67720274
C       -2.91299839      -0.15538111      -1.43433932
C        0.35626784      -0.48494186      -0.56337086
C       -1.28837550       1.84243323       3.35787747
C        0.76848138       3.55110632      -0.22959347
C        0.50704150      -3.07106145      -1.70379243
C       -1.47707357       3.51078928      -0.80492130
C        0.01488708       2.86035355      -2.44384104
C        2.29321652      -1.07752119       0.62363874
C        1.23398084       2.20825466      -2.67739152
C       -2.86998439      -1.64453604      -0.93091850
C       -2.80930026      -1.76898220       0.48338568
C        2.92604010       1.12246269      -1.52704658
C       -3.92902811       0.95749630      -1.64034286
C       -1.35941789      -1.41445500      -2.63376934
C       -3.83046435      -1.55791331       1.38386231
C       -1.31032484      -0.72347223       2.28967165
C       -3.70569394      -0.84423288       2.43246324
C       -0.09268837      -0.07210017       2.68960429
C       -0.84495563      -0.40175763      -0.08895293
C        1.46313730      -1.67766119       1.64522994
C       -1.72555709      -2.20181966      -1.55872124
C        2.65356903       2.26434095       0.45587938
C        0.06711677       0.18898252      -3.32615222
C        2.03722035      -1.17511697      -1.98791695
C       -2.52489271      -0.22104912       2.82651027
C       -2.23189340       2.76923688      -1.79356004
C        2.66885315       0.73081108       2.14209455
C       -0.05868075      -1.20223487      -3.08318604
C        0.72740925      -2.81756662       1.15202758
C       -2.46663492       1.07538173       3.40159668
C       -0.08381208       1.37562529       2.80808150
C        0.68070299       2.25135237       1.92924208
C        1.53647105      -3.69430165       0.40574134
C       -0.65867643      -2.85881679      -0.89505578
C        2.04207432       3.05430034      -0.52162309
C        3.04968177       0.07774015       0.88826882
C        1.58517440      -1.01719335      -0.63140305
C       -1.97798256       0.42648476      -0.36469011
C       -1.19230052       0.82861727      -3.04241963
C        1.26886594       0.84490692      -3.09455591
C        0.04174167       3.13343442       0.94652467
C       -3.46030964       2.13036516      -1.73381622
C       -0.14778068       3.66815995      -1.29349100
C        2.27314163       2.38413453      -1.75123820
C       -1.22848320       2.18012840      -2.64699042
C       -2.33334622       2.38029587       1.24729841
C        0.96745757      -2.00096522      -2.58313561
C        2.24547656       0.00574521       3.20492087
C       -2.05829936      -0.20472748      -2.63036834
C       -1.36796198       3.22857556       0.60022892
C       -1.39004660      -1.50267625       0.96079426
C       -2.41903175       1.22224502       0.59600978
60
Properties=species:S:1:pos:R:3 entry_id=13 rank=16 energy=-486.98828125 pbc="F F F"
C        1.47873291      -3.75100849      -0.99355787
C        2.33226644       0.15008008      -2.45569291
C        2.05584087       2.00730092       1.77111037
C        2.51985495      -4.37601242      -0.30488030
C       -2.44817225       2.32151118       2.68793059
C        3.26944843       0.98148456      -0.16186347
C       -0.51695269      -2.64156948       0.51795212
C        1.17762833      -0.74354925       2.64758101
C       -2.92540633      -0.14783266      -1.43132039
C        0.32807036      -0.45775504      -0.56324551
C       -1.31566785       1.83890123       3.34462206
C        0.76726433       3.50265700      -0.22190586
C        0.49827238      -3.06179312      -1.71039468
C       -1.47493839       3.52077785      -0.81399077
C        0.02140377       2.86022167      -2.44859029
C        2.32981133      -1.11625038       0.58328763
C        1.23688692       2.20185435      -2.68304380
C       -2.87619815      -1.64125112      -0.92634059
C       -2.81289800      -1.77197441       0.48789624
C        2.95089634       1.11043624      -1.57615104
C       -3.93598063       0.97261766      -1.64940869
C       -1.36918385      -1.40578962      -2.63175991
C       -3.83469198      -1.57171986       1.39063971
C       -1.30861563      -0.72990338       2.29951909
C       -3.70572489      -0.86123681       2.44058758
C       -0.08209985      -0.07627514       2.69125178
C       -0.86810285      -0.38665711      -0.07228831
C        1.48624280      -1.70351576       1.64913825
C       -1.73045869      -2.19317505      -1.55490537
C        2.63652033       2.12927855       0.48754945
C        0.05759736       0.19312769      -3.33527345
C        2.00929841      -1.16354118      -1.98941106
C       -2.52761029      -0.23078990       2.83226000
C       -2.22985831       2.78251096      -1.80473901
C        2.62717564       1.13506924       2.71253744
C       -0.07282538      -1.19718472      -3.09271311
C        0.72793805      -2.82090335       1.15071726
C       -2.48873003       1.07185982       3.39312464
C       -0.10863050       1.38091329       2.80513326
C        0.64035514       2.26010721       1.92260597
C        1.54421576      -3.67849612       0.38913251
C       -0.66081471      -2.84886649      -0.89456626
C        2.01818156       2.93693809      -0.48570949
C        3.33814803      -0.19420579       0.54942155
C        1.54071154      -1.00621092      -0.64290222
C       -2.00474041       0.43232230      -0.35525304
C       -1.19808981       0.83545930      -3.04256240
C        1.26409436       0.84496702      -3.11262788
C        0.01541080       3.12211068       0.94030471
C       -3.45805099       2.14197570      -1.74556193
C       -0.13597918       3.66008117      -1.29227847
C        2.26846669       2.34748889      -1.74099325
C       -1.22657160       2.18808976      -2.65348383
C       -2.35760316       2.39761287       1.23939524
C        0.95335033      -1.99593552      -2.59443433
C        2.26976684       0.02446349       3.15692420
C       -2.06483330      -0.19491215      -2.62342762
C       -1.38643743       3.23843244       0.59117668
C       -1.39386816      -1.50189418       0.96795588
C       -2.44719393       1.24069394       0.59051719
60
Properties=species:S:1:pos:R:3 entry_id=15 rank=17 energy=-485.9721374511719 pbc="F F F"
C        2.67763411      -4.21509629      -0.03632046
C        2.38144666       0.15196284      -2.39334860
C        2.05049759       1.91733162       1.74703953
C        1.52756776      -4.52857359      -0.90366435
C       -2.42474262       2.27841335       2.67859410
C        3.21316826       1.04696556      -0.05477358
C       -0.62748206      -2.55454654       0.55909415
C        1.10208302      -0.78867712       2.68566772
C       -2.90519327      -0.05243379      -1.54927201
C        0.53180445      -0.37433513      -0.55652192
C       -1.31192319       1.77176430       3.35774265
C        0.78643196       3.50964021      -0.18375567
C        0.38952106      -2.90517254      -1.68516010
C       -1.45029278       3.46124176      -0.80073998
C        0.06668380       2.85227986      -2.42759126
C        2.38095589      -1.13667275       0.69499634
C        1.29063598       2.20365113      -2.64139390
C       -2.84757977      -1.48478192      -0.94018402
C       -2.91051266      -1.69339551       0.47161488
C        2.96231915       1.11081589      -1.46878618
C       -3.92148604       1.03617360      -1.67645357
C       -1.36891210      -1.35018512      -2.70313935
C       -3.99403395      -1.39591360       1.29775478
C       -1.44550731      -0.81634125       2.26910252
C       -3.85587496      -0.74579191       2.38930917
C       -0.18755995      -0.17634125       2.63240197
C       -0.60869805       0.08019561      -0.63374544
C        1.46842210      -1.71847507       1.68094511
C       -1.75618486      -2.09160466      -1.58387646
C        2.66199350       2.22689816       0.51644909
C        0.11175259       0.21810672      -3.34593930
C        2.10470461      -1.17617422      -1.93882964
C       -2.63570319      -0.23609111       2.81983421
C       -2.19216239       2.76687962      -1.82235325
C        2.65410478       0.69325134       2.20181427
C       -0.03936272      -1.15944831      -3.09094206
C        0.66299437      -2.78495356       1.13729131
C       -2.51624260       1.04278974       3.39397680
C       -0.13473638       1.27216588       2.78731930
C        0.66137839       2.16703499       1.94754702
C        1.47030054      -3.68253034       0.37088761
C       -0.71652821      -2.75112460      -0.87458825
C        2.07163806       3.03327413      -0.46208171
C        3.08386718       0.04907037       0.96685546
C        1.71851572      -1.03830527      -0.56745297
C       -1.88690245       0.47025644      -0.50255276
C       -1.16145765       0.87724643      -3.15123609
C        1.31828694       0.84554844      -3.06066110
C        0.03926817       3.06876046       0.97228146
C       -3.45726852       2.21321939      -1.77296466
C       -0.11486507       3.62507877      -1.25979878
C        2.32250385       2.37744380      -1.69833051
C       -1.18499074       2.20691014      -2.69810561
C       -2.31530283       2.27540907       1.23029177
C        0.97734918      -1.96110512      -2.51979587
C        2.14253951      -0.01465597       3.23746308
C       -2.07544528      -0.13887833      -2.77448907
C       -1.36660096       3.14888123       0.59634736
C       -1.64419928      -1.76963975       1.17779664
C       -2.37568116       1.10375533       0.59344133
60
Properties=species:S:1:pos:R:3 entry_id=12 rank=18 energy=-485.354248046875 pbc="F F F"
C        1.51615340      -3.76742159      -0.93943582
C        2.34503210       0.24632073      -2.57097333
C        2.08326800       2.04974421       1.74374362
C        2.40929995      -4.60423103      -0.25724411
C       -2.41023542       2.28272977       2.66282162
C        3.16043344       1.00957591      -0.25910494
C       -0.51660399      -2.69815906       0.52190125
C        1.25522801      -0.76059066       2.44371931
C       -2.85914050      -0.16261952      -1.43399506
C        0.64675525      -0.54907894      -0.04754057
C       -1.27398898       1.82707069       3.33608041
C        0.75586549       3.52738862      -0.25595282
C        0.58212735      -3.01367554      -1.67340670
C       -1.49328039       3.52156202      -0.82064326
C       -0.01998993       2.88969192      -2.48017613
C        1.52890863      -0.40366351       1.05346992
C        1.21027043       2.27391735      -2.74483865
C       -2.83619172      -1.63804229      -0.93468116
C       -2.78168048      -1.76472723       0.47802282
C        2.95853057       1.20645636      -1.67476261
C       -3.88524260       0.92768248      -1.54860778
C       -1.37100501      -1.41094166      -2.68378610
C       -3.79107622      -1.56707380       1.38900470
C       -1.25391211      -0.72450758       2.29222948
C       -3.65702413      -0.87675842       2.45221237
C       -0.05146140      -0.04850913       2.65897863
C       -0.75726830      -0.52135741      -0.08393358
C        1.12065548      -2.21928464       2.28763519
C       -1.69593015      -2.18956283      -1.57634538
C        2.63717872       2.15298909       0.43549106
C        0.04119986       0.23107518      -3.38097993
C        2.05682601      -1.08293356      -2.12293315
C       -2.48085853      -0.24826986       2.84248979
C       -2.25121456       2.77111509      -1.79666196
C        2.61678015       1.16458971       2.69823372
C       -0.06549660      -1.16883437      -3.11605682
C        0.68824906      -2.98627033       1.26459787
C       -2.44302649       1.05377136       3.39679091
C       -0.06793675       1.37826197       2.76178760
C        0.66636492       2.27322720       1.88378729
C        1.53336038      -3.80603928       0.45690089
C       -0.61154329      -2.83932412      -0.90295234
C        2.01032104       2.98090973      -0.53178288
C        2.68543299      -0.24278216       0.21608301
C        1.84488548      -0.89748724      -0.76451802
C       -1.79867306       0.39246939      -0.41139249
C       -1.23142045       0.85300015      -3.10846914
C        1.24442392       0.91958460      -3.18741475
C        0.02584209       3.13898782       0.91193975
C       -3.45920592       2.11129096      -1.67500239
C       -0.16552899       3.67391762      -1.31432617
C        2.26053961       2.43298381      -1.81334514
C       -1.26421383       2.20098237      -2.68451931
C       -2.29231843       2.31954424       1.21984722
C        0.97000308      -1.94029714      -2.58650652
C        2.38452538       0.02783448       3.17813837
C       -2.08550858      -0.20318691      -2.68523501
C       -1.38168632       3.22802974       0.57935315
C       -1.35013175      -1.52151227       0.95443310
C       -2.23874577       1.15157256       0.58282618
60
Properties=species:S:1:pos:R:3 entry_id=11 rank=19 energy=-483.49871826171875 pbc="F F F"
C        1.81533344      -2.99353541      -0.68117105
C        2.39383089       0.18780418      -2.77723625
C        2.21873088       1.83140668       1.72511915
C        2.59136527      -2.08493926       0.10822288
C       -2.22121928       2.18453011       2.70055228
C        3.08532261       0.70016303      -0.32059439
C       -0.53328676      -2.75783588       0.61184645
C        1.22867931      -1.07984480       2.94031377
C       -3.03853968      -0.15413556      -1.50635927
C        0.27543739      -0.55037853      -0.30536376
C       -1.05552721       1.68476911       3.30721464
C        0.89565918       3.42675735      -0.24219899
C        0.69498297      -2.90595652      -1.54699396
C       -1.37403172       3.47077866      -0.76547352
C        0.04602185       2.84578621      -2.46098315
C        0.93092917      -0.31862906       0.87428867
C        1.25302113       2.19993732      -2.75672773
C       -3.01557952      -1.73809656      -0.95370487
C       -2.95167922      -1.86001393       0.47669082
C        2.98561033       1.03742069      -1.74948297
C       -3.97075450       1.02108196      -1.70047050
C       -1.38804232      -1.38636405      -2.65217776
C       -3.88896707      -1.59723976       1.45383532
C       -1.21639442      -0.80742354       2.10979402
C       -3.57444177      -0.90856745       2.48284045
C        0.17298101      -0.17938265       2.19470445
C       -1.11824704      -0.80698967      -0.37079240
C        0.96676374      -2.36681781       2.66296738
C       -1.55708174      -1.96841095      -1.36857695
C        2.70151218       1.88712160       0.38768814
C        0.01859654       0.21371525      -3.41804185
C        1.94031551      -1.02622024      -2.21725001
C       -2.34893301      -0.33225736       2.81151405
C       -2.18379369       2.77839846      -1.75647489
C        2.65435293       0.83816622       2.62078790
C       -0.11168328      -1.19122432      -3.15762992
C        0.58613564      -2.93086852       1.46914893
C       -2.25750363       0.94731814       3.41899286
C        0.10390448       1.27484575       2.66592284
C        0.83573869       2.22679028       1.90232367
C        1.76082610      -3.03182663       0.69664837
C       -0.50778328      -2.88350051      -0.81870559
C        2.10673749       2.79174769      -0.53484032
C        2.31741531      -0.54534548       0.19588651
C        1.43361985      -0.62020395      -1.00412317
C       -2.08417224       0.28681498      -0.42247118
C       -1.23743808       0.84558631      -3.07756900
C        1.25014339       0.89649950      -3.31187459
C        0.18242524       3.08292499       0.94652240
C       -3.42977407       2.16779159      -1.72186754
C       -0.05081051       3.60610205      -1.27898886
C        2.31812687       2.28130127      -1.83191916
C       -1.22007209       2.19171770      -2.65207862
C       -2.17877081       2.26617391       1.25068709
C        0.93973771      -1.95791677      -2.61953148
C        2.36379489      -0.25128242       3.17696613
C       -2.13673530      -0.19710099      -2.69279664
C       -1.23621457       3.15278871       0.62552973
C       -1.48996733      -1.66043525       0.93066690
C       -2.29368781       1.12764096       0.56179158
60
Properties=species:S:1:pos:R:3 entry_id=9 rank=20 energy=-482.6027526855469 pbc="F F F"
C        1.34101143      -3.61348476      -0.84058966
C        2.36378072      -0.16730439      -2.16420876
C        1.88237583       1.97006271       2.01155132
C        2.48195674      -2.71170816      -0.96397416
C       -2.77873503       1.62905196       2.83507268
C        2.79349296       0.63683439       0.18091660
C       -0.83922416      -2.47760478       0.64689400
C        2.06457652      -1.26214967       1.76305439
C       -2.94820407       0.71857735      -1.93859351
C       -0.09914781      -0.27676113      -0.45058084
C       -1.48514958       1.74185840       3.52879452
C        0.97129264       3.40597793      -0.24086621
C        0.20265313      -3.12485751      -1.55184782
C       -1.13144276       3.54779743      -1.14625019
C        0.48424998       2.82677863      -2.57723758
C        0.37967802       0.23273453       0.77568259
C        1.59606086       1.98548236      -2.58773326
C       -3.23002163      -2.12518713      -0.81898947
C       -3.23112301      -1.92156927       0.44248702
C        2.96816978       0.76269416      -1.23385687
C       -3.77922143       1.81314478      -2.31443008
C       -1.55521361      -1.19935633      -2.68976124
C       -0.52011036      -2.54651833       3.00776555
C       -1.55570825      -0.47159119       1.98602892
C       -1.32701105      -1.85027072       3.69900416
C       -0.47414745       0.41855923       1.86764008
C       -1.53850170      -0.56931602      -0.44969545
C        1.52473562      -2.58723598       1.54159768
C       -1.85424629      -1.75481477      -1.38644228
C        2.55191985       1.91191454       0.75615284
C        0.21435156       0.12350641      -3.32655129
C        1.85944263      -1.50153144      -1.73150399
C       -1.94653531      -0.64587049       3.33658165
C       -1.79971185       3.12417239      -2.32711561
C        2.21619736       0.87620100       2.82182044
C       -0.18898901      -1.20244673      -3.02885947
C        0.08213085      -2.72165891       1.72519270
C       -2.33302053       0.62356544       3.84545587
C       -0.38361370       1.57709097       2.66799045
C        0.53315381       2.48635821       2.00935861
C        1.92428181      -3.09927758       0.28882427
C       -0.86165550      -2.72498536      -0.76921136
C        2.20267843       2.76426166      -0.32424693
C        1.77199204      -0.38076806       0.59101267
C        1.12447432      -0.87512224      -0.65958582
C       -2.37089042       0.66240063      -0.65310146
C       -0.94520777       0.96095415      -3.28363414
C        1.47539781       0.61255248      -2.96448609
C        0.04327097       3.06102656       0.78947242
C       -3.15008716       2.89877327      -2.45358094
C        0.26379663       3.64183959      -1.43782390
C        2.52100983       2.07371241      -1.53179670
C       -0.80224372       2.33081211      -2.99050496
C       -2.88418009       1.71362998       1.54171007
C        0.68380658      -2.08933377      -2.41879904
C        2.34543569      -0.38682733       2.82423485
C       -2.05255135       0.13794897      -2.90634688
C       -1.26724006       2.90489608       0.13287566
C       -1.84428932      -1.34738939       0.86196365
C       -2.29302670       1.82090658       0.31806786
60
Properties=species:S:1:pos:R:3 entry_id=8 rank=21 energy=-482.29632568359375 pbc="F F F"
C        1.30508146      -3.60220398      -0.82795732
C        2.35767840      -0.16828090      -2.16147586
C        1.85557200       1.93888603       2.01468994
C        2.47328083      -2.74163415      -0.98430728
C       -2.80049750       1.57436913       2.77154172
C        2.78542755       0.63460117       0.18628481
C       -0.85404327      -2.51002181       0.72923288
C        2.13442088      -1.28429478       1.76928492
C       -2.99040619       0.74562159      -2.05555116
C       -0.05341521      -0.24986194      -0.48207434
C       -1.52214413       1.72088894       3.47892654
C        0.95881593       3.39809798      -0.23431390
C        0.16538785      -3.07579226      -1.50734969
C       -1.13788137       3.57231847      -1.15095953
C        0.47132703       2.81763825      -2.56215403
C        0.37046930       0.15806728       0.80111876
C        1.58420530       1.98162824      -2.57382670
C       -3.22241374      -1.90247884      -0.76284077
C       -3.18407144      -1.89235188       0.50724952
C        2.96211038       0.76196020      -1.22903478
C       -3.81795769       1.84780564      -2.40749779
C       -1.57107851      -1.17011525      -2.69745906
C       -0.35930126      -2.43918760       3.08695093
C       -1.61785869      -0.59560182       2.03610314
C       -1.15595540      -1.76969107       3.81956379
C       -0.51925587       0.30837187       1.86649086
C       -1.38733480      -0.33757112      -0.80541298
C        1.58175448      -2.60147301       1.54820962
C       -1.85408143      -1.66911924      -1.35194854
C        2.53356844       1.90076432       0.76235635
C        0.19788614       0.13207160      -3.32654501
C        1.86615001      -1.51061560      -1.74048345
C       -1.92700799      -0.65571166       3.43152011
C       -1.80583391       3.13596880      -2.33033973
C        2.21256137       0.85774982       2.83314984
C       -0.19944343      -1.18727117      -3.03556043
C        0.15190076      -2.68409475       1.77598836
C       -2.36735179       0.62434964       3.85294997
C       -0.42094096       1.49219890       2.63468276
C        0.49671721       2.40910248       1.98342519
C        1.93694704      -3.11838251       0.28365756
C       -0.88336307      -2.66129422      -0.71040427
C        2.19099939       2.75818995      -0.31558884
C        1.79478297      -0.41008877       0.61113192
C        1.16817133      -0.87892465      -0.65101069
C       -2.31131205       0.73228510      -0.78865198
C       -0.96093259       0.97024858      -3.33822297
C        1.45985625       0.61338046      -2.94936919
C        0.02478807       3.02966573       0.78064975
C       -3.15476736       2.92471087      -2.47523025
C        0.25847450       3.64792129      -1.43397254
C        2.51345691       2.07197482      -1.52316355
C       -0.81391514       2.32501057      -2.98254701
C       -2.91314127       1.67471353       1.47727353
C        0.65783100      -2.06811494      -2.40040995
C        2.38368862      -0.40027464       2.83196731
C       -2.09849618       0.14924777      -3.02844561
C       -1.28177125       2.91414933       0.12062058
C       -1.96918670      -1.71160086       1.20098060
C       -2.30122773       1.83323120       0.26310706
60
Properties=species:S:1:pos:R:3 entry_id=5 rank=22 energy=-482.0854797363281 pbc="F F F"
C        1.37766176      -3.49101308      -0.77938931
C        2.42805009      -0.11576494      -2.26355607
C        1.94409585       1.93623768       1.96777556
C        2.49533135      -2.57335279      -0.91262504
C       -2.74289108       1.63280020       2.85445108
C        2.87199310       0.69388971       0.09073466
C       -0.87421922      -2.50461801       0.64980583
C        2.07956469      -1.63810198       2.45341264
C       -2.96694046       0.70503843      -1.94100145
C       -0.16580489      -0.35649131      -0.41565456
C       -1.44219687       1.71806868       3.53494469
C        0.97419775       3.38725774      -0.26211601
C        0.23974411      -3.07980241      -1.53302426
C       -1.14477053       3.53289909      -1.13809227
C        0.46234555       2.84452757      -2.59229969
C        0.37679180       0.15464035       0.80155133
C        1.58175320       2.01125732      -2.61035984
C       -3.24971228      -2.17922702      -0.83329089
C       -3.26667522      -1.97196760       0.43084835
C        3.07210575       0.82457518      -1.34561559
C       -3.79372302       1.80373990      -2.31277128
C       -1.55845215      -1.20553733      -2.69463059
C       -0.60062942      -2.60071356       3.02796064
C       -1.57363598      -0.50279809       1.99873599
C       -1.39598500      -1.88722339       3.71518475
C       -0.45098138       0.35109758       1.90191852
C       -1.58827479      -0.60491393      -0.44289734
C        1.46391722      -2.55377450       1.63816721
C       -1.87760561      -1.78713658      -1.39980598
C        2.64341079       1.97597060       0.70524079
C        0.20910538       0.13657923      -3.33597244
C        1.87917060      -1.42463662      -1.77989830
C       -1.96898006      -0.66073958       3.34985254
C       -1.82027420       3.12045752      -2.31990883
C        2.26613035       0.84186896       2.74583552
C       -0.19134167      -1.19603347      -3.04309018
C        0.01286157      -2.75802887       1.74903521
C       -2.31175430       0.61949267       3.86542382
C       -0.34074794       1.52600099       2.67274696
C        0.56991349       2.42171766       1.97528713
C        1.95126702      -2.96081714       0.35331765
C       -0.86331710      -2.73249118      -0.77623670
C        2.23127695       2.80027032      -0.36886683
C        1.69015735      -0.01509537       0.27446193
C        1.10673109      -0.72877636      -0.78490503
C       -2.40381400       0.63705849      -0.65065024
C       -0.95638443       0.96452133      -3.28059184
C        1.48001869       0.64899631      -3.00755093
C        0.06336002       3.00303898       0.76943621
C       -3.17127961       2.89401195      -2.44432024
C        0.24662696       3.64179381      -1.44319662
C        2.54395850       2.12056115      -1.59522206
C       -0.82303053       2.33869908      -2.99731490
C       -2.85602962       1.69565905       1.56002015
C        0.70254231      -2.06583683      -2.43529099
C        2.33820504      -0.44264531       2.87002843
C       -2.06025287       0.13293184      -2.90313905
C       -1.26200489       2.86879530       0.13017673
C       -1.88847676      -1.37735666       0.86871168
C       -2.29517925       1.79157748       0.32321844
60
Properties=species:S:1:pos:R:3 entry_id=7 rank=23 energy=-481.9490661621094 pbc="F F F"
C        1.31862629      -3.60117630      -0.81761957
C        2.35138132      -0.16661128      -2.16812154
C        1.83157397       1.95555761       2.00114558
C        2.47687348      -2.72813571      -0.98123208
C       -2.79877214       1.54226126       2.85215266
C        2.76364804       0.65078213       0.17651790
C       -0.84106373      -2.52721354       0.74701746
C        2.13866670      -1.26620612       1.76850505
C       -2.91672359       0.84945854      -2.02115811
C       -0.08105301      -0.26246636      -0.46716766
C       -1.50373911       1.69248467       3.52982294
C        0.89939547       3.36939236      -0.26037519
C        0.17023797      -3.08709865      -1.49365240
C       -1.19817759       3.43487199      -1.18517864
C        0.45471265       2.81793956      -2.63107243
C        0.35155022       0.15366891       0.80950428
C        1.57794855       1.98350704      -2.61367940
C       -3.22826046      -1.97127647      -0.72810610
C       -3.17673549      -1.94215322       0.54088050
C        2.94149210       0.77292368      -1.23863930
C       -3.19625854       2.16778978      -2.36273888
C       -1.57890129      -1.15532382      -2.66183215
C       -0.32700484      -2.45847507       3.10268410
C       -1.61779297      -0.61970061       2.06570623
C       -1.11839130      -1.79784564       3.84700701
C       -0.52994430       0.29577272       1.88296005
C       -1.42047538      -0.37099160      -0.76858887
C        1.60189492      -2.59132529       1.55405232
C       -1.86952132      -1.69622516      -1.32965720
C        2.50413139       1.91767176       0.74597348
C        0.20282091       0.11158407      -3.34890043
C        1.85589476      -1.50425782      -1.73364092
C       -1.89886255      -0.68792771       3.46863525
C       -1.86962106       3.05681064      -2.41446374
C        2.20745903       0.88219098       2.82266864
C       -0.21201325      -1.19840448      -3.02349204
C        0.17408402      -2.69331715       1.78694953
C       -2.33260893       0.58712907       3.91224264
C       -0.42742913       1.48027109       2.64983524
C        0.46503851       2.40623171       1.97478046
C        1.95342419      -3.10767381       0.28887559
C       -0.87923619      -2.68106100      -0.69340445
C        2.14965378       2.76545169      -0.33772109
C        1.77926324      -0.39831530       0.61044356
C        1.14779873      -0.87948270      -0.64440988
C       -2.35970392       0.69238941      -0.71839058
C       -0.94563563       0.95619165      -3.37655172
C        1.46097200       0.60545267      -2.97236375
C       -0.02471408       3.00203004       0.76615183
C       -3.27383941       3.37171748      -2.84468801
C        0.18678681       3.58151859      -1.46121625
C        2.48822729       2.07979146      -1.54397130
C       -0.80477336       2.31971635      -3.09573898
C       -2.92932006       1.64305349       1.56241855
C        0.65030247      -2.07672578      -2.38983193
C        2.38859503      -0.37483711       2.82490370
C       -2.07779126       0.17551196      -2.99408087
C       -1.34090243       2.84225921       0.10611379
C       -1.96064296      -1.73907042       1.22796421
C       -2.35562148       1.78105188       0.33077277
60
Properties=species:S:1:pos:R:3 entry_id=10 rank=24 energy=-481.8569030761719 pbc="F F F"
C        1.65846688      -3.46020394      -0.85441575
C        2.43989308      -0.03230772      -2.35727413
C        2.13011508       2.09266955       1.83207213
C        2.58507391      -2.44044195      -0.85021218
C       -2.49967774       1.80906586       2.94392120
C        2.99937317       0.83982426      -0.05431204
C       -0.59506721      -2.71846605       0.56626352
C        1.47168524      -0.96316704       2.64463073
C       -2.95907166       0.50315813      -1.69556128
C       -0.01368107      -0.44951140      -0.27919928
C       -1.14656756       1.55304009       3.46158775
C        0.93523897       3.39182805      -0.31846595
C        0.44888246      -3.10174887      -1.56613646
C       -1.23169558       3.45584137      -1.08085259
C        0.32103561       2.83307402      -2.61720055
C        0.64804832       0.02008518       0.87336428
C        1.47915837       2.05567846      -2.69953859
C       -3.09502513      -2.30160512      -0.62974700
C       -2.97908725      -2.12381525       0.71986016
C        3.08809940       0.95193951      -1.49946254
C       -3.83988475       1.57676443      -2.00923555
C       -1.51605643      -1.29566346      -2.56295031
C       -3.79758107      -1.99648272       1.87445806
C       -1.15534599      -0.92560607       2.24616829
C       -3.39792268      -1.32412839       2.88220529
C        0.17246767      -0.17215929       2.26143295
C       -1.41801664      -0.75923008      -0.28620617
C        1.56412842      -2.14876141       1.87704246
C       -1.77457340      -1.92981802      -1.27564656
C        2.75367074       2.12447255       0.54447597
C        0.14671054       0.11650981      -3.30522162
C        1.95797300      -1.35042089      -1.80864519
C       -2.20424974      -0.63363099       3.14404235
C       -1.95865216       3.00881601      -2.21980789
C        2.61976701       1.11665411       2.69637099
C       -0.17382689      -1.22673233      -2.98164175
C        0.63546363      -2.74250191       1.13296460
C       -2.16292424       0.64677203       3.78973123
C        0.00865896       1.30288551       2.73954400
C        0.70543677       2.27728919       1.88787445
C        1.90268330      -2.79182667       0.46945602
C       -0.68716768      -2.86658073      -0.82154858
C        2.22222419       2.90090145      -0.51207252
C        1.90463960       0.03808751       0.23762613
C        1.23921268      -0.68169969      -0.76880707
C       -2.33125273       0.42319090      -0.42916054
C       -1.05478057       0.88797225      -3.19237382
C        1.41504679       0.68043983      -3.05958929
C        0.10022595       2.91593216       0.74545424
C       -3.29850021       2.69448524      -2.22872381
C        0.13469985       3.62221963      -1.45724327
C        2.49627270       2.22282858      -1.74532219
C       -0.96464817       2.26965002      -2.94500043
C       -2.74554720       1.83701004       1.66545118
C        0.80750091      -2.04793563      -2.43745694
C        2.47461953      -0.08230451       3.03622484
C       -2.09092541       0.00610643      -2.73097602
C       -1.23829109       2.76752880       0.17009193
C       -1.52806984      -1.66311262       1.02544836
C       -2.21146266       1.64828088       0.44723991
60
Properties=species:S:1:pos:R:3 entry_id=3 rank=25 energy=-481.4821472167969 pbc="F F F"
C        1.72358796      -3.49873525      -0.73613784
C        2.58868036      -0.11681501      -2.27165279
C        1.99407463       1.96133965       1.95604544
C        2.80436493      -2.53802832      -0.87494022
C       -2.49289143       1.85196481       3.37530406
C        2.76972225       0.73572020       0.06456681
C       -0.52205212      -3.09369090       0.79799618
C        2.26675909      -1.59254810       2.45422911
C       -3.19360313       0.26339702      -2.39973338
C        0.05936488      -1.23816722      -0.32742435
C       -1.12503514       1.50101621       3.64005226
C        1.05276475       3.44580588      -0.28336189
C        0.58187775      -3.20365239      -1.49968839
C       -1.13756851       3.58206121      -1.03101603
C        0.40881557       2.69839296      -2.50238542
C        0.19231629      -0.18064432       0.70193277
C        1.59449470       1.95992631      -2.58666542
C       -2.92143667      -2.39028485      -0.92682565
C       -3.18714703      -1.62177238       0.03530274
C        3.12893837       0.84815629      -1.33584446
C       -3.70671970       1.58544648      -2.30614194
C       -1.32362013      -1.51914820      -2.61517304
C       -0.86961283      -2.63152482       2.15484897
C       -2.07915984      -0.14015982       1.67852601
C       -1.59835292      -1.92035791       3.00914860
C       -0.74290003       0.44052307       1.55434758
C       -4.03238021       0.42110622       0.04190963
C        1.84053145      -2.63208128       1.70053719
C       -1.66650243      -2.38318135      -1.54979140
C        2.67436533       2.01770612       0.68243543
C        0.32398868      -0.01780057      -3.24540140
C        2.14734886      -1.45655864      -1.77901565
C       -2.09863459      -0.66605489       3.03245605
C       -1.87484127       2.90155922      -2.08269705
C        2.31371038       0.88460981       2.75327573
C        0.04571321      -1.39314955      -3.01384841
C        0.46457476      -3.02886533       1.71550267
C       -2.16267097       0.53221799       3.86033079
C       -0.30701951       1.42714772       2.48621036
C        0.62057015       2.39848585       1.91928679
C        2.31095929      -2.97273903       0.38912718
C       -0.48763322      -2.59084341      -0.62677839
C        2.31267454       2.86259775      -0.40255811
C        1.55544842       0.04296449       0.16682273
C        1.28491139      -0.89937025      -0.78618843
C       -3.96734729       0.58093544      -1.26827827
C       -0.89571532       0.72794858      -3.09765103
C        1.56689516       0.58467584      -2.97473306
C        0.20116108       3.20114170       0.82477205
C       -3.22149299       2.81627235      -2.35710195
C        0.23023245       3.58104686      -1.41941201
C        2.60598944       2.15134305      -1.62648185
C       -0.86004072       2.09806087      -2.77074634
C       -2.76586789       2.67196369       2.31598442
C        1.02604157      -2.21306325      -2.46577898
C        2.42219358      -0.39087516       2.87229650
C       -1.94791698      -0.21529205      -2.79757178
C       -1.18664277       3.40382833       0.41269085
C       -3.11553406      -0.42141274       0.71594283
C       -2.22580873       3.14859485       1.28414196
60
Properties=species:S:1:pos:R:3 entry_id=6 rank=26 energy=-479.4582214355469 pbc="F F F"
C        1.44699149      -3.67136379      -0.84322254
C        2.24605936      -0.23704816      -2.01217232
C        1.92750884       2.00908512       2.05296813
C        2.46225373      -2.64657866      -0.85943034
C       -2.52748764       1.80985784       3.26502999
C        2.58626173       0.62414772       0.24260992
C       -0.35715431      -2.09960750       0.39863063
C        2.13345331      -1.72114770       2.30149429
C       -3.13971938       0.41290721      -2.37325158
C       -0.29168285      -0.01848582      -0.75934677
C       -1.13088634       1.72042006       3.73938664
C        1.07996552       3.49856430      -0.21440358
C        0.31651936      -3.28635745      -1.64784605
C       -1.12738198       3.51736332      -0.95018490
C        0.40114308       2.66851695      -2.44258036
C        0.11708963       0.79779557       0.36966274
C        1.54348190       1.89859202      -2.51674567
C       -2.98021382      -2.54545589      -0.75893836
C       -2.88498649      -2.20072330       0.47311229
C        2.84311961       0.69039612      -1.12884138
C       -3.80071500       1.66169864      -2.66987320
C       -1.49959197      -1.39957237      -2.87014219
C       -0.59881251      -2.63613851       2.78546296
C       -1.58855242      -0.23141978       1.75354697
C       -1.36451371      -1.84601698       3.40013079
C       -0.90590155       1.05644675       1.42668414
C       -1.66268334      -0.57358812      -0.69176522
C        1.61456781      -2.79828200       1.63850929
C       -1.76655272      -1.93855161      -1.53438402
C        2.56864334       1.92893964       0.79566103
C        0.22521644       0.02830985      -3.35681227
C        1.71945643      -1.49424783      -1.50227548
C       -1.81129009      -0.55843025       3.09925866
C       -1.86286612       2.89306863      -2.04765543
C        1.96363419       0.81821393       2.78389802
C       -0.11973191      -1.31434691      -3.09338774
C        0.16165622      -2.74460934       1.61557543
C       -2.04876095       0.62100073       3.88592222
C       -0.29893471       1.79646278       2.61721455
C        0.68098251       2.69025407       2.07888850
C        2.02936818      -3.21997228       0.33954759
C       -0.72011413      -2.76556117      -0.89544030
C        2.26489181       2.77944240      -0.29585643
C        1.33194626      -0.06150483       0.68586799
C        0.70461378      -1.03664365      -0.30870670
C       -2.84072647       0.13928336      -1.09245196
C       -0.96379278       0.82541264      -3.33216609
C        1.43754581       0.52422523      -2.88447475
C        0.25607209       3.39280182       0.92275629
C       -3.19676060       2.73839982      -2.38746395
C        0.23503406       3.53153031      -1.34025904
C        2.49086801       2.01687404      -1.48093306
C       -0.88161064       2.13800182      -2.80165587
C       -2.87336290       2.39697511       2.12033857
C        0.75195714      -2.13680712      -2.38394990
C        1.80408034      -0.39098824       2.12715006
C       -2.05064779      -0.08203899      -3.17624028
C       -1.11579318       3.30691154       0.48067016
C       -1.68392934      -1.24472347       0.67816879
C       -1.85229976       2.32944865       1.20970770
60
Properties=species:S:1:pos:R:3 entry_id=2 rank=27 energy=-478.7845458984375 pbc="F F F"
C        1.64335554      -3.56207325      -0.76534467
C        2.28215085      -0.13886344      -2.21035715
C        1.96160681       1.92889683       2.01028388
C        2.66978090      -2.58153933      -1.03252634
C       -2.85619785       1.09039928       2.33611053
C        2.66647795       0.69730340       0.09928145
C       -0.29911895      -3.37416739       1.15585667
C        2.55866475      -1.62373396       2.35416986
C       -3.21407723       0.79930797      -3.43259433
C        0.06646923      -1.44414732       0.06974602
C       -1.13991519       1.62770189       3.73880063
C        1.05689669       3.49896308      -0.20022391
C        0.38342838      -3.25137342      -1.33632858
C       -1.12095133       3.74736857      -0.94207931
C        0.36268700       2.84376291      -2.43169342
C        0.24101157      -0.36777948       1.00655445
C        1.44673359       1.98282271      -2.51021534
C       -3.01141626      -2.80582018      -0.20493555
C       -3.31231873      -1.70910282       0.37823964
C        2.94438976       0.78519162      -1.31691022
C       -3.68314524       1.73489393      -2.38852328
C       -1.67832945      -1.42476667      -1.78618807
C       -0.45193151      -2.75985462       2.47890965
C       -2.22652264       0.32066755       1.30349018
C       -1.11828647      -1.88114078       3.25150225
C       -0.73569039       0.24879439       1.86630525
C       -2.52888359      -0.36145928      -1.25491829
C        2.14718758      -2.72269884       1.66655775
C       -1.78942828      -2.56598333      -0.90540872
C        2.61971882       1.97380764       0.71763094
C       -0.07388636       0.09973888      -3.06220643
C        1.86462796      -1.47319709      -1.74036420
C       -1.35190218      -0.58985810       3.04828856
C       -1.90311150       3.10443267      -1.99346814
C        2.31096567       0.83412597       2.78066003
C       -0.46676480      -1.23354236      -2.58214218
C        0.80982361      -3.18056555       1.91813476
C       -2.12086345       0.63980756       3.54175233
C       -0.35458475       1.55760337       2.61599975
C        0.60652197       2.44161319       1.99129223
C        2.38857899      -3.05953416       0.28598883
C       -0.50239903      -2.77900407      -0.22119298
C        2.27856453       2.84196719      -0.35444908
C        1.49432965      -0.03690852       0.31435208
C        1.16883911      -1.00540532      -0.57915671
C       -3.32025515       0.41113851      -2.07371409
C       -1.03801993       1.11833107      -3.48495693
C        1.24209297       0.60351687      -2.81651303
C        0.19621476       3.26863986       0.90942840
C       -3.26602268       2.94800650      -2.04369456
C        0.23939298       3.70143946      -1.32840842
C        2.50493130       2.12056186      -1.59093056
C       -0.92628235       2.37960673      -2.80475576
C       -2.99918779       2.41691876       1.92767579
C        0.60522099      -2.14596429      -2.27010947
C        2.59000582      -0.42805833       2.83167748
C       -2.17161201       0.80068784      -4.23862121
C       -1.18419195       3.52259679       0.48560682
C       -2.79931640      -0.41517773       0.23001274
C       -2.30913421       3.19224419       1.22362321
60
Properties=species:S:1:pos:R:3 entry_id=4 rank=28 energy=-477.6531066894531 pbc="F F F"
C        1.60123718      -3.22881224      -1.15028183
C        2.56715925       0.39537834      -2.19435915
C        1.69365778       1.88145712       2.35665038
C        2.42319101      -2.09859414      -1.42032582
C       -2.73902926       1.09876743       2.26802759
C        2.22947872       0.67969677       0.25497698
C       -0.02148323      -3.64831694       0.83942479
C        2.54052707      -1.51574564       2.15860450
C       -2.88299426       0.49346198      -3.29462405
C       -0.48958236      -1.08519715      -0.78589419
C       -1.13494713       1.83940940       3.95552728
C        1.38547708       3.83576413       0.30045796
C        0.28310375      -3.54745061      -1.54968220
C       -0.65677946       4.06920861      -0.71744449
C        1.07874302       3.62350991      -2.20365962
C       -0.29805001      -0.54074738       0.52035897
C        2.16335140       2.68727852      -2.27514777
C       -2.94465317      -3.06577734       0.36335209
C       -3.61434046      -2.04175359       0.71291550
C        2.90492739       1.01370838      -0.95586358
C       -2.79431571       1.65900549      -2.49056475
C       -1.72504488      -1.73043074      -1.33681316
C        0.15059401      -2.52798914       2.95717562
C       -2.60295711       0.03468562       1.28916432
C       -0.46940769      -1.56302016       3.46510838
C       -1.25096099      -0.37629882       1.53992853
C       -2.82011868      -0.69753475      -1.05167506
C        2.03676929      -2.46113154       1.31791627
C       -1.86524178      -2.97975651      -0.48883155
C        2.34072681       1.83570395       1.09429650
C       -1.89747090      -1.66518820      -3.92427055
C        1.92765863      -0.89227401      -2.00954140
C       -1.11134965      -0.42925409       2.97515997
C       -1.23184107       3.62298216      -1.98643888
C        1.92583249       0.74343569       3.10149617
C       -1.31585986      -2.20933626      -2.76620448
C        0.73966234      -3.05873233       1.77112170
C       -1.82218533       0.76548633       3.37334530
C       -0.28223313       2.63914200       3.50058419
C        0.64713266       2.89024462       2.48838874
C        2.24374194      -2.65123645      -0.08650874
C       -0.58249334      -3.64362238      -0.36382980
C        2.46081474       2.94935705       0.22115921
C        1.01559237      -0.00973538       0.04184427
C        0.77042766      -0.60433555      -1.23164084
C       -3.05308086       0.30957404      -1.94351339
C       -2.32134275      -1.38450174      -5.21435104
C        2.19298385       1.47834348      -3.01491895
C        0.38309283       3.67998526       1.32156495
C       -2.33180089       2.83139115      -2.18309700
C        0.73419614       4.11505728      -0.90724653
C        2.83366317       2.42434389      -1.04764779
C       -0.12250946       3.55642114      -2.91020130
C       -2.73517340       2.40073331       1.79475505
C       -0.26661029      -3.06700114      -2.69668054
C        2.38871663      -0.44644178       2.84383334
C       -2.54510971      -0.43259652      -4.22440872
C       -0.92079292       3.82527492       0.68466274
C       -3.32941555      -0.71498882       0.31889854
C       -2.08636421       3.30012709       1.22996971
60
Properties=species:S:1:pos:R:3 entry_id=1 rank=29 energy=-476.7918395996094 pbc="F F F"
C        1.69176666      -3.58466558      -0.70644727
C        2.17557453      -0.14366719      -2.23030586
C        1.96685890       1.91022011       2.00584058
C        2.68842627      -2.57568395      -0.99704398
C       -2.84544963       1.06505435       2.34234387
C        2.64181433       0.67745196       0.07332712
C       -0.26555059      -3.41918779       1.21006441
C        2.59743856      -1.62494661       2.39373363
C       -3.04829452       0.99793141      -3.41650428
C        0.06699449      -1.49323260       0.10031631
C       -1.14267306       1.58949812       3.76301510
C        1.01367026       3.48684180      -0.14288002
C        0.41821664      -3.33158492      -1.26555392
C       -1.14848118       3.87105030      -0.82445570
C        0.25316226       3.00066634      -2.47477119
C        0.25530464      -0.41632195       1.03832646
C        1.26651347       1.98683797      -2.53377610
C       -3.00629153      -2.80710155      -0.15393207
C       -3.28360691      -1.68343485       0.38674319
C        2.83110033       0.78910859      -1.35920094
C       -3.49588810       1.89282323      -2.40333013
C       -1.65444886      -1.49544465      -1.77120287
C       -0.42372910      -2.79143799       2.52255224
C       -2.19296049       0.33065495       1.29784212
C       -1.10813667      -1.91014798       3.27629705
C       -0.72143570       0.21512997       1.89077634
C       -2.43609631      -0.35679987      -1.27227195
C        2.17773165      -2.72157708       1.70878117
C       -1.77832323      -2.60739920      -0.85110008
C        2.59627129       1.95301986       0.69703068
C       -0.07181916      -0.14179344      -3.29516937
C        1.84086886      -1.50684148      -1.73625641
C       -1.34677092      -0.62231154       3.06491553
C       -1.97753727       3.52722558      -1.96430376
C        2.34422070       0.83466997       2.78634686
C       -0.45575617      -1.39558458      -2.58655585
C        0.84539931      -3.19548817       1.96353178
C       -2.12228455       0.60107902       3.54999732
C       -0.34152354       1.52102066       2.65213217
C        0.60660039       2.41711172       2.02911094
C        2.42766938      -3.04844702       0.32891255
C       -0.48400711      -2.84153402      -0.17354771
C        2.20996217       2.81801778      -0.36121286
C        1.49491490      -0.08329780       0.33103965
C        1.14543317      -1.03739577      -0.57410470
C       -3.04508758       0.56512603      -2.09609100
C       -0.99243372       0.36540498      -4.17133489
C        1.13706653       0.57056507      -2.88776288
C        0.17367664       3.27661612       0.98520979
C       -3.32371827       3.15221544      -1.97179590
C        0.18864273       3.72913193      -1.24041255
C        2.33691526       2.10003920      -1.61075212
C       -1.05363910       3.07749346      -2.96433433
C       -3.01147345       2.40130350       1.97798113
C        0.61958499      -2.25736361      -2.22847050
C        2.63374683      -0.42318597       2.85156730
C       -2.17130527       0.74925657      -4.43999903
C       -1.21231669       3.58123670       0.59220170
C       -2.74803059      -0.40112447       0.20791157
C       -2.33955283       3.22433839       1.31203070
60
Properties=species:S:1:pos:R:3 entry_id=0 rank=30 energy=-474.6693420410156 pbc="F F F"
C        1.73356887      -3.37257812      -0.91542958
C        2.05031452       0.14976520      -2.30059753
C        1.91424449       1.86852757       2.12916779
C        2.52917835      -2.20683905      -1.15208625
C       -2.92187475       1.05225543       2.39614059
C        2.47180340       0.67195908       0.13230707
C       -0.04078899      -3.76374519       0.95412350
C        2.54698930      -1.61414822       2.33243605
C       -2.62101246       0.78853319      -3.27671515
C       -0.06682272      -1.52247161       0.07087100
C       -1.20698738       1.61952002       3.80296470
C        1.12437354       3.57899428       0.02839858
C        0.41949559      -3.26514033      -1.41276225
C       -0.98258232       3.98397297      -0.79199411
C        0.59066049       3.45752648      -2.41969870
C        0.13121816      -0.46039795       1.05568703
C        1.59378926       2.42765066      -2.51758761
C       -2.92873162      -2.99345687       0.17109863
C       -3.25069776      -1.86998120       0.68309725
C        2.73067615       0.89469476      -1.26181264
C       -3.00537069       1.85957054      -2.43014605
C       -1.87741163      -1.71703816      -1.63112211
C       -0.05121230      -2.59195858       2.92503106
C       -2.28503763       0.26015389       1.38890587
C       -0.86714000      -1.79373072       3.48386757
C       -0.81676478       0.19455363       1.94178778
C       -2.52214924      -0.54182660      -1.09459658
C        2.06871755      -2.60117628       1.54480156
C       -1.83445214      -2.81525022      -0.70571588
C        2.56807759       1.90565405       0.84556646
C       -1.21475147      -1.06823054      -3.92658284
C        1.56610801      -1.24210348      -1.89593459
C       -1.35592941      -0.55264304       3.18143078
C       -1.68223446       3.76994663      -2.04539443
C        2.27124705       0.79302556       2.90935707
C       -0.89603491      -1.68137763      -2.71236239
C        0.74172888      -3.16619246       1.91198844
C       -2.18545769       0.62108483       3.62406447
C       -0.41479682       1.52509563       2.68520815
C        0.56521696       2.39207559       2.09876771
C        2.35970094      -2.78608185       0.16146031
C       -0.44046686      -2.96526837      -0.22569096
C        2.32586245       2.90001001      -0.14536093
C        1.27965839      -0.03262763       0.29055009
C        0.83985408      -0.87207767      -0.71801785
C       -2.77645542       0.52420985      -1.93746174
C       -1.42278322      -0.70024480      -5.25043310
C        1.47043490       1.13832921      -3.09451723
C        0.19714654       3.27922945       1.06270378
C       -2.92516748       3.15318602      -2.15324613
C        0.38705008       3.94301684      -1.09682029
C        2.49866490       2.28617903      -1.42319039
C       -0.65792012       3.58262188      -3.03839031
C       -2.98763830       2.36954060       1.93586929
C        0.40331022      -2.20384040      -2.38068386
C        2.57756274      -0.45702421       2.88081966
C       -2.02701107       0.05622246      -4.24682778
C       -1.16020088       3.57256400       0.58826650
C       -2.82111951      -0.57587095       0.36627543
C       -2.31272605       3.17478764       1.25316217
