60
Properties=species:S:1:pos:R:3 system=runs/20260728-safe-lbfgs-strict-quench-200-production/output-c60-seed42 state_id=intermediate_accepted pbc="F F F"
C       -2.28760049      -1.77078842       1.05175604
C        2.45315625      -3.24184728       1.19960884
C        1.24723595       0.22332160       2.63902259
C       -1.16814574       3.05136977      -2.36832153
C       -2.79353117       3.13013560      -0.52952017
C        2.86899899      -1.81987789       2.65054124
C       -2.80917613      -0.70232399       1.84946594
C       -1.50897154      -1.99475210       3.24131762
C        2.02453827       2.30273552      -1.36495471
C       -0.72702031       2.41381106      -3.56226009
C       -0.64727589       3.08456743       0.86800061
C        2.67189921       0.82811779       0.25729368
C       -1.88647276      -1.72114626      -0.33319362
C        1.15065623       2.84448514      -2.32602927
C        2.14986481      -0.08780880      -2.13979777
C       -1.14001647       0.26514700       3.27113254
C        3.94683440      -1.30460576       0.64994453
C       -2.21965058       0.56772316      -3.12618207
C       -2.85837844       1.32561786      -2.09678528
C       -0.29008960      -3.03241560       1.61138041
C       -0.15470083       0.36819747      -4.40482670
C       -0.78914828      -1.38265301      -2.95162273
C       -3.77333734       2.44453159       0.26067694
C       -3.22779683       0.57685297       1.44544966
C       -2.69642524       1.68757125       2.15824128
C       -1.36930450       1.51936979       2.64529327
C       -0.02835152      -0.98614755      -4.07339419
C       -2.13610045      -0.73929223       3.11695019
C       -1.98740262      -0.73463119      -2.60627485
C        2.43378165      -0.50518850       2.26928719
C        1.40839338      -1.41632405      -2.26015605
C        0.22793395      -3.01768218       0.28337270
C       -3.06707271       2.86034048       1.47548068
C        0.71225274       2.30673879      -3.54704603
C        0.13162987      -0.37087473       3.32972191
C        0.05057579      -1.84255788      -1.90309296
C       -3.67210048       1.00481555       0.18010772
C       -2.01619605       3.39175065       0.65407164
C       -0.29945424       2.15232704       1.93560018
C        1.00248661       1.49719742       1.95616958
C       -1.58088682      -2.60152317       1.94668774
C       -2.52540329      -0.82953115      -1.27443595
C        3.10880769      -0.26132078       1.02729741
C        1.92491412      -2.84745091       2.49811635
C        1.58518907      -3.32098839       0.16496658
C        1.35960091      -1.19306696      -3.71136174
C        1.57604125       2.78362520      -0.08287657
C        3.61387185      -2.34921924       1.44663394
C        1.89220084       1.83116001       0.89795539
C       -1.26411808       1.16123421      -3.97453011
C        2.47027468       0.94322058      -1.18269830
C        0.56317745      -2.72470665       2.68834441
C        1.05684359       1.05504654      -4.09089373
C       -2.39489396       2.63365977      -1.78087123
C       -0.57559899      -2.29513023      -0.68618748
C       -0.10777793      -1.77456397       3.50339256
C        1.97028580       0.11729826      -3.55454220
C        0.27160206       3.32282914      -0.19924194
C       -3.22627807       0.43330281      -1.02477866
C       -0.00377093       3.38062117      -1.60920312
