115
Lattice="13.75323 0.0 0.0 0.0 13.75323 0.0 0.0 0.0 23.89" Properties=species:S:1:pos:R:3 entry_id=140 rank=10 energy=-576.3568115234375 pbc="T T F"
Pd       0.00000000       0.00000000      10.00000000
Pd       2.75064538       0.00000000      10.00000000
Pd       5.50129076       0.00000000      10.00000000
Pd       8.25193614       0.00000000      10.00000000
Pd      11.00258152       0.00000000      10.00000000
Pd       0.00000000       2.75064538      10.00000000
Pd       2.75064538       2.75064538      10.00000000
Pd       5.50129076       2.75064538      10.00000000
Pd       8.25193614       2.75064538      10.00000000
Pd      11.00258152       2.75064538      10.00000000
Pd       0.00000000       5.50129076      10.00000000
Pd       2.75064538       5.50129076      10.00000000
Pd       5.50129076       5.50129076      10.00000000
Pd       8.25193614       5.50129076      10.00000000
Pd      11.00258152       5.50129076      10.00000000
Pd       0.00000000       8.25193614      10.00000000
Pd       2.75064538       8.25193614      10.00000000
Pd       5.50129076       8.25193614      10.00000000
Pd       8.25193614       8.25193614      10.00000000
Pd      11.00258152       8.25193614      10.00000000
Pd       0.00000000      11.00258152      10.00000000
Pd       2.75064538      11.00258152      10.00000000
Pd       5.50129076      11.00258152      10.00000000
Pd       8.25193614      11.00258152      10.00000000
Pd      11.00258152      11.00258152      10.00000000
Pd       1.33305437       1.38035701      12.05221797
Pd       4.08925664       1.38750338      11.98771029
Pd       6.82888190       1.38154444      11.99332965
Pd       9.57512057       1.39592898      11.89594876
Pd      12.38684272       1.37174114      11.92044161
Pd       1.37065655       4.09970544      12.00656864
Pd       4.10125007       4.12393621      12.00820233
Pd       6.82444734       4.12497179      12.00908219
Pd       9.56728621       4.13975942      11.94281254
Pd      12.36578195       4.13265160      11.93417299
Pd       1.37110082       6.89256210      11.94010419
Pd       4.13935064       6.87026939      11.96482277
Pd       6.87097415       6.85831372      11.95140951
Pd       9.64205429       6.82915781      11.94515418
Pd      12.39111484       6.85622887      11.94896407
Pd       1.35216595       9.69735034      11.99083951
Pd       4.11777592       9.66324146      11.95099537
Pd       6.89476706       9.64088005      11.95142944
Pd       9.64982872       9.59779534      11.89439304
Pd      12.42487279       9.60955999      11.94161946
Pd       1.35802606      12.41462245      12.04582394
Pd       4.10624816      12.40887780      12.00662317
Pd       6.86816975      12.39901143      11.97280504
Pd       9.63028672      12.36702810      11.91406436
Pd      12.41879361      12.34804731      11.97632258
Pd       0.04120111      13.74852838      14.13254640
Pd       2.84784067       0.09156493      14.04544579
Pd       5.55525221      13.74778107      14.01816828
Pd       8.32826500       0.02109219      13.91316782
Pd      11.05888618      13.72611196      13.93891600
Pd      13.62251796       2.76589079      13.98984832
Pd       2.64493053       2.82900456      13.99119267
Pd       5.35157636       2.68082745      13.92067721
Pd       8.11528545       2.79443368      14.01948525
Pd      10.82737153       2.70610492      13.95535995
Pd       0.02159672       5.51655117      14.04429475
Pd       2.71886958       5.59374409      14.04689250
Pd       5.46223724       5.43352037      14.02216741
Pd       8.21973100       5.57649791      14.06574770
Pd      10.99537339       5.50218799      13.85651526
Pd      13.72188911       8.19337270      14.00690804
Pd       2.73827246       8.32402642      13.93396475
Pd       5.53726796       8.21661590      13.93307922
Pd       8.28918436       8.30881273      13.94969517
Pd      11.00528544       8.25587509      14.02289226
Pd       0.00131141      10.93326384      14.02744070
Pd       2.77521389      11.07723952      13.92962852
Pd       5.52212449      10.98675557      14.04953057
Pd       8.22000552      10.98357338      13.96329948
Pd      10.97343600      10.97592841      13.88969436
Pd      12.05026366       6.93586886      16.31042048
Pd       9.42177810      11.39682728      16.47872876
Pd       1.59143480      12.30651259      16.11998237
Pd       1.35373876       5.31660772      16.61307843
Pd      12.10339781      10.11526726      16.43739397
Pd       8.37286125       1.36557271      16.68880677
Pd       4.68482675       0.59655632      16.78295888
Pd       6.75877930       9.47762705      16.33714508
Pd       3.94385768      10.80991885      16.33950421
Pd      11.97961691       1.47343397      16.09565909
Pd      12.70361142       4.12242927      16.23328163
Pd       3.76422154       4.10188065      16.00824742
Pd       9.41499932       4.26999805      16.42960527
Pd       1.07218024       8.80727224      16.54514967
Pd       6.52126371       5.92913151      16.55955022
Pd       6.71669422      12.53944634      16.14042106
Pd       9.38769322       7.96008194      16.41818094
Pd       6.43674952       3.33830401      16.11892562
Pd       1.64450774       1.93329732      16.33171671
Pd       3.80918815       7.36738890      16.50722573
O        8.48949854       6.14901239      16.16854449
O        8.67875313      13.25756790      15.89419980
O       13.72338338       0.60913692      16.11587457
O       10.15701694       2.31319577      16.13808045
O        8.00305895       3.21515860      17.35775229
O        2.97564104       9.12356834      15.92625568
O        6.65491297       0.49656341      17.32818529
O        4.73043855       2.58027506      16.96251656
O       11.21950042      11.79524688      15.76378892
O        0.35780457      10.69554065      16.08546646
O        2.73736558       0.26793005      16.13462022
O        1.94656284       7.09231677      17.14021949
O        5.71868395       7.84420882      15.96051969
O       10.22306537       9.63918855      17.02022629
O        4.63397360       5.65834187      17.10886226
O        0.65536726       3.50225369      16.90920760
O       11.09443889       5.21000379      15.86266847
O       12.95902559       8.46848800      17.14768536
O        4.90995353      12.35054324      16.97440988
O        7.62606173      11.00109658      17.17843151
