115
Lattice="13.75323 0.0 0.0 0.0 13.75323 0.0 0.0 0.0 23.89" Properties=species:S:1:pos:R:3 entry_id=42 rank=78 energy=-573.4590454101562 pbc="T T F"
Pd       0.00000000       0.00000000      10.00000000
Pd       2.75064538       0.00000000      10.00000000
Pd       5.50129076       0.00000000      10.00000000
Pd       8.25193614       0.00000000      10.00000000
Pd      11.00258152       0.00000000      10.00000000
Pd       0.00000000       2.75064538      10.00000000
Pd       2.75064538       2.75064538      10.00000000
Pd       5.50129076       2.75064538      10.00000000
Pd       8.25193614       2.75064538      10.00000000
Pd      11.00258152       2.75064538      10.00000000
Pd       0.00000000       5.50129076      10.00000000
Pd       2.75064538       5.50129076      10.00000000
Pd       5.50129076       5.50129076      10.00000000
Pd       8.25193614       5.50129076      10.00000000
Pd      11.00258152       5.50129076      10.00000000
Pd       0.00000000       8.25193614      10.00000000
Pd       2.75064538       8.25193614      10.00000000
Pd       5.50129076       8.25193614      10.00000000
Pd       8.25193614       8.25193614      10.00000000
Pd      11.00258152       8.25193614      10.00000000
Pd       0.00000000      11.00258152      10.00000000
Pd       2.75064538      11.00258152      10.00000000
Pd       5.50129076      11.00258152      10.00000000
Pd       8.25193614      11.00258152      10.00000000
Pd      11.00258152      11.00258152      10.00000000
Pd       1.33305437       1.38035701      12.05221797
Pd       4.08925664       1.38750338      11.98771029
Pd       6.82888190       1.38154444      11.99332965
Pd       9.57512057       1.39592898      11.89594876
Pd      12.38684272       1.37174114      11.92044161
Pd       1.37065655       4.09970544      12.00656864
Pd       4.10125007       4.12393621      12.00820233
Pd       6.82444734       4.12497179      12.00908219
Pd       9.56728621       4.13975942      11.94281254
Pd      12.36578195       4.13265160      11.93417299
Pd       1.37110082       6.89256210      11.94010419
Pd       4.13935064       6.87026939      11.96482277
Pd       6.87097415       6.85831372      11.95140951
Pd       9.64205429       6.82915781      11.94515418
Pd      12.39111484       6.85622887      11.94896407
Pd       1.35216595       9.69735034      11.99083951
Pd       4.11777592       9.66324146      11.95099537
Pd       6.89476706       9.64088005      11.95142944
Pd       9.64982872       9.59779534      11.89439304
Pd      12.42487279       9.60955999      11.94161946
Pd       1.35802606      12.41462245      12.04582394
Pd       4.10624816      12.40887780      12.00662317
Pd       6.86816975      12.39901143      11.97280504
Pd       9.63028672      12.36702810      11.91406436
Pd      12.41879361      12.34804731      11.97632258
Pd      13.66925502      13.68631260      14.07828972
Pd       2.71073886      13.69164175      14.09186394
Pd       5.47024337       0.00285114      14.00975753
Pd       8.25721217      13.64099031      13.96234682
Pd      10.96386283       0.11274109      13.94461105
Pd      13.63802589       2.69985572      13.98205493
Pd       2.71055397       2.72041491      14.06107707
Pd       5.46973623       2.68878080      13.97688199
Pd       8.23923975       2.65937357      13.95042222
Pd      10.91519644       2.83379501      13.89544144
Pd       0.03959496       5.43235276      14.01055818
Pd       2.76277125       5.51816728      13.88645157
Pd       5.51294043       5.60545386      14.05302414
Pd       8.29259649       5.40890639      14.08772128
Pd      11.10132828       5.55431572      14.02927119
Pd       0.03259509       8.16491894      14.06505751
Pd       2.79391045       8.26280112      14.02020922
Pd       5.52793063       8.30395029      13.91358635
Pd       8.30752903       8.20806517      13.98734546
Pd      11.04438172       8.32267381      13.91078568
Pd      13.70547763      10.95331402      13.95456543
Pd       2.69960713      10.98570153      13.98957114
Pd       5.43174735      11.04952985      13.99502552
Pd       8.18303241      10.91328547      13.93068260
Pd      10.91640952      11.11080069      13.90710235
Pd      12.55411833       6.60229357      16.47896896
Pd       9.26270876      11.15342155      16.48993274
Pd       1.42758364      12.31000187      16.52316591
Pd       1.51159339       6.52825653      16.03528690
Pd      12.08648191      10.01487020      16.20944248
Pd       8.93528543       1.29516598      16.25337504
Pd       3.96314206       0.43619399      16.68411670
Pd       6.62390269       9.57668289      15.89798663
Pd       3.87224113      10.88831638      16.31340266
Pd      11.82173876       1.73149597      16.07559066
Pd       0.01222536       3.84612378      16.35883674
Pd       3.51015873       4.41034740      16.30925682
Pd      10.49495327       4.03164106      17.02420388
Pd       1.64462908       9.36102078      16.38370466
Pd       7.10227988       6.89429865      16.01892444
Pd       6.57633180      12.61683952      16.56636599
Pd       9.90290269       7.49762432      16.21988592
Pd       7.13772311       3.80961350      16.16763504
Pd       1.23012410       1.47194956      16.11377194
Pd       4.26949559       7.16745400      16.08651508
O        9.80283702       5.57066446      15.67488983
O        8.49125245      13.07496922      15.99665762
O       13.34806998       0.36454761      16.07747007
O       11.00581600       2.78017419      18.54683153
O        8.76650508       3.11501554      16.95461482
O        2.66857578       7.86841194      17.11218172
O        5.78094941       0.61272428      15.94180051
O        3.07462099       2.30489751      16.12245181
O       11.05308975      11.66156598      15.88166288
O        0.29064276      10.80457822      15.96534681
O        2.17480307       0.11340493      17.42865676
O        1.72613264       4.76989546      17.02748280
O        5.71135711       6.70115177      17.31744139
O       10.25719311       9.34451981      16.84929595
O        5.30771089       4.09673922      15.50038698
O       11.54508956       1.66064055      18.09683636
O       12.25449981       4.86035319      17.24349793
O       13.19572200       8.38795603      16.12110976
O        4.72549517      12.39539488      17.29329282
O        7.41185228      10.88221891      17.17753318
