115
Lattice="13.75323 0.0 0.0 0.0 13.75323 0.0 0.0 0.0 23.89" Properties=species:S:1:pos:R:3 entry_id=80 rank=128 energy=-572.0562744140625 pbc="T T F"
Pd       0.00000000       0.00000000      10.00000000
Pd       2.75064538       0.00000000      10.00000000
Pd       5.50129076       0.00000000      10.00000000
Pd       8.25193614       0.00000000      10.00000000
Pd      11.00258152       0.00000000      10.00000000
Pd       0.00000000       2.75064538      10.00000000
Pd       2.75064538       2.75064538      10.00000000
Pd       5.50129076       2.75064538      10.00000000
Pd       8.25193614       2.75064538      10.00000000
Pd      11.00258152       2.75064538      10.00000000
Pd       0.00000000       5.50129076      10.00000000
Pd       2.75064538       5.50129076      10.00000000
Pd       5.50129076       5.50129076      10.00000000
Pd       8.25193614       5.50129076      10.00000000
Pd      11.00258152       5.50129076      10.00000000
Pd       0.00000000       8.25193614      10.00000000
Pd       2.75064538       8.25193614      10.00000000
Pd       5.50129076       8.25193614      10.00000000
Pd       8.25193614       8.25193614      10.00000000
Pd      11.00258152       8.25193614      10.00000000
Pd       0.00000000      11.00258152      10.00000000
Pd       2.75064538      11.00258152      10.00000000
Pd       5.50129076      11.00258152      10.00000000
Pd       8.25193614      11.00258152      10.00000000
Pd      11.00258152      11.00258152      10.00000000
Pd       1.33305437       1.38035701      12.05221797
Pd       4.08925664       1.38750338      11.98771029
Pd       6.82888190       1.38154444      11.99332965
Pd       9.57512057       1.39592898      11.89594876
Pd      12.38684272       1.37174114      11.92044161
Pd       1.37065655       4.09970544      12.00656864
Pd       4.10125007       4.12393621      12.00820233
Pd       6.82444734       4.12497179      12.00908219
Pd       9.56728621       4.13975942      11.94281254
Pd      12.36578195       4.13265160      11.93417299
Pd       1.37110082       6.89256210      11.94010419
Pd       4.13935064       6.87026939      11.96482277
Pd       6.87097415       6.85831372      11.95140951
Pd       9.64205429       6.82915781      11.94515418
Pd      12.39111484       6.85622887      11.94896407
Pd       1.35216595       9.69735034      11.99083951
Pd       4.11777592       9.66324146      11.95099537
Pd       6.89476706       9.64088005      11.95142944
Pd       9.64982872       9.59779534      11.89439304
Pd      12.42487279       9.60955999      11.94161946
Pd       1.35802606      12.41462245      12.04582394
Pd       4.10624816      12.40887780      12.00662317
Pd       6.86816975      12.39901143      11.97280504
Pd       9.63028672      12.36702810      11.91406436
Pd      12.41879361      12.34804731      11.97632258
Pd      13.65967252       0.03501151      14.00027491
Pd       2.70951189       0.03294321      14.02133159
Pd       5.44692449       0.04112416      14.02381325
Pd       8.19618537      13.68547600      13.96268067
Pd      10.94634218       0.00478198      13.94646397
Pd       0.01814909       2.78496095      14.01997824
Pd       2.75371667       2.80121846      14.12378482
Pd       5.51391057       2.78593974      14.01453990
Pd       8.24903582       2.66177655      14.01076045
Pd      11.01845425       2.70198032      13.86708815
Pd       0.01614179       5.49258119      13.92812142
Pd       2.74601608       5.50297410      13.96120664
Pd       5.41911874       5.55459709      14.01579009
Pd       8.16722253       5.45878769      13.93408199
Pd      11.06636135       5.50904667      13.99904222
Pd       0.00406375       8.22166603      14.01079778
Pd       2.75264909       8.25333348      13.96695633
Pd       5.53748272       8.32572346      13.93200815
Pd       8.32866544       8.28061343      13.94118250
Pd      11.06311796       8.29197822      13.98927136
Pd      13.67981929      10.97309124      14.02163897
Pd       2.73011560      10.99959776      14.05713947
Pd       5.50169581      11.09436383      14.04218869
Pd       8.20970377      10.97371687      13.86026372
Pd      10.93380343      11.03920056      13.96454472
Pd      12.46082835       6.87637463      16.35380274
Pd       8.83893917      10.52667530      16.40039789
Pd       1.12443780      12.49791088      16.11827455
Pd       1.39921308       6.69428430      15.91813043
Pd      11.88596674       9.90195221      16.52830081
Pd       9.41533698       0.62739387      16.29718106
Pd       4.17370796       1.44804082      16.16020297
Pd       5.19634945       9.62129008      16.33528934
Pd       3.84783886      11.86711953      16.47252673
Pd      12.36153045       1.45982218      15.88325773
Pd      13.54187703       4.28705926      16.49158877
Pd       2.85148570       4.60400329      16.52760767
Pd      10.11671441       3.73848365      16.24866937
Pd       1.25681844       9.23589423      16.40450559
Pd       7.00376435       7.56888054      16.23607648
Pd       6.45262116      12.94524505      16.39850722
Pd       9.74705614       7.35336729      16.25096873
Pd       5.53701484       4.62414816      16.69945202
Pd       1.48048922       2.07456989      16.56634741
Pd       4.14346119       6.98018980      15.98303066
O        9.46857799       5.53305758      15.49680237
O        8.31710362      12.63570412      15.89572288
O       13.54934078       0.90081741      17.54292522
O       10.75314617       1.97138940      16.98202982
O        8.55783884       2.53645748      15.99666120
O        3.16447404      10.03604053      15.96878403
O        5.72426314       2.68354240      15.98347344
O        4.07970370       2.45935142      18.08190226
O       10.63209934      11.31095380      15.95782626
O       13.71170742      10.88371560      16.09589552
O        2.32016876       0.36050908      16.03925185
O        1.31356780       3.76306561      17.53531437
O        6.83622164       5.68752718      15.62813714
O       10.09685025       9.06885712      17.09661132
O        4.18451112       3.79538452      17.98529292
O        0.00947507      13.34746090      17.65862276
O       11.79358935       4.98667082      16.02244807
O       13.22874375       8.53464532      17.10040640
O        4.75906477      13.44333137      17.17094710
O        7.11171837       9.42986714      16.85885306
