115
Lattice="13.75323 0.0 0.0 0.0 13.75323 0.0 0.0 0.0 23.89" Properties=species:S:1:pos:R:3 entry_id=92 rank=94 energy=-572.9518432617188 pbc="T T F"
Pd       0.00000000       0.00000000      10.00000000
Pd       2.75064538       0.00000000      10.00000000
Pd       5.50129076       0.00000000      10.00000000
Pd       8.25193614       0.00000000      10.00000000
Pd      11.00258152       0.00000000      10.00000000
Pd       0.00000000       2.75064538      10.00000000
Pd       2.75064538       2.75064538      10.00000000
Pd       5.50129076       2.75064538      10.00000000
Pd       8.25193614       2.75064538      10.00000000
Pd      11.00258152       2.75064538      10.00000000
Pd       0.00000000       5.50129076      10.00000000
Pd       2.75064538       5.50129076      10.00000000
Pd       5.50129076       5.50129076      10.00000000
Pd       8.25193614       5.50129076      10.00000000
Pd      11.00258152       5.50129076      10.00000000
Pd       0.00000000       8.25193614      10.00000000
Pd       2.75064538       8.25193614      10.00000000
Pd       5.50129076       8.25193614      10.00000000
Pd       8.25193614       8.25193614      10.00000000
Pd      11.00258152       8.25193614      10.00000000
Pd       0.00000000      11.00258152      10.00000000
Pd       2.75064538      11.00258152      10.00000000
Pd       5.50129076      11.00258152      10.00000000
Pd       8.25193614      11.00258152      10.00000000
Pd      11.00258152      11.00258152      10.00000000
Pd       1.33305437       1.38035701      12.05221797
Pd       4.08925664       1.38750338      11.98771029
Pd       6.82888190       1.38154444      11.99332965
Pd       9.57512057       1.39592898      11.89594876
Pd      12.38684272       1.37174114      11.92044161
Pd       1.37065655       4.09970544      12.00656864
Pd       4.10125007       4.12393621      12.00820233
Pd       6.82444734       4.12497179      12.00908219
Pd       9.56728621       4.13975942      11.94281254
Pd      12.36578195       4.13265160      11.93417299
Pd       1.37110082       6.89256210      11.94010419
Pd       4.13935064       6.87026939      11.96482277
Pd       6.87097415       6.85831372      11.95140951
Pd       9.64205429       6.82915781      11.94515418
Pd      12.39111484       6.85622887      11.94896407
Pd       1.35216595       9.69735034      11.99083951
Pd       4.11777592       9.66324146      11.95099537
Pd       6.89476706       9.64088005      11.95142944
Pd       9.64982872       9.59779534      11.89439304
Pd      12.42487279       9.60955999      11.94161946
Pd       1.35802606      12.41462245      12.04582394
Pd       4.10624816      12.40887780      12.00662317
Pd       6.86816975      12.39901143      11.97280504
Pd       9.63028672      12.36702810      11.91406436
Pd      12.41879361      12.34804731      11.97632258
Pd       0.05069012      13.57260607      14.10623177
Pd       2.80684726       0.11309637      14.03902981
Pd       5.51452970       0.02366149      13.98991391
Pd       8.29992207      13.73032296      13.88101468
Pd      10.99445980       0.16196233      13.98254019
Pd      13.70228358       2.74750084      14.03440906
Pd       2.72080930       2.84714763      14.10920149
Pd       5.41747156       2.75376975      13.95688530
Pd       8.18079864       2.72669426      14.12521700
Pd      10.91075741       2.81511248      13.90848841
Pd      13.71182794       5.43666616      13.87353586
Pd       2.69073483       5.55435846      13.96195128
Pd       5.39911868       5.55684535      14.04708950
Pd       8.21265827       5.50880809      13.98440918
Pd      11.01360425       5.54060794      13.96965854
Pd      13.67157757       8.14625933      14.08127920
Pd       2.71725771       8.28756979      14.02374403
Pd       5.47688702       8.27534736      13.97084873
Pd       8.18325501       8.23831572      13.94018279
Pd      10.95222621       8.28946770      13.89894064
Pd       0.01972907      10.83266395      14.13165713
Pd       2.78047808      11.05736134      13.93506911
Pd       5.48996282      10.99820922      13.98302215
Pd       8.24572927      10.91970171      13.94145252
Pd      10.98304666      11.04533125      13.98933536
Pd      12.17362401       6.96531145      16.58041897
Pd       9.39522974      10.65485181      16.55520721
Pd       1.76029035      12.31875545      16.14414437
Pd       1.09866699       6.45282492      15.97188439
Pd      11.90294237       9.63715453      16.03161725
Pd       9.51304882       0.97992214      16.27713878
Pd       4.84446716       1.72573486      16.56727760
Pd       6.29431992       9.20451566      16.44998908
Pd       4.03522981      10.72515990      16.38357749
Pd      12.10254263       1.90652565      16.26178100
Pd      13.16622094       4.34652346      16.42940225
Pd       2.84634546       4.44742670      16.53267000
Pd       9.65432328       4.19478690      16.33922283
Pd       1.05174674       8.93118396      16.65512039
Pd       6.93316079       6.62786362      16.41485491
Pd       6.74719719      12.58008412      16.25998505
Pd       9.57142586       7.94967302      16.21448604
Pd       6.28615584       3.96260205      16.20733187
Pd       1.77215170       1.86221155      16.60230811
Pd       3.34909461       7.36031468      17.00549734
O        8.75997672       5.99940150      15.96539993
O        8.64150736      13.06704977      15.80073038
O        0.09043920       1.30019118      15.61448023
O       10.45169840       2.51344045      17.06427049
O        7.99884668       3.08337456      16.22504461
O        2.96658240       9.07801108      16.00521789
O        6.23113476       0.66616774      15.81291947
O        3.40311336       2.60923654      17.46678156
O       12.12318819      12.53831982      14.88066358
O        0.53967454      10.85346216      16.16029031
O        2.78126021       0.21050601      16.09274959
O        3.15772738       5.77595276      18.00215736
O        5.40598562       7.64046254      17.15889546
O       11.08818555      10.81949035      17.33163723
O        4.69036628       5.01848131      15.92810085
O        1.07250693       3.66079412      17.14908144
O       11.41249224       5.20054294      16.03167670
O       13.00889858       8.55607118      17.36845505
O        5.03979235      12.16830825      17.04014830
O        7.48167033      10.71083324      16.04925363
