115
Lattice="13.75323 0.0 0.0 0.0 13.75323 0.0 0.0 0.0 23.89" Properties=species:S:1:pos:R:3 entry_id=107 rank=97 energy=-572.9472045898438 pbc="T T F"
Pd       0.00000000       0.00000000      10.00000000
Pd       2.75064538       0.00000000      10.00000000
Pd       5.50129076       0.00000000      10.00000000
Pd       8.25193614       0.00000000      10.00000000
Pd      11.00258152       0.00000000      10.00000000
Pd       0.00000000       2.75064538      10.00000000
Pd       2.75064538       2.75064538      10.00000000
Pd       5.50129076       2.75064538      10.00000000
Pd       8.25193614       2.75064538      10.00000000
Pd      11.00258152       2.75064538      10.00000000
Pd       0.00000000       5.50129076      10.00000000
Pd       2.75064538       5.50129076      10.00000000
Pd       5.50129076       5.50129076      10.00000000
Pd       8.25193614       5.50129076      10.00000000
Pd      11.00258152       5.50129076      10.00000000
Pd       0.00000000       8.25193614      10.00000000
Pd       2.75064538       8.25193614      10.00000000
Pd       5.50129076       8.25193614      10.00000000
Pd       8.25193614       8.25193614      10.00000000
Pd      11.00258152       8.25193614      10.00000000
Pd       0.00000000      11.00258152      10.00000000
Pd       2.75064538      11.00258152      10.00000000
Pd       5.50129076      11.00258152      10.00000000
Pd       8.25193614      11.00258152      10.00000000
Pd      11.00258152      11.00258152      10.00000000
Pd       1.33305437       1.38035701      12.05221797
Pd       4.08925664       1.38750338      11.98771029
Pd       6.82888190       1.38154444      11.99332965
Pd       9.57512057       1.39592898      11.89594876
Pd      12.38684272       1.37174114      11.92044161
Pd       1.37065655       4.09970544      12.00656864
Pd       4.10125007       4.12393621      12.00820233
Pd       6.82444734       4.12497179      12.00908219
Pd       9.56728621       4.13975942      11.94281254
Pd      12.36578195       4.13265160      11.93417299
Pd       1.37110082       6.89256210      11.94010419
Pd       4.13935064       6.87026939      11.96482277
Pd       6.87097415       6.85831372      11.95140951
Pd       9.64205429       6.82915781      11.94515418
Pd      12.39111484       6.85622887      11.94896407
Pd       1.35216595       9.69735034      11.99083951
Pd       4.11777592       9.66324146      11.95099537
Pd       6.89476706       9.64088005      11.95142944
Pd       9.64982872       9.59779534      11.89439304
Pd      12.42487279       9.60955999      11.94161946
Pd       1.35802606      12.41462245      12.04582394
Pd       4.10624816      12.40887780      12.00662317
Pd       6.86816975      12.39901143      11.97280504
Pd       9.63028672      12.36702810      11.91406436
Pd      12.41879361      12.34804731      11.97632258
Pd       0.02634083       0.03266528      14.00243092
Pd       2.73120226       0.03475219      14.12371258
Pd       5.56425611      13.74775535      13.97234819
Pd       8.34868290       0.03665233      13.90254595
Pd      11.04812228      13.68794441      14.02467849
Pd      13.65665378       2.80402630      14.00775825
Pd       2.68987473       2.80208406      14.07281951
Pd       5.43348366       2.72151190      13.98087689
Pd       8.16184730       2.78076135      14.02907207
Pd      10.87043354       2.65654526      13.97842921
Pd       0.02378223       5.52636078      13.91711342
Pd       2.73747240       5.59432516      13.91856753
Pd       5.54390803       5.65469272      13.98509224
Pd       8.31276759       5.51914412      14.07747140
Pd      11.07334545       5.43186175      13.98011190
Pd       0.01712630       8.26012509      13.99704348
Pd       2.78118035       8.31066310      13.92813688
Pd       5.57665163       8.33246821      13.92064997
Pd       8.32148047       8.26338272      13.97681927
Pd      11.04761375       8.18043640      13.97371813
Pd      13.68014515      11.03013575      14.04952410
Pd       2.63308507      11.01318951      14.04190284
Pd       5.35631989      10.99968877      14.03547799
Pd       8.11910744      10.98467004      13.95180920
Pd      10.82000166      10.86998661      13.88404910
Pd      12.49338203       7.13570461      16.45053920
Pd       9.28643742      11.29129178      16.40954955
Pd       0.88342649      12.20077603      16.82655326
Pd       1.50145928       6.77585124      15.99318587
Pd      11.89517475      10.49492586      16.35222416
Pd       8.61754912       1.44366776      16.58189818
Pd       5.11662681       1.57847344      16.51649483
Pd       6.89977131       9.61695888      16.12111324
Pd       3.46937977      12.01257324      16.44968354
Pd      12.17838132       1.33618841      16.12862981
Pd      13.50168865       4.64171486      16.50490077
Pd       3.30827045       4.58863861      16.33282524
Pd       9.82160363       4.27173886      16.38941309
Pd       1.36581407       9.53105291      15.94819307
Pd       7.05879280       6.86189325      16.28234845
Pd       7.02812133      12.52557334      16.01581151
Pd       9.84486393       7.84267502      16.51370746
Pd       6.69031030       3.83633702      16.34780535
Pd       1.56823977       1.44030454      16.20477263
Pd       4.16761310       7.17080060      15.91844555
O        8.89443697       6.07641267      16.13315004
O        8.99501266      13.30773974      15.87105956
O        0.05686341       0.15189046      16.11351940
O       10.46444624       2.33446928      16.15006531
O        8.29586869       3.29133936      17.27816151
O        2.18875137      10.79706169      17.32287916
O        6.79528760       0.64472661      16.98554120
O        3.27775959       2.46554781      16.24521855
O       12.04657582      12.02195192      15.05380897
O       12.99184473      11.50562535      17.60414243
O        4.22041760      13.65124433      15.59065004
O        1.58871157       5.02093641      17.13031139
O        5.64031758       8.05793306      16.89534838
O       11.45206659       8.78467326      17.19665951
O        5.04904792       4.28045868      15.41123910
O       13.63092412       2.64413324      16.83737136
O       11.59835659       5.21565145      15.99232749
O        0.39682719       8.11174580      17.05130287
O        5.46553890      11.26180050      16.12158674
O        8.76659484       9.51309639      16.99925174
