115
Lattice="13.75323 0.0 0.0 0.0 13.75323 0.0 0.0 0.0 23.89" Properties=species:S:1:pos:R:3 entry_id=37 rank=122 energy=-572.1983642578125 pbc="T T F"
Pd       0.00000000       0.00000000      10.00000000
Pd       2.75064538       0.00000000      10.00000000
Pd       5.50129076       0.00000000      10.00000000
Pd       8.25193614       0.00000000      10.00000000
Pd      11.00258152       0.00000000      10.00000000
Pd       0.00000000       2.75064538      10.00000000
Pd       2.75064538       2.75064538      10.00000000
Pd       5.50129076       2.75064538      10.00000000
Pd       8.25193614       2.75064538      10.00000000
Pd      11.00258152       2.75064538      10.00000000
Pd       0.00000000       5.50129076      10.00000000
Pd       2.75064538       5.50129076      10.00000000
Pd       5.50129076       5.50129076      10.00000000
Pd       8.25193614       5.50129076      10.00000000
Pd      11.00258152       5.50129076      10.00000000
Pd       0.00000000       8.25193614      10.00000000
Pd       2.75064538       8.25193614      10.00000000
Pd       5.50129076       8.25193614      10.00000000
Pd       8.25193614       8.25193614      10.00000000
Pd      11.00258152       8.25193614      10.00000000
Pd       0.00000000      11.00258152      10.00000000
Pd       2.75064538      11.00258152      10.00000000
Pd       5.50129076      11.00258152      10.00000000
Pd       8.25193614      11.00258152      10.00000000
Pd      11.00258152      11.00258152      10.00000000
Pd       1.33305437       1.38035701      12.05221797
Pd       4.08925664       1.38750338      11.98771029
Pd       6.82888190       1.38154444      11.99332965
Pd       9.57512057       1.39592898      11.89594876
Pd      12.38684272       1.37174114      11.92044161
Pd       1.37065655       4.09970544      12.00656864
Pd       4.10125007       4.12393621      12.00820233
Pd       6.82444734       4.12497179      12.00908219
Pd       9.56728621       4.13975942      11.94281254
Pd      12.36578195       4.13265160      11.93417299
Pd       1.37110082       6.89256210      11.94010419
Pd       4.13935064       6.87026939      11.96482277
Pd       6.87097415       6.85831372      11.95140951
Pd       9.64205429       6.82915781      11.94515418
Pd      12.39111484       6.85622887      11.94896407
Pd       1.35216595       9.69735034      11.99083951
Pd       4.11777592       9.66324146      11.95099537
Pd       6.89476706       9.64088005      11.95142944
Pd       9.64982872       9.59779534      11.89439304
Pd      12.42487279       9.60955999      11.94161946
Pd       1.35802606      12.41462245      12.04582394
Pd       4.10624816      12.40887780      12.00662317
Pd       6.86816975      12.39901143      11.97280504
Pd       9.63028672      12.36702810      11.91406436
Pd      12.41879361      12.34804731      11.97632258
Pd      13.65733057       0.03836722      13.99668174
Pd       2.65973585       0.10494490      14.05964855
Pd       5.45860245       0.03066447      13.97382510
Pd       8.24317232      13.67880383      14.02638727
Pd      10.93712285      13.72129574      13.87446260
Pd      13.71228316       2.77837923      14.03243720
Pd       2.72002035       2.83346964      14.08022488
Pd       5.47659322       2.78184183      14.02697080
Pd       8.21613908       2.73626734      13.99040122
Pd      10.95062287       2.72355691      13.87650711
Pd       0.06305902       5.46130002      13.97218130
Pd       2.80273439       5.54088104      13.95565664
Pd       5.49555047       5.49619058      14.02788778
Pd       8.28896396       5.52673397      13.96502793
Pd      11.11053594       5.50618793      13.91874333
Pd      13.72703684       8.15694785      14.02732810
Pd       2.71989132       8.29832945      13.90488923
Pd       5.51170102       8.25276842      13.95381012
Pd       8.27331311       8.26537766      13.97640379
Pd      11.02791598       8.25165763      14.03821718
Pd      13.71018276      10.91125409      13.98329906
Pd       2.75348004      11.12179255      14.05981592
Pd       5.46367931      11.02019557      14.01788446
Pd       8.21018243      10.94993399      13.94487180
Pd      10.94187950      10.97967559      13.92423133
Pd      12.27689060       7.06035083      16.54741461
Pd       9.18216071      11.27256106      16.57723594
Pd       1.18270130      12.42491979      15.95164700
Pd       1.52560538       6.24111129      16.08374158
Pd      11.99384967      10.14277608      16.54874983
Pd       7.95290772       1.29285161      16.40811560
Pd       3.45921926      13.40258731      16.53270776
Pd       6.69618895       9.52430765      15.93873190
Pd       3.91496138      10.38876015      16.47368575
Pd      12.12620394       1.33496978      15.78413653
Pd      12.97113771       4.00865376      16.88687045
Pd       4.60879507       2.23199440      16.61685155
Pd       9.94774779       4.24718617      16.20103271
Pd       1.07798028       8.77624518      16.56024216
Pd       6.91356443       6.80819179      16.05139174
Pd       6.35473101      12.38729051      16.69512232
Pd       9.62048674       7.89265046      16.39368789
Pd       6.49608014       4.24686019      16.54261836
Pd       1.23624874       1.53730983      16.57135098
Pd       4.16867586       7.10981243      16.17920833
O        8.92900069       6.08084992      15.94240191
O        8.17969006      13.06883888      16.09703533
O       13.35578476       0.55250205      17.32921502
O       11.30022431       2.81563150      16.83982521
O        8.23898763       3.24477263      16.06967925
O        2.98936877       8.73865689      15.91438882
O        5.35307382       0.25472993      16.00019808
O        2.78596163       2.67171843      16.07208916
O       10.96356989      11.72046536      15.82108868
O        0.13747232      10.65919255      16.02201463
O       13.53571164      12.96698772      17.32702142
O        0.08838534       5.77744354      17.30907482
O        5.35412030       5.78559287      16.98461956
O       10.16327164       9.61085615      17.16682846
O        6.39638669       2.35082469      17.38297077
O        0.52583327       2.94145748      17.75910526
O       11.62753053       5.27617475      15.96246845
O       13.02695769       8.65644121      17.38048211
O        4.57309428      11.93000225      17.44312205
O        7.39305344      10.80523921      17.32250978
