115
Lattice="13.75323 0.0 0.0 0.0 13.75323 0.0 0.0 0.0 23.89" Properties=species:S:1:pos:R:3 entry_id=98 rank=149 energy=-570.2083129882812 pbc="T T F"
Pd       0.00000000       0.00000000      10.00000000
Pd       2.75064538       0.00000000      10.00000000
Pd       5.50129076       0.00000000      10.00000000
Pd       8.25193614       0.00000000      10.00000000
Pd      11.00258152       0.00000000      10.00000000
Pd       0.00000000       2.75064538      10.00000000
Pd       2.75064538       2.75064538      10.00000000
Pd       5.50129076       2.75064538      10.00000000
Pd       8.25193614       2.75064538      10.00000000
Pd      11.00258152       2.75064538      10.00000000
Pd       0.00000000       5.50129076      10.00000000
Pd       2.75064538       5.50129076      10.00000000
Pd       5.50129076       5.50129076      10.00000000
Pd       8.25193614       5.50129076      10.00000000
Pd      11.00258152       5.50129076      10.00000000
Pd       0.00000000       8.25193614      10.00000000
Pd       2.75064538       8.25193614      10.00000000
Pd       5.50129076       8.25193614      10.00000000
Pd       8.25193614       8.25193614      10.00000000
Pd      11.00258152       8.25193614      10.00000000
Pd       0.00000000      11.00258152      10.00000000
Pd       2.75064538      11.00258152      10.00000000
Pd       5.50129076      11.00258152      10.00000000
Pd       8.25193614      11.00258152      10.00000000
Pd      11.00258152      11.00258152      10.00000000
Pd       1.33305437       1.38035701      12.05221797
Pd       4.08925664       1.38750338      11.98771029
Pd       6.82888190       1.38154444      11.99332965
Pd       9.57512057       1.39592898      11.89594876
Pd      12.38684272       1.37174114      11.92044161
Pd       1.37065655       4.09970544      12.00656864
Pd       4.10125007       4.12393621      12.00820233
Pd       6.82444734       4.12497179      12.00908219
Pd       9.56728621       4.13975942      11.94281254
Pd      12.36578195       4.13265160      11.93417299
Pd       1.37110082       6.89256210      11.94010419
Pd       4.13935064       6.87026939      11.96482277
Pd       6.87097415       6.85831372      11.95140951
Pd       9.64205429       6.82915781      11.94515418
Pd      12.39111484       6.85622887      11.94896407
Pd       1.35216595       9.69735034      11.99083951
Pd       4.11777592       9.66324146      11.95099537
Pd       6.89476706       9.64088005      11.95142944
Pd       9.64982872       9.59779534      11.89439304
Pd      12.42487279       9.60955999      11.94161946
Pd       1.35802606      12.41462245      12.04582394
Pd       4.10624816      12.40887780      12.00662317
Pd       6.86816975      12.39901143      11.97280504
Pd       9.63028672      12.36702810      11.91406436
Pd      12.41879361      12.34804731      11.97632258
Pd      13.72648181      13.74611598      14.02979549
Pd       2.80614909      13.73629580      14.06981803
Pd       5.57687090      13.73007578      14.11643091
Pd       8.29043562      13.73226331      13.91460493
Pd      10.98119046       0.09693555      14.06509876
Pd      13.62182883       2.75705627      13.96525220
Pd       2.73831483       2.75585947      13.96439159
Pd       5.45917927       2.69467721      14.19891925
Pd       8.24539927       2.76906037      13.94650905
Pd      10.92267709       2.74032684      13.79080524
Pd       0.05328167       5.49526102      13.91990606
Pd       2.75381446       5.53844746      14.03384720
Pd       5.49853309       5.48771089      14.05012958
Pd       8.30411403       5.53278516      13.95085257
Pd      11.03566227       5.40968835      13.99343377
Pd       0.04409813       8.22569518      14.01085628
Pd       2.79181729       8.24951467      13.92430732
Pd       5.54261293       8.29188677      13.88824117
Pd       8.32077890       8.25858229      13.92040535
Pd      11.04516915       8.19924289      14.08987382
Pd      13.73780477      11.04148196      13.99936726
Pd       2.69843175      10.99207801      14.00526383
Pd       5.47287251      11.02144892      13.92713710
Pd       8.19760033      10.99438489      14.00691344
Pd      10.94375652      11.04905944      13.91063228
Pd      12.54878217       6.48305816      16.07680338
Pd       9.59938114       9.43504031      16.24497534
Pd       1.26590306      12.22816387      16.36258121
Pd       1.44337669       7.04084194      16.36562025
Pd      12.47492644       9.69208851      16.02178748
Pd       7.41437456       1.40283704      16.00781676
Pd       4.39423261       0.53682753      16.57320027
Pd       5.94376369       9.67599577      16.32744493
Pd       4.16450337      11.71885450      16.13415255
Pd      12.17224511      12.80219829      16.45929232
Pd       0.69614588       4.43945534      16.43448534
Pd       3.97972739       4.11619687      16.31497507
Pd      11.11466926       2.77208172      16.39369050
Pd       2.49309756       9.56226479      16.33792986
Pd       6.97160188       7.07096056      15.90646693
Pd       6.86096931      12.40505132      16.51456052
Pd       9.75468306       6.46482745      16.26651831
Pd       7.05259811       4.23051095      15.90563566
Pd       0.96419495       1.51698023      16.31505838
Pd       4.18053041       7.06165338      15.92451652
O        9.48395762       3.14889987      17.55084585
O        8.59829000      12.94501915      17.53123619
O       13.74254326       0.03491037      17.14764062
O       11.07845728       0.68418841      16.00342712
O        8.88694651       0.42308513      17.28266104
O        4.27270778       8.87700209      16.92701022
O        5.60246130       4.88416396      17.32259187
O        2.27894702       3.05391800      15.90898965
O       10.88643631      10.95372304      15.95768534
O       13.36666694      11.25475403      16.97641275
O        2.48576121       0.19010781      16.13906248
O        2.23683153       5.43803025      17.14153418
O        5.59434143       6.28474623      17.36759960
O        8.57206128       7.88573657      16.88663790
O        8.19193894       3.00949432      17.23506200
O       13.19206676       2.88173581      16.02996276
O       11.10428725       4.98411286      16.07594331
O        0.55039435       8.80323413      16.00434049
O        6.18072115       0.37484349      17.25586925
O        7.66901273      10.63346377      16.00246085
