115
Lattice="13.75323 0.0 0.0 0.0 13.75323 0.0 0.0 0.0 23.89" Properties=species:S:1:pos:R:3 entry_id=161 rank=16 energy=-575.6409912109375 pbc="T T F"
Pd       0.00000000       0.00000000      10.00000000
Pd       2.75064538       0.00000000      10.00000000
Pd       5.50129076       0.00000000      10.00000000
Pd       8.25193614       0.00000000      10.00000000
Pd      11.00258152       0.00000000      10.00000000
Pd       0.00000000       2.75064538      10.00000000
Pd       2.75064538       2.75064538      10.00000000
Pd       5.50129076       2.75064538      10.00000000
Pd       8.25193614       2.75064538      10.00000000
Pd      11.00258152       2.75064538      10.00000000
Pd       0.00000000       5.50129076      10.00000000
Pd       2.75064538       5.50129076      10.00000000
Pd       5.50129076       5.50129076      10.00000000
Pd       8.25193614       5.50129076      10.00000000
Pd      11.00258152       5.50129076      10.00000000
Pd       0.00000000       8.25193614      10.00000000
Pd       2.75064538       8.25193614      10.00000000
Pd       5.50129076       8.25193614      10.00000000
Pd       8.25193614       8.25193614      10.00000000
Pd      11.00258152       8.25193614      10.00000000
Pd       0.00000000      11.00258152      10.00000000
Pd       2.75064538      11.00258152      10.00000000
Pd       5.50129076      11.00258152      10.00000000
Pd       8.25193614      11.00258152      10.00000000
Pd      11.00258152      11.00258152      10.00000000
Pd       1.33305437       1.38035701      12.05221797
Pd       4.08925664       1.38750338      11.98771029
Pd       6.82888190       1.38154444      11.99332965
Pd       9.57512057       1.39592898      11.89594876
Pd      12.38684272       1.37174114      11.92044161
Pd       1.37065655       4.09970544      12.00656864
Pd       4.10125007       4.12393621      12.00820233
Pd       6.82444734       4.12497179      12.00908219
Pd       9.56728621       4.13975942      11.94281254
Pd      12.36578195       4.13265160      11.93417299
Pd       1.37110082       6.89256210      11.94010419
Pd       4.13935064       6.87026939      11.96482277
Pd       6.87097415       6.85831372      11.95140951
Pd       9.64205429       6.82915781      11.94515418
Pd      12.39111484       6.85622887      11.94896407
Pd       1.35216595       9.69735034      11.99083951
Pd       4.11777592       9.66324146      11.95099537
Pd       6.89476706       9.64088005      11.95142944
Pd       9.64982872       9.59779534      11.89439304
Pd      12.42487279       9.60955999      11.94161946
Pd       1.35802606      12.41462245      12.04582394
Pd       4.10624816      12.40887780      12.00662317
Pd       6.86816975      12.39901143      11.97280504
Pd       9.63028672      12.36702810      11.91406436
Pd      12.41879361      12.34804731      11.97632258
Pd      13.67517752       0.07221594      14.05594541
Pd       2.68430873       0.01329866      14.05411389
Pd       5.47512470      13.70617506      13.97353489
Pd       8.27645761       0.00748881      13.88584094
Pd      10.97834301      13.71890931      14.00283378
Pd      13.67102787       2.82472719      13.96960315
Pd       2.74762666       2.83995252      14.00512986
Pd       5.50302305       2.69363326      14.02995976
Pd       8.26175150       2.78369934      13.95898946
Pd      10.95688366       2.72234497      13.97631357
Pd       0.04440789       5.54332859      14.02809333
Pd       2.76127202       5.58570661      14.07914999
Pd       5.47985117       5.45371462      14.07126060
Pd       8.26646532       5.48605771      14.02855012
Pd      11.01544609       5.47574146      13.91255968
Pd      13.70438837       8.20242796      14.03784979
Pd       2.71257305       8.30483294      13.94385846
Pd       5.47292273       8.23384288      13.89697600
Pd       8.21225168       8.29972472      13.89609203
Pd      10.97161506       8.22605822      13.90965645
Pd       0.03591706      10.92144862      14.00507837
Pd       2.77689198      11.06857758      13.97016025
Pd       5.54161323      10.99148128      14.01016746
Pd       8.25480911      10.98934216      13.98501226
Pd      10.95435914      10.99300338      13.88565676
Pd      12.09061826       7.03629783      16.35069612
Pd       9.56815847      11.85446068      16.52851445
Pd      12.97156038      12.18802083      16.18582803
Pd       1.33612337       5.45240922      16.53425637
Pd      12.04229098       9.76091596      15.88657972
Pd       7.96209541       1.59886173      16.47678925
Pd       4.18067309       0.84992886      16.33375926
Pd       6.82155151       9.79333045      16.37585321
Pd       4.06484254      11.05021063      16.33022955
Pd      11.54528791       1.48690922      16.42488050
Pd      12.44679253       4.21906587      16.12421278
Pd       4.00872264       4.48051956      16.47472494
Pd       9.69246331       3.86670149      16.39633460
Pd       1.17017569       9.02940743      16.49945046
Pd       6.80243393       6.47960872      16.51916630
Pd       6.59558986      12.73431410      16.28251617
Pd       9.47609671       8.62030763      16.31309922
Pd       6.65567460       3.77755823      16.25017137
Pd       1.30729521       1.85699639      16.25422222
Pd       3.90250036       7.60380934      16.51608375
O        8.46428969       7.07470678      15.57396374
O        8.44370450      13.39806611      15.89872445
O       13.38186208       0.76471244      16.08719424
O        9.76963879       1.99605376      17.09038017
O        7.89637604       4.94663306      17.18867287
O        3.07653486       9.34825400      15.89823575
O        5.96721992       1.84543713      16.00587501
O        3.20576762       2.69210617      16.05466595
O       11.18255624      13.04845876      16.09886126
O        0.81182458      11.00979842      15.95763821
O        2.34568642       0.17061987      16.07454077
O        2.00216121       7.23271035      17.04388351
O        5.78432611       8.14934355      15.94075727
O       10.43793062      10.15809484      17.08473057
O        4.90911635       6.04952594      17.25281109
O        0.50105892       3.64790552      16.64633523
O       10.86119332       5.48762408      15.95599417
O       13.10973080       8.54143753      17.12434777
O        4.76691814      12.75587040      16.95447722
O        7.75744798      11.26943559      17.20059497
