115
Lattice="13.75323 0.0 0.0 0.0 13.75323 0.0 0.0 0.0 23.89" Properties=species:S:1:pos:R:3 entry_id=157 rank=9 energy=-576.3927612304688 pbc="T T F"
Pd       0.00000000       0.00000000      10.00000000
Pd       2.75064538       0.00000000      10.00000000
Pd       5.50129076       0.00000000      10.00000000
Pd       8.25193614       0.00000000      10.00000000
Pd      11.00258152       0.00000000      10.00000000
Pd       0.00000000       2.75064538      10.00000000
Pd       2.75064538       2.75064538      10.00000000
Pd       5.50129076       2.75064538      10.00000000
Pd       8.25193614       2.75064538      10.00000000
Pd      11.00258152       2.75064538      10.00000000
Pd       0.00000000       5.50129076      10.00000000
Pd       2.75064538       5.50129076      10.00000000
Pd       5.50129076       5.50129076      10.00000000
Pd       8.25193614       5.50129076      10.00000000
Pd      11.00258152       5.50129076      10.00000000
Pd       0.00000000       8.25193614      10.00000000
Pd       2.75064538       8.25193614      10.00000000
Pd       5.50129076       8.25193614      10.00000000
Pd       8.25193614       8.25193614      10.00000000
Pd      11.00258152       8.25193614      10.00000000
Pd       0.00000000      11.00258152      10.00000000
Pd       2.75064538      11.00258152      10.00000000
Pd       5.50129076      11.00258152      10.00000000
Pd       8.25193614      11.00258152      10.00000000
Pd      11.00258152      11.00258152      10.00000000
Pd       1.33305437       1.38035701      12.05221797
Pd       4.08925664       1.38750338      11.98771029
Pd       6.82888190       1.38154444      11.99332965
Pd       9.57512057       1.39592898      11.89594876
Pd      12.38684272       1.37174114      11.92044161
Pd       1.37065655       4.09970544      12.00656864
Pd       4.10125007       4.12393621      12.00820233
Pd       6.82444734       4.12497179      12.00908219
Pd       9.56728621       4.13975942      11.94281254
Pd      12.36578195       4.13265160      11.93417299
Pd       1.37110082       6.89256210      11.94010419
Pd       4.13935064       6.87026939      11.96482277
Pd       6.87097415       6.85831372      11.95140951
Pd       9.64205429       6.82915781      11.94515418
Pd      12.39111484       6.85622887      11.94896407
Pd       1.35216595       9.69735034      11.99083951
Pd       4.11777592       9.66324146      11.95099537
Pd       6.89476706       9.64088005      11.95142944
Pd       9.64982872       9.59779534      11.89439304
Pd      12.42487279       9.60955999      11.94161946
Pd       1.35802606      12.41462245      12.04582394
Pd       4.10624816      12.40887780      12.00662317
Pd       6.86816975      12.39901143      11.97280504
Pd       9.63028672      12.36702810      11.91406436
Pd      12.41879361      12.34804731      11.97632258
Pd      13.74571301      13.66667837      14.06229889
Pd       2.80834352       0.11304289      14.01374460
Pd       5.53471619      13.75267621      14.02649735
Pd       8.31386229      13.70963467      13.93405575
Pd      11.03032425       0.02541939      13.98653170
Pd      13.64734084       2.79687646      14.01699827
Pd       2.70155842       2.88588228      14.05285416
Pd       5.38274518       2.66898448      14.00957429
Pd       8.17690896       2.66504388      13.92690086
Pd      10.89847123       2.77497215      13.88769443
Pd       0.06904939       5.51921530      14.03785445
Pd       2.75355656       5.60493602      14.06511845
Pd       5.47159759       5.46617041      14.03221714
Pd       8.28291409       5.45395219      13.99302688
Pd      11.06019894       5.53298058      13.93060911
Pd      13.72259384       8.17220286      14.03487745
Pd       2.72481741       8.32114332      13.94133660
Pd       5.49683551       8.26363000      13.90052973
Pd       8.24717254       8.28048644      13.91145303
Pd      11.02135293       8.30014038      13.99546246
Pd      13.73320761      10.89541611      13.99146252
Pd       2.78402673      11.08050239      13.91763249
Pd       5.54057964      11.02780307      14.06549607
Pd       8.24258765      10.95921246      13.99191753
Pd      10.97012045      11.01222797      13.93327334
Pd      11.99258098       7.14139255      16.38016831
Pd       9.39445248      11.59986254      16.55537929
Pd       1.46803090      12.27097107      16.06092102
Pd       1.45522363       5.40625496      16.62251927
Pd      12.11882431      10.28918458      16.53364494
Pd       8.10974071       1.59037885      16.73360466
Pd       4.35389752       0.69015664      16.67360384
Pd       6.72134705       9.70100542      16.41047510
Pd       3.92066758      10.87016667      16.35034024
Pd      11.69426381       1.74317720      16.20265328
Pd      12.67142769       4.33842388      16.28309446
Pd       4.06190245       4.24407294      16.13643826
Pd       9.43856088       3.99749389      15.98662020
Pd       1.09172663       8.82761868      16.58263826
Pd       6.77478412       6.36187706      16.51272795
Pd       6.60150628      12.73622719      16.34383121
Pd       9.45271163       8.44971381      16.36675292
Pd       6.70603005       3.70214042      15.92672985
Pd       1.54468233       1.98671677      16.39975819
Pd       3.89046269       7.45714912      16.55306212
O        8.43483059       6.96552288      15.56003592
O        8.50916295      13.33813809      15.95182143
O       13.53832526       1.31392166      15.60629693
O        9.95382652       2.24277066      16.90432338
O        7.82099078       4.79267658      17.15881934
O        2.98718590       9.15267685      15.92056274
O        6.30524135       0.88481592      17.17722612
O        3.41923435       2.50146556      16.93591969
O       11.19776517      11.95902072      15.77354500
O        0.32726826      10.65644929      16.04185942
O        2.47037452       0.22246143      16.07675790
O        2.03301621       7.16048324      17.21690847
O        5.75067529       8.02548863      15.94076409
O       10.29107138       9.96243295      17.26611475
O        4.90279031       5.83733120      17.16088550
O        0.63720678       3.65822522      16.92545664
O       11.04970842       5.43209841      15.97855202
O       12.96754349       8.61520459      17.23939741
O        4.77511775      12.47052670      17.02430197
O        7.58985082      11.19873394      17.28420330
