115
Lattice="13.75323 0.0 0.0 0.0 13.75323 0.0 0.0 0.0 23.89" Properties=species:S:1:pos:R:3 entry_id=0 rank=164 energy=-568.3695068359375 pbc="T T F"
Pd       0.00000000       0.00000000      10.00000000
Pd       2.75064538       0.00000000      10.00000000
Pd       5.50129076       0.00000000      10.00000000
Pd       8.25193614       0.00000000      10.00000000
Pd      11.00258152       0.00000000      10.00000000
Pd       0.00000000       2.75064538      10.00000000
Pd       2.75064538       2.75064538      10.00000000
Pd       5.50129076       2.75064538      10.00000000
Pd       8.25193614       2.75064538      10.00000000
Pd      11.00258152       2.75064538      10.00000000
Pd       0.00000000       5.50129076      10.00000000
Pd       2.75064538       5.50129076      10.00000000
Pd       5.50129076       5.50129076      10.00000000
Pd       8.25193614       5.50129076      10.00000000
Pd      11.00258152       5.50129076      10.00000000
Pd       0.00000000       8.25193614      10.00000000
Pd       2.75064538       8.25193614      10.00000000
Pd       5.50129076       8.25193614      10.00000000
Pd       8.25193614       8.25193614      10.00000000
Pd      11.00258152       8.25193614      10.00000000
Pd       0.00000000      11.00258152      10.00000000
Pd       2.75064538      11.00258152      10.00000000
Pd       5.50129076      11.00258152      10.00000000
Pd       8.25193614      11.00258152      10.00000000
Pd      11.00258152      11.00258152      10.00000000
Pd       1.33305437       1.38035701      12.05221797
Pd       4.08925664       1.38750338      11.98771029
Pd       6.82888190       1.38154444      11.99332965
Pd       9.57512057       1.39592898      11.89594876
Pd      12.38684272       1.37174114      11.92044161
Pd       1.37065655       4.09970544      12.00656864
Pd       4.10125007       4.12393621      12.00820233
Pd       6.82444734       4.12497179      12.00908219
Pd       9.56728621       4.13975942      11.94281254
Pd      12.36578195       4.13265160      11.93417299
Pd       1.37110082       6.89256210      11.94010419
Pd       4.13935064       6.87026939      11.96482277
Pd       6.87097415       6.85831372      11.95140951
Pd       9.64205429       6.82915781      11.94515418
Pd      12.39111484       6.85622887      11.94896407
Pd       1.35216595       9.69735034      11.99083951
Pd       4.11777592       9.66324146      11.95099537
Pd       6.89476706       9.64088005      11.95142944
Pd       9.64982872       9.59779534      11.89439304
Pd      12.42487279       9.60955999      11.94161946
Pd       1.35802606      12.41462245      12.04582394
Pd       4.10624816      12.40887780      12.00662317
Pd       6.86816975      12.39901143      11.97280504
Pd       9.63028672      12.36702810      11.91406436
Pd      12.41879361      12.34804731      11.97632258
Pd      13.67356600      13.72215935      14.12262146
Pd       2.72771341       0.12310115      14.15945257
Pd       5.56755833      13.60113357      14.03150521
Pd       8.31120643       0.10874632      14.01778895
Pd      10.99887766       0.07542198      13.76843526
Pd      13.57166506       2.74685100      13.98583562
Pd       2.62555837       2.87339913      14.11568124
Pd       5.40194986       2.67053395      14.14056884
Pd       8.19857844       2.74836708      13.97311252
Pd      10.87863566       2.72222906      13.87372018
Pd       0.01989206       5.52494737      13.94846644
Pd       2.72465669       5.57285910      14.00072938
Pd       5.45476013       5.48841646      14.05954249
Pd       8.28007831       5.48937668      14.03835436
Pd      11.00295182       5.40184855      13.97637884
Pd       0.04910946       8.32335745      13.97686236
Pd       2.75231780       8.28644998      13.88482405
Pd       5.49353608       8.26820749      13.94852828
Pd       8.39951484       8.22303425      13.82623401
Pd      11.08113662       8.19363096      13.93867690
Pd      13.58973638      10.96559688      14.50004919
Pd       2.73930581      11.07836213      14.00482514
Pd       5.55267464      10.91631911      13.94879260
Pd       8.34368473      11.01734467      13.92627862
Pd      11.03788123      10.87946525      13.83010714
Pd      12.43896539       6.59671774      16.10737317
Pd       8.74132125       9.62860794      16.23304037
Pd       2.03139210      12.73127338      16.63108618
Pd       1.42343463       7.00712750      16.24448410
Pd      11.88121581       9.39355398      16.29954457
Pd       8.31856359       1.39051624      16.93525696
Pd       4.98862037       0.39790921      17.14388928
Pd       5.65203309       9.65533071      17.05084048
Pd       4.39266257      11.78499133      16.13397607
Pd      10.86544326      12.42626151      15.90934830
Pd       0.85353497       4.27800466      16.29458675
Pd       3.89337640       4.40293674      16.30288664
Pd      11.16109212       3.15608102      16.54449727
Pd       2.99543660       9.50868818      16.26847421
Pd       7.25991517       7.15754989      16.87815635
Pd       6.97147161      11.98354780      16.16343932
Pd       9.73213743       6.99018479      15.98112539
Pd       7.45782130       3.74138240      16.41280186
Pd       1.06465978       1.47707231      16.03848137
Pd       4.09242959       7.08677389      15.90584446
O        9.24122138       3.12137878      17.09435561
O       10.39852319      10.53765070      16.84677166
O       12.86237831      12.54272156      15.65051539
O       11.39797956       1.29045381      17.22388280
O       10.35702530       0.44787846      17.12720967
O        5.25845715       7.65558731      17.37446084
O        4.37099832       1.04515890      15.18390933
O        2.38414829       1.64752529      17.52421371
O        8.88468197      12.46924305      15.43478921
O        1.54111417      10.98647013      15.78705711
O        3.01323732       0.39613467      17.68360449
O        2.31856931       5.37230597      16.99714093
O        6.97056301       5.60265367      15.66517255
O        7.54599365       8.90635360      17.78067149
O        5.53531976       3.35650970      16.06106233
O       13.14788358       2.97485693      16.00725889
O       11.04172977       5.17903417      16.06207524
O       13.55115121       8.25317268      16.06166845
O        6.93203513       0.04113100      17.13187301
O        7.07088994       8.66536859      15.26522215
