115
Lattice="13.75323 0.0 0.0 0.0 13.75323 0.0 0.0 0.0 23.89" Properties=species:S:1:pos:R:3 entry_id=39 rank=116 energy=-572.3629150390625 pbc="T T F"
Pd       0.00000000       0.00000000      10.00000000
Pd       2.75064538       0.00000000      10.00000000
Pd       5.50129076       0.00000000      10.00000000
Pd       8.25193614       0.00000000      10.00000000
Pd      11.00258152       0.00000000      10.00000000
Pd       0.00000000       2.75064538      10.00000000
Pd       2.75064538       2.75064538      10.00000000
Pd       5.50129076       2.75064538      10.00000000
Pd       8.25193614       2.75064538      10.00000000
Pd      11.00258152       2.75064538      10.00000000
Pd       0.00000000       5.50129076      10.00000000
Pd       2.75064538       5.50129076      10.00000000
Pd       5.50129076       5.50129076      10.00000000
Pd       8.25193614       5.50129076      10.00000000
Pd      11.00258152       5.50129076      10.00000000
Pd       0.00000000       8.25193614      10.00000000
Pd       2.75064538       8.25193614      10.00000000
Pd       5.50129076       8.25193614      10.00000000
Pd       8.25193614       8.25193614      10.00000000
Pd      11.00258152       8.25193614      10.00000000
Pd       0.00000000      11.00258152      10.00000000
Pd       2.75064538      11.00258152      10.00000000
Pd       5.50129076      11.00258152      10.00000000
Pd       8.25193614      11.00258152      10.00000000
Pd      11.00258152      11.00258152      10.00000000
Pd       1.33305437       1.38035701      12.05221797
Pd       4.08925664       1.38750338      11.98771029
Pd       6.82888190       1.38154444      11.99332965
Pd       9.57512057       1.39592898      11.89594876
Pd      12.38684272       1.37174114      11.92044161
Pd       1.37065655       4.09970544      12.00656864
Pd       4.10125007       4.12393621      12.00820233
Pd       6.82444734       4.12497179      12.00908219
Pd       9.56728621       4.13975942      11.94281254
Pd      12.36578195       4.13265160      11.93417299
Pd       1.37110082       6.89256210      11.94010419
Pd       4.13935064       6.87026939      11.96482277
Pd       6.87097415       6.85831372      11.95140951
Pd       9.64205429       6.82915781      11.94515418
Pd      12.39111484       6.85622887      11.94896407
Pd       1.35216595       9.69735034      11.99083951
Pd       4.11777592       9.66324146      11.95099537
Pd       6.89476706       9.64088005      11.95142944
Pd       9.64982872       9.59779534      11.89439304
Pd      12.42487279       9.60955999      11.94161946
Pd       1.35802606      12.41462245      12.04582394
Pd       4.10624816      12.40887780      12.00662317
Pd       6.86816975      12.39901143      11.97280504
Pd       9.63028672      12.36702810      11.91406436
Pd      12.41879361      12.34804731      11.97632258
Pd      13.66095048       0.05946450      14.02866246
Pd       2.65885662       0.11525101      14.05622817
Pd       5.47398141       0.02974887      13.97040181
Pd       8.26125549      13.68041252      14.03082777
Pd      10.99195038      13.68057697      13.99931374
Pd      13.70229214       2.75644890      14.08995728
Pd       2.71528930       2.85980556      14.02872559
Pd       5.45987773       2.78219160      14.01443654
Pd       8.17702301       2.76106089      13.91368363
Pd      10.96966473       2.64530379      13.90653359
Pd       0.07048729       5.45548426      13.98012219
Pd       2.79142254       5.57460918      13.99828019
Pd       5.48554823       5.49872277      14.03465859
Pd       8.28193110       5.57561961      13.97191254
Pd      11.11049952       5.48620027      13.91141621
Pd      13.71869639       8.15049850      14.00462709
Pd       2.71604253       8.31221022      13.89365752
Pd       5.50294712       8.25657810      13.97831960
Pd       8.26378614       8.28230302      13.97530666
Pd      11.01639979       8.22750369      14.04909443
Pd      13.71022102      10.91770624      13.96952579
Pd       2.76905982      11.12394385      14.04586917
Pd       5.47567919      11.01979600      14.02190378
Pd       8.21270145      10.96345464      13.94866965
Pd      10.93732782      10.94988584      13.90457189
Pd      12.18751179       6.96223554      16.48906697
Pd       9.21140696      11.36997739      16.55686427
Pd       1.21432464      12.36358573      15.92567040
Pd       1.47347573       6.14835275      16.18779053
Pd      11.97823850      10.16554672      16.48892976
Pd       8.09848002       1.44200691      16.37462285
Pd       3.51531452      13.27135012      16.46860453
Pd       6.73670284       9.53574925      15.94832464
Pd       3.92689992      10.33381420      16.45978632
Pd      12.16478291       1.44244323      16.22057312
Pd      13.21466605       3.94617877      16.62611493
Pd       4.69963786       2.17164042      16.60374079
Pd       9.80807066       4.29073392      16.08231025
Pd       0.99037694       8.69681263      16.53265540
Pd       6.85637104       6.80202775      16.07692437
Pd       6.40652472      12.40827247      16.69942377
Pd       9.58468285       7.96032010      16.40519153
Pd       6.36497988       4.27957254      16.62694959
Pd       1.40356345       1.48172364      16.46597843
Pd       4.09001289       7.11900106      16.20032126
O        8.89032389       6.15162694      16.03243219
O        8.21076346      13.18531926      16.13095488
O       13.57688304       0.55561747      17.37217018
O       10.45438334       2.35843162      15.88405608
O        8.06925276       3.38742368      15.97638870
O        2.90433700       8.73100542      15.90990116
O        5.37974233       0.24414873      16.00288300
O        2.92219089       2.65651576      15.99113984
O       10.98577961      11.81488735      15.76665621
O        0.14436546      10.61491234      16.00349024
O       13.63568900      12.94404394      17.33427050
O       13.69802895       5.81502264      17.38117781
O        5.27480165       5.84048907      17.05694766
O       10.15569353       9.68845616      17.12404825
O        6.45938214       2.29041069      17.40747957
O        0.78031904       2.98813868      17.57958572
O       11.62235746       5.10676049      15.93980428
O       12.91672885       8.59759233      17.28756795
O        4.64672484      11.84926610      17.43239451
O        7.44682489      10.83881209      17.31657843
