115
Lattice="13.75323 0.0 0.0 0.0 13.75323 0.0 0.0 0.0 23.89" Properties=species:S:1:pos:R:3 entry_id=164 rank=31 energy=-575.19580078125 pbc="T T F"
Pd       0.00000000       0.00000000      10.00000000
Pd       2.75064538       0.00000000      10.00000000
Pd       5.50129076       0.00000000      10.00000000
Pd       8.25193614       0.00000000      10.00000000
Pd      11.00258152       0.00000000      10.00000000
Pd       0.00000000       2.75064538      10.00000000
Pd       2.75064538       2.75064538      10.00000000
Pd       5.50129076       2.75064538      10.00000000
Pd       8.25193614       2.75064538      10.00000000
Pd      11.00258152       2.75064538      10.00000000
Pd       0.00000000       5.50129076      10.00000000
Pd       2.75064538       5.50129076      10.00000000
Pd       5.50129076       5.50129076      10.00000000
Pd       8.25193614       5.50129076      10.00000000
Pd      11.00258152       5.50129076      10.00000000
Pd       0.00000000       8.25193614      10.00000000
Pd       2.75064538       8.25193614      10.00000000
Pd       5.50129076       8.25193614      10.00000000
Pd       8.25193614       8.25193614      10.00000000
Pd      11.00258152       8.25193614      10.00000000
Pd       0.00000000      11.00258152      10.00000000
Pd       2.75064538      11.00258152      10.00000000
Pd       5.50129076      11.00258152      10.00000000
Pd       8.25193614      11.00258152      10.00000000
Pd      11.00258152      11.00258152      10.00000000
Pd       1.33305437       1.38035701      12.05221797
Pd       4.08925664       1.38750338      11.98771029
Pd       6.82888190       1.38154444      11.99332965
Pd       9.57512057       1.39592898      11.89594876
Pd      12.38684272       1.37174114      11.92044161
Pd       1.37065655       4.09970544      12.00656864
Pd       4.10125007       4.12393621      12.00820233
Pd       6.82444734       4.12497179      12.00908219
Pd       9.56728621       4.13975942      11.94281254
Pd      12.36578195       4.13265160      11.93417299
Pd       1.37110082       6.89256210      11.94010419
Pd       4.13935064       6.87026939      11.96482277
Pd       6.87097415       6.85831372      11.95140951
Pd       9.64205429       6.82915781      11.94515418
Pd      12.39111484       6.85622887      11.94896407
Pd       1.35216595       9.69735034      11.99083951
Pd       4.11777592       9.66324146      11.95099537
Pd       6.89476706       9.64088005      11.95142944
Pd       9.64982872       9.59779534      11.89439304
Pd      12.42487279       9.60955999      11.94161946
Pd       1.35802606      12.41462245      12.04582394
Pd       4.10624816      12.40887780      12.00662317
Pd       6.86816975      12.39901143      11.97280504
Pd       9.63028672      12.36702810      11.91406436
Pd      12.41879361      12.34804731      11.97632258
Pd      13.65934796       0.01655194      14.13905795
Pd       2.77464044       0.06670594      13.98287768
Pd       5.54941920      13.73588294      14.14546992
Pd       8.26934718      13.63055143      13.92282109
Pd      10.98237809      13.74323105      13.87514810
Pd      13.72364319       2.74747883      13.94046617
Pd       2.70151350       2.81312433      14.05615499
Pd       5.39251890       2.66421759      13.99385412
Pd       8.21059600       2.66109752      14.13209977
Pd      10.94847084       2.79471422      13.77637586
Pd      13.72596760       5.48838145      13.99265697
Pd       2.63509019       5.57932504      13.98674796
Pd       5.56900366       5.45716457      14.03224624
Pd       8.26615841       5.43117849      13.98257128
Pd      10.97005186       5.51314619      13.95995180
Pd      13.73448063       8.19555778      14.03997435
Pd       2.71081427       8.31873737      13.94467767
Pd       5.49392601       8.30838417      13.87562254
Pd       8.30678402       8.18374334      14.01341640
Pd      11.00888418       8.24426314      13.95173899
Pd       0.04212371      10.96133291      13.99258969
Pd       2.82067410      11.01602577      14.02175723
Pd       5.51098304      11.04582606      14.09849979
Pd       8.22571238      10.91168637      13.94735352
Pd      10.96873257      10.97881633      13.86726525
Pd      12.27645902       6.59523976      16.16449051
Pd       9.54237405      11.67228219      16.36744596
Pd       1.45544309      12.40308325      16.04933314
Pd       1.05721137       5.37741202      16.68957101
Pd      12.22924532      10.23272695      16.20676587
Pd       7.48976052       0.89972870      16.34545684
Pd       4.14642030       1.17966979      16.39502027
Pd       6.75030684       9.68304967      16.28525697
Pd       3.80917588      11.17036312      16.63579641
Pd      11.25775194       1.54453213      16.05279451
Pd      12.29492039       3.96994125      15.83092348
Pd       3.52054240       4.15387169      16.35532306
Pd       9.73724653       4.37468104      16.31678872
Pd       1.31813116       8.91651640      16.58037141
Pd       6.92223097       6.42296709      16.29388322
Pd       6.27217357      12.33244847      16.69671134
Pd      10.12288431       8.02503640      16.71232043
Pd       6.37599247       3.71834262      16.14484253
Pd       1.09434298       1.98846743      16.49776080
Pd       3.78436619       7.57441876      16.41258584
O        8.20094383       8.10914285      16.15680622
O        9.05552531      13.55106732      15.82215588
O       13.15083812       0.92633479      15.95438649
O        9.42288873       2.43921600      15.96766895
O        7.82488635       4.84349527      16.98722942
O        3.19495654       9.38164907      17.09845411
O        5.92886085       1.91785484      16.96502842
O        2.87176028       2.59929933      17.26737845
O       11.36752165      12.00353270      15.69563814
O        0.47929147      10.72640242      16.08758696
O        2.28459824       0.42694931      15.99142912
O        1.95494671       7.08545613      17.05063850
O        5.67743896       8.00705788      15.90084806
O       10.40173561       9.93103509      16.97207525
O        4.07798374       5.80842506      15.48432565
O        0.14204493       3.65993575      17.00030278
O       10.45071658       6.10687630      16.93235440
O       13.19852737       8.40746332      16.16618197
O        4.50482800      12.98797902      16.96768583
O        7.78455465      11.16936986      17.05367478
