115
Lattice="13.75323 0.0 0.0 0.0 13.75323 0.0 0.0 0.0 23.89" Properties=species:S:1:pos:R:3 entry_id=14 rank=136 energy=-571.405517578125 pbc="T T F"
Pd       0.00000000       0.00000000      10.00000000
Pd       2.75064538       0.00000000      10.00000000
Pd       5.50129076       0.00000000      10.00000000
Pd       8.25193614       0.00000000      10.00000000
Pd      11.00258152       0.00000000      10.00000000
Pd       0.00000000       2.75064538      10.00000000
Pd       2.75064538       2.75064538      10.00000000
Pd       5.50129076       2.75064538      10.00000000
Pd       8.25193614       2.75064538      10.00000000
Pd      11.00258152       2.75064538      10.00000000
Pd       0.00000000       5.50129076      10.00000000
Pd       2.75064538       5.50129076      10.00000000
Pd       5.50129076       5.50129076      10.00000000
Pd       8.25193614       5.50129076      10.00000000
Pd      11.00258152       5.50129076      10.00000000
Pd       0.00000000       8.25193614      10.00000000
Pd       2.75064538       8.25193614      10.00000000
Pd       5.50129076       8.25193614      10.00000000
Pd       8.25193614       8.25193614      10.00000000
Pd      11.00258152       8.25193614      10.00000000
Pd       0.00000000      11.00258152      10.00000000
Pd       2.75064538      11.00258152      10.00000000
Pd       5.50129076      11.00258152      10.00000000
Pd       8.25193614      11.00258152      10.00000000
Pd      11.00258152      11.00258152      10.00000000
Pd       1.33305437       1.38035701      12.05221797
Pd       4.08925664       1.38750338      11.98771029
Pd       6.82888190       1.38154444      11.99332965
Pd       9.57512057       1.39592898      11.89594876
Pd      12.38684272       1.37174114      11.92044161
Pd       1.37065655       4.09970544      12.00656864
Pd       4.10125007       4.12393621      12.00820233
Pd       6.82444734       4.12497179      12.00908219
Pd       9.56728621       4.13975942      11.94281254
Pd      12.36578195       4.13265160      11.93417299
Pd       1.37110082       6.89256210      11.94010419
Pd       4.13935064       6.87026939      11.96482277
Pd       6.87097415       6.85831372      11.95140951
Pd       9.64205429       6.82915781      11.94515418
Pd      12.39111484       6.85622887      11.94896407
Pd       1.35216595       9.69735034      11.99083951
Pd       4.11777592       9.66324146      11.95099537
Pd       6.89476706       9.64088005      11.95142944
Pd       9.64982872       9.59779534      11.89439304
Pd      12.42487279       9.60955999      11.94161946
Pd       1.35802606      12.41462245      12.04582394
Pd       4.10624816      12.40887780      12.00662317
Pd       6.86816975      12.39901143      11.97280504
Pd       9.63028672      12.36702810      11.91406436
Pd      12.41879361      12.34804731      11.97632258
Pd      13.61935344       0.04149479      14.04463229
Pd       2.75120690       0.06231943      14.03319154
Pd       5.52102733      13.61577125      14.03336936
Pd       8.23523322       0.18850432      14.00313246
Pd      10.90437524      13.72381885      13.81331509
Pd      13.72330761       2.77003206      14.08626924
Pd       2.74353098       2.79205539      14.02897970
Pd       5.50747413       2.56519261      14.03693633
Pd       8.25353078       2.90706851      14.11556160
Pd      11.00924755       2.63765804      13.83297629
Pd       0.04002408       5.44954904      13.98063860
Pd       2.76000802       5.56282367      14.03403128
Pd       5.46886670       5.37098779      14.06344122
Pd       8.26721093       5.75873354      13.96997290
Pd      10.96861499       5.44452815      14.06158937
Pd       0.06156425       8.21976458      13.97235690
Pd       2.81843979       8.31389605      13.95453281
Pd       5.54034441       8.15940579      13.91337951
Pd       8.25604275       8.42907644      14.01583455
Pd      11.08011098       8.24962621      13.93034160
Pd      13.74777775      10.95280849      14.10562593
Pd       2.76899912      11.10980292      14.02273830
Pd       5.49490842      10.90235534      13.91580208
Pd       8.19712803      11.23346788      13.98408874
Pd      11.00046194      10.98486789      13.92526211
Pd      12.36567441       6.72878428      15.92301893
Pd       9.61571215      10.10744668      16.32124006
Pd       1.25666200      13.25666426      16.39729067
Pd       1.49804371       7.13427490      15.99363550
Pd      12.68074591       9.45133917      16.28972812
Pd       7.85161424       1.74048428      16.53090334
Pd       4.48111830       0.90727279      16.52703417
Pd       5.93002338       9.43187691      16.28170387
Pd       4.41211091      11.86989964      16.08492090
Pd      11.21650854      13.00762800      16.37319721
Pd       0.42186230       4.72966927      17.20736210
Pd       3.01151347       4.26515115      16.60507517
Pd      11.67538145       3.18335552      16.51220805
Pd       2.73317023       9.77475283      16.34785286
Pd       7.31269873       7.30530059      17.12112413
Pd       7.56514864      12.85321109      16.46830677
Pd       9.71989272       7.07293644      15.88457793
Pd       5.77610044       4.28164357      16.67228398
Pd       1.18536313       2.17890340      16.61295177
Pd       4.24280959       6.90564252      15.97932579
O       10.26479664       3.82823652      15.28881329
O        9.38717621      12.19459935      16.61468630
O       13.10110928      13.58350553      15.97814334
O       10.71479894       1.25418878      16.62073944
O        9.57546085       1.42666677      17.40334193
O        4.24575011       8.72161384      16.99121495
O        5.93090575       2.30943221      16.15542905
O        3.10572256       2.30937212      16.02886560
O       11.49111154      10.98730007      15.99474873
O        1.36797436      11.11257149      15.71725342
O        3.11698035      13.23059048      16.98074545
O        2.12965444       5.80340421      17.43965412
O        5.73844262       6.17017381      17.21459853
O        8.99024965       8.29948893      17.24351973
O        7.20089516       4.49091951      15.08794668
O       13.32250419       2.78261555      17.52074513
O       12.21024745       5.06248805      17.07014149
O       13.65833614       7.94378930      16.99270999
O        5.72895606      13.17068427      16.98779193
O        7.70809597       9.92661946      15.54438520
