115
Lattice="13.75323 0.0 0.0 0.0 13.75323 0.0 0.0 0.0 23.89" Properties=species:S:1:pos:R:3 entry_id=131 rank=108 energy=-572.7031860351562 pbc="T T F"
Pd       0.00000000       0.00000000      10.00000000
Pd       2.75064538       0.00000000      10.00000000
Pd       5.50129076       0.00000000      10.00000000
Pd       8.25193614       0.00000000      10.00000000
Pd      11.00258152       0.00000000      10.00000000
Pd       0.00000000       2.75064538      10.00000000
Pd       2.75064538       2.75064538      10.00000000
Pd       5.50129076       2.75064538      10.00000000
Pd       8.25193614       2.75064538      10.00000000
Pd      11.00258152       2.75064538      10.00000000
Pd       0.00000000       5.50129076      10.00000000
Pd       2.75064538       5.50129076      10.00000000
Pd       5.50129076       5.50129076      10.00000000
Pd       8.25193614       5.50129076      10.00000000
Pd      11.00258152       5.50129076      10.00000000
Pd       0.00000000       8.25193614      10.00000000
Pd       2.75064538       8.25193614      10.00000000
Pd       5.50129076       8.25193614      10.00000000
Pd       8.25193614       8.25193614      10.00000000
Pd      11.00258152       8.25193614      10.00000000
Pd       0.00000000      11.00258152      10.00000000
Pd       2.75064538      11.00258152      10.00000000
Pd       5.50129076      11.00258152      10.00000000
Pd       8.25193614      11.00258152      10.00000000
Pd      11.00258152      11.00258152      10.00000000
Pd       1.33305437       1.38035701      12.05221797
Pd       4.08925664       1.38750338      11.98771029
Pd       6.82888190       1.38154444      11.99332965
Pd       9.57512057       1.39592898      11.89594876
Pd      12.38684272       1.37174114      11.92044161
Pd       1.37065655       4.09970544      12.00656864
Pd       4.10125007       4.12393621      12.00820233
Pd       6.82444734       4.12497179      12.00908219
Pd       9.56728621       4.13975942      11.94281254
Pd      12.36578195       4.13265160      11.93417299
Pd       1.37110082       6.89256210      11.94010419
Pd       4.13935064       6.87026939      11.96482277
Pd       6.87097415       6.85831372      11.95140951
Pd       9.64205429       6.82915781      11.94515418
Pd      12.39111484       6.85622887      11.94896407
Pd       1.35216595       9.69735034      11.99083951
Pd       4.11777592       9.66324146      11.95099537
Pd       6.89476706       9.64088005      11.95142944
Pd       9.64982872       9.59779534      11.89439304
Pd      12.42487279       9.60955999      11.94161946
Pd       1.35802606      12.41462245      12.04582394
Pd       4.10624816      12.40887780      12.00662317
Pd       6.86816975      12.39901143      11.97280504
Pd       9.63028672      12.36702810      11.91406436
Pd      12.41879361      12.34804731      11.97632258
Pd      13.70406860      13.69186561      14.04396200
Pd       2.77978359       0.00376514      13.97884163
Pd       5.51633315       0.05598400      14.09502437
Pd       8.28592062       0.06049368      14.01475291
Pd      10.97866967      13.71583842      13.91708185
Pd      13.68177808       2.72820602      14.01229244
Pd       2.71230312       2.76137004      14.10077345
Pd       5.46108227       2.75679071      13.97674265
Pd       8.19069400       2.80315209      13.93729027
Pd      10.92166165       2.69707654      13.92355706
Pd       0.02119056       5.44449449      13.91617114
Pd       2.74950777       5.52318306      13.94849384
Pd       5.48094307       5.51355498      14.04634081
Pd       8.23196947       5.59852038      14.00033579
Pd      11.06198430       5.50798585      13.93805244
Pd      13.72162070       8.12612347      14.07457370
Pd       2.70209073       8.27580395      13.95227206
Pd       5.56009612       8.27554012      13.97461010
Pd       8.28186335       8.32274563      14.04919564
Pd      11.00795421       8.26561647      14.04060717
Pd      13.73977021      10.87460578      13.98613537
Pd       2.79405983      10.98741120      14.04886806
Pd       5.45732005      11.05446124      13.96810095
Pd       8.36213529      11.03483746      13.77089504
Pd      11.03735110      11.00657315      13.96556184
Pd      12.33084836       6.98136366      16.45682749
Pd       8.85239198      10.48308912      16.36688626
Pd       1.35679799      12.06249501      16.10533311
Pd       1.33943144       6.42192503      16.10331440
Pd      11.90910536      10.04203728      16.68227821
Pd       8.47440020       1.99319046      16.56649440
Pd       4.88565796       2.21003912      16.63336918
Pd       6.21454256       9.60830340      16.34916168
Pd       4.18764385      12.37726371      16.64294128
Pd      12.05866228       1.25164991      16.04487745
Pd      13.38830042       4.41804504      16.52708477
Pd       3.29849960       4.55725940      16.57752880
Pd       9.68333756       4.26241553      16.07448189
Pd       1.11869971       8.93452230      16.52301978
Pd       7.14315182       6.98323618      16.43121993
Pd       7.13625781      12.66211232      16.84880861
Pd       9.73197037       7.80630021      16.58633566
Pd       6.85328980       4.10817509      16.04577952
Pd       1.32809912       1.34457142      16.41081418
Pd       4.02407803       7.20757536      16.09560087
O        8.91143975       6.10939369      15.99236668
O        8.47850172       0.04718328      16.03716509
O       13.61308977       0.00192954      16.17336835
O       10.40278780       2.36983477      16.01858844
O        6.71316055       2.45939814      17.27572327
O        2.99622034       8.93664338      15.90346876
O        5.38303586       0.23515798      16.16408555
O        2.95033407       2.51532779      16.20578334
O       10.71011470      11.40942111      15.90990919
O       13.74162896      10.67942786      16.05140411
O        2.64991787      13.53265681      16.04177979
O        1.44922744       4.69933817      17.23381829
O        5.60242421       7.97361534      17.20929437
O       10.18023904       9.47433247      17.48609861
O        5.03765757       5.42048182      16.13847395
O       13.49417033       2.45909574      16.98922801
O       11.60464878       5.17659061      15.95948116
O       13.08306130       8.57474303      17.35236953
O        5.69846349      11.40698046      17.46641083
O        7.10064354      11.11705107      15.37199392
