115
Lattice="13.75323 0.0 0.0 0.0 13.75323 0.0 0.0 0.0 23.89" Properties=species:S:1:pos:R:3 entry_id=100 rank=99 energy=-572.8790283203125 pbc="T T F"
Pd       0.00000000       0.00000000      10.00000000
Pd       2.75064538       0.00000000      10.00000000
Pd       5.50129076       0.00000000      10.00000000
Pd       8.25193614       0.00000000      10.00000000
Pd      11.00258152       0.00000000      10.00000000
Pd       0.00000000       2.75064538      10.00000000
Pd       2.75064538       2.75064538      10.00000000
Pd       5.50129076       2.75064538      10.00000000
Pd       8.25193614       2.75064538      10.00000000
Pd      11.00258152       2.75064538      10.00000000
Pd       0.00000000       5.50129076      10.00000000
Pd       2.75064538       5.50129076      10.00000000
Pd       5.50129076       5.50129076      10.00000000
Pd       8.25193614       5.50129076      10.00000000
Pd      11.00258152       5.50129076      10.00000000
Pd       0.00000000       8.25193614      10.00000000
Pd       2.75064538       8.25193614      10.00000000
Pd       5.50129076       8.25193614      10.00000000
Pd       8.25193614       8.25193614      10.00000000
Pd      11.00258152       8.25193614      10.00000000
Pd       0.00000000      11.00258152      10.00000000
Pd       2.75064538      11.00258152      10.00000000
Pd       5.50129076      11.00258152      10.00000000
Pd       8.25193614      11.00258152      10.00000000
Pd      11.00258152      11.00258152      10.00000000
Pd       1.33305437       1.38035701      12.05221797
Pd       4.08925664       1.38750338      11.98771029
Pd       6.82888190       1.38154444      11.99332965
Pd       9.57512057       1.39592898      11.89594876
Pd      12.38684272       1.37174114      11.92044161
Pd       1.37065655       4.09970544      12.00656864
Pd       4.10125007       4.12393621      12.00820233
Pd       6.82444734       4.12497179      12.00908219
Pd       9.56728621       4.13975942      11.94281254
Pd      12.36578195       4.13265160      11.93417299
Pd       1.37110082       6.89256210      11.94010419
Pd       4.13935064       6.87026939      11.96482277
Pd       6.87097415       6.85831372      11.95140951
Pd       9.64205429       6.82915781      11.94515418
Pd      12.39111484       6.85622887      11.94896407
Pd       1.35216595       9.69735034      11.99083951
Pd       4.11777592       9.66324146      11.95099537
Pd       6.89476706       9.64088005      11.95142944
Pd       9.64982872       9.59779534      11.89439304
Pd      12.42487279       9.60955999      11.94161946
Pd       1.35802606      12.41462245      12.04582394
Pd       4.10624816      12.40887780      12.00662317
Pd       6.86816975      12.39901143      11.97280504
Pd       9.63028672      12.36702810      11.91406436
Pd      12.41879361      12.34804731      11.97632258
Pd      13.73542651       0.03951192      14.04483381
Pd       2.75489522      13.75220045      14.02420548
Pd       5.43726338       0.09054436      14.08723765
Pd       8.19318405      13.72100287      13.92447709
Pd      11.05913164      13.71445011      14.01451948
Pd      13.73788570       2.78842781      13.97588448
Pd       2.73551948       2.75979850      14.03217784
Pd       5.46478655       2.79955533      14.07419281
Pd       8.19228099       2.78669751      13.97111247
Pd      10.96403321       2.68304911      13.99268230
Pd       0.00663191       5.50042187      13.90082272
Pd       2.73499506       5.48826434      13.97872818
Pd       5.50588744       5.57439966      13.94272662
Pd       8.26611357       5.54149143      14.08610530
Pd      11.01941973       5.49819665      13.87691300
Pd       0.06266675       8.22575174      13.98420607
Pd       2.81536440       8.24194442      13.99040747
Pd       5.52198485       8.27544582      13.96356931
Pd       8.29491809       8.27542030      13.95148345
Pd      11.08024995       8.27352664      13.97232540
Pd      13.64421844      10.98237408      13.95249774
Pd       2.68216789      10.96087629      14.07581702
Pd       5.48007282      11.01870408      13.92447096
Pd       8.22123775      10.98092842      13.97606455
Pd      10.93230754      10.97899085      13.94898545
Pd      12.49187245       7.20015791      16.32402235
Pd       9.67939117      11.63386159      16.26327937
Pd       1.17843286      12.22908309      16.08432212
Pd       1.35631019       6.66646606      15.90719144
Pd      11.93978100      10.00290462      16.35898558
Pd       8.78575136       1.45241579      16.33677293
Pd       5.24802729       1.61783532      16.55495918
Pd       6.83144615       9.68221302      15.91644690
Pd       4.23750443      10.61959288      16.33598810
Pd      12.66389290       1.54911434      16.10497008
Pd      13.15468569       4.28344103      16.27081476
Pd       3.82684262       4.06571734      16.30041754
Pd       9.89990369       4.31383970      16.30110850
Pd       1.68872928       9.47861371      16.44296963
Pd       7.39636663       6.99276597      16.47491590
Pd       6.84199742      12.30247401      16.57576498
Pd       9.79062260       8.07778269      16.36283576
Pd       6.71457022       4.23387542      16.29614768
Pd       1.58443917       1.54783618      16.35165919
Pd       4.28901844       7.29400497      16.67303875
O        9.12171211       6.18195817      16.02854461
O        9.56846630      13.50612267      15.49154819
O       12.76178395       0.13358569      17.61355100
O       10.60531438       2.38352848      16.09316742
O        8.29729898       3.29081173      16.97168592
O        3.44620017       9.02208449      17.20570915
O        6.95633587       0.65821804      16.68349362
O        3.42370434       2.28278351      16.96241587
O       13.19414641      12.69532401      17.36484121
O        0.05638819      10.54133491      15.95057072
O        2.52519800      13.62863641      16.02170359
O        2.86312436       5.88900376      16.91831806
O        6.02358288       8.21590002      17.06879198
O       10.13524465       9.86375998      17.04953282
O        5.17678526       5.52963912      15.97084676
O        0.41089346       2.88666259      17.09406469
O       11.57770214       5.40792335      15.87359244
O        0.36870290       7.99798382      17.11811543
O        5.12494375      12.27753085      15.60110685
O        8.38332835      12.12355896      17.64661936
