60
Properties=species:S:1:pos:R:3 system=runs/20260728-safe-lbfgs-strict-quench-200-production/output-c60-seed42 state_id=plateau_accepted pbc="F F F"
C       -2.51564263       2.55398857       2.50897427
C       -1.52412483       0.01173247       1.33762090
C        1.45889306      -1.33178607       1.07673877
C        0.50162304       0.38938165      -3.33528177
C        2.07896950       2.02831451      -2.65526287
C       -0.14760903       2.19555422       0.58380914
C        1.88041453       3.38065393       1.63860641
C       -0.00212665       1.67259409       2.77757425
C        0.94262914      -2.87544655      -2.56266119
C       -0.82605975      -0.01472121      -3.36744557
C        3.16106053      -0.08482512      -1.87372396
C        1.12961684      -3.16908761      -0.31927749
C       -3.49697052       1.87958053       1.75346788
C        0.41424281      -1.92346984      -3.44866073
C       -1.06132795      -2.86611587      -0.95883479
C        1.79517557       1.04634314       1.26697955
C       -0.84139716      -2.22016665       0.29279386
C       -1.72812695       1.57479854      -1.68978897
C       -0.32740104       2.15734953      -1.77057275
C       -1.97629276       0.69792154       3.69425479
C       -2.84063214      -0.50290329      -2.61098324
C       -3.73426253       0.38819219      -0.53127345
C        2.47598686       3.11024567      -1.85181604
C        2.49849084       3.30751184       0.41747936
C        3.42794931       2.23281391      -0.03713406
C        2.82269466       1.02513386       0.30569389
C       -3.65435166      -0.65734295      -1.50124888
C        0.90302437       2.26812031       1.68496452
C       -2.92071300       1.57741406      -0.62878483
C       -0.99299351       1.11177340       0.74749897
C       -3.16371805      -1.51408817       0.50062375
C       -2.43110578       0.00660290       2.53010852
C        3.65997987       2.36573476      -1.43226873
C       -0.91025588      -1.41968392      -3.44060048
C        1.28025147      -0.10997864       1.83515118
C       -3.90098293      -0.27145732       0.71512042
C        1.62262554       3.35059438      -0.74036108
C        3.24431214       1.26789060      -2.30218510
C        3.00783809      -0.18156876      -0.46094139
C        2.47421422      -1.37931193       0.06814898
C       -1.43067586       1.93750029       3.12390805
C       -3.36986984       2.32569713       0.45757827
C        0.52277631      -2.35588488       0.68235058
C        0.19845951      -0.11924109       4.23223699
C       -0.06423653       0.18986003       5.57722819
C       -3.32101805      -1.89961483      -0.86892837
C        2.24689358      -2.38799603      -2.13248837
C       -1.80014861      -1.30936481       0.80068416
C        2.33029391      -2.54114958      -0.73898168
C       -1.90421186       0.55955546      -2.65803978
C        0.22735163      -3.33256404      -1.42240584
C       -1.12485641       0.16683252       4.67120246
C       -2.14305219      -1.75996162      -2.83983795
C        0.71528535       1.61510876      -2.68191318
C       -3.63003486       0.43685467       1.90040651
C        0.49597562       0.35882062       2.96004883
C       -2.26458549      -2.51955681      -1.64208746
C        2.48655593      -1.08506513      -2.67293301
C        0.32731196       2.76871309      -0.64393936
C        1.32330807      -0.77320815      -3.43552157
