60
Properties=species:S:1:pos:R:3 entry_id=0 rank=0 energy=-474.6690673828125 pbc="F F F"
C        1.73472755      -3.37184007      -0.91634070
C        2.04770322       0.15191406      -2.30103929
C        1.91563049       1.86831210       2.12954990
C        2.52752394      -2.20413045      -1.15170192
C       -2.92225307       1.05158568       2.39491659
C        2.47047815       0.67229896       0.13204761
C       -0.04200333      -3.76299371       0.95483436
C        2.54757808      -1.61475012       2.33372900
C       -2.61981616       0.78771998      -3.27565617
C       -0.06758134      -1.52250320       0.07011962
C       -1.20801197       1.61881599       3.80133414
C        1.12481557       3.57767589       0.02867160
C        0.41992735      -3.26620232      -1.41299798
C       -0.98178299       3.98401507      -0.79200442
C        0.59290540       3.46217458      -2.41999899
C        0.13075387      -0.46180070       1.05596274
C        1.59441292       2.43049658      -2.51766985
C       -2.92707810      -2.99426492       0.17358284
C       -3.25095073      -1.87130855       0.68518351
C        2.72932348       0.89535464      -1.26209223
C       -3.00372331       1.85968488      -2.43003662
C       -1.87961460      -1.71880826      -1.63144787
C       -0.05047664      -2.59171378       2.92620311
C       -2.28523838       0.25977472       1.38785100
C       -0.86544373      -1.79317683       3.48696869
C       -0.81769998       0.19279640       1.94167742
C       -2.52474703      -0.54350405      -1.09461750
C        2.06736946      -2.60055459       1.54520241
C       -1.83426935      -2.81563923      -0.70487178
C        2.56933720       1.90564311       0.84569247
C       -1.21487927      -1.06993358      -3.92569615
C        1.56405831      -1.24066893      -1.89692975
C       -1.35616869      -0.55345453       3.18227828
C       -1.67956075       3.77288933      -2.04699796
C        2.27441638       0.79323885       2.90952769
C       -0.89699413      -1.68310750      -2.71161780
C        0.74078791      -3.16535057       1.91230852
C       -2.18673481       0.62053227       3.62303480
C       -0.41484600       1.52311954       2.68442086
C        0.56565956       2.38986835       2.09848359
C        2.35793260      -2.78424321       0.16159620
C       -0.43988624      -2.96538013      -0.22596293
C        2.32763980       2.90081483      -0.14498992
C        1.27823451      -0.03215076       0.29033220
C        0.83804587      -0.87101285      -0.71886826
C       -2.77753439       0.52347678      -1.93682915
C       -1.42390440      -0.70278689      -5.24950307
C        1.46773714       1.14134019      -3.09402414
C        0.19717446       3.27627656       1.06199720
C       -2.92017643       3.15291526      -2.15485996
C        0.38781715       3.94386316      -1.09603552
C        2.49930257       2.28717161      -1.42319529
C       -0.65445480       3.59047206      -3.04071749
C       -2.98931267       2.36850215       1.93404650
C        0.40249408      -2.20456842      -2.38044839
C        2.58021976      -0.45697099       2.88022144
C       -2.02594235       0.05499274      -4.24538860
C       -1.16022618       3.57026109       0.58757444
C       -2.82256642      -0.57700960       0.36650914
C       -2.31320446       3.17296602       1.25168113
