60
Properties=species:S:1:pos:R:3 checkpoint_path=runs/20260728-direction-conditioned-checkpoint-shooting/output-v3/cases/plateau_accepted-seed42-balanced_refinement/proposal_trajectories/trial0001_proposal001_step001_proposal_relax.xyz pbc="F F F"
C       -0.76516056       2.55964284       1.95517531
C       -1.07613853      -0.30961058       1.72161964
C        1.65074555      -1.35865091       1.41910205
C        0.20144322       0.44504510      -3.65761616
C        1.53736574       2.29689977      -2.78107148
C       -0.69482688      -0.19144928      -0.77591932
C        0.60286381       2.77599823       1.57357680
C        0.60000352       1.40456095       3.40442574
C        0.91830930      -2.70259901      -2.32692663
C       -1.07458266      -0.14388220      -3.83373576
C        2.74572752       0.31015632      -1.68380136
C        1.25085557      -3.02422857      -0.11053500
C       -1.83918599       2.27909885       1.04006820
C        0.32124710      -1.84033571      -3.24613510
C       -0.97096850      -2.85122374      -0.62976897
C        2.21194258       0.96007612       1.88068265
C       -0.77883527      -2.46206263       0.75385218
C       -2.07757916       1.58642630      -2.50133465
C       -0.83777882       2.28138061      -2.48409509
C       -1.69650591       1.00158113       3.77257213
C       -2.94403134      -0.67457275      -2.70681305
C       -3.40910853       0.64618021      -0.71921272
C        1.62016109       3.39867178      -1.87813112
C        1.21719851       3.07806346       0.33159767
C        2.49428958       2.50441217       0.06972223
C        2.74647761       1.21147427       0.59860728
C       -3.51745924      -0.54554361      -1.45934195
C        1.41194553       1.97368052       2.42374351
C       -2.65409925       1.70862089      -1.20862301
C       -0.57773397       0.11216482       0.46295351
C       -2.90245625      -1.14882251       0.65665232
C       -2.01113245       0.47439029       2.51705531
C        2.82532185       2.79140988      -1.28186693
C       -1.01179167      -1.54273190      -3.50085253
C        1.71785725      -0.29853681       2.37543056
C       -3.25380461       0.27032330       0.61218444
C        0.59025162       3.41106618      -0.87588732
C        2.64833476       1.64581644      -2.15264413
C        2.86997836       0.09323400      -0.26719240
C        2.53173717      -1.19257387       0.27200318
C       -0.70330333       1.88914588       3.25580380
C       -1.79599363       2.49566420      -0.36901663
C        0.67481542      -2.40417256       1.02753244
C        0.05883121      -0.61376571       4.43660463
C       -0.77769460      -0.96874521       5.50317017
C       -3.06811050      -1.61842822      -0.64533814
C        2.17444442      -2.08486456      -1.95033867
C       -1.72978640      -1.56586143       1.36006110
C        2.36913696      -2.29776081      -0.58433996
C       -2.22574643       0.41453918      -3.25193225
C        0.30512814      -3.19958521      -1.15589499
C       -1.19713820       0.03347222       4.65630791
C       -2.11098831      -1.85018234      -2.69257423
C        0.29342512       1.76776561      -3.16300899
C       -2.68955111       1.20361867       1.49565789
C        0.90226809       0.02453118       3.53900846
C       -2.09212099      -2.36980197      -1.35192351
C        2.20685428      -0.75121187      -2.46010263
C       -0.68817058       2.93367710      -1.21671881
C        1.07824404      -0.61796709      -3.30741316
