60
Properties=species:S:1:pos:R:3 source_escape=runs/20260728-block-krylov-fixed-starter-escape/output/cases/plateau_accepted-seed43-deep_refinement/escape.xyz pbc="F F F"
C        1.66917301       2.62969874      -0.85707117
C       -1.15011508       2.57555269       1.79464828
C        1.13404071       0.03227436       2.51962519
C       -1.03451231      -2.58110259      -2.43265738
C        1.36665097      -2.21582418      -2.79245505
C       -0.12237913       0.68611541       2.93789782
C        2.73123509       1.67496661      -0.95123254
C        2.90205859       2.69988370       1.10888467
C       -2.02429454      -2.83502314       0.89584147
C       -2.35534791      -2.07677621      -2.57801601
C        1.37351388      -2.59168723      -0.25690535
C       -1.34032563      -1.41835662       2.55917799
C        0.35822642       2.52759211      -1.44645189
C       -2.25000659      -3.01381662      -0.48234461
C       -3.11618602      -0.55478455       1.32037279
C        3.09813742       0.42004945       1.07224943
C       -2.41820323       0.51758215       1.99876271
C       -1.49574553       0.04768958      -3.37690339
C       -0.18810086      -0.51763994      -3.42989322
C        0.79409376       3.88673475       1.11436247
C       -3.63748623      -0.22601326      -2.24503283
C       -2.41877521       1.90715098      -2.08616133
C        2.43705911      -1.30255934      -3.06682256
C        2.82539311       0.48472937      -1.69882586
C        3.28462608      -0.68241311      -1.01392437
C        2.92046441      -0.78083598       0.35753302
C       -3.57156978       1.10392338      -1.80809007
C        3.35950208       1.60607611       0.32799538
C       -1.36964546       1.36960464      -2.84983128
C       -0.36278005       2.10551052       2.90002376
C       -2.88025751       2.04746614       0.17673943
C       -0.46659310       3.34070597       0.78616572
C        3.12488703      -1.78671710      -1.86823593
C       -3.08370678      -2.27819612      -1.34818089
C        2.31741225       0.79738885       2.21593904
C       -2.06292927       2.57505100      -0.87517477
C        2.09845935       0.08501962      -2.83914007
C        1.97899723      -2.58693906      -1.54279925
C        1.87235089      -1.67051572       0.75198896
C        1.04257175      -1.30386351       1.90431822
C        1.85979267       3.33617493       0.39175190
C        0.02208521       1.64375957      -2.55292234
C       -1.33895808      -0.03353452       2.75649857
C        1.89081578       3.10652308       3.18685395
C        0.51164432       3.07654435       3.39764538
C       -3.75916534       1.09124066      -0.38404851
C       -0.60249212      -2.98339666       1.11593026
C       -2.30118526       1.81271918       1.44062561
C       -0.16230414      -2.05093032       2.08614187
C       -2.60881612      -0.76555826      -3.06958994
C       -2.46963920      -1.77727138       1.72278956
C        1.04208486       4.05612647       2.51255210
C       -3.80723727      -1.08999161      -1.08839886
C        0.03193258      -1.87553203      -3.06005895
C       -0.73529390       2.98601489      -0.59956247
C        2.58077070       2.19550388       2.39511438
C       -3.77575265      -0.26571509       0.08868106
C        0.06078829      -3.13255384      -0.12594639
C        0.77474046       0.49487538      -3.07930466
C       -0.95830000      -3.18699525      -1.13603380
