60
Properties=species:S:1:pos:R:3 system=runs/20260728-safe-lbfgs-strict-quench-200-production/output-c60-seed42 state_id=plateau_accepted pbc="F F F"
C       -0.95214896       1.13653299       3.33053143
C       -0.17191564      -1.06249269      -2.32512614
C       -1.07770026      -2.23451227      -0.12674062
C        2.44995965       0.86432896      -1.54239479
C        3.54931276       0.60527575       0.62738950
C       -1.22301819       0.06642051      -3.85044293
C        0.00582565       0.10666092       3.48566667
C       -2.07272452      -0.97865103       3.05340402
C        1.61239778      -1.50291032      -3.75799654
C        1.41130391       1.40252241      -2.31970248
C        2.72573047      -1.70899913      -0.16865422
C       -1.45057450      -1.78562569      -2.50680249
C       -0.89841607       2.37985829       2.55887598
C        2.36620613      -0.34431728      -3.49232430
C       -3.13297747      -0.26552302      -2.40036967
C       -0.21023910      -1.96343926       2.17459502
C       -3.08601058      -1.05387928      -1.22269963
C        0.86706114       2.90570965      -0.50569443
C        1.84102595       2.25167017       0.30007627
C       -2.66935160       1.09351049       1.86765529
C       -0.76891927       2.39705710      -2.28031622
C       -1.43041643       3.43965114      -0.14856374
C        3.31566023       0.74049219       2.00322645
C        1.36432726       0.15485558       3.10070547
C        1.95968498      -1.04442070       2.56889533
C        1.15197780      -1.88593791       1.77737891
C       -1.72588741       2.95834277      -1.45863101
C       -0.66633736      -1.15554715       3.23690997
C       -0.13799049       3.35832550       0.39346200
C        0.24796105      -0.52142214      -3.64928000
C       -3.19231854       1.97397275      -0.13410745
C       -0.74304681       0.18193341      -1.54192582
C        3.24379256      -0.72206375       2.08995780
C        1.24584714       0.53136008      -3.43947827
C       -1.29519678      -2.18056654       1.27326852
C       -2.49839355       3.00090566       0.64771125
C        2.08722435       1.25174816       2.51816747
C        3.50608008      -0.83396013       0.69056788
C        1.44955807      -2.11611872       0.41318205
C        0.32942819      -2.34920588      -0.45742477
C       -2.19172642       0.42941790       2.99990254
C        0.15380915       2.83235759       1.74145617
C       -2.03153987      -1.99334996      -1.22911293
C       -3.51175472      -1.48817841       1.10889780
C       -2.90541445      -0.62420338       1.05693279
C       -2.92878333       2.16955452      -1.49583840
C        1.84888665      -2.22847172      -2.49660888
C       -1.28832358       0.47267787      -0.36819930
C        0.64968715      -2.05917474      -1.77912915
C        0.58142971       2.44298736      -1.82670369
C       -2.18304960      -0.86178817      -3.28406517
C       -2.57728863       0.66685659       0.36038233
C       -1.33165688       1.06821901      -2.73879829
C        2.72235280       1.32158215      -0.23609546
C       -2.20450889       2.43958594       1.90949292
C       -2.51639544      -1.76373055       1.90635845
C       -2.76715878       1.11550691      -2.40226647
C        2.84136120      -1.59771180      -1.63110112
C        1.46658946       2.21623916       1.67680165
C        2.95219758      -0.31012266      -2.18102486
