60
Properties=species:S:1:pos:R:3 system=runs/20260728-safe-lbfgs-strict-quench-200-production/output-c60-seed42 state_id=plateau_accepted pbc="F F F"
C       -1.51728818       2.71033733       2.16203899
C       -1.28947288      -0.24160625       1.72397029
C        1.58753907      -1.42009193       1.34489304
C        0.33954313       0.40603010      -3.67062965
C        1.76404876       2.17018827      -2.79866675
C       -0.23509818       1.53567848       0.14591916
C        1.28014050       3.21995084       1.64467534
C        0.36363987       1.47024383       3.14802905
C        0.90908687      -2.79113251      -2.41529874
C       -0.97031350      -0.10261651      -3.79870267
C        2.85641975       0.11692224      -1.73122191
C        1.19206745      -3.13693498      -0.17407483
C       -2.54809213       2.29207694       1.29438959
C        0.36321574      -1.91253236      -3.37058657
C       -1.00682758      -2.83786669      -0.76361652
C        2.09542396       0.92247524       1.75214997
C       -0.80298351      -2.35907790       0.57670692
C       -1.90150432       1.57276798      -2.26751724
C       -0.58002951       2.12156874      -2.17809761
C       -1.88056478       0.95387700       3.75129850
C       -2.91694714      -0.61261069      -2.79113898
C       -3.55924350       0.57721025      -0.76509801
C        1.98818833       3.26116059      -1.89511027
C        1.84053655       3.27688247       0.40651765
C        2.89744640       2.37638367       0.03315119
C        2.80122301       1.07617712       0.54004998
C       -3.59422774      -0.57612084      -1.58259323
C        1.35088018       2.03039625       2.28084951
C       -2.79088788       1.72804646      -1.11635251
C       -0.63321705       0.59885236       0.87366541
C       -3.01199587      -1.22797447       0.52571486
C       -2.35193595       0.30870776       2.58890035
C        3.13836995       2.55472190      -1.34661974
C       -0.96790328      -1.51789064      -3.57033982
C        1.56776619      -0.30003686       2.24861215
C       -3.51079101       0.13424621       0.56677209
C        1.07259320       3.36369287      -0.80590031
C        2.84881891       1.45051334      -2.19973600
C        2.91616123      -0.07039636      -0.30606838
C        2.51028966      -1.32513508       0.23307005
C       -0.97925560       1.95947651       3.18656186
C       -2.51909221       2.57923401      -0.07005754
C        0.60299598      -2.43433164       0.92302911
C       -0.02964080      -0.52146988       4.35898470
C       -0.75136951      -0.88152680       5.50643629
C       -3.17500600      -1.68936810      -0.80054434
C        2.16968093      -2.22162535      -2.00043998
C       -1.76073012      -1.47534099       1.13870282
C        2.33573468      -2.43517714      -0.62638615
C       -2.08568198       0.48204103      -3.15270276
C        0.26082753      -3.28204738      -1.25409085
C       -1.28587207       0.06834752       4.65234649
C       -2.11715418      -1.82667634      -2.81926524
C        0.47087088       1.68605745      -3.07106206
C       -3.12671909       0.99473703       1.60590274
C        0.68389794       0.09422068       3.33991729
C       -2.14636984      -2.39403588      -1.50133029
C        2.28905236      -0.90941428      -2.53797420
C       -0.04009281       2.48594949      -0.85074376
C        1.19528067      -0.72250794      -3.43622364
