26
Lattice="7.26771434 0.0 0.0 -0.07049151295700078 3.0475710208427595 0.0 1.0002488863391885 1.026282461328267 11.976951863921604" Properties=species:S:1:pos:R:3 pbc="T T T"
O        1.63600380       2.69349151      10.74073024
O        2.88163084       3.63526986       8.68530607
O        3.59882250       1.29545461      11.51247208
Al       3.42119563       2.85730322      10.35986126
H        3.70774647       0.98426503       8.12516845
O        1.55474821       1.75223307       6.67367907
Al       6.92508625       2.75034601      10.35191975
O        7.28332491       2.99580793       8.54987902
H        3.33549372       0.26772312       0.19420375
Al       5.57120824       2.82376646       7.99690569
Al       1.46304825       3.27509081       7.59650764
O        5.09356254       1.29264168       7.28478057
O        5.10582476       2.69643713       9.73392881
O        5.58214258       0.25857109       2.30542764
Al       3.92918487       3.29559925       3.31228713
O        3.16662393       1.77018560       2.37550804
O        4.75278424       1.77553056       4.22084416
O        6.94142398       1.22072149      11.26989939
H        2.23527960       1.77621690       2.05452075
O        7.47000367       1.72885474       4.07554065
H        5.13560858       1.71234038       5.11617844
Al       1.71424497       1.74607803       4.80846021
Al       6.42978901       1.80139564       2.70715871
O        2.55690800       3.28723003       4.59868337
O        0.35387647       1.82218064       1.21945946
Al       0.35800624       0.28385761       0.10678873
