54
Lattice="21.66 0.0 0.0 0.0 5.10531 0.0 0.0 0.0 22.55266" Properties=species:S:1:pos:R:3 entry_id=144 rank=139 energy=-200.58302307128906 pbc="T T F"
Cu       0.00000000       0.00000000      10.00000000
Cu       3.61000000       0.00000000      10.00000000
Cu       7.22000000       0.00000000      10.00000000
Cu      10.83000000       0.00000000      10.00000000
Cu      14.44000000       0.00000000      10.00000000
Cu      18.05000000       0.00000000      10.00000000
Cu       0.00000000       2.55265548      10.00000000
Cu       3.61000000       2.55265548      10.00000000
Cu       7.22000000       2.55265548      10.00000000
Cu      10.83000000       2.55265548      10.00000000
Cu      14.44000000       2.55265548      10.00000000
Cu      18.05000000       2.55265548      10.00000000
Cu       1.80500000       1.27632774      11.27632774
Cu       5.41500000       1.27632774      11.27632774
Cu       9.02500000       1.27632774      11.27632774
Cu      12.63500000       1.27632774      11.27632774
Cu      16.24500000       1.27632774      11.27632774
Cu      19.85500000       1.27632774      11.27632774
Cu       1.80500000       3.82898322      11.27632774
Cu       5.41500000       3.82898322      11.27632774
Cu       9.02500000       3.82898322      11.27632774
Cu      12.63500000       3.82898322      11.27632774
Cu      16.24500000       3.82898322      11.27632774
Cu      19.85500000       3.82898322      11.27632774
Cu      21.59910623       5.01329038      12.46992117
Cu       1.45924998       4.77817695      14.44529017
Cu       7.25723728       0.05402202      12.57124587
Cu      12.98642969       3.19552828      13.74083590
Cu      10.84074674       5.00641460      12.54716914
Cu      18.02005865       0.03395876      12.54604327
Cu       2.54977070       2.76354731      13.52197301
Cu       5.00928125       4.03728336      13.89359905
Cu       7.20733393       2.53529485      12.50586196
Cu      10.76587192       2.44413847      12.57427817
Cu      15.34818668       0.88017033      14.91333695
Cu      19.77868126       3.59507827      14.01535293
Cu      10.69355790       0.95111991      14.83703887
Cu       8.18756518       2.89694302      14.81091053
Cu      17.72868108       1.69519138      14.82022625
Cu      10.70492741       3.45675122      14.95765426
Cu      14.46884357       0.03755267      12.57889207
Cu      21.62923995       2.53756835      12.56742843
Cu      19.90890045       1.11716224      13.90251954
Cu      15.66438056       2.84029645      13.37847596
Cu      18.06157965       2.59188976      12.59405719
Cu      17.38910367       4.12266307      14.67500314
O        9.61371193       2.17582239      15.69144633
O        1.46941666       1.31557827      13.21960698
O       21.16994162       4.85930424      14.50577635
O       14.12499712       1.67344724      13.74864054
O       11.89484605       4.70543820      14.29479143
O        6.85061599       3.85604506      13.97060372
O       16.83769975       0.36476106      15.84089806
O        3.26580055       4.22012008      14.35313769
