54
Lattice="21.66 0.0 0.0 0.0 5.10531 0.0 0.0 0.0 22.55266" Properties=species:S:1:pos:R:3 entry_id=153 rank=152 energy=-200.38833618164062 pbc="T T F"
Cu       0.00000000       0.00000000      10.00000000
Cu       3.61000000       0.00000000      10.00000000
Cu       7.22000000       0.00000000      10.00000000
Cu      10.83000000       0.00000000      10.00000000
Cu      14.44000000       0.00000000      10.00000000
Cu      18.05000000       0.00000000      10.00000000
Cu       0.00000000       2.55265548      10.00000000
Cu       3.61000000       2.55265548      10.00000000
Cu       7.22000000       2.55265548      10.00000000
Cu      10.83000000       2.55265548      10.00000000
Cu      14.44000000       2.55265548      10.00000000
Cu      18.05000000       2.55265548      10.00000000
Cu       1.80500000       1.27632774      11.27632774
Cu       5.41500000       1.27632774      11.27632774
Cu       9.02500000       1.27632774      11.27632774
Cu      12.63500000       1.27632774      11.27632774
Cu      16.24500000       1.27632774      11.27632774
Cu      19.85500000       1.27632774      11.27632774
Cu       1.80500000       3.82898322      11.27632774
Cu       5.41500000       3.82898322      11.27632774
Cu       9.02500000       3.82898322      11.27632774
Cu      12.63500000       3.82898322      11.27632774
Cu      16.24500000       3.82898322      11.27632774
Cu      19.85500000       3.82898322      11.27632774
Cu      21.50029065       5.08138803      12.42584532
Cu       3.72644685       2.50029928      12.61135150
Cu       7.13592667       0.17293932      12.44384947
Cu      14.46193354       5.06531794      12.60515804
Cu      10.89035635       4.96455851      12.53562027
Cu      18.14002670       5.04888754      12.52498790
Cu       5.95493010       1.75158799      14.32132852
Cu       5.92190302       4.30893664      14.35198744
Cu       7.26051974       2.69558859      12.48449533
Cu      10.77003184       2.47300497      12.69464415
Cu      17.41228696       1.15216595      14.49644662
Cu       0.06419630       2.57528640      12.65262133
Cu      12.61922195       1.27575441      13.87788638
Cu       8.74835491       4.30274542      13.91717045
Cu      19.82080784       1.21781746      13.85873701
Cu      12.60539361       3.75039823      13.90910816
Cu      14.34233752       2.52876578      12.59162856
Cu       3.79541215       0.04539753      12.69316981
Cu       1.53167162       0.11295947      13.96665536
Cu      14.50201690       0.06136677      15.27125446
Cu      18.16900807       2.54230485      12.57601021
Cu      16.39459536       3.88781212      14.13380513
O        9.49027371       0.89002886      13.36270376
O        2.48229708       3.75681896      13.33874102
O        0.06621288       1.27337223      14.13365604
O       16.20876267       2.27280285      13.22831362
O       12.68478818       5.08427337      15.24688246
O        7.32659414       3.07922047      14.49900029
O       16.30869094       0.01785235      15.50863303
O        4.62427184       0.50209306      14.45525382
