54
Lattice="21.66 0.0 0.0 0.0 5.10531 0.0 0.0 0.0 22.55266" Properties=species:S:1:pos:R:3 entry_id=128 rank=80 energy=-201.17990112304688 pbc="T T F"
Cu       0.00000000       0.00000000      10.00000000
Cu       3.61000000       0.00000000      10.00000000
Cu       7.22000000       0.00000000      10.00000000
Cu      10.83000000       0.00000000      10.00000000
Cu      14.44000000       0.00000000      10.00000000
Cu      18.05000000       0.00000000      10.00000000
Cu       0.00000000       2.55265548      10.00000000
Cu       3.61000000       2.55265548      10.00000000
Cu       7.22000000       2.55265548      10.00000000
Cu      10.83000000       2.55265548      10.00000000
Cu      14.44000000       2.55265548      10.00000000
Cu      18.05000000       2.55265548      10.00000000
Cu       1.80500000       1.27632774      11.27632774
Cu       5.41500000       1.27632774      11.27632774
Cu       9.02500000       1.27632774      11.27632774
Cu      12.63500000       1.27632774      11.27632774
Cu      16.24500000       1.27632774      11.27632774
Cu      19.85500000       1.27632774      11.27632774
Cu       1.80500000       3.82898322      11.27632774
Cu       5.41500000       3.82898322      11.27632774
Cu       9.02500000       3.82898322      11.27632774
Cu      12.63500000       3.82898322      11.27632774
Cu      16.24500000       3.82898322      11.27632774
Cu      19.85500000       3.82898322      11.27632774
Cu       0.10311257       5.05012002      12.55315728
Cu       2.38802159       4.80330339      13.35652657
Cu       7.24429059       0.08363063      12.50051113
Cu      12.59004204       3.82946340      13.96479439
Cu      12.60113796       1.32196696      13.97999148
Cu      17.00400556       0.02123127      13.29712679
Cu       4.88429533       4.68825725      13.60916305
Cu       7.24356887       2.62335599      12.67713591
Cu       3.49647555       2.51453411      12.68025447
Cu      10.81366574       2.55318382      12.50172958
Cu      14.49827938       2.57061257      12.54598563
Cu       0.94439111       2.66761550      13.23681965
Cu       9.05163102       1.36848162      13.91182292
Cu       7.10405843       4.23162846      14.77103948
Cu      17.88812662       2.47115162      12.57459686
Cu      10.85452038       0.03254799      12.45440565
Cu       9.37606224       3.86455739      13.97282562
Cu      19.65815315       0.34353298      13.68375074
Cu      20.09320818       2.84822429      13.67310993
Cu      14.46597815       0.02234050      12.59187315
Cu      15.08248173       1.36452133      14.84454594
Cu      15.06842677       3.91522535      14.85891790
O        8.57479616       0.06929866      15.20703462
O       21.25366448       1.41193741      13.92907902
O       18.58234321       3.92211565      13.78908245
O       13.70994405       2.61682365      15.02597829
O       11.28176739       0.01681174      14.36547760
O        5.83097482       3.15854965      14.00431118
O       16.34131760       0.09573453      15.11848787
O        3.69661739       0.96272950      13.76901929
