54
Lattice="21.66 0.0 0.0 0.0 5.10531 0.0 0.0 0.0 22.55266" Properties=species:S:1:pos:R:3 entry_id=67 rank=65 energy=-201.31997680664062 pbc="T T F"
Cu       0.00000000       0.00000000      10.00000000
Cu       3.61000000       0.00000000      10.00000000
Cu       7.22000000       0.00000000      10.00000000
Cu      10.83000000       0.00000000      10.00000000
Cu      14.44000000       0.00000000      10.00000000
Cu      18.05000000       0.00000000      10.00000000
Cu       0.00000000       2.55265548      10.00000000
Cu       3.61000000       2.55265548      10.00000000
Cu       7.22000000       2.55265548      10.00000000
Cu      10.83000000       2.55265548      10.00000000
Cu      14.44000000       2.55265548      10.00000000
Cu      18.05000000       2.55265548      10.00000000
Cu       1.80500000       1.27632774      11.27632774
Cu       5.41500000       1.27632774      11.27632774
Cu       9.02500000       1.27632774      11.27632774
Cu      12.63500000       1.27632774      11.27632774
Cu      16.24500000       1.27632774      11.27632774
Cu      19.85500000       1.27632774      11.27632774
Cu       1.80500000       3.82898322      11.27632774
Cu       5.41500000       3.82898322      11.27632774
Cu       9.02500000       3.82898322      11.27632774
Cu      12.63500000       3.82898322      11.27632774
Cu      16.24500000       3.82898322      11.27632774
Cu      19.85500000       3.82898322      11.27632774
Cu      21.58592816       5.09769341      12.54648555
Cu       1.82322351       3.87073962      14.01882211
Cu       7.28822599       5.08899206      12.63433185
Cu      14.42982843       0.01531802      12.49069451
Cu      10.89277733       5.04337785      12.47954362
Cu      18.03988647       0.00903749      12.54209881
Cu       3.69678485       2.57154536      12.52845878
Cu       3.59548631       0.01257744      12.53122310
Cu       7.23493169       2.64240291      12.64093073
Cu      10.88302949       2.49185223      12.61827232
Cu      18.44085421       1.32021003      14.82761056
Cu      21.64670933       2.55367450      12.53857367
Cu      13.42262206       1.22773077      14.59906213
Cu       9.13468851       3.95085854      13.80112173
Cu      21.00765731       1.44964028      14.72818939
Cu      10.76365749       0.93799757      14.70597100
Cu      14.42508339       2.50981734      12.47226223
Cu       1.90326974       1.32072369      14.07140418
Cu      18.64324118       3.80094565      14.78111197
Cu      12.77545590       3.84587454      13.92105196
Cu      18.05635344       2.55813018      12.56175447
Cu      16.01224433       3.74313115      13.99850183
O        9.54392306       2.13078566      14.08608330
O        0.55737456       0.06416370      14.46496094
O       19.71755355       2.50484165      15.45798163
O       14.45748919       2.75463578      14.43087446
O       12.21912963       5.08783434      15.25944822
O        6.01950342       1.26900020      13.15371171
O       17.29748900       5.03791014      14.45695684
O        3.15403336       2.63926404      14.32929254
