54
Lattice="21.66 0.0 0.0 0.0 5.10531 0.0 0.0 0.0 22.55266" Properties=species:S:1:pos:R:3 entry_id=164 rank=40 energy=-201.59591674804688 pbc="T T F"
Cu       0.00000000       0.00000000      10.00000000
Cu       3.61000000       0.00000000      10.00000000
Cu       7.22000000       0.00000000      10.00000000
Cu      10.83000000       0.00000000      10.00000000
Cu      14.44000000       0.00000000      10.00000000
Cu      18.05000000       0.00000000      10.00000000
Cu       0.00000000       2.55265548      10.00000000
Cu       3.61000000       2.55265548      10.00000000
Cu       7.22000000       2.55265548      10.00000000
Cu      10.83000000       2.55265548      10.00000000
Cu      14.44000000       2.55265548      10.00000000
Cu      18.05000000       2.55265548      10.00000000
Cu       1.80500000       1.27632774      11.27632774
Cu       5.41500000       1.27632774      11.27632774
Cu       9.02500000       1.27632774      11.27632774
Cu      12.63500000       1.27632774      11.27632774
Cu      16.24500000       1.27632774      11.27632774
Cu      19.85500000       1.27632774      11.27632774
Cu       1.80500000       3.82898322      11.27632774
Cu       5.41500000       3.82898322      11.27632774
Cu       9.02500000       3.82898322      11.27632774
Cu      12.63500000       3.82898322      11.27632774
Cu      16.24500000       3.82898322      11.27632774
Cu      19.85500000       3.82898322      11.27632774
Cu      21.64854761       5.03128403      12.42576165
Cu       1.79098775       3.97773926      13.84829943
Cu       7.26815126       5.08444891      12.52907691
Cu      13.45078812       1.33210989      14.55589707
Cu      12.56783248       3.85192657      13.80655342
Cu      18.09390539       5.10256497      12.46928199
Cu       5.38548432       1.37368751      14.10130452
Cu       5.43063491       3.88306977      13.90066364
Cu       7.20828040       2.53761153      12.52451602
Cu      10.87314938       2.53089466      12.52242311
Cu      14.38549465       2.57235053      12.51197617
Cu       3.54132813       2.61185968      12.48793377
Cu      10.76267609       1.28958617      14.81179798
Cu       8.07443928       1.24642861      14.61086992
Cu       0.09668647       2.59615757      12.60684831
Cu      10.78042252       0.01453152      12.53026005
Cu       9.08636117       3.78117140      13.80684906
Cu       2.73752449       1.38211445      14.71907914
Cu       0.14640326       0.86009397      14.57536814
Cu      14.44222273       0.01045974      12.53632515
Cu      16.18506267       1.20968622      14.08694290
Cu      16.13703687       3.79181060      14.03428059
O        9.37017703       2.43567139      15.10861608
O        1.61965299       0.08144327      15.33988751
O       20.48337238       1.33181382      13.31626794
O       14.91021427       2.49250617      14.57170558
O       12.15475199       0.12908836      15.03762338
O        6.64110251       0.06550143      14.56461500
O       17.48112366       5.02589007      14.21515775
O        4.04029044       2.67724389      14.40424973
