54
Lattice="21.66 0.0 0.0 0.0 5.10531 0.0 0.0 0.0 22.55266" Properties=species:S:1:pos:R:3 entry_id=175 rank=186 energy=-198.54824829101562 pbc="T T F"
Cu       0.00000000       0.00000000      10.00000000
Cu       3.61000000       0.00000000      10.00000000
Cu       7.22000000       0.00000000      10.00000000
Cu      10.83000000       0.00000000      10.00000000
Cu      14.44000000       0.00000000      10.00000000
Cu      18.05000000       0.00000000      10.00000000
Cu       0.00000000       2.55265548      10.00000000
Cu       3.61000000       2.55265548      10.00000000
Cu       7.22000000       2.55265548      10.00000000
Cu      10.83000000       2.55265548      10.00000000
Cu      14.44000000       2.55265548      10.00000000
Cu      18.05000000       2.55265548      10.00000000
Cu       1.80500000       1.27632774      11.27632774
Cu       5.41500000       1.27632774      11.27632774
Cu       9.02500000       1.27632774      11.27632774
Cu      12.63500000       1.27632774      11.27632774
Cu      16.24500000       1.27632774      11.27632774
Cu      19.85500000       1.27632774      11.27632774
Cu       1.80500000       3.82898322      11.27632774
Cu       5.41500000       3.82898322      11.27632774
Cu       9.02500000       3.82898322      11.27632774
Cu      12.63500000       3.82898322      11.27632774
Cu      16.24500000       3.82898322      11.27632774
Cu      19.85500000       3.82898322      11.27632774
Cu      21.53149202       0.01232907      12.60467158
Cu       3.62767691       2.54357035      12.57030455
Cu       7.31896125       0.11937303      12.49867710
Cu      14.44681592       0.01270760      12.48628416
Cu      10.81907195       5.07414737      12.56026733
Cu      16.10384044       3.97973541      14.02538989
Cu       5.12805988       4.97366168      13.61513409
Cu       7.16271814       2.54807890      12.59480151
Cu       9.17358128       1.35364388      13.89549013
Cu      10.89707278       2.59217522      12.59399827
Cu      16.09077202       1.41524871      14.05214290
Cu      21.65169641       2.48221728      12.52672216
Cu      12.57397009       1.09849187      13.83501161
Cu       8.79551034       3.91313031      13.92734722
Cu      19.69058623       1.28412956      13.83925198
Cu      10.96411984       4.59508733      14.95627600
Cu      14.43951964       2.50826762      12.45108420
Cu       2.36588144       5.03190801      13.54957282
Cu      18.57909514       3.86236197      14.61880023
Cu      12.92573927       3.68714380      13.92259317
Cu      17.99527225       2.58529801      12.50482090
Cu      21.11331910       3.38795166      14.74310993
O        9.57379270       3.46254888      15.70548785
O        0.93711130       3.87889426      13.75740844
O       19.61747001       2.52808314      15.31854555
O       14.74142049       2.73052037      14.43533807
O        9.73179570       2.03122427      15.58852542
O        6.66639757       3.94316569      13.86903154
O       17.44170532       0.16784005      14.30178194
O        3.75720226       1.07711446      13.77647474
