54
Lattice="21.66 0.0 0.0 0.0 5.10531 0.0 0.0 0.0 22.55266" Properties=species:S:1:pos:R:3 entry_id=93 rank=95 energy=-201.01126098632812 pbc="T T F"
Cu       0.00000000       0.00000000      10.00000000
Cu       3.61000000       0.00000000      10.00000000
Cu       7.22000000       0.00000000      10.00000000
Cu      10.83000000       0.00000000      10.00000000
Cu      14.44000000       0.00000000      10.00000000
Cu      18.05000000       0.00000000      10.00000000
Cu       0.00000000       2.55265548      10.00000000
Cu       3.61000000       2.55265548      10.00000000
Cu       7.22000000       2.55265548      10.00000000
Cu      10.83000000       2.55265548      10.00000000
Cu      14.44000000       2.55265548      10.00000000
Cu      18.05000000       2.55265548      10.00000000
Cu       1.80500000       1.27632774      11.27632774
Cu       5.41500000       1.27632774      11.27632774
Cu       9.02500000       1.27632774      11.27632774
Cu      12.63500000       1.27632774      11.27632774
Cu      16.24500000       1.27632774      11.27632774
Cu      19.85500000       1.27632774      11.27632774
Cu       1.80500000       3.82898322      11.27632774
Cu       5.41500000       3.82898322      11.27632774
Cu       9.02500000       3.82898322      11.27632774
Cu      12.63500000       3.82898322      11.27632774
Cu      16.24500000       3.82898322      11.27632774
Cu      19.85500000       3.82898322      11.27632774
Cu      21.60681391       5.09199791      12.57106066
Cu       3.57387742       5.08301694      12.58184539
Cu       7.20624965       0.05347725      12.53827965
Cu      12.77177785       3.70499301      14.12032129
Cu      10.28171402       2.63526562      15.28893757
Cu      18.04584181       5.07887031      12.65071551
Cu       5.41480991       1.34107673      13.92824010
Cu       5.53223578       3.83061602      13.88588571
Cu       7.19023285       2.58423521      12.53242226
Cu      10.86856936       2.55731595      12.55599049
Cu      14.50996962       2.52956951      12.56628045
Cu       3.63924989       2.61881572      12.59965423
Cu       9.01723100       1.35575936      13.71425648
Cu       7.55779193       0.51810799      15.44026885
Cu       0.15676982       2.60784960      12.42083677
Cu      10.93303144       0.01445029      12.63224342
Cu       8.94338106       3.96396315      13.76589646
Cu       1.50195946       1.26236022      14.07435155
Cu      20.02157922       2.03912686      13.78387283
Cu      14.32315846       0.03261486      12.44256675
Cu      17.39913622       2.34602451      13.27004321
Cu      15.80031608       4.47743865      14.15798412
O        9.24279468       1.18587379      15.68974880
O       21.36395141       0.87577639      14.29058580
O       18.96771699       3.43214587      13.16891162
O       14.51946788       3.18785259      14.37621399
O       11.02604238       4.14968710      14.50294054
O        5.84615443       5.08484599      15.24052535
O       17.00035812       0.72565671      14.11101612
O        3.32611250       1.31321566      14.01591616
