54
Lattice="21.66 0.0 0.0 0.0 5.10531 0.0 0.0 0.0 22.55266" Properties=species:S:1:pos:R:3 entry_id=158 rank=141 energy=-200.54263305664062 pbc="T T F"
Cu       0.00000000       0.00000000      10.00000000
Cu       3.61000000       0.00000000      10.00000000
Cu       7.22000000       0.00000000      10.00000000
Cu      10.83000000       0.00000000      10.00000000
Cu      14.44000000       0.00000000      10.00000000
Cu      18.05000000       0.00000000      10.00000000
Cu       0.00000000       2.55265548      10.00000000
Cu       3.61000000       2.55265548      10.00000000
Cu       7.22000000       2.55265548      10.00000000
Cu      10.83000000       2.55265548      10.00000000
Cu      14.44000000       2.55265548      10.00000000
Cu      18.05000000       2.55265548      10.00000000
Cu       1.80500000       1.27632774      11.27632774
Cu       5.41500000       1.27632774      11.27632774
Cu       9.02500000       1.27632774      11.27632774
Cu      12.63500000       1.27632774      11.27632774
Cu      16.24500000       1.27632774      11.27632774
Cu      19.85500000       1.27632774      11.27632774
Cu       1.80500000       3.82898322      11.27632774
Cu       5.41500000       3.82898322      11.27632774
Cu       9.02500000       3.82898322      11.27632774
Cu      12.63500000       3.82898322      11.27632774
Cu      16.24500000       3.82898322      11.27632774
Cu      19.85500000       3.82898322      11.27632774
Cu       0.01444632       5.10322574      12.50908756
Cu       1.76474291       3.72476065      13.84708900
Cu       7.01095442       5.05562378      12.55683959
Cu      14.41377216       5.04767950      12.62333131
Cu      10.94193520       0.07206397      12.50918031
Cu      17.98292277       5.07628804      12.46925083
Cu       3.62479666       2.65190863      12.55582716
Cu       3.72750411       0.01095327      12.63956510
Cu       7.20943714       2.57969317      12.60604883
Cu      10.75039118       2.60298694      12.62647836
Cu      14.44446450       0.80052232      15.14554024
Cu      21.64980738       2.48270989      12.57547742
Cu      12.57501453       1.47495080      13.77463984
Cu       8.98176163       0.13935969      13.97465195
Cu      19.21374337       0.96285931      14.27099312
Cu      11.82199604       4.40529857      14.94023982
Cu      14.48779409       2.51426382      12.57380523
Cu       1.87458057       1.12126810      14.13110957
Cu      20.92984547       3.92700234      14.53845984
Cu      14.20247324       3.36323170      15.10186468
Cu      18.14378224       2.54055199      12.56256948
Cu      16.46645168       3.76603032      14.02466352
O       10.29330029       3.93511675      14.04504338
O        0.68258410       5.02160447      14.91542042
O       19.98881978       2.53901705      13.77350589
O       15.45870119       2.17800224      14.40697058
O       13.30090072       4.70872787      15.97273781
O        7.52811147       1.22997216      13.87568640
O       17.99516072       4.71817147      14.40363084
O        3.70002533       1.42433555      13.95526560
