54
Lattice="21.66 0.0 0.0 0.0 5.10531 0.0 0.0 0.0 22.55266" Properties=species:S:1:pos:R:3 entry_id=54 rank=132 energy=-200.63125610351562 pbc="T T F"
Cu       0.00000000       0.00000000      10.00000000
Cu       3.61000000       0.00000000      10.00000000
Cu       7.22000000       0.00000000      10.00000000
Cu      10.83000000       0.00000000      10.00000000
Cu      14.44000000       0.00000000      10.00000000
Cu      18.05000000       0.00000000      10.00000000
Cu       0.00000000       2.55265548      10.00000000
Cu       3.61000000       2.55265548      10.00000000
Cu       7.22000000       2.55265548      10.00000000
Cu      10.83000000       2.55265548      10.00000000
Cu      14.44000000       2.55265548      10.00000000
Cu      18.05000000       2.55265548      10.00000000
Cu       1.80500000       1.27632774      11.27632774
Cu       5.41500000       1.27632774      11.27632774
Cu       9.02500000       1.27632774      11.27632774
Cu      12.63500000       1.27632774      11.27632774
Cu      16.24500000       1.27632774      11.27632774
Cu      19.85500000       1.27632774      11.27632774
Cu       1.80500000       3.82898322      11.27632774
Cu       5.41500000       3.82898322      11.27632774
Cu       9.02500000       3.82898322      11.27632774
Cu      12.63500000       3.82898322      11.27632774
Cu      16.24500000       3.82898322      11.27632774
Cu      19.85500000       3.82898322      11.27632774
Cu      19.24646761       2.37264459      13.47138153
Cu      21.64576612       0.09100726      12.59944410
Cu       7.12443038       0.00954139      12.58745508
Cu      10.79065206       5.02758935      12.53284332
Cu      14.32546790       0.02685698      12.56065218
Cu      16.36611343       0.20591745      14.09116600
Cu       5.14672310       3.37046803      13.78496219
Cu       3.69929777       0.04383548      12.46089143
Cu       7.20720445       2.46131259      12.50790510
Cu      10.77092542       2.51483081      12.55220172
Cu      12.46604625       1.08860072      13.81984120
Cu       0.12372808       2.55233068      12.56823506
Cu      10.94919473       2.29564557      15.36882145
Cu       8.96345812       1.20371525      13.85448325
Cu      18.18373508       5.07933171      12.52447245
Cu      10.62348564       4.85070656      15.14603850
Cu       8.94423371       3.71160422      13.82568500
Cu       2.21302414       1.59266752      13.87539653
Cu       2.12452764       4.13098772      14.02967849
Cu      12.50582639       3.77495181      13.86758214
Cu      16.77038386       2.68424518      13.55704094
Cu      14.58294190       2.04630833      14.37743053
O        9.49882584       1.18188633      15.68773277
O        0.91480843       0.37570850      14.27063179
O       20.40117628       3.75987960      13.26635517
O       15.29214785       3.83819056      13.78854530
O       12.86799769       2.44878495      15.22541397
O        6.94818358       3.76020293      14.00771298
O       17.93115713       1.25185372      14.12812319
O        3.45150362       2.88671234      14.22450275
