54
Lattice="21.66 0.0 0.0 0.0 5.10531 0.0 0.0 0.0 22.55266" Properties=species:S:1:pos:R:3 entry_id=21 rank=136 energy=-200.61282348632812 pbc="T T F"
Cu       0.00000000       0.00000000      10.00000000
Cu       3.61000000       0.00000000      10.00000000
Cu       7.22000000       0.00000000      10.00000000
Cu      10.83000000       0.00000000      10.00000000
Cu      14.44000000       0.00000000      10.00000000
Cu      18.05000000       0.00000000      10.00000000
Cu       0.00000000       2.55265548      10.00000000
Cu       3.61000000       2.55265548      10.00000000
Cu       7.22000000       2.55265548      10.00000000
Cu      10.83000000       2.55265548      10.00000000
Cu      14.44000000       2.55265548      10.00000000
Cu      18.05000000       2.55265548      10.00000000
Cu       1.80500000       1.27632774      11.27632774
Cu       5.41500000       1.27632774      11.27632774
Cu       9.02500000       1.27632774      11.27632774
Cu      12.63500000       1.27632774      11.27632774
Cu      16.24500000       1.27632774      11.27632774
Cu      19.85500000       1.27632774      11.27632774
Cu       1.80500000       3.82898322      11.27632774
Cu       5.41500000       3.82898322      11.27632774
Cu       9.02500000       3.82898322      11.27632774
Cu      12.63500000       3.82898322      11.27632774
Cu      16.24500000       3.82898322      11.27632774
Cu      19.85500000       3.82898322      11.27632774
Cu      18.03881123       0.09953429      12.59228795
Cu       4.21832598       2.71959872      13.20881519
Cu       7.23382862       0.00768120      12.59336227
Cu      10.84446009       0.01965242      12.51618664
Cu      13.16375626       4.90972333      13.31842001
Cu      15.56309358       0.16758805      13.55480188
Cu       6.93751142       3.74062209      14.89549690
Cu      19.96070105       3.97726455      13.98741758
Cu       7.22960048       2.49861107      12.59031870
Cu      10.95886830       2.59091247      12.57207474
Cu      13.77617867       2.22364912      13.40833808
Cu      21.58466806       2.56574827      12.48731367
Cu       9.40671661       2.56045231      16.05576133
Cu       9.06648565       1.29208923      13.81332779
Cu      20.04204672       1.39359657      14.24029920
Cu       9.40005561       0.01466946      16.04713323
Cu       9.15655393       3.83244906      13.78690738
Cu       1.28754692       1.14129112      13.99850689
Cu      21.59910939       5.06045956      12.44237339
Cu      11.64760152       1.27247327      14.52032317
Cu      18.12986549       2.63599742      12.50949682
Cu      17.02273614       2.10364709      14.57520003
O        8.10321053       3.83750235      16.30108796
O       21.42167053       0.13688000      14.50492668
O       18.76903945       2.67716326      14.69680745
O       15.28826111       1.63560646      14.62535486
O       10.71431734       1.28721435      16.14660325
O        5.76484479       3.73199194      13.45324148
O       14.74767354       3.80582445      12.72183593
O        2.51839043       2.08976294      13.02493372
