54
Lattice="21.66 0.0 0.0 0.0 5.10531 0.0 0.0 0.0 22.55266" Properties=species:S:1:pos:R:3 entry_id=52 rank=54 energy=-201.46270751953125 pbc="T T F"
Cu       0.00000000       0.00000000      10.00000000
Cu       3.61000000       0.00000000      10.00000000
Cu       7.22000000       0.00000000      10.00000000
Cu      10.83000000       0.00000000      10.00000000
Cu      14.44000000       0.00000000      10.00000000
Cu      18.05000000       0.00000000      10.00000000
Cu       0.00000000       2.55265548      10.00000000
Cu       3.61000000       2.55265548      10.00000000
Cu       7.22000000       2.55265548      10.00000000
Cu      10.83000000       2.55265548      10.00000000
Cu      14.44000000       2.55265548      10.00000000
Cu      18.05000000       2.55265548      10.00000000
Cu       1.80500000       1.27632774      11.27632774
Cu       5.41500000       1.27632774      11.27632774
Cu       9.02500000       1.27632774      11.27632774
Cu      12.63500000       1.27632774      11.27632774
Cu      16.24500000       1.27632774      11.27632774
Cu      19.85500000       1.27632774      11.27632774
Cu       1.80500000       3.82898322      11.27632774
Cu       5.41500000       3.82898322      11.27632774
Cu       9.02500000       3.82898322      11.27632774
Cu      12.63500000       3.82898322      11.27632774
Cu      16.24500000       3.82898322      11.27632774
Cu      19.85500000       3.82898322      11.27632774
Cu      21.63299756       5.07909741      12.54580746
Cu       2.07479085       3.76226004      13.87034393
Cu       7.11117294       0.01351173      12.59938420
Cu      10.81016706       0.02250105      12.54969103
Cu      15.62598349       5.07600840      13.43286557
Cu      18.15562549       4.88879365      12.66644335
Cu       5.09503372       1.88237112      13.73387646
Cu       3.67517947       0.01327166      12.46427603
Cu       7.21822866       2.65144113      12.50892009
Cu      10.83081908       2.54714429      12.56434365
Cu      14.45366877       2.43786655      12.56357421
Cu       0.09346846       2.52258809      12.57430464
Cu      10.83631019       2.73138601      15.15744573
Cu       8.95599391       1.35977903      13.84517122
Cu      21.21985899       1.19769435      14.84426441
Cu      10.79421121       0.20480784      15.22984611
Cu       8.97628043       3.91132882      13.79017440
Cu       2.06310815       1.20556226      13.97474686
Cu      21.25383458       3.74634123      14.88982218
Cu      12.99167240       0.53201859      13.77335796
Cu      19.39700125       2.64041962      13.37395718
Cu      16.94733700       2.56308401      13.26856637
O        9.57505440       3.99744882      15.58607241
O        0.95602967       5.03008042      14.93373254
O       19.95412902       2.48138698      15.17931443
O       14.01030078       4.20920151      13.20197308
O       12.14535430       1.46585760      15.12240538
O        6.88650599       1.38454688      13.99678503
O       17.17154071       0.81754925      13.96127147
O        3.40844575       2.47509915      14.11439342
