54
Lattice="21.66 0.0 0.0 0.0 5.10531 0.0 0.0 0.0 22.55266" Properties=species:S:1:pos:R:3 entry_id=84 rank=174 energy=-199.72244262695312 pbc="T T F"
Cu       0.00000000       0.00000000      10.00000000
Cu       3.61000000       0.00000000      10.00000000
Cu       7.22000000       0.00000000      10.00000000
Cu      10.83000000       0.00000000      10.00000000
Cu      14.44000000       0.00000000      10.00000000
Cu      18.05000000       0.00000000      10.00000000
Cu       0.00000000       2.55265548      10.00000000
Cu       3.61000000       2.55265548      10.00000000
Cu       7.22000000       2.55265548      10.00000000
Cu      10.83000000       2.55265548      10.00000000
Cu      14.44000000       2.55265548      10.00000000
Cu      18.05000000       2.55265548      10.00000000
Cu       1.80500000       1.27632774      11.27632774
Cu       5.41500000       1.27632774      11.27632774
Cu       9.02500000       1.27632774      11.27632774
Cu      12.63500000       1.27632774      11.27632774
Cu      16.24500000       1.27632774      11.27632774
Cu      19.85500000       1.27632774      11.27632774
Cu       1.80500000       3.82898322      11.27632774
Cu       5.41500000       3.82898322      11.27632774
Cu       9.02500000       3.82898322      11.27632774
Cu      12.63500000       3.82898322      11.27632774
Cu      16.24500000       3.82898322      11.27632774
Cu      19.85500000       3.82898322      11.27632774
Cu      21.65696188       0.03899219      12.55917430
Cu       2.18888070       3.72032965      14.22176619
Cu       7.32652753       0.06438430      12.51676514
Cu      10.78145478       0.02479174      12.55757438
Cu      15.43372236       4.66722761      13.60717876
Cu      18.03184308       0.15321037      12.39281776
Cu       5.07965437       1.22150436      13.91129451
Cu       3.51435565       5.06501475      12.52166686
Cu       3.54403583       2.53542284      12.48667402
Cu      10.88485904       2.58392123      12.60076920
Cu      14.51974711       2.54624101      12.50229179
Cu       0.04407686       2.62990505      12.59677502
Cu      12.85213443       4.09454831      13.94860241
Cu       8.99066019       1.28761286      13.79986360
Cu       0.15416524       1.21457795      14.76484488
Cu      10.65526465       2.72235252      15.20402031
Cu       8.95703267       3.94207389      13.79825601
Cu       2.66367858       1.17011451      14.79275891
Cu      19.36008529       1.72164760      13.71541351
Cu      12.91655722       1.56910787      14.18325346
Cu      16.98565468       2.37340194      13.46256915
Cu      17.69196763       0.19737759      14.66691598
O        8.83406985       2.60710160      15.11552736
O        1.36427952       5.05083066      15.25962352
O       20.82221234       2.67960537      14.31986731
O       13.79724307       0.38170481      13.04767161
O       12.44988107       2.91267942      15.33977279
O        5.63228061       4.70592021      13.17706896
O       16.62998750       3.76780279      14.71530748
O        3.85607012       2.55828153      14.47737979
