54
Lattice="21.66 0.0 0.0 0.0 5.10531 0.0 0.0 0.0 22.55266" Properties=species:S:1:pos:R:3 entry_id=19 rank=69 energy=-201.26962280273438 pbc="T T F"
Cu       0.00000000       0.00000000      10.00000000
Cu       3.61000000       0.00000000      10.00000000
Cu       7.22000000       0.00000000      10.00000000
Cu      10.83000000       0.00000000      10.00000000
Cu      14.44000000       0.00000000      10.00000000
Cu      18.05000000       0.00000000      10.00000000
Cu       0.00000000       2.55265548      10.00000000
Cu       3.61000000       2.55265548      10.00000000
Cu       7.22000000       2.55265548      10.00000000
Cu      10.83000000       2.55265548      10.00000000
Cu      14.44000000       2.55265548      10.00000000
Cu      18.05000000       2.55265548      10.00000000
Cu       1.80500000       1.27632774      11.27632774
Cu       5.41500000       1.27632774      11.27632774
Cu       9.02500000       1.27632774      11.27632774
Cu      12.63500000       1.27632774      11.27632774
Cu      16.24500000       1.27632774      11.27632774
Cu      19.85500000       1.27632774      11.27632774
Cu       1.80500000       3.82898322      11.27632774
Cu       5.41500000       3.82898322      11.27632774
Cu       9.02500000       3.82898322      11.27632774
Cu      12.63500000       3.82898322      11.27632774
Cu      16.24500000       3.82898322      11.27632774
Cu      19.85500000       3.82898322      11.27632774
Cu      18.08580382       5.08635324      12.49618915
Cu       4.04102352       2.64098817      13.18784210
Cu       7.23077999       5.10456720      12.57929470
Cu      10.82141761       5.08301925      12.51371461
Cu      14.44042107       5.10521041      12.69959205
Cu      16.72214115       1.12708574      14.25778605
Cu       6.78792855       3.70514679      14.84877351
Cu      19.90426177       3.89473479      13.84861801
Cu       7.22355573       2.48336887      12.58317221
Cu      10.81736907       2.57795991      12.49948731
Cu      14.52991049       2.63149795      12.60471250
Cu      21.59649576       2.54586246      12.50092350
Cu       9.16092487       2.55273981      16.01663160
Cu       9.07611275       1.26257481      13.80163827
Cu      19.68969160       1.37329743      14.17604618
Cu       9.15690454       5.08092787      16.00177154
Cu       9.08213430       3.81521390      13.77825620
Cu       1.04639457       1.10399595      14.15582890
Cu      21.59035308       5.04737574      12.44630588
Cu      11.70693528       1.34710029      14.49254697
Cu      18.10803606       2.54218710      12.47141791
Cu      16.74160374       3.67741523      14.24214660
O        7.86457003       3.82003105      16.34116985
O       21.11387371       0.20351024      14.61102935
O       18.08990790       2.39060534      14.64359647
O       13.12709173       1.46336752      13.31469115
O       10.46616404       1.26536782      15.86811169
O        5.63653566       3.60367367      13.37964629
O       15.42711059       4.93588705      14.37432216
O        2.35428076       1.92166253      13.14202265
