54
Lattice="21.66 0.0 0.0 0.0 5.10531 0.0 0.0 0.0 22.55266" Properties=species:S:1:pos:R:3 entry_id=10 rank=52 energy=-201.46600341796875 pbc="T T F"
Cu       0.00000000       0.00000000      10.00000000
Cu       3.61000000       0.00000000      10.00000000
Cu       7.22000000       0.00000000      10.00000000
Cu      10.83000000       0.00000000      10.00000000
Cu      14.44000000       0.00000000      10.00000000
Cu      18.05000000       0.00000000      10.00000000
Cu       0.00000000       2.55265548      10.00000000
Cu       3.61000000       2.55265548      10.00000000
Cu       7.22000000       2.55265548      10.00000000
Cu      10.83000000       2.55265548      10.00000000
Cu      14.44000000       2.55265548      10.00000000
Cu      18.05000000       2.55265548      10.00000000
Cu       1.80500000       1.27632774      11.27632774
Cu       5.41500000       1.27632774      11.27632774
Cu       9.02500000       1.27632774      11.27632774
Cu      12.63500000       1.27632774      11.27632774
Cu      16.24500000       1.27632774      11.27632774
Cu      19.85500000       1.27632774      11.27632774
Cu       1.80500000       3.82898322      11.27632774
Cu       5.41500000       3.82898322      11.27632774
Cu       9.02500000       3.82898322      11.27632774
Cu      12.63500000       3.82898322      11.27632774
Cu      16.24500000       3.82898322      11.27632774
Cu      19.85500000       3.82898322      11.27632774
Cu       0.05335629       5.06847382      12.51328275
Cu       1.91385477       3.69418533      13.71613052
Cu       7.21226237       0.01441894      12.61523715
Cu      10.80265431       5.09273575      12.54048437
Cu      14.54377361       0.04092203      12.56262357
Cu      18.04770139       0.00078247      12.51489140
Cu       4.24635845       1.86595370      13.85351748
Cu       3.53941868       5.06649306      12.47599439
Cu       7.24239868       2.62547108      12.58505121
Cu      10.82041360       2.58765374      12.54643540
Cu      14.11129921       2.77713356      13.46096040
Cu      21.64309366       2.55378269      12.51015737
Cu       9.76568317       2.54877570      15.95717637
Cu       9.13267902       1.30278442      13.82918819
Cu      19.81323922       1.47818746      14.04454299
Cu       9.75623569       0.01439640      15.95982172
Cu       8.98447494       3.85892493      13.83108439
Cu       1.24256686       1.15451638      14.33392325
Cu      19.90731719       4.04276455      14.06248364
Cu      11.87092301       1.26410471      14.64831826
Cu      18.08705185       2.51490927      12.44408541
Cu      16.82352116       3.58222214      14.19375004
O        8.50168391       3.82886425      15.68691124
O       21.19615482       0.27613764      14.53512056
O       18.51861271       2.82152291      14.47796645
O       13.08392535       1.26346551      13.25525424
O       11.03463129       1.27605349      16.29053228
O        5.92568235       1.37430607      13.28127172
O       15.11438411       4.16422221      14.11212526
O        2.67260863       2.27587201      14.68670956
