54
Lattice="21.66 0.0 0.0 0.0 5.10531 0.0 0.0 0.0 22.55266" Properties=species:S:1:pos:R:3 entry_id=134 rank=181 energy=-199.3636016845703 pbc="T T F"
Cu       0.00000000       0.00000000      10.00000000
Cu       3.61000000       0.00000000      10.00000000
Cu       7.22000000       0.00000000      10.00000000
Cu      10.83000000       0.00000000      10.00000000
Cu      14.44000000       0.00000000      10.00000000
Cu      18.05000000       0.00000000      10.00000000
Cu       0.00000000       2.55265548      10.00000000
Cu       3.61000000       2.55265548      10.00000000
Cu       7.22000000       2.55265548      10.00000000
Cu      10.83000000       2.55265548      10.00000000
Cu      14.44000000       2.55265548      10.00000000
Cu      18.05000000       2.55265548      10.00000000
Cu       1.80500000       1.27632774      11.27632774
Cu       5.41500000       1.27632774      11.27632774
Cu       9.02500000       1.27632774      11.27632774
Cu      12.63500000       1.27632774      11.27632774
Cu      16.24500000       1.27632774      11.27632774
Cu      19.85500000       1.27632774      11.27632774
Cu       1.80500000       3.82898322      11.27632774
Cu       5.41500000       3.82898322      11.27632774
Cu       9.02500000       3.82898322      11.27632774
Cu      12.63500000       3.82898322      11.27632774
Cu      16.24500000       3.82898322      11.27632774
Cu      19.85500000       3.82898322      11.27632774
Cu      17.99631186       0.05465459      12.55781040
Cu       4.03332820       2.90612215      13.09712404
Cu       7.23423265       5.10217462      12.58802408
Cu      10.82845615       0.02431343      12.51733025
Cu      13.11583284       4.92577934      13.34075355
Cu      15.51345596       0.19687410      13.51593190
Cu       6.89720129       3.72161130      14.86342819
Cu      19.78698289       3.91110175      13.93711323
Cu       7.22844638       2.49025827      12.58139678
Cu      10.96875122       2.59218725      12.59071959
Cu      13.70020725       2.26015351      13.42128788
Cu       0.28590364       2.51682207      13.05174885
Cu       9.40311748       2.56051047      16.05521704
Cu       9.05247495       1.28987469      13.81462379
Cu      19.78246054       1.33446991      13.81773411
Cu       9.39538305       0.02096986      16.04947670
Cu       9.14269148       3.82870577      13.79006366
Cu       0.34354418       0.75766804      14.80493652
Cu      21.57072759       0.02202893      12.51200654
Cu      11.59376204       1.26735147      14.55839112
Cu      18.04411196       2.61926981      12.47276330
Cu      16.96275182       2.11184114      14.58460135
O        8.09320967       3.84221320      16.24302019
O        0.08297059       4.07937684      14.28924873
O       18.70553707       2.57932096      14.81621086
O       15.21963637       1.66625207      14.58846921
O       10.70797085       1.29066080      16.21069563
O        5.71177530       3.65510066      13.43389384
O       14.68759212       3.82666361      12.69881503
O        2.28414544       2.51564700      12.72744568
