54
Lattice="21.66 0.0 0.0 0.0 5.10531 0.0 0.0 0.0 22.55266" Properties=species:S:1:pos:R:3 entry_id=33 rank=38 energy=-201.60189819335938 pbc="T T F"
Cu       0.00000000       0.00000000      10.00000000
Cu       3.61000000       0.00000000      10.00000000
Cu       7.22000000       0.00000000      10.00000000
Cu      10.83000000       0.00000000      10.00000000
Cu      14.44000000       0.00000000      10.00000000
Cu      18.05000000       0.00000000      10.00000000
Cu       0.00000000       2.55265548      10.00000000
Cu       3.61000000       2.55265548      10.00000000
Cu       7.22000000       2.55265548      10.00000000
Cu      10.83000000       2.55265548      10.00000000
Cu      14.44000000       2.55265548      10.00000000
Cu      18.05000000       2.55265548      10.00000000
Cu       1.80500000       1.27632774      11.27632774
Cu       5.41500000       1.27632774      11.27632774
Cu       9.02500000       1.27632774      11.27632774
Cu      12.63500000       1.27632774      11.27632774
Cu      16.24500000       1.27632774      11.27632774
Cu      19.85500000       1.27632774      11.27632774
Cu       1.80500000       3.82898322      11.27632774
Cu       5.41500000       3.82898322      11.27632774
Cu       9.02500000       3.82898322      11.27632774
Cu      12.63500000       3.82898322      11.27632774
Cu      16.24500000       3.82898322      11.27632774
Cu      19.85500000       3.82898322      11.27632774
Cu      18.04711331       5.10524692      12.46299587
Cu       3.32069683       2.69504925      13.08611622
Cu       7.25616410       0.02554567      12.45368030
Cu      10.84329747       5.09628598      12.56695019
Cu      14.43992727       0.00837789      12.59484066
Cu      16.56930026       1.29851525      14.10145262
Cu       6.20663929       4.03662638      14.35365252
Cu      19.47468621       3.81707613      14.15538292
Cu       7.20950376       2.50582606      12.49218906
Cu       9.04756138       1.19707014      13.78983210
Cu      14.37908342       2.56206144      12.68049570
Cu      21.65112439       2.51147132      12.58507731
Cu      11.66870631       1.36025609      14.73328159
Cu       8.90735906       3.68886861      13.77893725
Cu      19.54610642       1.30778240      14.06062024
Cu       9.28220947       4.85214816      15.80722566
Cu      10.83582717       2.56531045      12.57591557
Cu      21.65776115       5.04024272      12.62807651
Cu       3.26027152       0.15658083      13.11019660
Cu      11.71687336       3.96765144      14.75098009
Cu      18.04861743       2.55624111      12.39959822
Cu      16.57180357       3.81357789      14.11141997
O        7.71765152       3.98528780      15.38336857
O       20.79873884       5.08195381      14.34479592
O       18.03509820       2.54817214      14.56804481
O       12.61250546       2.64934775      13.77334335
O       11.06095099       0.13154354      15.96154652
O        4.62661155       4.00099978      13.33497598
O       15.26664164       0.00419773      14.32735946
O        1.91843137       1.47806239      13.27208818
