54
Lattice="21.66 0.0 0.0 0.0 5.10531 0.0 0.0 0.0 22.55266" Properties=species:S:1:pos:R:3 entry_id=43 rank=117 energy=-200.76397705078125 pbc="T T F"
Cu       0.00000000       0.00000000      10.00000000
Cu       3.61000000       0.00000000      10.00000000
Cu       7.22000000       0.00000000      10.00000000
Cu      10.83000000       0.00000000      10.00000000
Cu      14.44000000       0.00000000      10.00000000
Cu      18.05000000       0.00000000      10.00000000
Cu       0.00000000       2.55265548      10.00000000
Cu       3.61000000       2.55265548      10.00000000
Cu       7.22000000       2.55265548      10.00000000
Cu      10.83000000       2.55265548      10.00000000
Cu      14.44000000       2.55265548      10.00000000
Cu      18.05000000       2.55265548      10.00000000
Cu       1.80500000       1.27632774      11.27632774
Cu       5.41500000       1.27632774      11.27632774
Cu       9.02500000       1.27632774      11.27632774
Cu      12.63500000       1.27632774      11.27632774
Cu      16.24500000       1.27632774      11.27632774
Cu      19.85500000       1.27632774      11.27632774
Cu       1.80500000       3.82898322      11.27632774
Cu       5.41500000       3.82898322      11.27632774
Cu       9.02500000       3.82898322      11.27632774
Cu      12.63500000       3.82898322      11.27632774
Cu      16.24500000       3.82898322      11.27632774
Cu      19.85500000       3.82898322      11.27632774
Cu      21.62919550       0.02417093      12.61087490
Cu       2.10911512       3.77630800      14.19768493
Cu       6.99961387       4.02861701      13.54404170
Cu      10.80787667       5.05505296      12.47356222
Cu      15.70047163       4.76614836      13.61435845
Cu      18.09085805       0.05866302      12.53025517
Cu       4.85707522       1.40068862      14.05526414
Cu       3.56751979       5.08769224      12.48374331
Cu       3.54933368       2.59804790      12.44862876
Cu      10.77059907       2.46316569      12.50645544
Cu      14.51093273       2.53917936      12.50765247
Cu       0.04410181       2.56325655      12.55349080
Cu      12.00812674       3.64541327      14.24668329
Cu       8.67170480       1.15777025      13.69558242
Cu      19.80953772       1.42507880      13.81010467
Cu      10.88160334       0.88168840      14.67491990
Cu       9.46621516       3.88683539      14.14625284
Cu       1.96849259       1.23800444      14.07811631
Cu      21.08540594       3.72087705      14.76143774
Cu      13.21676478       0.77189001      13.84117933
Cu      18.00838786       2.60348366      12.50522092
Cu      18.45896173       3.79506506      14.70555746
O        7.96776899       2.74412563      14.40461990
O        0.74428343       5.00710667      14.59162051
O       19.72760525       2.60673813      15.28178047
O       13.94774083       4.21184279      13.39599850
O       12.39646683       1.95861767      15.01305821
O        5.92749203       0.30890941      13.01649648
O       17.33810842       0.07795886      14.32142447
O        3.38407819       2.44097790      14.58083588
