60
Properties=species:S:1:pos:R:3 trajectory=trial0001_proposal001_step008_proposal_relax trajectory_step=0 pbc="F F F"
C        1.67013250       2.65174921      -0.82870326
C       -1.23102392       2.56518289       1.76502328
C        1.08152129       0.03379547       2.58624722
C       -0.93902737      -2.59559561      -2.42033280
C        1.48022960      -2.22709696      -2.76589316
C       -0.21557025       0.69480320       2.96700605
C        2.74575541       1.70402369      -0.89568058
C        2.84101517       2.72489937       1.17013733
C       -2.04455934      -2.85535644       0.86523829
C       -2.24784352      -2.08476567      -2.60774834
C        1.38432527      -2.57383015      -0.21802277
C       -1.41260668      -1.42283873       2.52775067
C        0.37500582       2.55262328      -1.44604843
C       -2.22580705      -3.04576180      -0.51463765
C       -3.18032231      -0.57492768       1.25309951
C        3.06561915       0.44889165       1.13718420
C       -2.51821965       0.51142030       1.95620466
C       -1.39983931       0.04523203      -3.41573298
C       -0.08833278      -0.50938815      -3.39335561
C        0.72149318       3.88902010       1.12696611
C       -3.57263580      -0.26123416      -2.35435643
C       -2.38044692       1.90494527      -2.17015017
C        2.53650997      -1.28655845      -3.00867445
C        2.87735348       0.51002442      -1.63059552
C        3.31862559      -0.65555065      -0.92993212
C        2.91680471      -0.76104000       0.43248997
C       -3.52235754       1.07210017      -1.91832392
C        3.33417312       1.64004041       0.39789175
C       -1.30525062       1.37961789      -2.90361828
C       -0.46855888       2.10945675       2.89498385
C       -2.88704183       2.01418085       0.08646951
C       -0.52769067       3.33671572       0.77042925
C        3.18418776      -1.75954135      -1.78170244
C       -3.01906775      -2.29236293      -1.41040369
C        2.27322135       0.81513449       2.27781384
C       -2.06171734       2.56993966      -0.94383393
C        2.17413359       0.10020831      -2.77704857
C        2.03957947      -2.57337485      -1.48277098
C        1.86243953      -1.65966558       0.80898119
C        1.00608611      -1.31134459       1.95372767
C        1.81265595       3.35393520       0.42890104
C        0.07384070       1.66387449      -2.55360972
C       -1.43697231      -0.03550594       2.75249828
C        1.77354212       3.11128804       3.21530965
C        0.39328420       3.08651099       3.40500703
C       -3.72697007       1.04937333      -0.50076098
C       -0.62104839      -2.99167815       1.12220566
C       -2.36845037       1.79406486       1.37829731
C       -0.21129846      -2.04418030       2.09243703
C       -2.50276700      -0.78815354      -3.13405055
C       -2.51897292      -1.78684454       1.66386401
C        0.93693066       4.05992736       2.52601885
C       -3.76784806      -1.11934263      -1.19159421
C        0.13554836      -1.88350415      -3.04204448
C       -0.74591786       2.99311637      -0.62527495
C        2.50339413       2.21526482       2.45018610
C       -3.77918626      -0.29443150      -0.01606240
C        0.07807729      -3.14374157      -0.10125015
C        0.84875943       0.50162997      -3.01425025
C       -0.91139821      -3.21178514      -1.13076702
60
Properties=species:S:1:pos:R:3 trajectory=trial0001_proposal001_step008_proposal_relax trajectory_step=1 pbc="F F F"
C        1.66989386       2.65257229      -0.82860670
C       -1.23113843       2.56516435       1.76388201
C        1.08080922       0.03497525       2.58550805
C       -0.94208774      -2.59593675      -2.42122171
C        1.47868803      -2.22579076      -2.76413578
C       -0.21549455       0.69588168       2.96584893
C        2.74509619       1.70436080      -0.89678433
C        2.84207990       2.72444725       1.16938251
C       -2.04271264      -2.85484407       0.86615759
C       -2.24831147      -2.08569755      -2.60736576
C        1.38536145      -2.57491520      -0.21698693
C       -1.41162729      -1.42307701       2.52758801
C        0.37396877       2.55212703      -1.44648323
C       -2.22678146      -3.04421257      -0.51773048
C       -3.17922916      -0.57396498       1.25294898
C        3.06543673       0.44861700       1.13858638
C       -2.51807358       0.51060998       1.95577107
C       -1.39847197       0.04489711      -3.41416363
C       -0.09039397      -0.51016723      -3.39446686
C        0.72217138       3.88920379       1.12543440
C       -3.57249010      -0.25940227      -2.35373404
C       -2.38118301       1.90466051      -2.17059511
C        2.53636364      -1.28698360      -3.00727617
C        2.87769362       0.50966338      -1.63025536
C        3.31898792      -0.65565099      -0.92806186
C        2.91602105      -0.76008829       0.43190044
C       -3.52167003       1.07178630      -1.91806213
C        3.33398956       1.63888464       0.40026848
C       -1.30468485       1.37904412      -2.90385970
C       -0.46847750       2.10861073       2.89456145
C       -2.88704103       2.01520382       0.08667311
C       -0.52671859       3.33657841       0.77061392
C        3.18349902      -1.76132076      -1.78257022
C       -3.01820609      -2.29457039      -1.41011309
C        2.27272667       0.81460576       2.27698734
C       -2.06039789       2.56980940      -0.94347267
C        2.17375853       0.09858852      -2.77756568
C        2.03938640      -2.57317321      -1.48362469
C        1.86212005      -1.65956348       0.80880227
C        1.00664281      -1.31065221       1.95224769
C        1.81341217       3.35323729       0.42868045
C        0.07419469       1.66276105      -2.55380874
C       -1.43664296      -0.03391333       2.75273412
C        1.77384963       3.11272022       3.21616797
C        0.39331187       3.08608733       3.40527734
C       -3.72928498       1.05039775      -0.50090129
C       -0.62147404      -2.99066980       1.12291002
C       -2.36657099       1.79568802       1.37842194
C       -0.21361009      -2.04558490       2.09256596
C       -2.50453068      -0.78857963      -3.13282786
C       -2.51775764      -1.78780896       1.66546241
C        0.93807845       4.06045730       2.52658194
C       -3.76934690      -1.11906868      -1.19077328
C        0.13802004      -1.88382813      -3.04193986
C       -0.74758282       2.99308045      -0.62623050
C        2.50381000       2.21613720       2.44927907
C       -3.77879023      -0.29465583      -0.01542702
C        0.07903855      -3.14247426      -0.09962469
C        0.84950299       0.50207949      -3.01728208
C       -0.91163501      -3.21275401      -1.13015394
60
Properties=species:S:1:pos:R:3 trajectory=trial0001_proposal001_step008_proposal_relax trajectory_step=2 pbc="F F F"
C        1.66934762       2.65323821      -0.82900346
C       -1.23007995       2.56562207       1.76286518
C        1.07989622       0.03615430       2.58399238
C       -0.94357260      -2.59681460      -2.42250751
C        1.47743762      -2.22423403      -2.76169950
C       -0.21527318       0.69711962       2.96419324
C        2.74477610       1.70448254      -0.89699052
C        2.84339372       2.72424641       1.16896544
C       -2.04141204      -2.85430659       0.86546991
C       -2.25002899      -2.08634062      -2.60735811
C        1.38707836      -2.57647211      -0.21583853
C       -1.41086007      -1.42213844       2.52818321
C        0.37283962       2.55147909      -1.44698102
C       -2.22628113      -3.04322413      -0.51801514
C       -3.17728645      -0.57356394       1.25296789
C        3.06524920       0.44783625       1.14026200
C       -2.51722158       0.51095524       1.95511726
C       -1.39872502       0.04362449      -3.41181170
C       -0.09112900      -0.51137199      -3.39599389
C        0.72348193       3.88954939       1.12428003
C       -3.57250583      -0.25855053      -2.35237988
C       -2.38131307       1.90453480      -2.17108919
C        2.53581083      -1.28771380      -3.00597303
C        2.87783674       0.50893092      -1.63024960
C        3.31934646      -0.65662185      -0.92719502
C        2.91466141      -0.75919069       0.43180387
C       -3.52094990       1.07233750      -1.91727662
C        3.33364549       1.63732408       0.40140142
C       -1.30422821       1.37837212      -2.90390120
C       -0.46818935       2.10853330       2.89385806
C       -2.88724623       2.01650179       0.08685308
C       -0.52560283       3.33639442       0.77011056
C        3.18366993      -1.76252960      -1.78224446
C       -3.01950777      -2.29528339      -1.41063349
C        2.27179745       0.81486074       2.27653841
C       -2.06023363       2.56889308      -0.94364580
C        2.17367472       0.09685462      -2.77772954
C        2.03862771      -2.57370118      -1.48353355
C        1.86193165      -1.65917028       0.80850122
C        1.00581811      -1.31017064       1.95062419
C        1.81443796       3.35251896       0.42816114
C        0.07482363       1.66142439      -2.55414539
C       -1.43631799      -0.03305304       2.75278471
C        1.77486163       3.11429518       3.21702600
C        0.39339341       3.08552873       3.40530618
C       -3.73207226       1.05227036      -0.50034427
C       -0.62186795      -2.98995117       1.12310887
C       -2.36535418       1.79663137       1.37802780
C       -0.21399638      -2.04611036       2.09335182
C       -2.50595234      -0.78870895      -3.13142880
C       -2.51671047      -1.78850054       1.66745320
C        0.93930436       4.06116480       2.52673537
C       -3.77080049      -1.11964075      -1.19002657
C        0.13778635      -1.88432509      -3.04169840
C       -0.74838273       2.99339729      -0.62707496
C        2.50409102       2.21724404       2.44856221
C       -3.77843354      -0.29448243      -0.01481037
C        0.07954353      -3.14101280      -0.09796299
C        0.85022178       0.50210455      -3.02187808
C       -0.91175392      -3.21365171      -1.12994561
60
Properties=species:S:1:pos:R:3 trajectory=trial0001_proposal001_step008_proposal_relax trajectory_step=3 pbc="F F F"
C        1.66868090       2.65327004      -0.83097955
C       -1.22605720       2.56730332       1.75972680
C        1.07655723       0.03908088       2.57809163
C       -0.94806662      -2.60109541      -2.42458710
C        1.47265827      -2.22099345      -2.75449893
C       -0.21472976       0.69938717       2.95902483
C        2.74424762       1.70212571      -0.89663087
C        2.84734044       2.72379483       1.16765527
C       -2.03963116      -2.85069266       0.86608716
C       -2.25540418      -2.08913749      -2.60843249
C        1.39085688      -2.58171903      -0.21157949
C       -1.40849160      -1.42073766       2.53124612
C        0.37144294       2.54938676      -1.44850782
C       -2.22555745      -3.04013464      -0.51931745
C       -3.17112462      -0.57321570       1.25228280
C        3.06494117       0.44604690       1.14388367
C       -2.51320400       0.51339123       1.95303232
C       -1.40031015       0.03957889      -3.40476692
C       -0.09235463      -0.51451900      -3.40141790
C        0.72793885       3.89047604       1.12282834
C       -3.57375256      -0.25700338      -2.34672477
C       -2.38028004       1.90451916      -2.17183346
C        2.53451162      -1.29059924      -3.00229700
C        2.87726449       0.50669698      -1.63035297
C        3.31992105      -0.65883029      -0.92608972
C        2.91050982      -0.75848605       0.43218248
C       -3.52096888       1.07343752      -1.91433982
C        3.33246261       1.63360862       0.40178106
C       -1.30327245       1.37506343      -2.90354796
C       -0.46642980       2.11091613       2.89125315
C       -2.88943647       2.01998644       0.08697803
C       -0.52145590       3.33680269       0.76715191
C        3.18492328      -1.76690461      -1.77974781
C       -3.02398115      -2.29854646      -1.41022899
C        2.26864634       0.81810013       2.27680616
C       -2.06034558       2.56681857      -0.94454974
C        2.17344639       0.09371049      -2.77818682
C        2.03773847      -2.57622703      -1.48064686
C        1.86123390      -1.65804820       0.80774618
C        1.00245988      -1.30781773       1.94650931
C        1.81726411       3.35164684       0.42624494
C        0.07608583       1.65743747      -2.55658837
C       -1.43488449      -0.02961170       2.75262098
C        1.77769160       3.11871841       3.21892767
C        0.39661705       3.08584983       3.40375482
C       -3.73941605       1.05760828      -0.49716163
C       -0.62132575      -2.98770842       1.12451535
C       -2.36253902       1.79877973       1.37600256
C       -0.21333733      -2.04605069       2.09642887
C       -2.50944470      -0.78886600      -3.12719546
C       -2.51470708      -1.78926449       1.67179461
C        0.94202963       4.06226601       2.52634080
C       -3.77535172      -1.11937073      -1.18737007
C        0.13383459      -1.88578791      -3.04114713
C       -0.74945664       2.99409558      -0.62949517
C        2.50444291       2.21971037       2.44789456
C       -3.77766382      -0.29285490      -0.01277618
C        0.08048559      -3.13794548      -0.09645506
C        0.85295067       0.50076383      -3.03579017
C       -0.91070770      -3.21462051      -1.13041021
60
Properties=species:S:1:pos:R:3 trajectory=trial0001_proposal001_step008_proposal_relax trajectory_step=4 pbc="F F F"
C        1.67077794       2.65017577      -0.83251483
C       -1.22162738       2.57020785       1.75430028
C        1.07246206       0.04359459       2.57079156
C       -0.95365988      -2.60466904      -2.42863335
C        1.46733187      -2.22011406      -2.74504110
C       -0.21328279       0.70466955       2.95419874
C        2.74158147       1.69818470      -0.89727694
C        2.84992705       2.72365205       1.16599222
C       -2.03690089      -2.84828199       0.86356189
C       -2.26347769      -2.09504418      -2.60870070
C        1.39357021      -2.58737816      -0.20679583
C       -1.40828843      -1.41720821       2.53814742
C        0.37260622       2.54502263      -1.45289005
C       -2.22350392      -3.03773090      -0.51254312
C       -3.16475040      -0.56959745       1.25085313
C        3.06370276       0.44597977       1.14569793
C       -2.50779856       0.51455763       1.94935043
C       -1.40103871       0.03555554      -3.39929720
C       -0.09489139      -0.51844854      -3.40882373
C        0.73246113       3.89096213       1.12041962
C       -3.57558578      -0.25701156      -2.34078360
C       -2.38182430       1.90146552      -2.17049558
C        2.53213884      -1.29568893      -2.99687715
C        2.87497809       0.50235099      -1.63099598
C        3.31906266      -0.66180387      -0.92451128
C        2.90895337      -0.75768444       0.43223883
C       -3.52307053       1.07699017      -1.91024706
C        3.33207167       1.63023651       0.40247320
C       -1.30259088       1.37028611      -2.90111722
C       -0.46202774       2.11469493       2.88832317
C       -2.89219894       2.02510961       0.08762810
C       -0.51636139       3.33895344       0.76366255
C        3.18597770      -1.77195406      -1.77674990
C       -3.03210374      -2.29806658      -1.41047822
C        2.26607981       0.82114945       2.27626605
C       -2.05987720       2.56744163      -0.94505299
C        2.17502512       0.09017297      -2.78065485
C        2.03810099      -2.57988492      -1.47624112
C        1.85782965      -1.65884303       0.80893883
C        1.00110375      -1.30277002       1.94294561
C        1.82191306       3.35172721       0.42372449
C        0.07815994       1.65347850      -2.56165080
C       -1.43335194      -0.02960449       2.75137653
C        1.78592795       3.12231532       3.21981438
C        0.39793643       3.08657818       3.40160142
C       -3.74603013       1.06141067      -0.49412349
C       -0.62075362      -2.98515355       1.12450814
C       -2.35862308       1.80269670       1.37297582
C       -0.21201413      -2.04525159       2.09942127
C       -2.51399373      -0.79121712      -3.12040799
C       -2.51306989      -1.78537623       1.67635949
C        0.94544883       4.06594786       2.52246450
C       -3.77809064      -1.12058899      -1.18261546
C        0.12890551      -1.88898515      -3.04001642
C       -0.74758520       2.99375132      -0.63283408
C        2.50578719       2.22326729       2.44750795
C       -3.77762408      -0.29018140      -0.00849994
C        0.07980907      -3.13711648      -0.09511647
C        0.85388338       0.49985531      -3.04841926
C       -0.91202093      -3.21319759      -1.12999938
60
Properties=species:S:1:pos:R:3 trajectory=trial0001_proposal001_step008_proposal_relax trajectory_step=5 pbc="F F F"
C        1.67057550       2.64956212      -0.83291608
C       -1.22099378       2.57061434       1.75450904
C        1.07283846       0.04415180       2.57062257
C       -0.95360135      -2.60528390      -2.42774179
C        1.46739538      -2.22094894      -2.74495920
C       -0.21364360       0.70412610       2.95433131
C        2.74211294       1.69722906      -0.89661419
C        2.84991263       2.72369440       1.16603692
C       -2.03758067      -2.84684276       0.86606094
C       -2.26425768      -2.09501718      -2.60899864
C        1.39292635      -2.58746359      -0.20669379
C       -1.40827711      -1.41868340       2.53824386
C        0.37359617       2.54492174      -1.45290290
C       -2.22459916      -3.03724917      -0.51415209
C       -3.16470467      -0.56961031       1.25108393
C        3.06356723       0.44592813       1.14509878
C       -2.50704507       0.51590052       1.94902072
C       -1.40270312       0.03484679      -3.39968681
C       -0.09383339      -0.51862226      -3.40886988
C        0.73298006       3.89101619       1.12035840
C       -3.57600381      -0.25707646      -2.34022033
C       -2.38086468       1.90158784      -2.16989210
C        2.53172923      -1.29602603      -2.99706028
C        2.87455879       0.50208273      -1.63109117
C        3.31870538      -0.66207569      -0.92529555
C        2.90879570      -0.75858419       0.43299332
C       -3.52422956       1.07595962      -1.91040374
C        3.33210998       1.63086748       0.40112533
C       -1.30332255       1.37002938      -2.90055706
C       -0.46215268       2.11527413       2.88754175
C       -2.89235685       2.02530758       0.08742274
C       -0.51651843       3.33908539       0.76281164
C        3.18643539      -1.77174410      -1.77598923
C       -3.03158227      -2.29934598      -1.40861008
C        2.26635749       0.82168368       2.27628548
C       -2.06047912       2.56760075      -0.94534179
C        2.17464965       0.09032485      -2.78119200
C        2.03807077      -2.58058172      -1.47525734
C        1.85865187      -1.65845017       0.80890418
C        1.00013635      -1.30305576       1.94350059
C        1.82191935       3.35198673       0.42325075
C        0.07810818       1.65376483      -2.56208286
C       -1.43283927      -0.02818822       2.75153214
C        1.78418845       3.12332217       3.21960746
C        0.40047401       3.08830432       3.40072057
C       -3.74522001       1.06173525      -0.49342224
C       -0.62045440      -2.98493218       1.12486850
C       -2.35903771       1.80192662       1.37295865
C       -0.21158478      -2.04436595       2.09956085
C       -2.51308732      -0.79089819      -3.12068902
C       -2.51312190      -1.78554192       1.67537509
C        0.94574685       4.06502340       2.52307786
C       -3.77804831      -1.11963716      -1.18217678
C        0.12791061      -1.88893639      -3.04017017
C       -0.74640540       2.99350062      -0.63307375
C        2.50620257       2.22258982       2.44730605
C       -3.77809071      -0.28992612      -0.00892090
C        0.07979787      -3.13776780      -0.09595489
C        0.85406147       0.49896565      -3.04798475
C       -0.91237953      -3.21246913      -1.13014960
60
Properties=species:S:1:pos:R:3 trajectory=trial0001_proposal001_step008_proposal_relax trajectory_step=6 pbc="F F F"
C        1.67131071       2.64770384      -0.83357982
C       -1.21972203       2.57169676       1.75358854
C        1.07270568       0.04582267       2.56931322
C       -0.95527473      -2.60635237      -2.42732136
C        1.46634249      -2.22264322      -2.74315204
C       -0.21353359       0.70496746       2.95401187
C        2.74202323       1.69503051      -0.89635207
C        2.85019659       2.72373338       1.16555178
C       -2.03788538      -2.84494911       0.86816413
C       -2.26666851      -2.09658610      -2.60917008
C        1.39219764      -2.58831535      -0.20562497
C       -1.40855573      -1.41934569       2.54013508
C        0.37555712       2.54377582      -1.45409177
C       -2.22569664      -3.03628688      -0.51353108
C       -3.16386556      -0.56837775       1.25107890
C        3.06318055       0.44619907       1.14399563
C       -2.50487271       0.51736575       1.94784728
C       -1.40402209       0.03360270      -3.39994235
C       -0.09373239      -0.51948236      -3.41022813
C        0.73431399       3.89124040       1.11955292
C       -3.57684011      -0.25756828      -2.33868533
C       -2.38060792       1.90054130      -2.16837017
C        2.53067094      -1.29776704      -2.99608730
C        2.87329568       0.50061155      -1.63140074
C        3.31773989      -0.66275014      -0.92555012
C        2.90895370      -0.75969094       0.43381573
C       -3.52636699       1.07560683      -1.90981812
C        3.33238767       1.63119152       0.39974935
C       -1.30416733       1.36841362      -2.89916368
C       -0.46095673       2.11723728       2.88608277
C       -2.89292728       2.02665625       0.08743195
C       -0.51549694       3.33999660       0.76095548
C        3.18668195      -1.77289477      -1.77487907
C       -3.03271230      -2.30023532      -1.40616242
C        2.26662467       0.82276353       2.27586743
C       -2.06044760       2.56869719      -0.94562586
C        2.17458733       0.08971080      -2.78270430
C        2.03845665      -2.58219238      -1.47323500
C        1.85875967      -1.65850207       0.80952371
C        0.99932711      -1.30200657       1.94390744
C        1.82280089       3.35246972       0.42199985
C        0.07828919       1.65339840      -2.56398378
C       -1.43204554      -0.02706316       2.75138255
C        1.78517984       3.12462469       3.21895123
C        0.40259956       3.09026470       3.39926457
C       -3.74495462       1.06241974      -0.49227883
C       -0.62001029      -2.98400219       1.12537990
C       -2.35838829       1.80245211       1.37227998
C       -0.21124782      -2.04315540       2.09999107
C       -2.51343623      -0.79152071      -3.11938024
C       -2.51301603      -1.78410349       1.67497490
C        0.94698562       4.06549196       2.52180776
C       -3.77801225      -1.11873517      -1.18046951
C        0.12646020      -1.88985603      -3.04001090
C       -0.74449296       2.99267790      -0.63431224
C        2.50711549       2.22276327       2.44720180
C       -3.77882324      -0.28887489      -0.00815894
C        0.07917088      -3.13897498      -0.09672822
C        0.85397011       0.49757094      -3.04877367
C       -0.91360938      -3.21087652      -1.12989626
60
Properties=species:S:1:pos:R:3 trajectory=trial0001_proposal001_step008_proposal_relax trajectory_step=7 pbc="F F F"
C        1.67273147       2.64484011      -0.83482525
C       -1.21745750       2.57400700       1.75135800
C        1.07241169       0.04889466       2.56722543
C       -0.95885174      -2.60786720      -2.42705740
C        1.46415128      -2.22553485      -2.73957341
C       -0.21284668       0.70749583       2.95327633
C        2.74166439       1.69168014      -0.89672715
C        2.85129720       2.72383058       1.16403302
C       -2.03787262      -2.84218463       0.87052572
C       -2.27118492      -2.09956301      -2.60886544
C        1.39147125      -2.58991470      -0.20342336
C       -1.40896177      -1.41900924       2.54355803
C        0.37810859       2.54153024      -1.45663402
C       -2.22721342      -3.03455228      -0.51103898
C       -3.16215668      -0.56576253       1.25133408
C        3.06274960       0.44649776       1.14254469
C       -2.50095202       0.51951013       1.94577823
C       -1.40577067       0.03126855      -3.40000771
C       -0.09454218      -0.52167858      -3.41250721
C        0.73679422       3.89200664       1.11703793
C       -3.57815221      -0.25835209      -2.33586071
C       -2.38075326       1.89820167      -2.16600859
C        2.52859341      -1.30133452      -2.99406795
C        2.87115283       0.49758390      -1.63198570
C        3.31598960      -0.66443859      -0.92536167
C        2.90921367      -0.76105490       0.43481881
C       -3.52921774       1.07564327      -1.90853405
C        3.33312946       1.63087524       0.39824170
C       -1.30526177       1.36522894      -2.89695846
C       -0.45867681       2.12047387       2.88350569
C       -2.89338113       2.02960553       0.08756583
C       -0.51316656       3.34144279       0.75762488
C        3.18649676      -1.77558786      -1.77333947
C       -3.03557238      -2.30100632      -1.40269953
C        2.26716591       0.82442947       2.27452053
C       -2.05984634       2.57032608      -0.94613010
C        2.17441305       0.08742852      -2.78512696
C        2.03867892      -2.58516298      -1.47015296
C        1.85851584      -1.65889638       0.81094575
C        0.99837782      -1.29983121       1.94421701
C        1.82475919       3.35267209       0.41948617
C        0.07863051       1.65203680      -2.56717390
C       -1.43065104      -0.02525290       2.75127782
C        1.78775211       3.12724629       3.21762704
C        0.40564911       3.09343251       3.39673949
C       -3.74540537       1.06413162      -0.49058853
C       -0.61992907      -2.98221802       1.12628681
C       -2.35632583       1.80452203       1.37107943
C       -0.21130931      -2.04131382       2.10088226
C       -2.51515961      -0.79305765      -3.11676749
C       -2.51259274      -1.78131196       1.67563039
C        0.94999848       4.06712608       2.51900530
C       -3.77820755      -1.11771671      -1.17719554
C        0.12436519      -1.89206722      -3.03934341
C       -0.74173085       2.99126928      -0.63683783
C        2.50908654       2.22373522       2.44646506
C       -3.77988276      -0.28677744      -0.00615939
C        0.07793473      -3.14036360      -0.09668294
C        0.85343720       0.49514727      -3.05106802
C       -0.91619171      -3.20871966      -1.12874991
60
Properties=species:S:1:pos:R:3 trajectory=trial0001_proposal001_step008_proposal_relax trajectory_step=8 pbc="F F F"
C        1.67482650       2.64061537      -0.83834577
C       -1.21305766       2.57928714       1.74761763
C        1.07355908       0.05327091       2.56586446
C       -0.96492265      -2.61002531      -2.42439191
C        1.46030634      -2.23209555      -2.73522250
C       -0.21060564       0.71276864       2.95297353
C        2.74218327       1.68679624      -0.89883863
C        2.85470160       2.72398599       1.16006014
C       -2.03906969      -2.83752931       0.87544174
C       -2.27827516      -2.10333665      -2.60685564
C        1.38962324      -2.59189799      -0.19947141
C       -1.40923198      -1.41603632       2.54820922
C        0.38101203       2.53808708      -1.46121880
C       -2.23082939      -3.03165030      -0.50654936
C       -3.16009317      -0.56079654       1.25323846
C        3.06353653       0.44623200       1.14015815
C       -2.49455769       0.52415998       1.94319052
C       -1.40908311       0.02654525      -3.40046665
C       -0.09714847      -0.52685612      -3.41394027
C        0.74147132       3.89445741       1.11085494
C       -3.58023734      -0.25923221      -2.33126111
C       -2.38037713       1.89398458      -2.16341677
C        2.52482700      -1.30854601      -2.99183831
C        2.86778508       0.49189415      -1.63315702
C        3.31260759      -0.66854538      -0.92537331
C        2.90968970      -0.76348365       0.43615830
C       -3.53221852       1.07531724      -1.90645167
C        3.33549483       1.62957893       0.39466921
C       -1.30698719       1.35950098      -2.89445242
C       -0.45447070       2.12689803       2.87965480
C       -2.89260511       2.03457895       0.08748396
C       -0.50865691       3.34355251       0.75152186
C        3.18453543      -1.78097266      -1.77134522
C       -3.04036710      -2.30185279      -1.39674312
C        2.26871889       0.82713453       2.27172279
C       -2.05823135       2.57183166      -0.94764949
C        2.17248469       0.08160805      -2.78775637
C        2.03752276      -2.59078038      -1.46576327
C        1.85839391      -1.65989949       0.81405199
C        0.99726559      -1.29660576       1.94558713
C        1.82786350       3.35187882       0.41436998
C        0.07832205       1.64830749      -2.57123951
C       -1.42797278      -0.02071959       2.75207549
C        1.79382505       3.13103144       3.21318259
C        0.40921305       3.09895651       3.39173046
C       -3.74587629       1.06815808      -0.48789700
C       -0.62125048      -2.97913603       1.12913225
C       -2.35243305       1.80882322       1.36931877
C       -0.21218017      -2.03755907       2.10258381
C       -2.51912124      -0.79604147      -3.11394892
C       -2.51251883      -1.77669114       1.67844375
C        0.95617548       4.07165387       2.51149352
C       -3.77910610      -1.11536470      -1.17126602
C        0.12071871      -1.89685858      -3.03730341
C       -0.73779862       2.98915904      -0.64143974
C        2.51322229       2.22647705       2.44381675
C       -3.78133842      -0.28248507      -0.00227722
C        0.07546211      -3.14120552      -0.09459427
C        0.85169520       0.48966762      -3.05374783
C       -0.92092499      -3.20640581      -1.12524464
60
Properties=species:S:1:pos:R:3 trajectory=trial0001_proposal001_step008_proposal_relax trajectory_step=9 pbc="F F F"
C        1.68191583       2.62762950      -0.85067435
C       -1.19927864       2.59644030       1.73452825
C        1.07791776       0.06718105       2.56302288
C       -0.98455214      -2.61671734      -2.41477601
C        1.44716909      -2.25436740      -2.72208142
C       -0.20219737       0.73097696       2.95233955
C        2.74395955       1.67171297      -0.90813550
C        2.86701582       2.72433944       1.14395569
C       -2.04390761      -2.82408527       0.88933769
C       -2.30021057      -2.11510735      -2.59843511
C        1.38382125      -2.59809759      -0.18651083
C       -1.40956185      -1.40328184       2.56277615
C        0.38894636       2.52667794      -1.47679966
C       -2.24158562      -3.02333997      -0.48781892
C       -3.15368284      -0.54357182       1.26050353
C        3.06717262       0.44542813       1.13330111
C       -2.47516678       0.53928161       1.93640937
C       -1.41909604       0.01075269      -3.40117831
C       -0.10725127      -0.54505058      -3.41691729
C        0.75701930       3.90262871       1.08840509
C       -3.58686631      -0.26214649      -2.31670309
C       -2.37983163       1.88057422      -2.15681810
C        2.51231209      -1.33314615      -2.98541433
C        2.85742915       0.47272791      -1.63741003
C        3.30180216      -0.68271105      -0.92504706
C        2.91101763      -0.77137431       0.43964134
C       -3.53920969       1.07604421      -1.89908457
C        3.34400827       1.62436135       0.38342529
C       -1.31144350       1.34022629      -2.88881290
C       -0.44123964       2.14654659       2.86696530
C       -2.88926916       2.05045572       0.08680925
C       -0.49352668       3.35065235       0.73184889
C        3.17633762      -1.80007217      -1.76580621
C       -3.05775196      -2.30153382      -1.37917124
C        2.27496508       0.83586347       2.26220861
C       -2.05193592       2.57538453      -0.95336899
C        2.16546207       0.06051621      -2.79432705
C        2.03186078      -2.60914953      -1.45254331
C        1.85728608      -1.66349367       0.82447300
C        0.99513056      -1.28638909       1.95030901
C        1.83945001       3.34781214       0.39624174
C        0.07695077       1.63408544      -2.58313606
C       -1.41890701      -0.00475645       2.75502916
C        1.80762393       3.14663144       3.19743921
C        0.42796340       3.12171650       3.37289054
C       -3.74828953       1.08120017      -0.47969600
C       -0.62673270      -2.96894909       1.13939509
C       -2.33818603       1.82498934       1.36376232
C       -0.21524626      -2.02486883       2.10909843
C       -2.53418439      -0.80631627      -3.10521345
C       -2.51348637      -1.75990200       1.69068718
C        0.97711769       4.08401064       2.48964209
C       -3.78260690      -1.10847392      -1.15233613
C        0.10828051      -1.91388142      -3.02932299
C       -0.72632542       2.98329650      -0.65646290
C        2.52801615       2.23367672       2.43222337
C       -3.78510771      -0.26768684       0.01158014
C        0.06574272      -3.14214208      -0.08518342
C        0.84457117       0.47097337      -3.06210141
C       -0.93613153      -3.20059258      -1.11182333
60
Properties=species:S:1:pos:R:3 trajectory=trial0001_proposal001_step008_proposal_relax trajectory_step=10 pbc="F F F"
C        1.68801213       2.61653152      -0.86531776
C       -1.18468663       2.61256909       1.72370343
C        1.08475158       0.07896075       2.56379694
C       -1.00170247      -2.62377663      -2.40162630
C        1.43400895      -2.27701367      -2.71301374
C       -0.19206401       0.75001491       2.95291595
C        2.74719572       1.65863737      -0.91985185
C        2.88047698       2.72391825       1.12618977
C       -2.05129129      -2.81122924       0.90731208
C       -2.31879040      -2.12337806      -2.58669988
C        1.37668199      -2.60354660      -0.17489796
C       -1.40864994      -1.38700700       2.57394553
C        0.39409258       2.51609586      -1.49117628
C       -2.25410118      -3.01613086      -0.47193692
C       -3.14887112      -0.52517858       1.27009951
C        3.07292270       0.44303994       1.12699390
C       -2.46050796       0.55710839       1.93434915
C       -1.43041359      -0.00616439      -3.40054334
C       -0.11786262      -0.56523422      -3.41572850
C        0.77351969       3.91041148       1.06506626
C       -3.59354314      -0.26196794      -2.30383428
C       -2.37750518       1.87039526      -2.15552428
C        2.49970053      -1.35776311      -2.98204020
C        2.84956653       0.45410764      -1.64193753
C        3.29254755      -0.69862977      -0.92562465
C        2.91159494      -0.77791058       0.44252098
C       -3.54170332       1.07614078      -1.89255083
C        3.35352350       1.61743469       0.36978831
C       -1.31522326       1.32308700      -2.88839120
C       -0.42717126       2.16677539       2.85727863
C       -2.88408067       2.06397750       0.08529348
C       -0.47938647       3.35837668       0.71420298
C        3.16605678      -1.81902980      -1.76147535
C       -3.07142374      -2.30106237      -1.36162862
C        2.28261220       0.84298650       2.25387169
C       -2.04560925       2.57525816      -0.96041545
C        2.15574851       0.03696872      -2.79711415
C        2.02171131      -2.62635840      -1.44201057
C        1.85614252      -1.66668185       0.83348069
C        0.99541510      -1.27821049       1.95662068
C        1.85103711       3.34331766       0.37659468
C        0.07493481       1.61723246      -2.59075101
C       -1.40998428       0.01377743       2.75846527
C        1.82821574       3.15870284       3.17702490
C        0.43972776       3.14125314       3.35480711
C       -3.75046937       1.09351511      -0.47248591
C       -0.63457390      -2.95883289       1.15220945
C       -2.32578311       1.84008012       1.35860955
C       -0.21831901      -2.01208805       2.11701960
C       -2.54888481      -0.81566509      -3.09983430
C       -2.51590831      -1.74445708       1.70538593
C        0.99677676       4.10050381       2.46219507
C       -3.78794591      -1.10050459      -1.13536129
C        0.09543037      -1.93134821      -3.02010632
C       -0.71696014       2.98030850      -0.67057533
C        2.54167067       2.24229403       2.41837017
C       -3.78722668      -0.25375224       0.02422892
C        0.05591966      -3.13929919      -0.07197364
C        0.83670172       0.45054554      -3.06705059
C       -0.95055657      -3.19851594      -1.09572258
60
Properties=species:S:1:pos:R:3 trajectory=trial0001_proposal001_step008_proposal_relax trajectory_step=11 pbc="F F F"
C        1.69167282       2.61035815      -0.87762006
C       -1.17429581       2.62290483       1.71625559
C        1.09118901       0.08580930       2.56607597
C       -1.01271431      -2.62989525      -2.39022000
C        1.42368644      -2.29222942      -2.70883846
C       -0.18374070       0.76333961       2.95317836
C        2.75044638       1.65044844      -0.92995887
C        2.89149484       2.72221024       1.11105971
C       -2.05845254      -2.80378773       0.91937188
C       -2.32896669      -2.12661568      -2.57638167
C        1.37124029      -2.60698885      -0.16685760
C       -1.40649778      -1.37139833       2.57973547
C        0.39508110       2.50886746      -1.49984128
C       -2.26228825      -3.01256291      -0.45813131
C       -3.14620148      -0.51213582       1.27820347
C        3.07837653       0.44054066       1.12401880
C       -2.45440476       0.57097337       1.93689881
C       -1.43679207      -0.01841296      -3.39824680
C       -0.12740613      -0.58065447      -3.41287678
C        0.78556718       3.91514841       1.04714168
C       -3.59793204      -0.26071218      -2.29651005
C       -2.37534121       1.86584543      -2.15900023
C        2.49101578      -1.37550772      -2.98105538
C        2.84612159       0.44085902      -1.64563107
C        3.28784300      -0.71057408      -0.92597504
C        2.91050136      -0.78204494       0.44288046
C       -3.53951778       1.07743181      -1.88815536
C        3.36014550       1.61103360       0.35937024
C       -1.31675888       1.31253496      -2.89248385
C       -0.41727065       2.18003937       2.85199469
C       -2.87987490       2.07112024       0.08294395
C       -0.46991106       3.36398017       0.70330346
C        3.15654757      -1.83348161      -1.75946478
C       -3.08029324      -2.29827116      -1.35110176
C        2.28893051       0.84705366       2.24921284
C       -2.04017450       2.57242830      -0.96598412
C        2.14722738       0.01868507      -2.79580413
C        2.01143089      -2.63700132      -1.43710114
C        1.85485916      -1.66806877       0.83850653
C        0.99702498      -1.27390568       1.96163972
C        1.86002482       3.33980483       0.36129062
C        0.07281849       1.60239390      -2.59301030
C       -1.40342756       0.02881815       2.76109129
C        1.83997442       3.16904576       3.16019570
C        0.45149555       3.15656312       3.34109787
C       -3.75241472       1.10289871      -0.46834364
C       -0.64158108      -2.95116333       1.16389991
C       -2.31727301       1.85140768       1.35575487
C       -0.21984114      -2.00332826       2.12443322
C       -2.56094017      -0.82229407      -3.09645881
C       -2.51849964      -1.73308636       1.71886724
C        1.01037978       4.11140074       2.44375853
C       -3.79325734      -1.09543342      -1.12525393
C        0.08595042      -1.94442844      -3.01297649
C       -0.71315148       2.98061590      -0.67973863
C        2.55094402       2.24788287       2.40520472
C       -3.78693989      -0.24472588       0.03283981
C        0.04800352      -3.13417353      -0.05959170
C        0.83108467       0.43441056      -3.06973710
C       -0.95941999      -3.20038232      -1.08273452
60
Properties=species:S:1:pos:R:3 trajectory=trial0001_proposal001_step008_proposal_relax trajectory_step=12 pbc="F F F"
C        1.69996943       2.60063189      -0.89715513
C       -1.15841474       2.63551545       1.70515099
C        1.10079078       0.09350064       2.56856327
C       -1.02664520      -2.64143751      -2.37581968
C        1.40531982      -2.31258498      -2.70330486
C       -0.16847102       0.78364213       2.95098232
C        2.75334529       1.63526400      -0.94873346
C        2.90495383       2.72021119       1.08330019
C       -2.06911713      -2.79148999       0.94329323
C       -2.34121672      -2.13299024      -2.55554851
C        1.36142860      -2.61009572      -0.15649139
C       -1.40075729      -1.34488293       2.58739173
C        0.39455691       2.49373534      -1.51099518
C       -2.27561341      -3.00832102      -0.43481231
C       -3.14456989      -0.49334983       1.29065777
C        3.08621372       0.43483437       1.11862779
C       -2.45310833       0.59394678       1.94770831
C       -1.45168797      -0.03573997      -3.39274355
C       -0.13913417      -0.60614080      -3.41025806
C        0.80200789       3.91961948       1.02098450
C       -3.60793429      -0.25824211      -2.28600088
C       -2.37423519       1.86461442      -2.16775582
C        2.47725176      -1.40253972      -2.97996127
C        2.84433409       0.41986241      -1.65213621
C        3.28513148      -0.73046772      -0.92999993
C        2.90722139      -0.78628778       0.44120719
C       -3.53446482       1.08230804      -1.88531377
C        3.36782826       1.59650173       0.34446931
C       -1.31643774       1.29873829      -2.90366800
C       -0.40017556       2.19860231       2.84485635
C       -2.86854927       2.08096490       0.08165955
C       -0.45651234       3.37310754       0.68781848
C        3.14182665      -1.85434192      -1.75454569
C       -3.09045763      -2.29134652      -1.33297398
C        2.30259926       0.85389502       2.24416451
C       -2.03317069       2.56694763      -0.97517706
C        2.13788150      -0.01063363      -2.79146951
C        1.99005881      -2.65085495      -1.42772594
C        1.84814605      -1.66919069       0.84360544
C        1.00327738      -1.26733921       1.96978815
C        1.87810342       3.33615202       0.33377245
C        0.07110907       1.57806895      -2.59238893
C       -1.39419789       0.05423359       2.76380713
C        1.85791907       3.18929775       3.13117065
C        0.47541203       3.18061981       3.32113491
C       -3.75553821       1.10968171      -0.46669683
C       -0.65248728      -2.94000646       1.18201045
C       -2.30770016       1.87068932       1.35174145
C       -0.22058802      -1.98849551       2.14258968
C       -2.57144554      -0.82810092      -3.09101085
C       -2.52072598      -1.71099414       1.74034116
C        1.03061124       4.12805637       2.41581979
C       -3.80219255      -1.08872765      -1.11215523
C        0.06455511      -1.96763606      -3.00415458
C       -0.70701221       2.98397598      -0.69123763
C        2.56274304       2.25404610       2.38251619
C       -3.78463947      -0.23025291       0.04316005
C        0.03271091      -3.12580167      -0.03702490
C        0.81855494       0.40793451      -3.07198137
C       -0.97316341      -3.20731661      -1.05791071
60
Properties=species:S:1:pos:R:3 trajectory=trial0001_proposal001_step008_proposal_relax trajectory_step=13 pbc="F F F"
C        1.69945331       2.59953811      -0.90144610
C       -1.15659261       2.63680008       1.70482442
C        1.10448116       0.09494067       2.56985161
C       -1.02955637      -2.64548952      -2.36967836
C        1.40280884      -2.31554675      -2.70346325
C       -0.16687728       0.78505833       2.95078767
C        2.75529774       1.63350577      -0.94975981
C        2.90777465       2.71737355       1.08040163
C       -2.07191185      -2.79068399       0.94540180
C       -2.34096254      -2.13030799      -2.55385639
C        1.35755245      -2.60991818      -0.15440156
C       -1.39999760      -1.33965811       2.58772138
C        0.39526418       2.49282152      -1.51013692
C       -2.27693466      -3.00863187      -0.42942409
C       -3.14549246      -0.48989507       1.29323323
C        3.08747096       0.43428034       1.11847156
C       -2.45534128       0.59798831       1.95039052
C       -1.44773253      -0.03671201      -3.39317907
C       -0.14412109      -0.60834847      -3.40910077
C        0.80546971       3.91967701       1.01648085
C       -3.60738171      -0.25792454      -2.28809385
C       -2.37216736       1.86548274      -2.17139724
C        2.47570900      -1.40625177      -2.98010343
C        2.84507999       0.41710751      -1.65389551
C        3.28588371      -0.73187381      -0.92872849
C        2.90598630      -0.78853016       0.43975592
C       -3.53419532       1.08160003      -1.88534557
C        3.36797484       1.59611241       0.34021770
C       -1.31838277       1.29939327      -2.90536350
C       -0.39766084       2.20109417       2.84436457
C       -2.86979446       2.07849215       0.07766054
C       -0.45562166       3.37378790       0.68698418
C        3.13814693      -1.85896017      -1.75545630
C       -3.09055648      -2.28962507      -1.33077462
C        2.30400868       0.85275829       2.24429474
C       -2.03113666       2.56651458      -0.97565398
C        2.13366155      -0.01352159      -2.79138952
C        1.98718497      -2.65070351      -1.42923910
C        1.84879354      -1.66779286       0.84302758
C        1.00318389      -1.26797431       1.97206330
C        1.87801560       3.33719914       0.33012335
C        0.06949790       1.57381117      -2.59165621
C       -1.39278832       0.05852131       2.76450045
C        1.85980335       3.19165642       3.12643953
C        0.47885104       3.18387728       3.31857395
C       -3.75211072       1.11452545      -0.46577984
C       -0.65408940      -2.93704295       1.18867603
C       -2.30657975       1.87194063       1.35398460
C       -0.21964734      -1.98817607       2.14381858
C       -2.57677899      -0.83155126      -3.08762096
C       -2.52098993      -1.70878085       1.74310108
C        1.03254922       4.12974439       2.41244554
C       -3.80349420      -1.08758051      -1.11142651
C        0.06490287      -1.96968885      -3.00422869
C       -0.70753774       2.98426242      -0.69342027
C        2.56427836       2.25581741       2.37778193
C       -3.78398734      -0.23061667       0.04390001
C        0.03149892      -3.12443717      -0.03435959
C        0.82015878       0.40302011      -3.06960532
C       -0.97482353      -3.20888785      -1.05615149
60
Properties=species:S:1:pos:R:3 trajectory=trial0001_proposal001_step008_proposal_relax trajectory_step=14 pbc="F F F"
C        1.70021178       2.59780729      -0.90288265
C       -1.15519851       2.63810810       1.70391012
C        1.10505241       0.09660926       2.56889248
C       -1.03157977      -2.64736958      -2.36882622
C        1.40085769      -2.31718387      -2.70166905
C       -0.16610514       0.78661050       2.94983209
C        2.75519839       1.63111331      -0.95030532
C        2.90816268       2.71695933       1.07871421
C       -2.07198609      -2.78877529       0.94784118
C       -2.34299463      -2.13155574      -2.55251394
C        1.35596576      -2.61014655      -0.15316988
C       -1.39982708      -1.33836431       2.58951294
C        0.39670283       2.49091585      -1.51112500
C       -2.27809023      -3.00774686      -0.42710944
C       -3.14535576      -0.48793271       1.29394614
C        3.08730139       0.43390842       1.11742754
C       -2.45459047       0.60009587       1.95053154
C       -1.44883267      -0.03783982      -3.39342380
C       -0.14498817      -0.60977571      -3.41032878
C        0.80688411       3.91995855       1.01447866
C       -3.60833030      -0.25830937      -2.28710839
C       -2.37262847       1.86511025      -2.17086157
C        2.47424506      -1.40874352      -2.97911464
C        2.84462949       0.41503147      -1.65489653
C        3.28571123      -0.73341464      -0.92902757
C        2.90578868      -0.78946775       0.43986894
C       -3.53566812       1.08177742      -1.88559491
C        3.36779415       1.59554563       0.33875185
C       -1.31881027       1.29829850      -2.90466058
C       -0.39542739       2.20311279       2.84290606
C       -2.86927986       2.07941919       0.07770959
C       -0.45423263       3.37432264       0.68517619
C        3.13764332      -1.86093282      -1.75455678
C       -3.09154190      -2.28970838      -1.32801389
C        2.30481971       0.85331626       2.24372456
C       -2.03062101       2.56754760      -0.97639107
C        2.13351321      -0.01533001      -2.79274490
C        1.98608345      -2.65177701      -1.42750058
C        1.84821446      -1.66749765       0.84334773
C        1.00294040      -1.26698282       1.97265122
C        1.87927988       3.33761805       0.32773407
C        0.06954317       1.57243878      -2.59273553
C       -1.39205366       0.06044769       2.76461135
C        1.86210772       3.19360069       3.12477050
C        0.48109821       3.18577860       3.31712598
C       -3.75119501       1.11517752      -0.46561925
C       -0.65402602      -2.93598442       1.19036943
C       -2.30626982       1.87335074       1.35369642
C       -0.21936593      -1.98696160       2.14529458
C       -2.57693412      -0.83225354      -3.08568228
C       -2.52043116      -1.70636606       1.74370757
C        1.03436562       4.13090790       2.41023943
C       -3.80386251      -1.08681255      -1.10979813
C        0.06325112      -1.97174805      -3.00443732
C       -0.70609745       2.98344311      -0.69476062
C        2.56545641       2.25655646       2.37638054
C       -3.78430091      -0.22945664       0.04469240
C        0.03017560      -3.12526199      -0.03332303
C        0.81972007       0.40098020      -3.06992899
C       -0.97659529      -3.20857808      -1.05459264
60
Properties=species:S:1:pos:R:3 trajectory=trial0001_proposal001_step008_proposal_relax trajectory_step=15 pbc="F F F"
C        1.70415365       2.59060469      -0.91116406
C       -1.14896448       2.64415275       1.69962834
C        1.10831131       0.10277721       2.56613916
C       -1.04036872      -2.65682831      -2.36334703
C        1.39115791      -2.32488155      -2.69468157
C       -0.16055433       0.79526826       2.94499272
C        2.75482938       1.62048527      -0.95598923
C        2.91058778       2.71509339       1.06795759
C       -2.07318436      -2.78000820       0.96068407
C       -2.35016040      -2.13603517      -2.54318579
C        1.34779109      -2.61026781      -0.14762279
C       -1.39785707      -1.32849877       2.59627645
C        0.40045486       2.48174506      -1.51532850
C       -2.28376405      -3.00407534      -0.41505626
C       -3.14551482      -0.47807367       1.29914985
C        3.08785135       0.43143743       1.11324263
C       -2.45435490       0.61099110       1.95453064
C       -1.45333217      -0.04263330      -3.39337636
C       -0.14983107      -0.61897467      -3.41422001
C        0.81443701       3.92151856       1.00356371
C       -3.61258866      -0.25887129      -2.28353637
C       -2.37324100       1.86514126      -2.17280186
C        2.46707591      -1.42168287      -2.97562906
C        2.84473257       0.40477846      -1.65959845
C        3.28609993      -0.74163324      -0.93060514
C        2.90428367      -0.79315261       0.43863302
C       -3.53984907       1.08318376      -1.88692743
C        3.36717677       1.58969390       0.33157888
C       -1.32120155       1.29381540      -2.90415078
C       -0.38470163       2.21208176       2.83651029
C       -2.86523001       2.08307356       0.07542286
C       -0.44789318       3.37609019       0.67724730
C        3.13312796      -1.87193152      -1.75136389
C       -3.09590540      -2.28836395      -1.31525709
C        2.31026913       0.85608729       2.24100883
C       -2.02851316       2.57015353      -0.97984052
C        2.13165663      -0.02627893      -2.79700373
C        1.97737564      -2.65595697      -1.42057610
C        1.84393783      -1.66594466       0.84444489
C        1.00369079      -1.26247969       1.97591900
C        1.88578024       3.33879372       0.31484459
C        0.06961649       1.56349342      -2.59508980
C       -1.38872658       0.07188864       2.76563749
C        1.87409261       3.20346650       3.11434084
C        0.49273635       3.19519448       3.30981830
C       -3.74691783       1.11802236      -0.46577597
C       -0.65569447      -2.93120476       1.20093737
C       -2.30362126       1.88194378       1.35416047
C       -0.21826033      -1.98098814       2.15420496
C       -2.57899897      -0.83572310      -3.07675757
C       -2.51793737      -1.69412162       1.74925771
C        1.04349915       4.13735781       2.39787421
C       -3.80688693      -1.08354577      -1.10291161
C        0.05333524      -1.98238311      -3.00515001
C       -0.70040431       2.98065633      -0.70091429
C        2.57097245       2.25990018       2.36769185
C       -3.78446846      -0.22321202       0.04819523
C        0.02358222      -3.12690568      -0.02502696
C        0.81653714       0.38968962      -3.07111757
C       -0.98472883      -3.21033201      -1.04474476
60
Properties=species:S:1:pos:R:3 trajectory=trial0001_proposal001_step008_proposal_relax trajectory_step=16 pbc="F F F"
C        1.70488598       2.58855867      -0.91455068
C       -1.14666401       2.64691922       1.69846091
C        1.11000690       0.10478515       2.56571125
C       -1.04318977      -2.65987564      -2.36070144
C        1.38688529      -2.32762829      -2.69320074
C       -0.15862564       0.79841681       2.94330541
C        2.75513113       1.61750126      -0.95819888
C        2.91205934       2.71363221       1.06404928
C       -2.07397508      -2.77757163       0.96371865
C       -2.35217684      -2.13670275      -2.53933810
C        1.34484430      -2.60982584      -0.14551298
C       -1.39697086      -1.32368175       2.59824079
C        0.40123638       2.47901625      -1.51685823
C       -2.28507212      -3.00297768      -0.40946718
C       -3.14599584      -0.47458299       1.30117498
C        3.08843730       0.43011403       1.11197579
C       -2.45438735       0.61541038       1.95645592
C       -1.45478914      -0.04493244      -3.39312039
C       -0.15240210      -0.62174554      -3.41482666
C        0.81629814       3.92225959       0.99937304
C       -3.61384340      -0.25910061      -2.28212938
C       -2.37455152       1.86560499      -2.17361407
C        2.46484722      -1.42610305      -2.97507714
C        2.84500439       0.40097551      -1.66208300
C        3.28622612      -0.74501551      -0.93149979
C        2.90357442      -0.79451070       0.43814913
C       -3.53988412       1.08411709      -1.88765088
C        3.36680775       1.58819753       0.32877364
C       -1.32058778       1.29187009      -2.90479809
C       -0.38093534       2.21550362       2.83458734
C       -2.86309145       2.08402166       0.07591967
C       -0.44513441       3.37634039       0.67459255
C        3.13124503      -1.87582708      -1.75045769
C       -3.09775813      -2.28735448      -1.31163760
C        2.31158476       0.85665751       2.24015607
C       -2.02695577       2.57064441      -0.98207887
C        2.13096853      -0.03033533      -2.79765361
C        1.97375926      -2.65718956      -1.41874757
C        1.84264383      -1.66513739       0.84470494
C        1.00365576      -1.26108297       1.97715261
C        1.88765823       3.33844939       0.31046711
C        0.06898908       1.55992339      -2.59555106
C       -1.38761326       0.07567334       2.76650014
C        1.87838345       3.20641830       3.11063247
C        0.49633081       3.19798430       3.30688695
C       -3.74533149       1.11940842      -0.46624577
C       -0.65641814      -2.93014287       1.20524689
C       -2.30375584       1.88501490       1.35325284
C       -0.21785184      -1.97888832       2.15733653
C       -2.57959142      -0.83694026      -3.07428819
C       -2.51734784      -1.68976075       1.75200887
C        1.04696671       4.13941411       2.39329338
C       -3.80835426      -1.08224481      -1.10052627
C        0.05079021      -1.98645388      -3.00487384
C       -0.69956123       2.97936208      -0.70260789
C        2.57319986       2.26146561       2.36430212
C       -3.78406661      -0.22114316       0.04993289
C        0.02108487      -3.12726059      -0.02125755
C        0.81581980       0.38568514      -3.07162241
C       -0.98694446      -3.21173842      -1.04104320
60
Properties=species:S:1:pos:R:3 trajectory=trial0001_proposal001_step008_proposal_relax trajectory_step=17 pbc="F F F"
C        1.70594657       2.58654628      -0.91771787
C       -1.14452375       2.64977477       1.69657416
C        1.11125346       0.10678924       2.56560288
C       -1.04613191      -2.66218887      -2.35810156
C        1.38393306      -2.33095895      -2.69140439
C       -0.15651815       0.80197313       2.94230511
C        2.75542669       1.61459986      -0.96105332
C        2.91380429       2.71316494       1.06001008
C       -2.07485651      -2.77483602       0.96771091
C       -2.35462141      -2.13782828      -2.53586058
C        1.34258551      -2.61000171      -0.14340797
C       -1.39628255      -1.31966518       2.60006417
C        0.40163163       2.47648862      -1.51901128
C       -2.28706185      -3.00166817      -0.40558119
C       -3.14569993      -0.47095957       1.30347582
C        3.08928081       0.42930956       1.11087643
C       -2.45363780       0.61921080       1.95754519
C       -1.45632933      -0.04738585      -3.39272021
C       -0.15445121      -0.62560082      -3.41501101
C        0.81918850       3.92330306       0.99483214
C       -3.61497395      -0.25899382      -2.28043017
C       -2.37423018       1.86499204      -2.17498042
C        2.46240403      -1.43103449      -2.97445341
C        2.84484179       0.39745947      -1.66345457
C        3.28564561      -0.74825231      -0.93191840
C        2.90325356      -0.79564598       0.43773376
C       -3.54009992       1.08456376      -1.88726295
C        3.36747373       1.58594790       0.32621196
C       -1.32133205       1.28958762      -2.90507668
C       -0.37786070       2.21874466       2.83255744
C       -2.86161188       2.08577879       0.07480325
C       -0.44272880       3.37687289       0.67172010
C        3.12898285      -1.87994989      -1.74982695
C       -3.09987126      -2.28670067      -1.30789239
C        2.31331163       0.85775369       2.23879046
C       -2.02598169       2.57069095      -0.98339932
C        2.12963212      -0.03493793      -2.79836527
C        1.97051609      -2.65917391      -1.41700761
C        1.84143419      -1.66498468       0.84569688
C        1.00397168      -1.25949735       1.97823982
C        1.88977856       3.33775821       0.30629078
C        0.06879433       1.55631101      -2.59623360
C       -1.38622525       0.08004290       2.76728249
C        1.88203952       3.20952344       3.10676603
C        0.50025412       3.20159752       3.30356185
C       -3.74463842       1.12126741      -0.46577100
C       -0.65773577      -2.92876254       1.20894662
C       -2.30186521       1.88846492       1.35329428
C       -0.21810316      -1.97661091       2.16003458
C       -2.58160491      -0.83848202      -3.07218645
C       -2.51712435      -1.68596554       1.75494762
C        1.05070157       4.14172320       2.38866189
C       -3.80973288      -1.08102131      -1.09774268
C        0.04746531      -1.99004906      -3.00403580
C       -0.69800223       2.97845226      -0.70489256
C        2.57567990       2.26267455       2.36103937
C       -3.78396291      -0.21855395       0.05180706
C        0.01901282      -3.12707871      -0.01763698
C        0.81450326       0.38167850      -3.07254905
C       -0.98944939      -3.21266628      -1.03725422
