60
Properties=species:S:1:pos:R:3 trajectory=trial0001_proposal001_step007_proposal_relax trajectory_step=0 pbc="F F F"
C        1.62258827       2.70809757      -0.71537446
C       -1.30882083       2.47571434       1.82612948
C        1.04795232      -0.03139621       2.60290125
C       -0.85154863      -2.53450569      -2.53805817
C        1.56888986      -2.10350000      -2.81824728
C       -0.26853937       0.58848574       2.98401505
C        2.71831757       1.78572725      -0.79494875
C        2.76363382       2.74117286       1.30301113
C       -1.98848789      -2.92276503       0.72460651
C       -2.17201063      -2.05115293      -2.73073128
C        1.44859424      -2.53497604      -0.28588129
C       -1.41069627      -1.54083999       2.45102340
C        0.33988090       2.60140395      -1.35737296
C       -2.14748331      -3.06826426      -0.66379943
C       -3.17299680      -0.68582117       1.17601556
C        3.04256071       0.47353778       1.20250076
C       -2.54566673       0.38808470       1.92493438
C       -1.35196713       0.12329217      -3.43418494
C       -0.02893815      -0.40200209      -3.41694436
C        0.62100389       3.86202738       1.26348946
C       -3.53270699      -0.25838833      -2.41961348
C       -2.38834128       1.91889734      -2.14173750
C        2.60875281      -1.13328740      -3.00978084
C        2.88576456       0.62089898      -1.56616108
C        3.35001537      -0.55471819      -0.89852813
C        2.93217679      -0.71427394       0.45407778
C       -3.51875361       1.05949809      -1.93633355
C        3.29054610       1.69290769       0.50493260
C       -1.29264668       1.44019937      -2.87581370
C       -0.55396273       1.99914914       2.95368439
C       -2.93397819       1.94881494       0.10787751
C       -0.61084379       3.29698711       0.86920811
C        3.25042234      -1.63169292      -1.79010137
C       -2.95010189      -2.31156151      -1.54627662
C        2.22738088       0.78513791       2.34395434
C       -2.10261547       2.55111658      -0.89109614
C        2.20950322       0.23434593      -2.73674593
C        2.11946919      -2.47758143      -1.53928616
C        1.89213428      -1.64751514       0.78051267
C        1.01146740      -1.35554008       1.92105264
C        1.73241899       3.37062904       0.56658083
C        0.07482908       1.74328235      -2.49876113
C       -1.46725875      -0.16228308       2.72068383
C        1.66092905       3.04234511       3.34331406
C        0.27872498       2.97810694       3.50554300
C       -3.74751591       0.98595825      -0.52331534
C       -0.56788969      -3.03682569       0.99856965
C       -2.42238083       1.69390424       1.39601721
C       -0.19117228      -2.12092453       2.01152948
C       -2.44653555      -0.73813807      -3.20821667
C       -2.49600250      -1.89724839       1.55702004
C        0.81342763       3.99409948       2.67055027
C       -3.72093942      -1.15958403      -1.29141273
C        0.22162198      -1.78124142      -3.11160057
C       -0.80202963       2.99401454      -0.54038470
C        2.42176483       2.18538815       2.56226873
C       -3.76582037      -0.37662411      -0.08801668
C        0.15109218      -3.12959909      -0.21798201
C        0.88080072       0.61543121      -2.98881710
C       -0.82251947      -3.18281369      -1.26533939
60
Properties=species:S:1:pos:R:3 trajectory=trial0001_proposal001_step007_proposal_relax trajectory_step=1 pbc="F F F"
C        1.62240607       2.70873254      -0.71520899
C       -1.30895944       2.47578562       1.82529863
C        1.04723233      -0.03047935       2.60218279
C       -0.85394289      -2.53521781      -2.53873817
C        1.56725311      -2.10227640      -2.81670666
C       -0.26855877       0.58950964       2.98259563
C        2.71773532       1.78631220      -0.79555157
C        2.76453942       2.74100635       1.30247675
C       -1.98693891      -2.92237138       0.72587820
C       -2.17222619      -2.05169693      -2.73003954
C        1.44947820      -2.53579862      -0.28514662
C       -1.40999154      -1.54127525       2.45090458
C        0.33894685       2.60116394      -1.35774157
C       -2.14822022      -3.06706791      -0.66622251
C       -3.17248383      -0.68503391       1.17604814
C        3.04251473       0.47312832       1.20373523
C       -2.54584322       0.38748730       1.92446105
C       -1.35107102       0.12345666      -3.43328425
C       -0.03038316      -0.40244119      -3.41811234
C        0.62191751       3.86257941       1.26206384
C       -3.53244795      -0.25674962      -2.41904102
C       -2.38927345       1.91885753      -2.14206754
C        2.60854172      -1.13350440      -3.00869806
C        2.88626634       0.62050743      -1.56617923
C        3.35007421      -0.55510746      -0.89724431
C        2.93140179      -0.71368123       0.45337924
C       -3.51813827       1.05910821      -1.93649208
C        3.29050116       1.69172091       0.50661775
C       -1.29210253       1.43972559      -2.87604523
C       -0.55360883       1.99842935       2.95290791
C       -2.93410840       1.94937561       0.10773852
C       -0.60989950       3.29670535       0.86939306
C        3.25030637      -1.63322218      -1.79108577
C       -2.94942197      -2.31348030      -1.54583125
C        2.22688731       0.78458614       2.34285107
C       -2.10169496       2.55123013      -0.89075721
C        2.20931363       0.23322264      -2.73753879
C        2.11933847      -2.47777205      -1.53985662
C        1.89176486      -1.64739277       0.78027363
C        1.01169450      -1.35514211       1.91976382
C        1.73302499       3.37030990       0.56644079
C        0.07505075       1.74248788      -2.49870035
C       -1.46720918      -0.16062939       2.72114911
C        1.66125198       3.04335975       3.34413030
C        0.27865256       2.97773156       3.50624127
C       -3.74904967       0.98707934      -0.52343499
C       -0.56810786      -3.03625662       0.99934775
C       -2.42073186       1.69530119       1.39662037
C       -0.19329464      -2.12191096       2.01181200
C       -2.44736119      -0.73860866      -3.20697433
C       -2.49497801      -1.89811459       1.55854193
C        0.81431705       3.99437010       2.67113185
C       -3.72237770      -1.15958099      -1.29080500
C        0.22372777      -1.78142087      -3.11163535
C       -0.80347703       2.99372122      -0.54126593
C        2.42208518       2.18623462       2.56162126
C       -3.76566193      -0.37681834      -0.08761068
C        0.15192415      -3.12858259      -0.21633672
C        0.88172023       0.61613105      -2.99141795
C       -0.82281117      -3.18413196      -1.26469549
60
Properties=species:S:1:pos:R:3 trajectory=trial0001_proposal001_step007_proposal_relax trajectory_step=2 pbc="F F F"
C        1.62188668       2.70937397      -0.71536891
C       -1.30805344       2.47637640       1.82458613
C        1.04629335      -0.02958176       2.60064727
C       -0.85504672      -2.53645391      -2.53974651
C        1.56597458      -2.10070267      -2.81434092
C       -0.26844164       0.59074781       2.98048063
C        2.71745477       1.78644567      -0.79564901
C        2.76576872       2.74096818       1.30214750
C       -1.98573779      -2.92205279       0.72578531
C       -2.17322992      -2.05206166      -2.72936683
C        1.45092083      -2.53703398      -0.28426358
C       -1.40961956      -1.54037137       2.45168448
C        0.33790929       2.60084142      -1.35816020
C       -2.14777512      -3.06644115      -0.66604214
C       -3.17141097      -0.68473003       1.17624890
C        3.04255531       0.47213163       1.20504857
C       -2.54551287       0.38785497       1.92395165
C       -1.35117143       0.12282986      -3.43199309
C       -0.03080968      -0.40302409      -3.41982191
C        0.62319843       3.86341305       1.26101245
C       -3.53213007      -0.25613875      -2.41797077
C       -2.38963677       1.91904255      -2.14266973
C        2.60790727      -1.13406549      -3.00765625
C        2.88668823       0.62003112      -1.56645428
C        3.35005860      -0.55619009      -0.89685861
C        2.93007289      -0.71313356       0.45302291
C       -3.51751129       1.05956590      -1.93612465
C        3.29034633       1.69032054       0.50754156
C       -1.29180676       1.43938903      -2.87596620
C       -0.55289815       1.99838639       2.95179925
C       -2.93410781       1.95030049       0.10796848
C       -0.60864936       3.29639174       0.86895992
C        3.25083151      -1.63461034      -1.79132320
C       -2.95053467      -2.31425316      -1.54596952
C        2.22589491       0.78468409       2.34194997
C       -2.10183785       2.55071985      -0.89095674
C        2.20955637       0.23206932      -2.73816082
C        2.11888094      -2.47860957      -1.53993200
C        1.89139415      -1.64704900       0.77987739
C        1.01071795      -1.35489118       1.91829606
C        1.73407681       3.37000170       0.56599757
C        0.07552236       1.74146460      -2.49872833
C       -1.46735392      -0.15975850       2.72143780
C        1.66204130       3.04455021       3.34505811
C        0.27867766       2.97726457       3.50690517
C       -3.75110483       0.98856887      -0.52322764
C       -0.56828665      -3.03591938       0.99997585
C       -2.41982137       1.69622395       1.39652333
C       -0.19390015      -2.12231555       2.01267205
C       -2.44789876      -0.73873385      -3.20530394
C       -2.49418529      -1.89876881       1.56051853
C        0.81531168       3.99466298       2.67146137
C       -3.72394496      -1.16021823      -1.29026625
C        0.22345430      -1.78177506      -3.11162452
C       -0.80425110       2.99368894      -0.54192925
C        2.42234923       2.18715746       2.56101245
C       -3.76561705      -0.37661773      -0.08721225
C        0.15238342      -3.12744357      -0.21455593
C        0.88260071       0.61670997      -2.99550838
C       -0.82294939      -3.18564038      -1.26427797
60
Properties=species:S:1:pos:R:3 trajectory=trial0001_proposal001_step007_proposal_relax trajectory_step=3 pbc="F F F"
C        1.62136671       2.70961271      -0.71657442
C       -1.30472642       2.47842537       1.82225573
C        1.04310105      -0.02751030       2.59479823
C       -0.85785078      -2.54123571      -2.54097936
C        1.56136648      -2.09731490      -2.80789065
C       -0.26824552       0.59285229       2.97414076
C        2.71707953       1.78451046      -0.79523213
C        2.76937134       2.74082129       1.30124264
C       -1.98422932      -2.91966608       0.72786326
C       -2.17603909      -2.05377596      -2.72800316
C        1.45380693      -2.54127269      -0.28128479
C       -1.40861785      -1.53894550       2.45506252
C        0.33667944       2.59977488      -1.35916314
C       -2.14727349      -3.06474816      -0.66559895
C       -3.16810653      -0.68457717       1.17623871
C        3.04283085       0.47001361       1.20737449
C       -2.54365043       0.39009638       1.92271481
C       -1.35197147       0.12076195      -3.42837156
C       -0.03116331      -0.40434716      -3.42560707
C        0.62706097       3.86549049       1.26015073
C       -3.53224486      -0.25538043      -2.41354743
C       -2.38945583       1.92020756      -2.14382965
C        2.60644565      -1.13609726      -3.00506716
C        2.88704520       0.61848191      -1.56742830
C        3.34958304      -0.55865798      -0.89726487
C        2.92626911      -0.71319639       0.45233775
C       -3.51756124       1.06031754      -1.93455320
C        3.28979824       1.68717637       0.50762825
C       -1.29103403       1.43759079      -2.87556362
C       -0.55016750       2.00050596       2.94850107
C       -2.93555982       1.95254942       0.10788988
C       -0.60453701       3.29648867       0.86656190
C        3.25283681      -1.63905065      -1.79069759
C       -2.95395210      -2.31726159      -1.54451167
C        2.22266429       0.78698497       2.34085233
C       -2.10259669       2.54986151      -0.89179437
C        2.21044149       0.23069542      -2.73986466
C        2.11868735      -2.48182386      -1.53805249
C        1.89008653      -1.64622996       0.77880511
C        1.00726138      -1.35328976       1.91478038
C        1.73697816       3.37031644       0.56453070
C        0.07637014       1.73869552      -2.50011041
C       -1.46744821      -0.15635950       2.72189675
C        1.66432811       3.04747861       3.34699819
C        0.28112983       2.97758382       3.50750029
C       -3.75600806       0.99233567      -0.52128482
C       -0.56769569      -3.03492275       1.00255324
C       -2.41794451       1.69829083       1.39549348
C       -0.19402559      -2.12212198       2.01599933
C       -2.44856746      -0.73877707      -3.20041375
C       -2.49325688      -1.89951818       1.56464056
C        0.81737794       3.99464679       2.67146397
C       -3.72854151      -1.16056584      -1.28844784
C        0.21986214      -1.78270222      -3.11150501
C       -0.80526821       2.99364839      -0.54350114
C        2.42252601       2.18874972       2.56035256
C       -3.76586701      -0.37528576      -0.08586182
C        0.15317509      -3.12551250      -0.21241776
C        0.88548508       0.61730725      -3.00729577
C       -0.82191520      -3.18853375      -1.26376878
60
Properties=species:S:1:pos:R:3 trajectory=trial0001_proposal001_step007_proposal_relax trajectory_step=4 pbc="F F F"
C        1.62342462       2.70752410      -0.71729892
C       -1.30114121       2.48129433       1.81781924
C        1.03913412      -0.02383606       2.58719682
C       -0.86148885      -2.54502883      -2.54285600
C        1.55680269      -2.09564682      -2.79972201
C       -0.26734549       0.59757615       2.96815161
C        2.71508885       1.78099652      -0.79621593
C        2.77189686       2.74069763       1.29987360
C       -1.98228384      -2.91834509       0.72731477
C       -2.18026198      -2.05788708      -2.72541904
C        1.45556235      -2.54644832      -0.27790314
C       -1.40990321      -1.53565647       2.46163815
C        0.33775882       2.59671207      -1.36224378
C       -2.14565305      -3.06430874      -0.65824916
C       -3.16493569      -0.68156644       1.17566887
C        3.04188171       0.46928358       1.20778292
C       -2.54120189       0.39168046       1.92053481
C       -1.35160107       0.11887293      -3.42583369
C       -0.03248777      -0.40626585      -3.43348512
C        0.63110703       3.86650767       1.25841281
C       -3.53265601      -0.25595196      -2.40906843
C       -2.39111096       1.91903588      -2.14386209
C        2.60409204      -1.13995597      -3.00133869
C        2.88595579       0.61544036      -1.56875235
C        3.34808167      -0.56157788      -0.89707867
C        2.92448700      -0.71283093       0.45108496
C       -3.51905071       1.06317623      -1.93170476
C        3.28992724       1.68444077       0.50787365
C       -1.29053105       1.43505965      -2.87395219
C       -0.54574091       2.00358967       2.94518362
C       -2.93723344       1.95625124       0.10879292
C       -0.59998652       3.29856878       0.86411705
C        3.25389999      -1.64413481      -1.79016137
C       -2.95956665      -2.31702763      -1.54299935
C        2.22005187       0.78881228       2.33888092
C       -2.10253821       2.55127669      -0.89235935
C        2.21258431       0.22925618      -2.74372264
C        2.11931545      -2.48565516      -1.53561580
C        1.88655460      -1.64714443       0.77889894
C        1.00566085      -1.34933357       1.91157814
C        1.74150657       3.37156484       0.56294757
C        0.07828383       1.73637451      -2.50379385
C       -1.46756204      -0.15617167       2.72098213
C        1.67075703       3.04975310       3.34793919
C        0.28257948       2.97819737       3.50726714
C       -3.76044957       0.99410470      -0.51975216
C       -0.56732693      -3.03343116       1.00426723
C       -2.41549489       1.70212190       1.39293613
C       -0.19399727      -2.12155651       2.01955891
C       -2.45015296      -0.74092738      -3.19297364
C       -2.49293778      -1.89639535       1.56936669
C        0.82030494       3.99652397       2.66927370
C       -3.73166096      -1.16225757      -1.28459512
C        0.21574723      -1.78463515      -3.11043629
C       -0.80358222       2.99342779      -0.54577292
C        2.42317927       2.19072629       2.55959825
C       -3.76690968      -0.37363568      -0.08243845
C        0.15249970      -3.12619870      -0.20995508
C        0.88705768       0.61818818      -3.01811369
C       -0.82289749      -3.18963322      -1.26212694
60
Properties=species:S:1:pos:R:3 trajectory=trial0001_proposal001_step007_proposal_relax trajectory_step=5 pbc="F F F"
C        1.62323668       2.70712559      -0.71766527
C       -1.30069211       2.48154951       1.81808395
C        1.03949964      -0.02343872       2.58709387
C       -0.86109036      -2.54523371      -2.54193518
C        1.55691309      -2.09634126      -2.80002635
C       -0.26771682       0.59691174       2.96840391
C        2.71560751       1.78036660      -0.79569180
C        2.77187313       2.74063738       1.29997800
C       -1.98301093      -2.91727723       0.72945627
C       -2.18076520      -2.05774250      -2.72555072
C        1.45502492      -2.54656322      -0.27795836
C       -1.40985334      -1.53693126       2.46151776
C        0.33865084       2.59668126      -1.36206559
C       -2.14661387      -3.06399742      -0.65967503
C       -3.16492495      -0.68167835       1.17597619
C        3.04173353       0.46933198       1.20715006
C       -2.54075460       0.39282590       1.92042194
C       -1.35298168       0.11818173      -3.42611002
C       -0.03155685      -0.40633169      -3.43334769
C        0.63134259       3.86640723       1.25867383
C       -3.53305533      -0.25606522      -2.40859764
C       -2.39019104       1.91926618      -2.14334257
C        2.60385770      -1.14001527      -3.00176106
C        2.88555850       0.61520272      -1.56895467
C        3.34788722      -0.56171442      -0.89791885
C        2.92430496      -0.71361168       0.45169046
C       -3.51984745       1.06219785      -1.93188251
C        3.28994341       1.68503931       0.50674292
C       -1.29101546       1.43498414      -2.87370439
C       -0.54605917       2.00410599       2.94476683
C       -2.93740193       1.95633344       0.10831938
C       -0.60025439       3.29878472       0.86346646
C        3.25416143      -1.64364450      -1.78940799
C       -2.95889414      -2.31800530      -1.54145270
C        2.22031890       0.78921418       2.33898493
C       -2.10296342       2.55131438      -0.89261693
C        2.21239638       0.22940163      -2.74394528
C        2.11909249      -2.48617106      -1.53480468
C        1.88730257      -1.64682152       0.77879550
C        1.00480797      -1.34969146       1.91204447
C        1.74151074       3.37164668       0.56252057
C        0.07826337       1.73668543      -2.50416610
C       -1.46715892      -0.15487709       2.72108476
C        1.66941778       3.05030576       3.34769996
C        0.28437422       2.97940015       3.50653084
C       -3.75968183       0.99436777      -0.51908177
C       -0.56728421      -3.03325562       1.00460496
C       -2.41587657       1.70131632       1.39300901
C       -0.19353751      -2.12084305       2.01965509
C       -2.44930546      -0.74046814      -3.19335684
C       -2.49313068      -1.89659848       1.56837871
C        0.82053398       3.99586764       2.66962159
C       -3.73150464      -1.16153180      -1.28430157
C        0.21498938      -1.78454490      -3.11040017
C       -0.80264101       2.99344389      -0.54588880
C        2.42347470       2.19005305       2.55934951
C       -3.76730247      -0.37350627      -0.08284822
C        0.15251593      -3.12685556      -0.21065445
C        0.88705576       0.61745750      -3.01764537
C       -0.82308964      -3.18905959      -1.26212304
60
Properties=species:S:1:pos:R:3 trajectory=trial0001_proposal001_step007_proposal_relax trajectory_step=6 pbc="F F F"
C        1.62395647       2.70587443      -0.71817329
C       -1.29982136       2.48234666       1.81735385
C        1.03925269      -0.02212848       2.58568091
C       -0.86186646      -2.54573268      -2.54092999
C        1.55615419      -2.09748967      -2.79899941
C       -0.26778556       0.59744882       2.96802479
C        2.71566929       1.77881089      -0.79570221
C        2.77219508       2.74051993       1.29961098
C       -1.98354000      -2.91603671       0.73136614
C       -2.18204058      -2.05867788      -2.72503425
C        1.45438467      -2.54758553      -0.27730125
C       -1.41028874      -1.53741591       2.46293190
C        0.34031476       2.59585894      -1.36270297
C       -2.14751062      -3.06371834      -0.65889434
C       -3.16461048      -0.68076401       1.17620301
C        3.04127520       0.46957374       1.20592556
C       -2.53961344       0.39413907       1.91983807
C       -1.35381315       0.11734563      -3.42633365
C       -0.03133606      -0.40679444      -3.43457223
C        0.63237114       3.86633352       1.25839029
C       -3.53361568      -0.25657210      -2.40737568
C       -2.38986711       1.91875107      -2.14237456
C        2.60313247      -1.14112057      -3.00147190
C        2.88459837       0.61411212      -1.56944917
C        3.34716796      -0.56218303      -0.89841819
C        2.92423325      -0.71448491       0.45198330
C       -3.52118285       1.06177668      -1.93145179
C        3.29021737       1.68529350       0.50552879
C       -1.29144724       1.43410072      -2.87309556
C       -0.54541348       2.00563525       2.94382113
C       -2.93782301       1.95725765       0.10804413
C       -0.59962000       3.29980635       0.86219641
C        3.25404923      -1.64434360      -1.78874792
C       -2.95928123      -2.31855264      -1.53920415
C        2.22049626       0.78986394       2.33846772
C       -2.10276440       2.55221518      -0.89288336
C        2.21249959       0.22916617      -2.74527410
C        2.11912599      -2.48741151      -1.53347260
C        1.88728259      -1.64697411       0.77899156
C        1.00406305      -1.34897089       1.91220643
C        1.74230566       3.37203923       0.56164510
C        0.07857493       1.73667259      -2.50570792
C       -1.46675166      -0.15384742       2.72083681
C        1.67027662       3.05090660       3.34712449
C        0.28590593       2.98062782       3.50544190
C       -3.75930420       0.99470797      -0.51821548
C       -0.56726218      -3.03258940       1.00533567
C       -2.41549595       1.70176303       1.39246983
C       -0.19340082      -2.11994654       2.02021705
C       -2.44923332      -0.74088563      -3.19208986
C       -2.49342889      -1.89551040       1.56816770
C        0.82160863       3.99621314       2.66872840
C       -3.73146197      -1.16107165      -1.28293200
C        0.21399860      -1.78499562      -3.10992605
C       -0.80112489       2.99324997      -0.54676863
C        2.42401138       2.18986657       2.55905141
C       -3.76806019      -0.37292442      -0.08218910
C        0.15200093      -3.12831058      -0.21088029
C        0.88704183       0.61658727      -3.01840369
C       -0.82390529      -3.18823446      -1.26146768
60
Properties=species:S:1:pos:R:3 trajectory=trial0001_proposal001_step007_proposal_relax trajectory_step=7 pbc="F F F"
C        1.62548472       2.70372433      -0.71922930
C       -1.29809088       2.48436078       1.81540004
C        1.03854806      -0.01945725       2.58292349
C       -0.86396319      -2.54650389      -2.53918698
C        1.55440421      -2.09960577      -2.79648967
C       -0.26756746       0.59950752       2.96696441
C        2.71562755       1.77617821      -0.79644811
C        2.77338344       2.74036769       1.29827010
C       -1.98407209      -2.91402241       0.73414483
C       -2.18469062      -2.06065706      -2.72338728
C        1.45358369      -2.54980876      -0.27561683
C       -1.41114203      -1.53706703       2.46591834
C        0.34280478       2.59407653      -1.36450017
C       -2.14892484      -3.06319694      -0.65612610
C       -3.16393147      -0.67856086       1.17686990
C        3.04056187       0.46973733       1.20393352
C       -2.53728135       0.39637780       1.91858570
C       -1.35498061       0.11571088      -3.42644591
C       -0.03169318      -0.40820654      -3.43699309
C        0.63467423       3.86658044       1.25678444
C       -3.53451850      -0.25749414      -2.40480934
C       -2.38969313       1.91723564      -2.14083578
C        2.60153403      -1.14381937      -3.00063515
C        2.88283631       0.61173809      -1.57048877
C        3.34563015      -0.56355745      -0.89889596
C        2.92397481      -0.71572552       0.45208104
C       -3.52301868       1.06152067      -1.93035868
C        3.29099308       1.68498674       0.50382629
C       -1.29200085       1.43211777      -2.87205254
C       -0.54395524       2.00840914       2.94179852
C       -2.93809042       1.95960215       0.10781169
C       -0.59782649       3.30166254       0.85964724
C        3.25334361      -1.64641485      -1.78792226
C       -2.96082342      -2.31909463      -1.53540022
C        2.22077090       0.79094094       2.33677907
C       -2.10200945       2.55380119      -0.89346873
C        2.21262082       0.22777233      -2.74791435
C        2.11886390      -2.48998516      -1.53128487
C        1.88673842      -1.64758069       0.77960506
C        1.00289274      -1.34725015       1.91203789
C        1.74424760       3.37230390       0.55970840
C        0.07928618       1.73609160      -2.50863467
C       -1.46603728      -0.15202225       2.72050722
C        1.67248541       3.05237062       3.34599070
C        0.28860848       2.98287488       3.50332840
C       -3.75936469       0.99581898      -0.51685152
C       -0.56768447      -3.03125965       1.00688380
C       -2.41407410       1.70364310       1.39135789
C       -0.19379480      -2.11840349       2.02145034
C       -2.44993093      -0.74211477      -3.18915338
C       -2.49377278      -1.89317308       1.56906316
C        0.82443814       3.99739658       2.66677998
C       -3.73171621      -1.16059636      -1.27987184
C        0.21238146      -1.78627280      -3.10874178
C       -0.79859958       2.99287607      -0.54885092
C        2.42544305       2.19008045       2.55803691
C       -3.76940185      -0.37147431      -0.08028957
C        0.15092939      -3.13064934      -0.20998298
C        0.88690592       0.61504918      -3.02092067
C       -0.82585295      -3.18734828      -1.25956093
60
Properties=species:S:1:pos:R:3 trajectory=trial0001_proposal001_step007_proposal_relax trajectory_step=8 pbc="F F F"
C        1.62795063       2.70026315      -0.72236255
C       -1.29472326       2.48916677       1.81193695
C        1.03822481      -0.01521286       2.57949110
C       -0.86787014      -2.54727235      -2.53423879
C        1.55120745      -2.10472599      -2.79320195
C       -0.26651042       0.60406223       2.96586572
C        2.71643569       1.77221163      -0.79902119
C        2.77681344       2.74007912       1.29474125
C       -1.98581690      -2.91045194       0.73961339
C       -2.18926641      -2.06330646      -2.71934954
C        1.45186361      -2.55362119      -0.27213820
C       -1.41224015      -1.53456159       2.47049166
C        0.34623143       2.59119743      -1.36840348
C       -2.15214215      -3.06223605      -0.65079263
C       -3.16318737      -0.67414744       1.17921774
C        3.04024070       0.46933836       1.20047068
C       -2.53289713       0.40100208       1.91669691
C       -1.35737665       0.11212972      -3.42646252
C       -0.03339375      -0.41189901      -3.43929982
C        0.63934479       3.86787690       1.25240402
C       -3.53615241      -0.25883146      -2.40001288
C       -2.38875156       1.91389282      -2.13889827
C        2.59865134      -1.14968674      -3.00002607
C        2.87978222       0.60713621      -1.57264745
C        3.34248891      -0.56679990      -0.89993067
C        2.92327713      -0.71807260       0.45193500
C       -3.52482320       1.06082034      -1.92827279
C        3.29323968       1.68370873       0.49999298
C       -1.29271768       1.42812950      -2.87102670
C       -0.54131141       2.01415944       2.93857460
C       -2.93741500       1.96406223       0.10720013
C       -0.59399889       3.30471259       0.85456169
C        3.25073421      -1.65073922      -1.78672947
C       -2.96400267      -2.31974844      -1.52862827
C        2.22146731       0.79288668       2.33322062
C       -2.10003925       2.55574126      -0.89511538
C        2.21161922       0.22351686      -2.75167018
C        2.11713613      -2.49492602      -1.52776954
C        1.88586505      -1.64898796       0.78126271
C        1.00089446      -1.34435805       1.91202853
C        1.74752761       3.37157768       0.55546586
C        0.08008494       1.73396872      -2.51332326
C       -1.46450939      -0.14771737       2.72068270
C        1.67806365       3.05436359       3.34254225
C        0.29214041       2.98667233       3.49866612
C       -3.75951728       0.99913852      -0.51433882
C       -0.56947358      -3.02903664       1.01063230
C       -2.41103980       1.70771390       1.38956652
C       -0.19513316      -2.11512349       2.02360307
C       -2.45232825      -0.74458890      -3.18495419
C       -2.49469666      -1.88901717       1.57210916
C        0.83049093       4.00107219       2.66121729
C       -3.73254567      -1.15922824      -1.27371203
C        0.20950306      -1.78931499      -3.10589941
C       -0.79461829       2.99245058      -0.55314665
C        2.42893380       2.19143811       2.55530632
C       -3.77149026      -0.36793992      -0.07626253
C        0.14869960      -3.13393688      -0.20665332
C        0.88616151       0.61133758      -3.02519100
C       -0.82959147      -3.18674726      -1.25487785
60
Properties=species:S:1:pos:R:3 trajectory=trial0001_proposal001_step007_proposal_relax trajectory_step=9 pbc="F F F"
C        1.63555217       2.69035031      -0.73280891
C       -1.28472129       2.50442622       1.80056616
C        1.03760851      -0.00254762       2.57052328
C       -0.88008253      -2.54956640      -2.51825843
C        1.54115622      -2.12118279      -2.78370431
C       -0.26239829       0.61911365       2.96276323
C        2.71912591       1.76079965      -0.80908838
C        2.78859893       2.73922732       1.28114385
C       -1.99169523      -2.90079112       0.75493928
C       -2.20261391      -2.07093202      -2.70535659
C        1.44670398      -2.56514528      -0.26110373
C       -1.41513396      -1.52406766       2.48407130
C        0.35515418       2.58255437      -1.38153122
C       -2.16142856      -3.05993559      -0.63168779
C       -3.16116468      -0.65972066       1.18723962
C        3.04014904       0.46785666       1.19085776
C       -2.52020409       0.41518920       1.91202865
C       -1.36414503       0.10070232      -3.42586132
C       -0.04000453      -0.42448460      -3.44473902
C        0.65404431       3.87235213       1.23660084
C       -3.54098672      -0.26273576      -2.38553415
C       -2.38612338       1.90361923      -2.13453684
C        2.58962989      -1.16897537      -2.99866406
C        2.87117946       0.59276588      -1.57956747
C        3.33268844      -0.57751304      -0.90268002
C        2.92086192      -0.72501049       0.45073085
C       -3.52815036       1.06026469      -1.92122046
C        3.30088860       1.67882501       0.48857365
C       -1.29413459       1.41534200      -2.86952515
C       -0.53353288       2.03055496       2.92827664
C       -2.93425251       1.97796333       0.10568637
C       -0.58164743       3.31375442       0.83896393
C        3.24137771      -1.66559548      -1.78402309
C       -2.97533161      -2.31989021      -1.50921922
C        2.22421065       0.79888555       2.32179216
C       -2.09334615       2.56044064      -0.90085041
C        2.20771055       0.20854964      -2.76192007
C        2.11049549      -2.51012091      -1.51804665
C        1.88242376      -1.65367627       0.78676466
C        0.99588911      -1.33551025       1.91207376
C        1.75874161       3.36792526       0.54132217
C        0.08222618       1.72582286      -2.52674985
C       -1.45960675      -0.13377257       2.72188062
C        1.68967428       3.06323654       3.33113515
C        0.30934384       3.00275981       3.48246768
C       -3.76105108       1.00945231      -0.50722578
C       -0.57580474      -3.02261168       1.02307089
C       -2.40064993       1.72201454       1.38401607
C       -0.19966525      -2.10476100       2.03077827
C       -2.46154116      -0.75265382      -3.17261944
C       -2.49828753      -1.87530714       1.58408191
C        0.84989305       4.00978667       2.64664366
C       -3.73587585      -1.15518139      -1.25485953
C        0.20015858      -1.79981294      -3.09628693
C       -0.78342016       2.99169878      -0.56639598
C        2.44115182       2.19443130       2.54462116
C       -3.77701665      -0.35610201      -0.06276230
C        0.14080453      -3.14244267      -0.19417766
C        0.88306900       0.59932626      -3.03833592
C       -0.84100106      -3.18635398      -1.23913329
60
Properties=species:S:1:pos:R:3 trajectory=trial0001_proposal001_step007_proposal_relax trajectory_step=10 pbc="F F F"
C        1.64015993       2.68427489      -0.74261284
C       -1.27651784       2.51605017       1.79369806
C        1.03905844       0.00533824       2.56738722
C       -0.88847848      -2.55170458      -2.50490545
C        1.53345025      -2.13424498      -2.77908653
C       -0.25795581       0.63136860       2.96170828
C        2.72234730       1.75397319      -0.81827651
C        2.79872059       2.73833567       1.26983921
C       -1.99737462      -2.89422128       0.76831864
C       -2.21149918      -2.07449885      -2.69320948
C        1.44226667      -2.57267822      -0.25334094
C       -1.41605826      -1.51349505       2.49172119
C        0.35933345       2.57728260      -1.39157904
C       -2.16940937      -3.05815921      -0.61933865
C       -3.16012569      -0.64821916       1.19488642
C        3.04191685       0.46552837       1.18475025
C       -2.51263862       0.42729480       1.91102259
C       -1.37021427       0.09090425      -3.42466440
C       -0.04571818      -0.43586209      -3.44517098
C        0.66566034       3.87650382       1.22339869
C       -3.54467890      -0.26329599      -2.37556883
C       -2.38301604       1.89735524      -2.13419102
C        2.58276585      -1.18396856      -2.99924586
C        2.86656408       0.58214229      -1.58511122
C        3.32570545      -0.58705089      -0.90517633
C        2.91840855      -0.72928059       0.44986870
C       -3.52775428       1.05978776      -1.91636436
C        3.30759240       1.67380050       0.47862134
C       -1.29480382       1.40625449      -2.87099403
C       -0.52669374       2.04368185       2.92242839
C       -2.93060512       1.98745294       0.10417276
C       -0.57218390       3.31986960       0.82805020
C        3.23346621      -1.67705283      -1.78257108
C       -2.98285692      -2.31994031      -1.49541775
C        2.22671809       0.80280694       2.31391778
C       -2.08823476       2.56119272      -0.90589299
C        2.20303931       0.19479071      -2.76686008
C        2.10282203      -2.52116861      -1.51228107
C        1.87998923      -1.65684041       0.79071054
C        0.99344851      -1.33005909       1.91327108
C        1.76681169       3.36421869       0.52953766
C        0.08296920       1.71760108      -2.53418548
C       -1.45587427      -0.12164703       2.72400772
C        1.70419481       3.06761594       3.31951103
C        0.31611068       3.01210903       3.47096420
C       -3.76252773       1.01809446      -0.50217722
C       -0.58194015      -3.01864983       1.03390048
C       -2.39342913       1.73233196       1.38052700
C       -0.20319100      -2.09686012       2.03651616
C       -2.46907829      -0.75819691      -3.16636312
C       -2.50141994      -1.86624080       1.59485552
C        0.86389261       4.01987551       2.63077273
C       -3.73983916      -1.15104728      -1.24174052
C        0.19290558      -1.80867291      -3.08852635
C       -0.77673938       2.99201625      -0.57604645
C        2.45024396       2.19868483       2.53562151
C       -3.77976536      -0.34695487      -0.05328380
C        0.13479932      -3.14555859      -0.18241620
C        0.88005868       0.58886704      -3.04625590
C       -0.84930375      -3.18824487      -1.22599136
60
Properties=species:S:1:pos:R:3 trajectory=trial0001_proposal001_step007_proposal_relax trajectory_step=11 pbc="F F F"
C        1.64246942       2.68157512      -0.75093963
C       -1.27089059       2.52367682       1.78962717
C        1.04168009       0.00924121       2.56835353
C       -0.89407305      -2.55430765      -2.49527841
C        1.52761199      -2.14326257      -2.77768256
C       -0.25376556       0.63998994       2.96160641
C        2.72544412       1.75054572      -0.82619621
C        2.80697107       2.73722539       1.26006842
C       -2.00232645      -2.89140157       0.77667177
C       -2.21603802      -2.07500160      -2.68388146
C        1.43900517      -2.57644420      -0.24827932
C       -1.41530519      -1.50304142       2.49488143
C        0.35958383       2.57470976      -1.39830293
C       -2.17452674      -3.05745875      -0.60977464
C       -3.15973253      -0.64020547       1.20109258
C        3.04473518       0.46327957       1.18235420
C       -2.50983592       0.43602926       1.91306828
C       -1.37345674       0.08378659      -3.42309584
C       -0.05123264      -0.44500100      -3.44274771
C        0.67388073       3.87985221       1.21248198
C       -3.54685373      -0.26224339      -2.37027945
C       -2.38069790       1.89465012      -2.13686670
C        2.57817304      -1.19484840      -3.00047786
C        2.86547801       0.57499661      -1.58914762
C        3.32157690      -0.59437271      -0.90655675
C        2.91584118      -0.73170440       0.44854938
C       -3.52464480       1.06071618      -1.91324168
C        3.31257261       1.66925311       0.47149954
C       -1.29458106       1.40044445      -2.87460453
C       -0.52161302       2.05187833       2.91939920
C       -2.92742371       1.99255047       0.10282703
C       -0.56557244       3.32302309       0.82148431
C        3.22697421      -1.68620930      -1.78264769
C       -2.98840700      -2.31825739      -1.48794843
C        2.22903669       0.80514098       2.30941182
C       -2.08415504       2.55931894      -0.90968076
C        2.19841030       0.18345910      -2.76761099
C        2.09565163      -2.52794638      -1.51026708
C        1.87815313      -1.65827998       0.79319285
C        0.99306624      -1.32752610       1.91504344
C        1.77257551       3.36095749       0.52030298
C        0.08242058       1.70950664      -2.53671791
C       -1.45313425      -0.11200859       2.72656722
C        1.71196703       3.07211073       3.30967638
C        0.32272599       3.02020346       3.46292993
C       -3.76414232       1.02498197      -0.49941513
C       -0.58697157      -3.01657654       1.04295151
C       -2.38832205       1.74012076       1.37914710
C       -0.20540062      -2.09169957       2.04109705
C       -2.47599664      -0.76208322      -3.16372163
C       -2.50391214      -1.86018083       1.60450576
C        0.87306954       4.02609639       2.61987738
C       -3.74391912      -1.14799558      -1.23443775
C        0.18774419      -1.81592255      -3.08311195
C       -0.77454711       2.99287367      -0.58201084
C        2.45687904       2.20179011       2.52727011
C       -3.77999283      -0.34053568      -0.04707318
C        0.12990264      -3.14439843      -0.17234248
C        0.87764265       0.58027808      -3.05023136
C       -0.85427758      -3.19175872      -1.21622884
60
Properties=species:S:1:pos:R:3 trajectory=trial0001_proposal001_step007_proposal_relax trajectory_step=12 pbc="F F F"
C        1.64704738       2.67747196      -0.76305810
C       -1.26201076       2.53268659       1.78437195
C        1.04649106       0.01337017       2.57124208
C       -0.90189011      -2.56091990      -2.48475806
C        1.51878406      -2.15550459      -2.77560115
C       -0.24653650       0.65176434       2.96158338
C        2.72907465       1.74406120      -0.83805782
C        2.81665441       2.73614986       1.24449042
C       -2.00952358      -2.88793230       0.79036520
C       -2.22211004      -2.07664813      -2.67057427
C        1.43276669      -2.57893461      -0.24249043
C       -1.41331822      -1.48727454       2.49873635
C        0.35955225       2.56986578      -1.40702325
C       -2.18244330      -3.05615912      -0.59583554
C       -3.15964419      -0.62940445       1.20878874
C        3.04893320       0.46002705       1.17871413
C       -2.50904914       0.44928545       1.91962411
C       -1.37945775       0.07397938      -3.42152190
C       -0.05794604      -0.45863677      -3.43983317
C        0.68404060       3.88344620       1.19686100
C       -3.55114246      -0.26027987      -2.36464998
C       -2.37858070       1.89364203      -2.14227808
C        2.57105483      -1.21066392      -3.00158503
C        2.86603236       0.56435636      -1.59477276
C        3.31750423      -0.60565169      -0.90946356
C        2.91251469      -0.73385374       0.44655823
C       -3.52111996       1.06420300      -1.91050991
C        3.31851611       1.66229896       0.46171984
C       -1.29467914       1.39327874      -2.88073634
C       -0.51249509       2.06245202       2.91591407
C       -2.92138564       1.99915087       0.10323175
C       -0.55694425       3.32700243       0.81314982
C        3.21868125      -1.69915386      -1.78222120
C       -2.99472164      -2.31467299      -1.47704977
C        2.23458546       0.80865584       2.30527775
C       -2.07961432       2.55606823      -0.91449611
C        2.19332727       0.16761693      -2.76765604
C        2.08465405      -2.53688891      -1.50721885
C        1.87390023      -1.65937805       0.79608114
C        0.99495849      -1.32430661       1.91979711
C        1.78268503       3.35832007       0.50558008
C        0.08163767       1.69713226      -2.53806296
C       -1.44933826      -0.09848166       2.73009244
C        1.72164736       3.08189018       3.29387013
C        0.33533185       3.03386540       3.45327461
C       -3.76625541       1.03110362      -0.49775029
C       -0.59371828      -3.01413239       1.05566818
C       -2.38354899       1.75107389       1.37768654
C       -0.20719744      -2.08458816       2.04989309
C       -2.48312311      -0.76597679      -3.16071267
C       -2.50629288      -1.84985324       1.61714420
C        0.88477359       4.03393086       2.60466853
C       -3.75017375      -1.14298759      -1.22646692
C        0.17743513      -1.82831346      -3.07739581
C       -0.77088125       2.99396233      -0.58833714
C        2.46482337       2.20573828       2.51463296
C       -3.77928174      -0.33164613      -0.04022896
C        0.12205530      -3.14131764      -0.15884004
C        0.87264372       0.56625561      -3.05213253
C       -0.86218772      -3.19695476      -1.20255987
60
Properties=species:S:1:pos:R:3 trajectory=trial0001_proposal001_step007_proposal_relax trajectory_step=13 pbc="F F F"
C        1.65052253       2.67331209      -0.77451140
C       -1.25493792       2.53898157       1.78060413
C        1.05225612       0.01801218       2.57391129
C       -0.91068186      -2.56948046      -2.47556083
C        1.50935483      -2.16627881      -2.77326564
C       -0.24064126       0.66034675       2.96137885
C        2.73267710       1.73721879      -0.84637029
C        2.82474044       2.73380033       1.23249766
C       -2.01568793      -2.88484104       0.80162012
C       -2.22763769      -2.07717351      -2.66130728
C        1.42570684      -2.57988001      -0.23725247
C       -1.41133510      -1.47500347       2.50212153
C        0.36153102       2.56537758      -1.41234310
C       -2.18870743      -3.05497577      -0.58209410
C       -3.15940458      -0.61934348       1.21553312
C        3.05203157       0.45862069       1.17613322
C       -2.51006240       0.46018130       1.92538753
C       -1.38116751       0.06730414      -3.42130215
C       -0.06575819      -0.46989871      -3.43836525
C        0.69412852       3.88617465       1.18337647
C       -3.55415533      -0.25815210      -2.36206267
C       -2.37709571       1.89393351      -2.14628486
C        2.56491530      -1.22390233      -3.00161105
C        2.86692112       0.55442858      -1.60026111
C        3.31522660      -0.61415017      -0.91053436
C        2.90911252      -0.73794002       0.44417218
C       -3.52064918       1.06575824      -1.90958693
C        3.32234295       1.65739338       0.45213664
C       -1.29571261       1.38786157      -2.88524737
C       -0.50351868       2.07217093       2.91265990
C       -2.92014934       2.00162643       0.09892050
C       -0.54987911       3.32980560       0.80628024
C        3.21167160      -1.71189629      -1.78215105
C       -3.00048056      -2.31027116      -1.46728601
C        2.23974972       0.81087172       2.30256889
C       -2.07451710       2.55490067      -0.91722212
C        2.18821931       0.15466782      -2.76896668
C        2.07598396      -2.54377243      -1.50453119
C        1.87147281      -1.65833627       0.79794121
C        0.99574631      -1.32260868       1.92501482
C        1.78946985       3.35850161       0.49223610
C        0.07984317       1.68585226      -2.53952594
C       -1.44547270      -0.08500319       2.73332368
C        1.73024518       3.09161497       3.28024619
C        0.34665174       3.04606524       3.44587613
C       -3.76440173       1.04010500      -0.49471514
C       -0.59853884      -3.01071090       1.06835876
C       -2.37795109       1.76035917       1.38047169
C       -0.20762819      -2.07943512       2.05737429
C       -2.49122352      -0.77162838      -3.15540181
C       -2.50741736      -1.84021450       1.62660536
C        0.89411186       4.04070615       2.59117745
C       -3.75483651      -1.13928985      -1.22062469
C        0.17073337      -1.83916778      -3.07441619
C       -0.76825208       2.99341585      -0.59482372
C        2.47150810       2.20983484       2.50281019
C       -3.77880185      -0.32553919      -0.03544962
C        0.11446493      -3.13911899      -0.14900712
C        0.87024636       0.55309361      -3.05162050
C       -0.86938767      -3.20069478      -1.19189630
60
Properties=species:S:1:pos:R:3 trajectory=trial0001_proposal001_step007_proposal_relax trajectory_step=14 pbc="F F F"
C        1.65227161       2.67152454      -0.77686335
C       -1.25235892       2.54069062       1.77943176
C        1.05312266       0.01970165       2.57334940
C       -0.91324204      -2.57217277      -2.47466940
C        1.50692049      -2.16885620      -2.77122225
C       -0.23902678       0.66296512       2.96068783
C        2.73287128       1.73414998      -0.84830373
C        2.82575129       2.73380066       1.22920132
C       -2.01654698      -2.88297309       0.80576489
C       -2.23022307      -2.07906137      -2.65879610
C        1.42352831      -2.58015259      -0.23592884
C       -1.41112796      -1.47231448       2.50427737
C        0.36298394       2.56287997      -1.41405042
C       -2.19089818      -3.05391764      -0.57903339
C       -3.15925748      -0.61672512       1.21650730
C        3.05218870       0.45790339       1.17437893
C       -2.50955765       0.46351090       1.92671072
C       -1.38336641       0.06522399      -3.42153674
C       -0.06654798      -0.47265606      -3.43963995
C        0.69610636       3.88662731       1.18032500
C       -3.55570552      -0.25834965      -2.36062734
C       -2.37748641       1.89386278      -2.14636039
C        2.56269388      -1.22780216      -3.00082255
C        2.86680013       0.55148322      -1.60164594
C        3.31486895      -0.61688925      -0.91148451
C        2.90871200      -0.73845357       0.44418759
C       -3.52192328       1.06681919      -1.90960180
C        3.32277939       1.65622935       0.45010654
C       -1.29621143       1.38641715      -2.88523218
C       -0.50032899       2.07497808       2.91133819
C       -2.91839834       2.00367683       0.10032260
C       -0.54774065       3.33078079       0.80390200
C        3.21072995      -1.71487203      -1.78134106
C       -3.00156928      -2.31010504      -1.46343706
C        2.24138034       0.81195678       2.30184457
C       -2.07399880       2.55540691      -0.91830005
C        2.18819798       0.15163773      -2.77032829
C        2.07399338      -2.54603167      -1.50258171
C        1.87012213      -1.65821449       0.79841766
C        0.99605353      -1.32143854       1.92636013
C        1.79236151       3.35910874       0.48840116
C        0.08010159       1.68351316      -2.54045794
C       -1.44465280      -0.08244592       2.73369417
C        1.73325711       3.09490063       3.27711679
C        0.35011201       3.04948419       3.44418462
C       -3.76440296       1.04006318      -0.49492393
C       -0.59919938      -3.00971886       1.07080460
C       -2.37798058       1.76271794       1.37965161
C       -0.20755409      -2.07791459       2.06002658
C       -2.49127887      -0.77204813      -3.15357161
C       -2.50707064      -1.83693719       1.62808685
C        0.89677446       4.04256001       2.58775237
C       -3.75594846      -1.13782329      -1.21859522
C        0.16749584      -1.84252410      -3.07425666
C       -0.76610266       2.99279418      -0.59617486
C        2.47289968       2.21080597       2.50042643
C       -3.77915371      -0.32350383      -0.03423669
C        0.11240108      -3.13952475      -0.14697988
C        0.86899415       0.54976177      -3.05195091
C       -0.87211866      -3.20092051      -1.18916515
60
Properties=species:S:1:pos:R:3 trajectory=trial0001_proposal001_step007_proposal_relax trajectory_step=15 pbc="F F F"
C        1.65697729       2.66646902      -0.78473870
C       -1.24547043       2.54573355       1.77611515
C        1.05648469       0.02447525       2.57289711
C       -0.92118159      -2.58034275      -2.47100833
C        1.49910957      -2.17710183      -2.76608225
C       -0.23407427       0.67054249       2.95917364
C        2.73401089       1.72583478      -0.85416084
C        2.82942273       2.73335188       1.21950396
C       -2.01946630      -2.87777609       0.81708377
C       -2.23744689      -2.08336558      -2.65173346
C        1.41682211      -2.58046661      -0.23179902
C       -1.41008478      -1.46414285       2.50973286
C        0.36677918       2.55602397      -1.41866930
C       -2.19695849      -3.05104518      -0.56895355
C       -3.15881151      -0.60859818       1.22032600
C        3.05315291       0.45640583       1.17013327
C       -2.50875959       0.47299778       1.93067729
C       -1.38813288       0.05975853      -3.42213871
C       -0.07032561      -0.48130601      -3.44217441
C        0.70287584       3.88839288       1.17050886
C       -3.55972293      -0.25820537      -2.35721937
C       -2.37804447       1.89370572      -2.14727800
C        2.55641013      -1.23943835      -2.99886588
C        2.86683774       0.54250955      -1.60594339
C        3.31397779      -0.62472733      -0.91358987
C        2.90730361      -0.74090278       0.44349112
C       -3.52523833       1.06911792      -1.90980577
C        3.32424863       1.65236745       0.44343856
C       -1.29788637       1.38193453      -2.88572807
C       -0.49108472       2.08333491       2.90763486
C       -2.91499735       2.00815802       0.10082863
C       -0.54148930       3.33297400       0.79717710
C        3.20719203      -1.72445527      -1.77939645
C       -3.00568644      -2.30842413      -1.45286401
C        2.24631144       0.81485209       2.29961979
C       -2.07171084       2.55664695      -0.92077264
C        2.18690408       0.14196540      -2.77378200
C        2.06758927      -2.55231798      -1.49737512
C        1.86658429      -1.65749594       0.79997263
C        0.99692765      -1.31849155       1.93063720
C        1.79969321       3.36086245       0.47694646
C        0.08017444       1.67573595      -2.54273282
C       -1.44179407      -0.07336664       2.73537266
C        1.74279640       3.10428738       3.26733140
C        0.35962840       3.05948409       3.43900968
C       -3.76294437       1.04291852      -0.49425635
C       -0.60170439      -3.00664308       1.07909502
C       -2.37607883       1.77006311       1.37981231
C       -0.20733304      -2.07345466       2.06760901
C       -2.49354958      -0.77465457      -3.14797785
C       -2.50614751      -1.82726993       1.63308023
C        0.90468172       4.04875394       2.57661212
C       -3.75907881      -1.13402999      -1.21289271
C        0.15901088      -1.85253608      -3.07381963
C       -0.76064177       2.99065006      -0.60091843
C        2.47743411       2.21428402       2.49270610
C       -3.77989762      -0.31765291      -0.03073997
C        0.10613596      -3.13998170      -0.14060798
C        0.86578089       0.53926191      -3.05232060
C       -0.88001983      -3.20207099      -1.18104242
60
Properties=species:S:1:pos:R:3 trajectory=trial0001_proposal001_step007_proposal_relax trajectory_step=16 pbc="F F F"
C        1.66034877       2.66262746      -0.79149641
C       -1.24048514       2.55043365       1.77358986
C        1.05963412       0.02814143       2.57335781
C       -0.92816045      -2.58648674      -2.46752667
C        1.49252544      -2.18444049      -2.76244840
C       -0.22983803       0.67682255       2.95842415
C        2.73523474       1.71973346      -0.85924819
C        2.83273905       2.73282314       1.21163784
C       -2.02164534      -2.87308973       0.82478538
C       -2.24335463      -2.08629989      -2.64653144
C        1.41130027      -2.58029765      -0.22795660
C       -1.40895830      -1.45683213       2.51385946
C        0.36931019       2.55042860      -1.42243213
C       -2.20152879      -3.04832645      -0.56056936
C       -3.15850654      -0.60175320       1.22395272
C        3.05431747       0.45523427       1.16725615
C       -2.50732302       0.48022835       1.93342440
C       -1.39109604       0.05558919      -3.42228121
C       -0.07456228      -0.48854480      -3.44315034
C        0.70836056       3.89048927       1.16192189
C       -3.56259935      -0.25800783      -2.35453584
C       -2.37828433       1.89284878      -2.14819400
C        2.55160951      -1.24929178      -2.99737280
C        2.86683646       0.53520808      -1.60937667
C        3.31349920      -0.63089538      -0.91467721
C        2.90653651      -0.74339865       0.44273823
C       -3.52739807       1.07064205      -1.90983418
C        3.32531519       1.64915247       0.43804777
C       -1.29915642       1.37774809      -2.88576743
C       -0.48396412       2.09012064       2.90471888
C       -2.91204792       2.01155900       0.10035572
C       -0.53611388       3.33368001       0.79164524
C        3.20358904      -1.73283432      -1.77801096
C       -3.01002328      -2.30677595      -1.44532945
C        2.24995128       0.81722709       2.29752606
C       -2.06939533       2.55748504      -0.92289757
C        2.18489156       0.13330146      -2.77598113
C        2.06199808      -2.55680029      -1.49342461
C        1.86402440      -1.65691669       0.80165083
C        0.99755505      -1.31600520       1.93398911
C        1.80455636       3.36162785       0.46782261
C        0.07981353       1.66878823      -2.54435988
C       -1.43916587      -0.06595295       2.73719743
C        1.75078673       3.11162821       3.25976717
C        0.36689092       3.06744725       3.43394601
C       -3.76125118       1.04654460      -0.49349053
C       -0.60400567      -3.00411027       1.08612842
C       -2.37369626       1.77640946       1.38041527
C       -0.20730578      -2.06994134       2.07318361
C       -2.49699089      -0.77748234      -3.14373242
C       -2.50521775      -1.81947036       1.63754551
C        0.91150364       4.05434973       2.56719387
C       -3.76141705      -1.13094403      -1.20788297
C        0.15288451      -1.86070314      -3.07359797
C       -0.75678696       2.98812571      -0.60509948
C        2.48175961       2.21773056       2.48636604
C       -3.78026044      -0.31251722      -0.02737700
C        0.10109721      -3.13992665      -0.13511803
C        0.86337865       0.53058557      -3.05291663
C       -0.88621384      -3.20312623      -1.17469120
60
Properties=species:S:1:pos:R:3 trajectory=trial0001_proposal001_step007_proposal_relax trajectory_step=17 pbc="F F F"
C        1.66542921       2.65530575      -0.80522453
C       -1.23133472       2.56127454       1.76854547
C        1.06572770       0.03620841       2.57517612
C       -0.94112848      -2.59636688      -2.46085894
C        1.47971563      -2.19981779      -2.75627879
C       -0.22176873       0.68941291       2.95790240
C        2.73792951       1.70934360      -0.86957891
C        2.83924399       2.73235617       1.19634077
C       -2.02528961      -2.86129094       0.83889750
C       -2.25688465      -2.09176432      -2.63704292
C        1.40132531      -2.58018487      -0.22008268
C       -1.40587337      -1.44484665       2.52093295
C        0.37324200       2.53900686      -1.43075413
C       -2.21021111      -3.04156121      -0.54739945
C       -3.15643880      -0.58748116       1.23281371
C        3.05693962       0.45272409       1.16278304
C       -2.50220990       0.49469070       1.93653437
C       -1.39983721       0.04472056      -3.42039326
C       -0.08247228      -0.50377390      -3.44354897
C        0.71941906       3.89540709       1.14426932
C       -3.56831353      -0.25692910      -2.34730182
C       -2.37797452       1.89007510      -2.15005036
C        2.54192536      -1.26964765      -2.99511252
C        2.86601988       0.52043773      -1.61598274
C        3.31259823      -0.64431525      -0.91731282
C        2.90600535      -0.74848077       0.44265790
C       -3.53006686       1.07260773      -1.90903098
C        3.32753561       1.64233145       0.42703003
C       -1.30089582       1.36754627      -2.88514830
C       -0.47152476       2.10340703       2.89890706
C       -2.90722000       2.01823076       0.09662416
C       -0.52526930       3.33357940       0.78067354
C        3.19654583      -1.74802310      -1.77385411
C       -3.02024021      -2.30448871      -1.43209593
C        2.25627061       0.82255319       2.29266867
C       -2.06466019       2.55796743      -0.92770185
C        2.17987135       0.11419552      -2.77840502
C        2.04890387      -2.56547452      -1.48479756
C        1.86038048      -1.65572616       0.80586406
C        0.99799302      -1.31106340       1.93953669
C        1.81296295       3.36095480       0.45073234
C        0.07935941       1.65425236      -2.54738457
C       -1.43235732      -0.04883586       2.74169052
C        1.76540948       3.12616056       3.24617801
C        0.38193205       3.08318375       3.42072436
C       -3.75770684       1.05671826      -0.48965772
C       -0.60899434      -2.99919034       1.09860009
C       -2.36653926       1.78832193       1.38247674
C       -0.20761286      -2.06169166       2.08374453
C       -2.50467451      -0.78248015      -3.13789004
C       -2.50376940      -1.80422851       1.64732040
C        0.92600777       4.06554054       2.54917946
C       -3.76601410      -1.12489922      -1.19683429
C        0.13977932      -1.87669363      -3.07227568
C       -0.74906648       2.98174819      -0.61366361
C        2.49148046       2.22456666       2.47434099
C       -3.78057480      -0.30176464      -0.02004193
C        0.09183963      -3.13902732      -0.12376074
C        0.85842295       0.51362409      -3.05622846
C       -0.89779627      -3.20481637      -1.16231296
60
Properties=species:S:1:pos:R:3 trajectory=trial0001_proposal001_step007_proposal_relax trajectory_step=18 pbc="F F F"
C        1.66660412       2.65400679      -0.80726127
C       -1.22971496       2.56305737       1.76757315
C        1.06649615       0.03740295       2.57498503
C       -0.94400124      -2.59783153      -2.45864350
C        1.47759924      -2.20257439      -2.75514645
C       -0.22027690       0.69189530       2.95783750
C        2.73841702       1.70728398      -0.87162203
C        2.84098154       2.73174914       1.19379439
C       -2.02644507      -2.86007481       0.84015944
C       -2.25835551      -2.09255745      -2.63556344
C        1.39988224      -2.58069789      -0.21831372
C       -1.40595069      -1.44074646       2.52300898
C        0.37408582       2.53758281      -1.43225166
C       -2.21138107      -3.04100288      -0.54353931
C       -3.15646336      -0.58518273       1.23376095
C        3.05745602       0.45251346       1.16165263
C       -2.50070117       0.49693687       1.93737576
C       -1.39913452       0.04365943      -3.42029503
C       -0.08472299      -0.50597716      -3.44375330
C        0.72129329       3.89610555       1.14159739
C       -3.56890659      -0.25726403      -2.34622942
C       -2.37761554       1.88920995      -2.15047973
C        2.54070219      -1.27293494      -2.99459605
C        2.86559163       0.51827048      -1.61681486
C        3.31194556      -0.64547731      -0.91680136
C        2.90584176      -0.74950414       0.44215470
C       -3.53034902       1.07330168      -1.90810554
C        3.32823081       1.64160405       0.42540598
C       -1.30140689       1.36566053      -2.88529821
C       -0.46963609       2.10602001       2.89797918
C       -2.90557780       2.02009844       0.09782992
C       -0.52326279       3.33434859       0.77859906
C        3.19440415      -1.75168385      -1.77408487
C       -3.02207670      -2.30377177      -1.43007207
C        2.25705140       0.82342873       2.29178653
C       -2.06348627       2.55818382      -0.92864018
C        2.17863818       0.11146193      -2.77930568
C        2.04772944      -2.56676882      -1.48413501
C        1.85966697      -1.65597521       0.80660192
C        0.99808934      -1.30971373       1.94040403
C        1.81431938       3.36074407       0.44792809
C        0.07910249       1.65190980      -2.54857838
C       -1.43189658      -0.04800314       2.74195411
C        1.76826422       3.12779644       3.24373088
C        0.38385032       3.08542615       3.41859883
C       -3.75810833       1.05734874      -0.48975602
C       -0.60989949      -2.99799440       1.10128526
C       -2.36587594       1.79093881       1.38103690
C       -0.20771034      -2.06095079       2.08470532
C       -2.50754824      -0.78435375      -3.13593501
C       -2.50384434      -1.80192633       1.64927786
C        0.92850021       4.06755454       2.54586385
C       -3.76677018      -1.12384234      -1.19479962
C        0.13875186      -1.87880269      -3.07159946
C       -0.74813196       2.98115517      -0.61515618
C        2.49306356       2.22572347       2.47242736
C       -3.78062823      -0.29985051      -0.01802270
C        0.09026122      -3.13925358      -0.12193537
C        0.85799593       0.51085969      -3.05695094
C       -0.89944179      -3.20493273      -1.16049009
