60
Properties=species:S:1:pos:R:3 entry_id=1 rank=0 energy_eV=-479.3113708496094 parent_id=0 pbc="F F F"
C        1.63119568      -3.24528794      -0.74468422
C        2.45778295       0.23549524      -1.97794057
C        1.93194237       1.69216897       2.52468041
C        2.54349756      -2.14103210      -0.85780430
C       -3.44250419       0.92713407       2.42815502
C        2.63707225       0.57556841       0.52654068
C       -0.51902066      -3.33579027       0.88044113
C        2.25917208      -1.81422074       2.68917835
C       -2.63154724       0.98259150      -3.80441347
C       -0.14801666      -1.24689533       0.01565805
C       -1.49819666       1.49066659       3.78438139
C        1.32367819       3.44978445       0.43127861
C        0.41660218      -3.02997025      -1.40576349
C       -0.68107946       3.82992905      -0.65819761
C        1.16541557       3.56552642      -2.07399009
C        0.20275937      -0.45652641       1.22951839
C        2.17350652       2.54531366      -2.12454892
C       -3.12524308      -2.38297318      -0.49538933
C       -3.97788615      -1.93553574       0.30492742
C        3.03709619       0.87605376      -0.82139178
C       -2.78324994       2.25401432      -3.26368260
C       -1.79825920      -1.86114143      -2.45528697
C       -0.90983701      -2.88262979       2.19188293
C       -4.27460909      -0.03335883       1.88993181
C       -1.73426653      -2.04061532       2.81810391
C       -0.47855980      -0.02200608       2.36574456
C       -2.93735542      -1.27263971      -3.03235423
C        1.80403357      -2.68613875       1.76116560
C       -1.93263449      -2.45014586      -1.16119426
C        2.71149524       1.77170988       1.31676716
C       -0.51189568      -0.49017606      -4.00351906
C        1.77340773      -1.09415155      -1.70220880
C       -1.62438698      -0.69349036       2.90354406
C       -1.14413712       3.77177219      -2.05652497
C        2.20130979       0.58716103       3.29507184
C       -0.51423728      -1.48215475      -2.99943479
C        0.46155821      -3.19274532       1.79863911
C       -2.40664089       0.48984987       3.36680545
C       -0.40103977       1.29903133       2.96227853
C        0.58852121       2.20300061       2.39872967
C        2.19343413      -2.72747767       0.39225574
C       -0.62836994      -2.61903489      -0.41909123
C        2.56625628       2.82428340       0.36635202
C        1.37945374      -0.01884085       0.51914850
C        0.90881204      -0.64994399      -0.63308001
C       -3.35788700      -0.20351123      -3.53894837
C       -0.21694424       0.37439076      -5.05780580
C        2.09656978       1.30459687      -2.80191909
C        0.28284774       3.07484767       1.33145675
C       -2.29353992       3.18697203      -2.60154723
C        0.72135319       3.86678255      -0.75397022
C        2.88826908       2.27993297      -0.91758939
C        0.03545784       3.77117338      -2.86741186
C       -3.02589196       2.08192278       1.74314144
C        0.64895527      -1.97431517      -2.36223000
C        2.39762697      -0.68445662       3.26764559
C       -1.36302119       0.59387840      -4.30138452
C       -1.01927213       3.33576506       0.67596132
C       -4.43834153      -1.04916783       1.18175450
C       -2.22428936       2.83619791       1.16718221
60
Properties=species:S:1:pos:R:3 entry_id=3 rank=1 energy_eV=-476.67803955078125 parent_id=1 pbc="F F F"
C        1.88890712      -3.19013797      -0.80394541
C        2.33807684       0.34278311      -2.00185774
C        1.92183544       1.88745318       2.45572111
C        2.69162842      -2.00979569      -0.96314871
C       -3.62014160       1.28402841       2.24197209
C        2.61681538       0.74578494       0.48678532
C       -0.13221340      -3.64034609       1.05382214
C        2.49119313      -1.62335069       2.61312000
C       -2.79025634       0.89128432      -3.48831796
C        0.02722790      -1.36147269       0.21637303
C       -1.59105992       1.87303167       3.54072904
C        1.30203368       3.64501085       0.32999033
C        0.58159447      -3.05345501      -1.29762077
C       -0.70860961       4.02599649      -0.73575340
C        1.08860567       3.69084601      -2.17937465
C        0.27038202      -0.40573010       1.35289812
C        2.07199379       2.64697099      -2.21522542
C       -2.88910891      -2.45538741       0.01096625
C       -3.80901421      -1.90004582       0.65644403
C        2.95048691       1.01077897      -0.88105969
C       -2.89289702       2.21140265      -3.05916378
C       -1.79956887      -1.92633453      -2.06522686
C       -1.81792881      -5.60065480       1.65125938
C       -4.43239296       0.26327786       1.77168006
C       -1.02450745      -4.66665129       1.41773951
C       -0.53581518       0.15814773       2.37902620
C       -2.98948708      -1.31459185      -2.50330615
C        2.10090048      -2.57275995       1.69874139
C       -1.77269951      -2.56398119      -0.77766577
C        2.68806985       1.95824282       1.23639865
C       -0.71516616      -0.61066269      -3.82135259
C        1.75375469      -1.01841352      -1.67668815
C       -1.80534396      -0.28106601       2.75556196
C       -1.21637517       3.88827555      -2.10729332
C        2.18742219       0.77709222       3.22522558
C       -0.59998720      -1.54781914      -2.77210850
C        0.96036903      -3.34427794       1.76153175
C       -2.52225731       0.88347159       3.11324385
C       -0.42818753       1.54746163       2.87001113
C        0.58209212       2.40721781       2.31129545
C        2.47698076      -2.63307202       0.30704876
C       -0.39066276      -2.75420475      -0.18842883
C        2.52933149       2.98918745       0.26066220
C        1.41007596       0.05312165       0.58414667
C        0.96739720      -0.68498235      -0.51197841
C       -3.44835428      -0.26622077      -3.01720621
C       -0.52777323       0.17812459      -4.95778102
C        1.94777606       1.38547339      -2.85052291
C        0.27183026       3.29430438       1.25049372
C       -2.35958304       3.20767318      -2.54080596
C        0.69011626       4.04952908      -0.85802463
C        2.81512134       2.41268504      -1.01583078
C       -0.06184263       3.86694332      -2.95669251
C       -3.17591427       2.41695505       1.55504454
C        0.64002666      -1.97559372      -2.24707357
C        2.49433732      -0.48017433       3.17873371
C       -1.58712514       0.45866812      -4.10153010
C       -1.03579026       3.56585626       0.60728145
C       -4.41048505      -0.88582765       1.27165644
C       -2.26889834       3.11106584       1.06438935
60
Properties=species:S:1:pos:R:3 entry_id=4 rank=2 energy_eV=-476.5986328125 parent_id=2 pbc="F F F"
C        0.79451930      -5.06415429      -1.48674893
C        1.71720414      -1.76846206      -3.12038704
C        2.45650550      -0.00399602       1.19741730
C        1.78471237      -4.12142920      -1.90747252
C       -2.70084733       0.51536493       1.66859864
C        2.59848158      -1.35331227      -0.78479349
C       -0.82481537      -4.87255576       0.62514434
C        2.42900238      -3.50743804       1.57603639
C       -2.91836896      -0.30382273      -3.69603635
C       -0.40000735      -2.79255349      -0.43231328
C       -0.74257620       0.76903614       2.89418937
C        1.93043532       1.83437121      -0.86543039
C       -0.51562597      -4.67247357      -1.82401924
C        0.03496734       2.98033168      -1.48300909
C        1.08141971       1.78148286      -3.18985965
C        0.25781965      -1.89624251       0.53202422
C        1.75116736       0.53749721      -3.35882258
C       -3.62251984      -3.81766890      -0.05210630
C       -3.95417410      -2.66268062       0.36805901
C        2.70367702      -1.20652677      -2.21424986
C       -2.43517222       0.79149202      -3.00498173
C       -2.49165233      -2.67133503      -1.88779199
C       -0.90498832      -4.10685605       1.88742520
C       -2.73787690      -0.84069504       1.25961121
C       -1.58641025      -3.01553275       2.11867531
C       -0.28495310      -1.15188576       1.60180822
C       -2.96851270      -1.39948117      -1.37571549
C        1.66344353      -4.36975596       0.86137755
C       -2.51905497      -3.73875264      -0.92488586
C        3.00594297      -0.14520496      -0.13256173
C       -2.07710257      -2.44711466      -4.30673581
C        0.97528524      -2.99156583      -2.59514815
C       -1.66400925      -1.68460832       1.86197405
C       -0.88806811       2.94203394      -2.56387024
C        2.68397046      -1.08070229       2.01586914
C       -1.63689999      -2.90146405      -3.06111812
C        0.33258696      -4.66997444       1.29022006
C       -2.00260886       0.80915141       2.92121596
C        0.15785628       0.14873692       2.01245642
C        1.24205431       0.77903454       1.25550533
C        1.68813488      -4.58971854      -0.55413988
C       -1.14364655      -4.11927491      -0.60958278
C        2.87546634       0.85122931      -1.13386105
C        1.31030939      -1.74532635      -0.44617654
C        0.51536010      -2.40466522      -1.37487414
C       -2.93538653      -0.32752163      -2.28993172
C       -2.54492224      -2.23660580      -5.60017329
C        1.25573184      -0.69079077      -3.86661141
C        1.03663119       1.75969913       0.24434442
C       -1.53149348       1.83878527      -3.13591109
C        1.25033936       2.42302962      -1.94688893
C        2.75228761       0.19971549      -2.39385873
C       -0.23929664       2.14572787      -3.65268383
C       -2.40707946       1.50800152       0.75361374
C       -0.43606023      -3.67584220      -2.85755860
C        2.76266623      -2.36622633       2.04487388
C       -2.76197178      -1.25064966      -4.64730193
C       -0.19534940       2.45692544      -0.16689003
C       -3.38809542      -1.41220446       0.08241429
C       -1.46850645       2.16944238       0.27361961
60
Properties=species:S:1:pos:R:3 entry_id=2 rank=3 energy_eV=-475.3870544433594 parent_id=0 pbc="F F F"
C        1.73210712      -3.34573410      -0.78215896
C        1.98025818       0.16003846      -2.31828040
C        1.92696543       1.89470754       2.13031568
C        2.52684536      -2.19810122      -1.13125916
C       -2.90111740       1.06517304       2.39811977
C        2.48781290       0.69670384       0.10472372
C       -0.13717738      -3.39842761       1.26209770
C        2.75500314      -1.53547071       2.39607287
C       -2.51717502       0.55143228      -3.54153960
C       -0.08720165      -1.44643657       0.07620075
C       -1.20235488       1.53447836       3.84740747
C        1.05270014       3.58924928       0.07641678
C        0.40464101      -3.28008655      -1.23329387
C       -1.07405110       4.12882709      -0.62619799
C        0.41185302       3.45690433      -2.32258469
C        0.16009597      -0.41936850       1.05850730
C        1.39763712       2.42313022      -2.48203032
C       -3.00654480      -2.87793366       0.24553005
C       -3.28839890      -1.69539982       0.64035365
C        2.68688801       0.92895054      -1.30327099
C       -2.59898016       1.72420069      -2.82420873
C       -1.88668504      -1.74312913      -1.62474738
C       -0.29841803      -2.75433208       2.55603376
C       -2.24744596       0.36191591       1.33127987
C       -1.04937374      -1.91962576       3.30820094
C       -0.79753517       0.21237472       1.93460309
C       -2.46536156      -0.49906341      -1.18461672
C        2.26847599      -2.52815385       1.61415666
C       -1.87384031      -2.76268414      -0.60450643
C        2.54882275       1.93453673       0.82487717
C       -1.25241276      -1.43952666      -3.99552000
C        1.54658737      -1.26291341      -1.89052886
C       -1.38141533      -0.64982747       3.09843242
C       -1.85545429       4.04900966      -1.80733037
C        2.35090563       0.85636529       2.91787094
C       -0.90430641      -1.84038765      -2.70263122
C        0.98469649      -3.07361081       1.94952075
C       -2.18324686       0.55485092       3.59548664
C       -0.39577293       1.49236094       2.73668742
C        0.56497932       2.40082586       2.16139010
C        2.44556007      -2.70812391       0.20381512
C       -0.48975743      -2.87281880      -0.10285642
C        2.24457222       2.91380736      -0.15591318
C        1.30374531      -0.01372667       0.28053842
C        0.83218122      -0.83957113      -0.72734126
C       -2.63130524       0.50065768      -2.13763668
C       -1.56228161      -1.28511016      -5.34033952
C        1.31532764       1.12781956      -3.06692824
C        0.16871607       3.31566737       1.15796241
C       -2.12541765       3.02506284      -2.72218843
C        0.26701784       3.94955141      -1.01928703
C        2.37633334       2.30758885      -1.44173675
C       -0.88840288       3.66393721      -2.92298916
C       -2.98540999       2.41887967       2.06741071
C        0.38813413      -2.29599897      -2.29493251
C        2.73798226      -0.37193036       2.92120734
C       -2.06005378      -0.35440657      -4.43055254
C       -1.19229660       3.68689207       0.75750417
C       -2.80276477      -0.43457240       0.27884328
C       -2.32796625       3.28170698       1.44083661
60
Properties=species:S:1:pos:R:3 entry_id=0 rank=4 energy_eV=-474.66888427734375 parent_id=-1 pbc="F F F"
C        1.73506708      -3.37215337      -0.91668719
C        2.04771253       0.15219865      -2.30137898
C        1.91575817       1.86848179       2.12962793
C        2.52761612      -2.20383404      -1.15140287
C       -2.92228082       1.05181862       2.39465207
C        2.47040375       0.67256419       0.13201167
C       -0.04214498      -3.76357212       0.95449581
C        2.54724691      -1.61513860       2.33391644
C       -2.61993546       0.78749486      -3.27563273
C       -0.06754131      -1.52267536       0.07001470
C       -1.20807631       1.61861045       3.80109076
C        1.12478648       3.57729048       0.02856911
C        0.42029435      -3.26630529      -1.41328270
C       -0.98163394       3.98398231      -0.79211470
C        0.59314091       3.46254762      -2.41991080
C        0.13068274      -0.46200168       1.05595208
C        1.59449378       2.43094729      -2.51740385
C       -2.92631602      -2.99367469       0.17407275
C       -3.25094146      -1.87095941       0.68617390
C        2.72894958       0.89560682      -1.26222524
C       -3.00408788       1.85954640      -2.43026340
C       -1.88012875      -1.71893092      -1.63092429
C       -0.05081327      -2.59195919       2.92601084
C       -2.28495138       0.26026324       1.38740642
C       -0.86541579      -1.79342701       3.48697149
C       -0.81798775       0.19274293       1.94131931
C       -2.52580745      -0.54376043      -1.09460535
C        2.06747349      -2.60089963       1.54511123
C       -1.83384341      -2.81541598      -0.70424162
C        2.56951433       1.90585580       0.84574856
C       -1.21429804      -1.07001638      -3.92517283
C        1.56435020      -1.24041963      -1.89672508
C       -1.35642561      -0.55367706       3.18192351
C       -1.67931752       3.77316741      -2.04741724
C        2.27459572       0.79328088       2.90948142
C       -0.89745847      -1.68356547      -2.71107534
C        0.74054375      -3.16563449       1.91183138
C       -2.18691731       0.62043436       3.62289216
C       -0.41473060       1.52272060       2.68436739
C        0.56564674       2.38960226       2.09838939
C        2.35752953      -2.78405277       0.16157679
C       -0.43939557      -2.96602823      -0.22636292
C        2.32780478       2.90088832      -0.14497560
C        1.27818546      -0.03195510       0.29063415
C        0.83806656      -0.87069999      -0.71882534
C       -2.77786486       0.52323139      -1.93687834
C       -1.42407202      -0.70279647      -5.24899824
C        1.46733728       1.14195795      -3.09389609
C        0.19722832       3.27597473       1.06188585
C       -2.91965342       3.15260268      -2.15517574
C        0.38795432       3.94389065      -1.09598691
C        2.49956093       2.28744852      -1.42318917
C       -0.65396302       3.59133870      -3.04113649
C       -2.98981982       2.36889175       1.93410882
C        0.40242521      -2.20472196      -2.38035733
C        2.58035581      -0.45698766       2.88005334
C       -2.02597589       0.05460067      -4.24481132
C       -1.16016322       3.57000874       0.58749528
C       -2.82251580      -0.57686901       0.36660681
C       -2.31332380       3.17327729       1.25166484
