60
Properties=species:S:1:pos:R:3 entry_id=0 rank=0 energy=-474.66937255859375 pbc="F F F"
C        1.73403462      -3.37223671      -0.91574825
C        2.04988810       0.15011683      -2.30041431
C        1.91451849       1.86831049       2.12922748
C        2.52909500      -2.20632543      -1.15207267
C       -2.92191242       1.05248528       2.39599546
C        2.47146760       0.67209556       0.13223475
C       -0.04057479      -3.76426305       0.95407881
C        2.54688524      -1.61424496       2.33252127
C       -2.62135709       0.78822315      -3.27652914
C       -0.06638523      -1.52289502       0.07094889
C       -1.20705782       1.61930870       3.80280540
C        1.12436862       3.57899517       0.02853186
C        0.41971954      -3.26554710      -1.41295622
C       -0.98258160       3.98382870      -0.79214281
C        0.59104706       3.45845565      -2.41997387
C        0.13108412      -0.46062055       1.05562766
C        1.59397725       2.42814281      -2.51773270
C       -2.92856558      -2.99300044       0.17188955
C       -3.25114289      -1.86980502       0.68404889
C        2.73070950       0.89484472      -1.26177393
C       -3.00503656       1.85951825      -2.42996992
C       -1.87747301      -1.71731807      -1.63118512
C       -0.05126976      -2.59213076       2.92480467
C       -2.28516286       0.26056148       1.38866002
C       -0.86730461      -1.79376345       3.48347488
C       -0.81679949       0.19426830       1.94185928
C       -2.52233548      -0.54206579      -1.09451263
C        2.06824668      -2.60106382       1.54487066
C       -1.83446840      -2.81537123      -0.70555711
C        2.56821457       1.90563904       0.84557330
C       -1.21506296      -1.06828452      -3.92634731
C        1.56571930      -1.24193018      -1.89627089
C       -1.35618829      -0.55280487       3.18139037
C       -1.68183112       3.77003102      -2.04572423
C        2.27156843       0.79285551       2.90933759
C       -0.89593333      -1.68154416      -2.71228887
C        0.74163770      -3.16639440       1.91210177
C       -2.18562111       0.62090357       3.62379017
C       -0.41475317       1.52494775       2.68513490
C        0.56540086       2.39182222       2.09876688
C        2.35979505      -2.78615065       0.16148394
C       -0.44025176      -2.96533076      -0.22563197
C        2.32605985       2.90027837      -0.14522206
C        1.27952724      -0.03263965       0.29035218
C        0.83987650      -0.87235954      -0.71802906
C       -2.77692121       0.52404406      -1.93719546
C       -1.42245486      -0.70064797      -5.25013561
C        1.47033971       1.13871299      -3.09438229
C        0.19698605       3.27893123       1.06267853
C       -2.92453289       3.15309330      -2.15337675
C        0.38704442       3.94308768      -1.09677236
C        2.49878180       2.28644015      -1.42317348
C       -0.65747742       3.58366809      -3.03886407
C       -2.98769330       2.36971450       1.93593021
C        0.40330840      -2.20386189      -2.38066257
C        2.57767022      -0.45721711       2.88082901
C       -2.02721403       0.05587628      -4.24676501
C       -1.16045775       3.57254040       0.58809944
C       -2.82124995      -0.57587901       0.36641408
C       -2.31298047       3.17508820       1.25294725
60
Properties=species:S:1:pos:R:3 entry_id=1 rank=1 energy=-474.6673889160156 pbc="F F F"
C        1.67351712      -3.42682247      -0.78278832
C        2.05339935       0.06010601      -2.23876255
C        1.84227976       1.87745226       2.14722054
C        2.48369646      -2.27340394      -1.02878949
C       -3.00956912       1.12054396       2.32126412
C        2.42819065       0.63035086       0.19014386
C       -0.14209049      -3.75580887       1.05833761
C        2.43913612      -1.60576514       2.44446112
C       -2.59866690       0.70908343      -3.33444429
C       -0.13234980      -1.53878600       0.12080637
C       -1.32031162       1.69912423       3.75342939
C        1.11933150       3.54856816      -0.01105110
C        0.37095897      -3.31991487      -1.31051346
C       -0.96402831       3.95776256      -0.88849006
C        0.64208010       3.38177265      -2.46611613
C        0.05596963      -0.45810841       1.08679694
C        1.63298211       2.33736038      -2.51609412
C       -3.00663855      -2.98419059       0.20094849
C       -3.32684616      -1.84421081       0.67647147
C        2.72170570       0.81855417      -1.20215797
C       -2.97632044       1.81057994      -2.52419933
C       -1.91023160      -1.75917876      -1.61130223
C       -0.18505790      -2.53897058       3.00256088
C       -2.36058526       0.29624363       1.34833693
C       -1.00699616      -1.72105463       3.52332868
C       -0.90479590       0.22790335       1.93534598
C       -2.55478634      -0.56465502      -1.11833311
C        1.96439654      -2.60222962       1.66702653
C       -1.89417323      -2.83466803      -0.65867706
C        2.52397351       1.87861929       0.87750789
C       -1.21105687      -1.18675395      -3.91119944
C        1.54470291      -1.31745946      -1.81539020
C       -1.48061700      -0.48456097       3.17912560
C       -1.63643188       3.71791480      -2.15243224
C        2.17236775       0.81675845       2.95895188
C       -0.90799972      -1.76057101      -2.67397856
C        0.62386717      -3.14284461       2.01918303
C       -2.30689633       0.70847524       3.57562854
C       -0.50402532       1.56998823       2.65625746
C        0.49934685       2.41228152       2.07265921
C        2.28087418      -2.82074163       0.29426432
C       -0.51065271      -2.98494180      -0.14898083
C        2.31758293       2.85385187      -0.14060202
C        1.22517050      -0.05834753       0.33789294
C        0.79785426      -0.91483121      -0.66200209
C       -2.77672121       0.48508348      -1.99026416
C       -1.42445463      -0.87287478      -5.24817246
C        1.50048301       1.03735831      -3.06446074
C        0.16537268       3.27693884       1.00615070
C       -2.88074999       3.10869019      -2.27948508
C        0.41259916       3.90006149      -1.16017060
C        2.51246664       2.20930700      -1.39978724
C       -0.59106950       3.49949289      -3.11598927
C       -3.04946626       2.42739597       1.82915243
C        0.38212433      -2.28127390      -2.30296023
C        2.46770677      -0.43565768       2.96559891
C       -2.00950502      -0.06474335      -4.27405722
C       -1.17667475       3.57493576       0.49478615
C       -2.88301741      -0.56116632       0.33632252
C       -2.34779627       3.20596300       1.14234228
