60
Properties=species:S:1:pos:R:3 trajectory=trial0001_proposal001_step005_proposal_relax trajectory_step=0 pbc="F F F"
C       -2.43181177      -2.02679577       0.70917504
C        2.24778373      -2.77417840       0.08757585
C        0.90623253      -0.02485006       2.05205048
C       -1.06027434       3.39568266      -2.22374823
C       -2.50134782       3.24295891      -0.12333632
C        2.69596243      -1.86482185       1.93564710
C       -3.00743180      -1.06303293       1.72608162
C       -1.61288546      -2.55759843       2.75652685
C        1.98601390       2.73088125      -0.81743304
C       -0.48797403       2.78127681      -3.46000836
C       -0.79068778       3.09423281       1.45093576
C        2.91755456       1.60882647       0.91216750
C       -1.95589127      -1.95265126      -0.66345774
C        1.07339218       3.01852929      -1.77101400
C        2.62946232       0.26925062      -1.02699117
C       -1.39519630      -0.22662491       3.14052640
C        3.21103428      -0.48942702       0.08224883
C       -1.74431253       0.84959247      -3.00422942
C       -2.10641634       1.43231862      -1.72712020
C       -0.44053813      -3.53088426       0.86367262
C        0.29899506       0.64333128      -4.07591562
C       -0.68206159      -1.32531187      -3.32603382
C       -3.35865381       2.32715719       0.49053897
C       -3.28518336       0.34001777       1.58815746
C       -2.97401360       1.44048507       2.53807364
C       -1.62538096       1.21353098       3.00259956
C        0.45167334      -0.77839186      -4.00216265
C       -2.37604666      -1.33602715       2.98359123
C       -1.71224626      -0.56588963      -2.75577764
C        2.29649924      -0.48207694       2.12796532
C        1.20214297      -2.45294027      -2.38957297
C        0.04095946      -3.43015579      -0.50338295
C       -3.16830586       2.69639981       1.86039361
C        0.86293314       2.49392551      -3.03289125
C       -0.20411530      -0.75207291       2.50985448
C       -0.20703807      -2.33089918      -2.45526067
C       -3.10053978       0.93858354       0.34883200
C       -2.10542913       3.49999487       1.28242430
C       -0.56947124       1.97963693       2.30703442
C        0.71311043       1.37148266       1.95659946
C       -1.77289746      -3.07668151       1.38700478
C       -2.24176687      -0.80242044      -1.41939512
C        3.16804019       0.29759936       1.27839647
C        1.81722951      -2.88604776       1.46783026
C        1.42225548      -3.08988862      -1.03253830
C        1.62553234      -1.21839415      -3.12280891
C        1.37447632       3.07039440       0.43355916
C        3.17829578      -1.80594416       0.53745365
C        1.76434373       2.21639831       1.45161473
C       -0.93799867       1.50105103      -4.01166319
C        2.75580752       1.58918970      -0.53358854
C        0.46330268      -3.04127372       1.80189933
C        1.18962875       1.10698650      -3.07909219
C       -2.01131869       2.76648708      -1.39261887
C       -0.87003567      -2.69858869      -1.27568992
C       -0.25000346      -2.13178228       2.62422333
C        1.92444606       0.04081605      -2.34351307
C        0.03921427       3.40158341       0.29790859
C       -2.53612980       0.45699598      -0.82397586
C       -0.09234603       3.54034043      -1.19113261
60
Properties=species:S:1:pos:R:3 trajectory=trial0001_proposal001_step005_proposal_relax trajectory_step=1 pbc="F F F"
C       -2.43019841      -2.02834954       0.70830785
C        2.24368243      -2.78469971       0.08271202
C        0.92292235      -0.01760592       2.05578793
C       -1.06755256       3.39976054      -2.22448869
C       -2.51195882       3.23738586      -0.12916427
C        2.69672851      -1.85850284       1.93205917
C       -3.00408544      -1.06422384       1.72259808
C       -1.61219121      -2.55138838       2.75344002
C        1.99521290       2.71984488      -0.79999546
C       -0.48814307       2.78262471      -3.44769857
C       -0.79407186       3.09866731       1.45076438
C        2.92328781       1.59664663       0.91265547
C       -1.95741880      -1.94313965      -0.66985949
C        1.06634939       3.03173756      -1.78368297
C        2.62954508       0.26569237      -1.03576645
C       -1.37998960      -0.22592351       3.12927328
C        3.21538563      -0.48586918       0.08145482
C       -1.74207455       0.85215823      -2.99624137
C       -2.10562844       1.43375374      -1.74131982
C       -0.43837546      -3.53047981       0.85582302
C        0.30114925       0.63228035      -4.07463735
C       -0.67818087      -1.33549491      -3.31997318
C       -3.35862593       2.32413240       0.49751564
C       -3.28381095       0.34166129       1.58177400
C       -2.95968067       1.43819198       2.54293776
C       -1.62903484       1.21083539       2.99268519
C        0.44717803      -0.78552431      -3.99793103
C       -2.36721554      -1.33316292       2.97657512
C       -1.70785291      -0.55761593      -2.75688042
C        2.28196541      -0.47573553       2.12908412
C        1.20217687      -2.44339294      -2.38413420
C        0.04188761      -3.42825186      -0.49770494
C       -3.16776592       2.69313664       1.85928480
C        0.86573113       2.48633649      -3.01662865
C       -0.22267238      -0.75619829       2.52648846
C       -0.20764336      -2.32777548      -2.46563605
C       -3.10607891       0.93685270       0.35973661
C       -2.11150708       3.50177815       1.27859968
C       -0.56507288       1.96965700       2.30018303
C        0.71268251       1.37982152       1.96470310
C       -1.77025764      -3.07963250       1.39202121
C       -2.23626342      -0.80429334      -1.42227496
C        3.16348719       0.29307265       1.27678559
C        1.80189141      -2.88595383       1.46765805
C        1.41806034      -3.08839558      -1.02527844
C        1.62020257      -1.20688625      -3.11462394
C        1.37692825       3.08060790       0.43267973
C        3.18388687      -1.81418032       0.52792491
C        1.76114702       2.20788471       1.45534955
C       -0.94068942       1.49284063      -3.99840039
C        2.75262139       1.59994820      -0.53282262
C        0.47065220      -3.03720127       1.80155562
C        1.19304235       1.10239440      -3.09100680
C       -2.01285983       2.77800840      -1.39402113
C       -0.87347893      -2.70401609      -1.26452462
C       -0.25413267      -2.14359572       2.62497903
C        1.91922826       0.04079274      -2.35278882
C        0.03868309       3.40833318       0.28871810
C       -2.53564922       0.45571117      -0.82488668
C       -0.08498189       3.54522577      -1.19153396
60
Properties=species:S:1:pos:R:3 trajectory=trial0001_proposal001_step005_proposal_relax trajectory_step=2 pbc="F F F"
C       -2.42798925      -2.02986059       0.70675097
C        2.24160811      -2.79502804       0.08261396
C        0.92505546      -0.01414327       2.06677761
C       -1.07197541       3.40827257      -2.22399403
C       -2.52372387       3.23244381      -0.13442853
C        2.69305877      -1.85478060       1.92389321
C       -3.00005109      -1.06492664       1.71737696
C       -1.61238204      -2.54862567       2.74960724
C        1.98794584       2.72151793      -0.79624631
C       -0.48881117       2.77949586      -3.43526717
C       -0.79723397       3.10346420       1.44867093
C        2.92470196       1.58921115       0.91512809
C       -1.95688414      -1.93869889      -0.67214190
C        1.07657850       3.04387174      -1.77743704
C        2.63046256       0.26604455      -1.04422387
C       -1.37220178      -0.22377740       3.11898236
C        3.21939103      -0.48685004       0.07724317
C       -1.73766429       0.85359662      -2.99002340
C       -2.10810645       1.43947000      -1.74731266
C       -0.43512733      -3.52966927       0.85396591
C        0.29975177       0.62086427      -4.07465722
C       -0.68027480      -1.33961626      -3.31711371
C       -3.36010168       2.31901242       0.50409565
C       -3.28161051       0.33874675       1.58356723
C       -2.94860950       1.43618957       2.54487085
C       -1.62466133       1.20647379       2.98117929
C        0.44411506      -0.79455676      -3.99370552
C       -2.35793961      -1.32775316       2.96817399
C       -1.70059627      -0.55387637      -2.75686772
C        2.27147110      -0.47170205       2.12777152
C        1.20207719      -2.43155362      -2.37637558
C        0.04173358      -3.42563274      -0.49357637
C       -3.16600002       2.68979318       1.86261197
C        0.86389500       2.47427963      -3.00566498
C       -0.22249149      -0.75804559       2.53779753
C       -0.20829885      -2.33377608      -2.46368633
C       -3.10875878       0.93476545       0.36020876
C       -2.11804557       3.50402038       1.27341649
C       -0.56521038       1.96371609       2.29053733
C        0.71530550       1.38487269       1.97388280
C       -1.76775610      -3.08249442       1.39368569
C       -2.23069505      -0.79964477      -1.42758758
C        3.15848276       0.28524502       1.27563817
C        1.79715176      -2.87966138       1.46488985
C        1.41145635      -3.08632362      -1.02034042
C        1.61300015      -1.19614792      -3.10518662
C        1.38135995       3.08811661       0.43836778
C        3.18822329      -1.82280076       0.51852232
C        1.76049548       2.20298101       1.45457898
C       -0.93961214       1.48655823      -3.98287019
C        2.75453736       1.59767588      -0.53126749
C        0.46846556      -3.03515620       1.79991749
C        1.19809684       1.09856369      -3.10416465
C       -2.01814435       2.78492120      -1.39829260
C       -0.87540807      -2.70652060      -1.26112046
C       -0.25755649      -2.15268675       2.62788712
C        1.91499716       0.04160904      -2.36193009
C        0.03865163       3.41680057       0.28086753
C       -2.53566116       0.45823716      -0.82510650
C       -0.08191436       3.55376444      -1.19467971
60
Properties=species:S:1:pos:R:3 trajectory=trial0001_proposal001_step005_proposal_relax trajectory_step=3 pbc="F F F"
C       -2.41984525      -2.03406245       0.69863807
C        2.24177534      -2.82043973       0.08513930
C        0.91263258      -0.00531958       2.10577815
C       -1.07420249       3.43732575      -2.21889567
C       -2.55549296       3.22301766      -0.14407511
C        2.67697718      -1.84371041       1.89714544
C       -2.98719678      -1.06783426       1.70377913
C       -1.61663541      -2.54807161       2.74116544
C        1.99073305       2.71636676      -0.77140581
C       -0.48583717       2.76070184      -3.40234102
C       -0.80582133       3.11738810       1.43346963
C        2.92216778       1.57439840       0.91818464
C       -1.95182479      -1.93047177      -0.67551984
C        1.09346116       3.07063655      -1.78406883
C        2.63490552       0.26945344      -1.06412292
C       -1.36315323      -0.22045867       3.09723773
C        3.22760189      -0.50418509       0.05957503
C       -1.72472327       0.85389246      -2.97429589
C       -2.12168793       1.45688049      -1.74649625
C       -0.43155228      -3.52914438       0.85676532
C        0.28978361       0.59393195      -4.08090596
C       -0.68794746      -1.35641718      -3.31039902
C       -3.36613214       2.30277211       0.51901788
C       -3.27529283       0.33096267       1.58828786
C       -2.92991801       1.42910620       2.54471829
C       -1.59725578       1.19530974       2.94830181
C        0.43682519      -0.81811915      -3.98494958
C       -2.33551948      -1.31185075       2.94257660
C       -1.68073703      -0.54704173      -2.75018303
C        2.25908329      -0.47417005       2.11768360
C        1.19955682      -2.40125595      -2.34668029
C        0.03891933      -3.41849964      -0.48759546
C       -3.15986961       2.68132785       1.87684021
C        0.85565032       2.44960288      -2.96512926
C       -0.19555807      -0.77048574       2.56058849
C       -0.21320301      -2.35074797      -2.45435713
C       -3.11418430       0.92464096       0.36070143
C       -2.13361315       3.51004716       1.25769264
C       -0.57070992       1.96141057       2.25861682
C        0.72337086       1.39264063       1.99749995
C       -1.76505485      -3.09005849       1.38857828
C       -2.21521441      -0.78433801      -1.43444432
C        3.14365770       0.26330383       1.27077646
C        1.78783901      -2.86030062       1.45708119
C        1.39516304      -3.07983694      -1.00934689
C        1.58927998      -1.17883941      -3.08015261
C        1.38391514       3.10817880       0.45478294
C        3.19926454      -1.84114287       0.49404444
C        1.76289750       2.19593153       1.45075271
C       -0.92848815       1.47458080      -3.94536376
C        2.75127316       1.59702171      -0.53103887
C        0.46146891      -3.03190028       1.79548384
C        1.21156436       1.09139022      -3.13789874
C       -2.04103576       2.79931781      -1.41257176
C       -0.88203831      -2.71071949      -1.25789398
C       -0.25995695      -2.16177832       2.64075703
C        1.91090677       0.04955803      -2.38113649
C        0.03954550       3.44182657       0.27394458
C       -2.53273030       0.47177088      -0.83236840
C       -0.07721465       3.58679223      -1.20375806
60
Properties=species:S:1:pos:R:3 trajectory=trial0001_proposal001_step005_proposal_relax trajectory_step=4 pbc="F F F"
C       -2.41387802      -2.03532417       0.68916085
C        2.24945605      -2.83048272       0.08379339
C        0.92322095      -0.00081773       2.12896126
C       -1.07874743       3.44982975      -2.21286549
C       -2.57194863       3.22297470      -0.14231846
C        2.66689160      -1.83942802       1.88018241
C       -2.97952694      -1.06949689       1.69588991
C       -1.61719933      -2.55064860       2.74025969
C        1.97738778       2.73647188      -0.78027692
C       -0.47738720       2.74741694      -3.38430210
C       -0.81299895       3.12533422       1.41505958
C        2.91708592       1.56275520       0.91485179
C       -1.94643602      -1.92447892      -0.67766941
C        1.11256978       3.08033960      -1.75338687
C        2.64013075       0.27151868      -1.07101072
C       -1.34767911      -0.23079075       3.08984541
C        3.22643460      -0.51346429       0.04116078
C       -1.72049713       0.85345817      -2.96057542
C       -2.13012197       1.46466266      -1.74462843
C       -0.43857580      -3.53302318       0.85759256
C        0.28868374       0.59087106      -4.08916109
C       -0.69342220      -1.37442924      -3.31018835
C       -3.36968814       2.29647105       0.52672723
C       -3.27356409       0.32734836       1.58328376
C       -2.92395568       1.42086719       2.54682784
C       -1.58579496       1.19511559       2.92676080
C        0.42991778      -0.82751652      -3.98409672
C       -2.32941969      -1.30982946       2.92605839
C       -1.67081619      -0.54768551      -2.73605728
C        2.25795859      -0.48323303       2.10910043
C        1.19108489      -2.39322833      -2.32049990
C        0.03257428      -3.41727753      -0.48597599
C       -3.15746962       2.67858553       1.87967471
C        0.84492331       2.42893480      -2.96355028
C       -0.19023517      -0.77717506       2.57914767
C       -0.21859928      -2.35481975      -2.45280732
C       -3.11339166       0.91744334       0.36096911
C       -2.14128383       3.51218346       1.24872238
C       -0.56708073       1.97451631       2.23524081
C        0.72222160       1.39991826       2.00354491
C       -1.76923911      -3.09403828       1.37928608
C       -2.20465431      -0.77919993      -1.42205268
C        3.13630296       0.25801834       1.25231976
C        1.77633352      -2.85708087       1.45317740
C        1.39427964      -3.07535735      -1.00183834
C        1.57605897      -1.18707154      -3.06877953
C        1.38178075       3.11136548       0.46008864
C        3.20481500      -1.85278655       0.48349157
C        1.76073222       2.19754816       1.45980583
C       -0.91895933       1.47217818      -3.93863911
C        2.75103747       1.58335922      -0.52705660
C        0.46210472      -3.02810468       1.80151800
C        1.21673516       1.09257440      -3.15017402
C       -2.05802415       2.81740008      -1.41896775
C       -0.88927994      -2.71394557      -1.25713973
C       -0.25112983      -2.16523698       2.64824440
C        1.92019811       0.06067472      -2.38357093
C        0.03961526       3.46100710       0.27759461
C       -2.53294734       0.47817583      -0.82911375
C       -0.06601100       3.61693923      -1.20342893
60
Properties=species:S:1:pos:R:3 trajectory=trial0001_proposal001_step005_proposal_relax trajectory_step=5 pbc="F F F"
C       -2.41565682      -2.03427425       0.69129473
C        2.24900505      -2.82694613       0.08468436
C        0.92095921      -0.00327995       2.12404493
C       -1.07476617       3.44560023      -2.21316199
C       -2.56639063       3.22558719      -0.14133328
C        2.66908689      -1.84382623       1.88390496
C       -2.98219440      -1.06874231       1.69651073
C       -1.61580137      -2.55208294       2.74018910
C        1.98456775       2.73114246      -0.77679394
C       -0.47976300       2.75083418      -3.38990255
C       -0.81091059       3.12340274       1.41743168
C        2.91465849       1.56903775       0.91405203
C       -1.94682031      -1.92810039      -0.67502484
C        1.10314210       3.07413551      -1.76583293
C        2.63907959       0.27101690      -1.06860016
C       -1.35463343      -0.22728071       3.09472764
C        3.22517002      -0.51200025       0.04432160
C       -1.72095242       0.85283777      -2.96536850
C       -2.12826671       1.46390441      -1.74281694
C       -0.43789086      -3.53281150       0.85914563
C        0.29076997       0.59374959      -4.08866225
C       -0.69505971      -1.36751255      -3.31344374
C       -3.36903460       2.29862421       0.52355621
C       -3.27441593       0.32658940       1.58568087
C       -2.92785519       1.42281502       2.54568458
C       -1.58896541       1.19554873       2.93219519
C        0.43165684      -0.82299910      -3.98518018
C       -2.33242163      -1.31320612       2.93145814
C       -1.67335661      -0.54978675      -2.73666479
C        2.26192391      -0.48108429       2.10954080
C        1.19143485      -2.39827513      -2.32643733
C        0.03312304      -3.41883926      -0.48640255
C       -3.15857178       2.67929178       1.87859870
C        0.84910176       2.43963675      -2.96225540
C       -0.18644113      -0.77376256       2.57265655
C       -0.21784240      -2.35592935      -2.44964789
C       -3.11200195       0.92148500       0.35871491
C       -2.13931802       3.51172602       1.25166562
C       -0.56835073       1.97461318       2.24133568
C        0.72247700       1.39684608       1.99915953
C       -1.76930206      -3.09249627       1.38109410
C       -2.20692111      -0.77913113      -1.42201077
C        3.13903425       0.25772177       1.25384067
C        1.78284858      -2.85929085       1.45340183
C        1.39552471      -3.07684833      -1.00426022
C        1.58128407      -1.18786807      -3.07248326
C        1.38160052       3.10722728       0.45941287
C        3.20305980      -1.84837903       0.48772863
C        1.76231120       2.20050911       1.45719488
C       -0.92288399       1.47363153      -3.94508268
C        2.74874671       1.58840519      -0.52835033
C        0.45869754      -3.03104670       1.80031746
C        1.21545061       1.09144841      -3.14361266
C       -2.05507401       2.81274568      -1.41621735
C       -0.88746091      -2.71306083      -1.26004223
C       -0.25255982      -2.16426767       2.64712378
C        1.92029781       0.05685670      -2.38208860
C        0.03996871       3.45782936       0.27837016
C       -2.53315110       0.47617959      -0.82730359
C       -0.06937366       3.61243521      -1.20184774
60
Properties=species:S:1:pos:R:3 trajectory=trial0001_proposal001_step005_proposal_relax trajectory_step=6 pbc="F F F"
C       -2.41545061      -2.03394650       0.69073478
C        2.25042928      -2.82793462       0.08445011
C        0.92296704      -0.00290756       2.12681436
C       -1.07292101       3.44584426      -2.21103336
C       -2.56727436       3.22814536      -0.14049504
C        2.66867112      -1.84570258       1.88238850
C       -2.98188552      -1.06923831       1.69456373
C       -1.61480590      -2.55379475       2.73927283
C        1.98691274       2.73123862      -0.77577898
C       -0.47993186       2.75027502      -3.38892245
C       -0.81145802       3.12469985       1.41422176
C        2.91148003       1.56929649       0.91238149
C       -1.94569208      -1.92882883      -0.67355808
C        1.10039197       3.07248655      -1.76731670
C        2.63957416       0.27116730      -1.06958227
C       -1.35516062      -0.22692769       3.09607289
C        3.22395894      -0.51361617       0.04124725
C       -1.71960046       0.85224829      -2.96491151
C       -2.12901396       1.46551509      -1.74129719
C       -0.43940064      -3.53389894       0.86013181
C        0.29281371       0.59479039      -4.09048558
C       -0.69732466      -1.36846510      -3.31524141
C       -3.36952696       2.29898332       0.52314958
C       -3.27474191       0.32563724       1.58525159
C       -2.92886867       1.42206248       2.54520382
C       -1.58862473       1.19574290       2.92989343
C        0.43099221      -0.82234676      -3.98516164
C       -2.33243280      -1.31565976       2.93104712
C       -1.67233149      -0.55004390      -2.73283911
C        2.26509405      -0.48164979       2.10708911
C        1.18941770      -2.39969594      -2.32423791
C        0.03201844      -3.42013016      -0.48560181
C       -3.15905942       2.67846570       1.87867807
C        0.85011310       2.44191154      -2.95954989
C       -0.18270463      -0.77348325       2.57392186
C       -0.21957366      -2.35691063      -2.44880969
C       -3.11130239       0.92298628       0.35943292
C       -2.14033914       3.51247234       1.25165088
C       -0.56844274       1.97723234       2.23959854
C        0.72271987       1.39668671       1.99723554
C       -1.77043584      -3.09269323       1.38076966
C       -2.20480701      -0.77796461      -1.41788191
C        3.13866321       0.25666079       1.24930266
C        1.78298629      -2.86151692       1.45270093
C        1.39540615      -3.07728960      -1.00339732
C        1.58171912      -1.18991210      -3.07186055
C        1.38044634       3.10605932       0.45956572
C        3.20385824      -1.84837314       0.48732343
C        1.76286980       2.20280017       1.45814365
C       -0.92409767       1.47365199      -3.94811320
C        2.74568689       1.59042867      -0.52883064
C        0.45764112      -3.03321165       1.80001005
C        1.21607191       1.09104408      -3.14165231
C       -2.05732379       2.81458776      -1.41576671
C       -0.88852031      -2.71449435      -1.26056616
C       -0.25176005      -2.16444038       2.64873993
C        1.92265953       0.05542633      -2.38271746
C        0.04112023       3.46167668       0.27921606
C       -2.53241772       0.47711829      -0.82568057
C       -0.06888001       3.61802112      -1.20070473
60
Properties=species:S:1:pos:R:3 trajectory=trial0001_proposal001_step005_proposal_relax trajectory_step=7 pbc="F F F"
C       -2.41470773      -2.03410465       0.68985001
C        2.25319213      -2.83245977       0.08381028
C        0.92910382      -0.00066551       2.13431331
C       -1.07087974       3.44761700      -2.20575026
C       -2.57179714       3.23372547      -0.13964999
C        2.66783372      -1.84910336       1.87782427
C       -2.98011510      -1.07091206       1.69042820
C       -1.61280830      -2.55659931       2.73701016
C        1.98789425       2.73350224      -0.77407460
C       -0.48028525       2.74875298      -3.38482460
C       -0.81328902       3.12870172       1.40750244
C        2.90517195       1.56774782       0.90837156
C       -1.94315371      -1.92940316      -0.67042243
C        1.09682458       3.07301517      -1.76531620
C        2.64060009       0.27181475      -1.07409180
C       -1.35410503      -0.22683198       3.09685192
C        3.22193769      -0.51680834       0.03270772
C       -1.71580015       0.85182906      -2.96173069
C       -2.13065879       1.46951176      -1.73940578
C       -0.44297547      -3.53690387       0.86145207
C        0.29705756       0.59589670      -4.09388121
C       -0.70225670      -1.37182167      -3.31786145
C       -3.37094462       2.30044685       0.52353097
C       -3.27542651       0.32343242       1.58436200
C       -2.92967162       1.41990607       2.54443248
C       -1.58754637       1.19582382       2.92289116
C        0.42936369      -0.82260765      -3.98374772
C       -2.33091146      -1.31968025       2.92847652
C       -1.66806101      -0.54907588      -2.72431556
C        2.27072515      -0.48276107       2.10144109
C        1.18474657      -2.40087473      -2.31913093
C        0.02949639      -3.42330697      -0.48333885
C       -3.16016026       2.67648928       1.87909797
C        0.85077768       2.44188197      -2.95467544
C       -0.17620942      -0.77399396       2.58009705
C       -0.22395801      -2.35961841      -2.44824087
C       -3.10998550       0.92581779       0.36126479
C       -2.14378153       3.51490132       1.25134440
C       -0.56845257       1.98117278       2.23371832
C        0.72326167       1.39768119       1.99443211
C       -1.77244472      -3.09438994       1.38043723
C       -2.19792416      -0.77474579      -1.40879133
C        3.13675844       0.25413486       1.23843280
C        1.78234642      -2.86657024       1.45072166
C        1.39312516      -3.07868122      -1.00056043
C        1.58091096      -1.19349028      -3.06942547
C        1.37892204       3.10619932       0.45985898
C        3.20613766      -1.85086648       0.48421116
C        1.76355671       2.20671753       1.46067315
C       -0.92586077       1.47314043      -3.95243870
C        2.73981886       1.59223184      -0.53029353
C        0.45583768      -3.03775499       1.79989289
C        1.21807164       1.09017912      -3.13925844
C       -2.06225056       2.82051026      -1.41531036
C       -0.89164167      -2.71927682      -1.25999784
C       -0.24937146      -2.16670092       2.65189410
C        1.92737849       0.05199314      -2.38561444
C        0.04357144       3.47265005       0.27961951
C       -2.52997139       0.48092071      -0.82146025
C       -0.06644409       3.63194991      -1.19913330
60
Properties=species:S:1:pos:R:3 trajectory=trial0001_proposal001_step005_proposal_relax trajectory_step=8 pbc="F F F"
C       -2.41492310      -2.03685388       0.69212725
C        2.25346213      -2.83950737       0.08234784
C        0.93402556       0.00095111       2.13978703
C       -1.07057071       3.44936326      -2.20158443
C       -2.57625677       3.24183150      -0.13980498
C        2.67008259      -1.85239886       1.87424014
C       -2.97850083      -1.07268433       1.68996199
C       -1.61047805      -2.55772486       2.73601723
C        1.98291318       2.73592714      -0.77403177
C       -0.48155042       2.74852619      -3.38266323
C       -0.81436809       3.13317381       1.40542910
C        2.90065612       1.56575398       0.90271197
C       -1.94098817      -1.92994901      -0.66584071
C        1.09488142       3.07621902      -1.76433786
C        2.64034063       0.27156876      -1.08187413
C       -1.35291853      -0.22764428       3.09634438
C        3.22073915      -0.51964549       0.02414785
C       -1.71099040       0.85373805      -2.95794617
C       -2.13001050       1.47388481      -1.73775850
C       -0.44582431      -3.54193569       0.86297376
C        0.29990195       0.59643730      -4.09414285
C       -0.70497346      -1.37324093      -3.31799124
C       -3.37281601       2.30482338       0.52357104
C       -3.27708434       0.32259430       1.58332817
C       -2.93164727       1.41869943       2.54344049
C       -1.58812835       1.19540345       2.91806927
C        0.42881719      -0.82223041      -3.98050550
C       -2.32876039      -1.32131818       2.92719330
C       -1.66181179      -0.54519660      -2.71665864
C        2.27605232      -0.48412150       2.09671987
C        1.17986750      -2.40318002      -2.31922284
C        0.02707404      -3.42911464      -0.48193675
C       -3.16206799       2.67656123       1.87983824
C        0.84895105       2.44151795      -2.94947619
C       -0.17065487      -0.77467921       2.58738569
C       -0.22923007      -2.36358108      -2.44931665
C       -3.10902231       0.93050832       0.36464811
C       -2.14684202       3.51855064       1.25348177
C       -0.56962175       1.98092824       2.22809176
C        0.72379699       1.39882898       1.99198719
C       -1.77388744      -3.09829141       1.38183586
C       -2.18771163      -0.77036683      -1.39961839
C        3.13513796       0.25300161       1.22840239
C        1.78290846      -2.87415802       1.45018279
C        1.38822608      -3.08256446      -0.99899039
C        1.57940265      -1.19737221      -3.06943786
C        1.37910125       3.11117462       0.46087123
C        3.20711342      -1.85403963       0.47889634
C        1.76379383       2.21045816       1.46029986
C       -0.92636647       1.47404841      -3.95555339
C        2.73416597       1.59186402      -0.53483503
C        0.45712665      -3.04412951       1.79908532
C        1.21934491       1.08810591      -3.13661631
C       -2.06350968       2.82450074      -1.41332047
C       -0.89518560      -2.72607347      -1.25901081
C       -0.24659403      -2.16917624       2.65253556
C        1.93062495       0.04741495      -2.38924331
C        0.04483435       3.48507637       0.28016191
C       -2.52354461       0.48647232      -0.81714051
C       -0.06592962       3.64355615      -1.19904593
60
Properties=species:S:1:pos:R:3 trajectory=trial0001_proposal001_step005_proposal_relax trajectory_step=9 pbc="F F F"
C       -2.41646558      -2.04440147       0.69679487
C        2.25357165      -2.85533450       0.07975339
C        0.94691780       0.00350935       2.15025236
C       -1.07299306       3.45545343      -2.19756744
C       -2.58547936       3.25945682      -0.13663456
C        2.67492001      -1.86197227       1.86175341
C       -2.97715511      -1.07359798       1.69002842
C       -1.60370741      -2.55900076       2.73563749
C        1.97470974       2.73599754      -0.77289047
C       -0.48210811       2.75047242      -3.37635872
C       -0.81820256       3.14389260       1.40385573
C        2.89087385       1.56350451       0.88529425
C       -1.93515955      -1.93021042      -0.65532149
C        1.08760910       3.09156002      -1.75841502
C        2.64069304       0.26829586      -1.09860616
C       -1.34813784      -0.22845898       3.09471499
C        3.21826788      -0.52613731       0.00401649
C       -1.69940813       0.86151652      -2.94943430
C       -2.12481097       1.48293465      -1.73323633
C       -0.44849235      -3.55677284       0.86569050
C        0.30345895       0.59772329      -4.09212307
C       -0.70958924      -1.37373073      -3.31510984
C       -3.37690456       2.31753695       0.52541766
C       -3.28133437       0.32027701       1.58424209
C       -2.93555646       1.41786879       2.54341416
C       -1.59009141       1.19186510       2.90822465
C        0.42516964      -0.82368331      -3.97446703
C       -2.32176967      -1.32322786       2.92600957
C       -1.64409078      -0.53587041      -2.69836347
C        2.28373279      -0.48756538       2.08693031
C        1.16731499      -2.41293584      -2.31909645
C        0.01815551      -3.44474323      -0.48050623
C       -3.16653137       2.68009163       1.88222548
C        0.84226358       2.43085913      -2.94507052
C       -0.15994660      -0.77819662       2.60303590
C       -0.24030343      -2.37492414      -2.45205250
C       -3.10349722       0.94073669       0.36262075
C       -2.15232313       3.52693275       1.25833625
C       -0.57273381       1.97963801       2.21421009
C        0.72482261       1.40092070       1.98692671
C       -1.77586446      -3.10963123       1.38845409
C       -2.16077171      -0.75936015      -1.37833146
C        3.13190014       0.24659166       1.20694270
C        1.79324111      -2.88871128       1.44775953
C        1.37807063      -3.09314268      -0.99891019
C        1.57551375      -1.20722061      -3.07114078
C        1.37722738       3.12905000       0.46035931
C        3.20373064      -1.86442807       0.46470884
C        1.76415119       2.21474733       1.45848415
C       -0.92593509       1.47577402      -3.95876681
C        2.71735900       1.59331062      -0.54806804
C        0.45547588      -3.05600119       1.80196174
C        1.21865216       1.08899957      -3.13173915
C       -2.06426995       2.83712217      -1.40678160
C       -0.90540070      -2.74096779      -1.25801302
C       -0.23805097      -2.17625314       2.65041450
C        1.93568404       0.03861676      -2.39850784
C        0.04641756       3.51321800       0.28414664
C       -2.50807562       0.49981013      -0.79988935
C       -0.06417111       3.66848206      -1.19900554
60
Properties=species:S:1:pos:R:3 trajectory=trial0001_proposal001_step005_proposal_relax trajectory_step=10 pbc="F F F"
C       -2.41703143      -2.04568023       0.69857815
C        2.25117528      -2.85591639       0.07746889
C        0.94446526       0.00215281       2.14766964
C       -1.07354278       3.45651795      -2.19979712
C       -2.58319815       3.25978273      -0.13662830
C        2.67685590      -1.85990947       1.86303671
C       -2.97773894      -1.07357523       1.69265158
C       -1.60353625      -2.55778353       2.73689627
C        1.96934250       2.73870605      -0.77582888
C       -0.48287176       2.75111514      -3.37892496
C       -0.81713925       3.14316647       1.40749411
C        2.89263845       1.56195694       0.88546987
C       -1.93536316      -1.92990532      -0.65521675
C        1.08945104       3.09003297      -1.76216048
C        2.63999350       0.26785180      -1.09874101
C       -1.34783233      -0.22907512       3.09461478
C        3.21846388      -0.52601102       0.00578157
C       -1.70013463       0.86201401      -2.94887109
C       -2.12223140       1.48350209      -1.73211108
C       -0.44724219      -3.55761573       0.86619165
C        0.30122863       0.59665809      -4.09058955
C       -0.70759218      -1.37224641      -3.31286835
C       -3.37680434       2.31716500       0.52529913
C       -3.28164554       0.32344973       1.58222729
C       -2.93591712       1.41924892       2.54362785
C       -1.59057742       1.19208775       2.91025716
C        0.42553245      -0.82309370      -3.97502103
C       -2.32163237      -1.32159340       2.92721740
C       -1.64368142      -0.53399748      -2.69900647
C        2.28289512      -0.48830671       2.08771527
C        1.16841017      -2.41438913      -2.32215563
C        0.01857463      -3.44580554      -0.48171922
C       -3.16654562       2.68135670       1.88294652
C        0.84139551       2.43567360      -2.94198538
C       -0.16075638      -0.77763693       2.60095640
C       -0.24028873      -2.37531933      -2.45270214
C       -3.10537302       0.94201134       0.36792286
C       -2.15153213       3.52723545       1.25960628
C       -0.57325356       1.97724770       2.21589696
C        0.72471814       1.40024463       1.98700045
C       -1.77551227      -3.11008598       1.38954500
C       -2.15992508      -0.75904153      -1.37902345
C        3.13222396       0.24868655       1.20859945
C        1.79029908      -2.89060669       1.44967517
C        1.37777730      -3.09493742      -1.00012033
C        1.57543738      -1.20684622      -3.07286017
C        1.37958279       3.12942593       0.46212003
C        3.20251610      -1.86319341       0.46335143
C        1.76316274       2.21480511       1.45510626
C       -0.92541648       1.47699361      -3.95741487
C        2.71897575       1.58934850      -0.54900775
C        0.46098050      -3.05608529       1.80007067
C        1.21785529       1.08627731      -3.13223626
C       -2.06180559       2.83516144      -1.40588733
C       -0.90540567      -2.74096475      -1.25830493
C       -0.23910417      -2.17475053       2.64941156
C        1.93347727       0.03885710      -2.39852591
C        0.04482323       3.51187272       0.28434135
C       -2.50430184       0.49879899      -0.80314351
C       -0.06674573       3.66525328      -1.19968611
60
Properties=species:S:1:pos:R:3 trajectory=trial0001_proposal001_step005_proposal_relax trajectory_step=11 pbc="F F F"
C       -2.41746801      -2.04652305       0.69968148
C        2.24952475      -2.85589667       0.07636058
C        0.94285664       0.00106758       2.14516459
C       -1.07447466       3.45799642      -2.20209681
C       -2.58117250       3.25934275      -0.13572881
C        2.67752484      -1.85941956       1.86283577
C       -2.97851825      -1.07284862       1.69450714
C       -1.60319559      -2.55691192       2.73807006
C        1.96798164       2.73847277      -0.77703185
C       -0.48296498       2.75213505      -3.38057301
C       -0.81655004       3.14263583       1.41035349
C        2.89350483       1.56151027       0.88481397
C       -1.93533870      -1.92970399      -0.65493332
C        1.08928131       3.09059592      -1.76340731
C        2.63946156       0.26690512      -1.09862031
C       -1.34751303      -0.22918047       3.09471292
C        3.21846295      -0.52599955       0.00694405
C       -1.70062878       0.86297714      -2.94844425
C       -2.11945262       1.48368041      -1.73063078
C       -0.44580234      -3.55852728       0.86657386
C        0.29905474       0.59629179      -4.08941907
C       -0.70600578      -1.37086768      -3.31073372
C       -3.37645493       2.31779271       0.52569076
C       -3.28178808       0.32498851       1.58262268
C       -2.93608272       1.42068685       2.54428702
C       -1.59071015       1.19208034       2.91191377
C        0.42529180      -0.82331956      -3.97605856
C       -2.32144552      -1.32016735       2.92822994
C       -1.64284289      -0.53285362      -2.69902239
C        2.28195045      -0.48880524       2.08806212
C        1.16913351      -2.41615761      -2.32439578
C        0.01829613      -3.44695639      -0.48278953
C       -3.16649343       2.68286169       1.88365830
C        0.84059189       2.43661545      -2.94246791
C       -0.16159498      -0.77748893       2.59863823
C       -0.23999702      -2.37575025      -2.45315812
C       -3.10525401       0.94229718       0.36806361
C       -2.15051393       3.52736928       1.26068180
C       -0.57346880       1.97577024       2.21725579
C        0.72452009       1.39954961       1.98673092
C       -1.77481605      -3.11051765       1.39065023
C       -2.15881909      -0.75891067      -1.37934771
C        3.13254817       0.24913305       1.21024775
C        1.79100707      -2.89090305       1.45007429
C        1.37767575      -3.09681888      -1.00178431
C        1.57526275      -1.20708682      -3.07431780
C        1.38005795       3.13048454       0.46199845
C        3.20036919      -1.86267234       0.46219999
C        1.76262025       2.21356544       1.45282154
C       -0.92516428       1.47775151      -3.95593157
C        2.71857539       1.58831954      -0.55006789
C        0.46272954      -3.05556025       1.79972656
C        1.21628709       1.08609858      -3.13249205
C       -2.05961042       2.83468285      -1.40508155
C       -0.90553774      -2.74090349      -1.25864671
C       -0.23905110      -2.17380210       2.64808953
C        1.93151264       0.03903370      -2.39841432
C        0.04397867       3.51039286       0.28497704
C       -2.50216319       0.49893206      -0.80265334
C       -0.06859508       3.66282183      -1.20017987
60
Properties=species:S:1:pos:R:3 trajectory=trial0001_proposal001_step005_proposal_relax trajectory_step=12 pbc="F F F"
C       -2.41787605      -2.04924735       0.70297330
C        2.24567434      -2.85962145       0.07173614
C        0.94277641      -0.00069218       2.14079749
C       -1.07754190       3.46653307      -2.20703850
C       -2.57723000       3.26118946      -0.13170236
C        2.67823290      -1.86090582       1.85683151
C       -2.97943010      -1.07115136       1.69781741
C       -1.60042017      -2.55545080       2.74062714
C        1.96411129       2.73967351      -0.77993948
C       -0.48363531       2.75544476      -3.38253278
C       -0.81544001       3.14406420       1.41531486
C        2.89094172       1.55903202       0.87885678
C       -1.93297583      -1.92967257      -0.65096654
C        1.08541814       3.09412570      -1.76452705
C        2.63729599       0.26406318      -1.10231599
C       -1.34509904      -0.22867641       3.09492588
C        3.21666099      -0.52746973       0.00317082
C       -1.69895695       0.86719475      -2.94282775
C       -2.10912737       1.48782242      -1.72303650
C       -0.44366036      -3.56375774       0.86822512
C        0.29393677       0.59539430      -4.08817761
C       -0.70449603      -1.36815526      -3.30515556
C       -3.37562029       2.32069675       0.52829343
C       -3.28224027       0.32831506       1.58438442
C       -2.93583119       1.42416001       2.54696378
C       -1.58974369       1.19194840       2.91232808
C        0.42255029      -0.82538063      -3.97922307
C       -2.31881690      -1.31786430       2.92934786
C       -1.63565934      -0.52833927      -2.69128796
C        2.28123625      -0.49119624       2.08490505
C        1.16764067      -2.42327474      -2.32866053
C        0.01523684      -3.45409782      -0.48433724
C       -3.16676279       2.68702000       1.88702186
C        0.83752581       2.43773883      -2.94239942
C       -0.16066599      -0.77766546       2.59453504
C       -0.24143938      -2.38035687      -2.45317573
C       -3.10376617       0.94570685       0.37153258
C       -2.14894757       3.52971878       1.26486370
C       -0.57342860       1.97414728       2.21717962
C        0.72405717       1.39766516       1.98333063
C       -1.77313400      -3.11303062       1.39433949
C       -2.14925489      -0.75448537      -1.37238822
C        3.13259439       0.24702459       1.20745622
C        1.79416399      -2.89494754       1.44812831
C        1.37495173      -3.10581523      -1.00617238
C        1.57314697      -1.21053252      -3.07761578
C        1.38030853       3.13398783       0.46095266
C        3.19354140      -1.86402703       0.45463617
C        1.76069474       2.21077317       1.44676563
C       -0.92673224       1.47981164      -3.95278569
C        2.71254543       1.58487960      -0.55488964
C        0.46544637      -3.05622216       1.79927541
C        1.21133014       1.08510549      -3.13230614
C       -2.05529152       2.83905194      -1.40170385
C       -0.90786003      -2.74486805      -1.25917558
C       -0.23606104      -2.17296221       2.64518608
C        1.92706976       0.03666502      -2.40032277
C        0.04248500       3.51320568       0.28723976
C       -2.49142649       0.50231079      -0.79665445
C       -0.07242965       3.66568248      -1.20041421
60
Properties=species:S:1:pos:R:3 trajectory=trial0001_proposal001_step005_proposal_relax trajectory_step=13 pbc="F F F"
C       -2.41651331      -2.05223285       0.70885952
C        2.23791871      -2.86834675       0.05962493
C        0.94151573      -0.00377666       2.13091912
C       -1.08222613       3.48550640      -2.21334403
C       -2.57091969       3.26410668      -0.12246351
C        2.67765927      -1.86316158       1.84456687
C       -2.97877146      -1.06910840       1.70251096
C       -1.59433373      -2.55374495       2.74411320
C        1.96040575       2.73970418      -0.78508215
C       -0.48770025       2.76200352      -3.38565896
C       -0.81237729       3.14747534       1.42191090
C        2.88562948       1.54942949       0.86933995
C       -1.92775013      -1.92837732      -0.64400178
C        1.07687851       3.09762107      -1.76657378
C        2.63010317       0.25918772      -1.11038896
C       -1.33958073      -0.22796667       3.09365690
C        3.21214547      -0.53243545      -0.00662162
C       -1.69345810       0.87343839      -2.92892597
C       -2.08807592       1.49634300      -1.70663151
C       -0.44237383      -3.57075676       0.87168812
C        0.28452330       0.59392079      -4.08818714
C       -0.70358491      -1.36749089      -3.29381497
C       -3.37192578       2.32795197       0.53516160
C       -3.28194890       0.33176061       1.59372684
C       -2.93334747       1.42968826       2.55336820
C       -1.58582095       1.19444519       2.91284630
C        0.41675911      -0.82917968      -3.98550098
C       -2.31351271      -1.31402091       2.93064800
C       -1.62203597      -0.51841814      -2.67501860
C        2.28184218      -0.49661108       2.07644792
C        1.16463846      -2.43606826      -2.33548665
C        0.01111791      -3.46824375      -0.48623942
C       -3.16561052       2.69371306       1.89438396
C        0.83145907       2.44017736      -2.94170947
C       -0.15885703      -0.77643947       2.58572590
C       -0.24550377      -2.38486409      -2.45586660
C       -3.09657104       0.94896503       0.37281290
C       -2.14573027       3.53395896       1.27317718
C       -0.57125406       1.97277938       2.21720235
C        0.72281095       1.39441119       1.97527152
C       -1.77086982      -3.11516288       1.40017031
C       -2.13044646      -0.75083385      -1.35551736
C        3.13227375       0.24552977       1.19957339
C        1.79279742      -2.90407379       1.44263901
C        1.37046141      -3.12431316      -1.01321739
C        1.56781790      -1.21704540      -3.08360319
C        1.37834721       3.13687557       0.45817247
C        3.18302793      -1.86492704       0.43833323
C        1.75686806       2.20588129       1.43662054
C       -0.93271082       1.48414492      -3.94810502
C        2.69926391       1.58275922      -0.56379944
C        0.47228459      -3.05903250       1.79441858
C        1.20120988       1.08205555      -3.13209581
C       -2.04728947       2.84892584      -1.39587184
C       -0.91215019      -2.75323273      -1.25649973
C       -0.23209930      -2.17003819       2.64205808
C        1.91690654       0.03080668      -2.40477517
C        0.04240145       3.51777742       0.28980081
C       -2.47405788       0.51446956      -0.77503180
C       -0.07908639       3.67437579      -1.20150774
60
Properties=species:S:1:pos:R:3 trajectory=trial0001_proposal001_step005_proposal_relax trajectory_step=14 pbc="F F F"
C       -2.41618124      -2.05170800       0.70864757
C        2.23897648      -2.86883148       0.06025935
C        0.94327730      -0.00326557       2.13107757
C       -1.08261302       3.48697278      -2.21292580
C       -2.57102444       3.26522051      -0.12229595
C        2.67635381      -1.86504911       1.84185698
C       -2.97814445      -1.06918649       1.70195077
C       -1.59410270      -2.55388924       2.74398603
C        1.96009395       2.74079917      -0.78499578
C       -0.48777996       2.76229051      -3.38456592
C       -0.81222420       3.14827965       1.42061425
C        2.88332145       1.55118438       0.86771023
C       -1.92669763      -1.92944502      -0.64244657
C        1.07585636       3.09795254      -1.76526746
C        2.62948500       0.25942278      -1.11125146
C       -1.33922011      -0.22700687       3.09362916
C        3.21140541      -0.53197605      -0.00924277
C       -1.69229699       0.87410246      -2.92703334
C       -2.08727564       1.49731256      -1.70475442
C       -0.44301792      -3.57124496       0.87138935
C        0.28455313       0.59408302      -4.08912960
C       -0.70516751      -1.36652475      -3.29516211
C       -3.37182810       2.32672848       0.53582149
C       -3.28166310       0.33213871       1.59241916
C       -2.93266033       1.42940876       2.55381004
C       -1.58493869       1.19424129       2.91179400
C        0.41556259      -0.82994646      -3.98566222
C       -2.31267019      -1.31493951       2.93027010
C       -1.62085320      -0.51926170      -2.67177124
C        2.28185658      -0.49641076       2.07503694
C        1.16331835      -2.43644735      -2.33480239
C        0.01000101      -3.46927616      -0.48577673
C       -3.16530181       2.69324064       1.89510716
C        0.83081310       2.43886333      -2.94202131
C       -0.15807033      -0.77689661       2.58596610
C       -0.24580820      -2.38703072      -2.45330648
C       -3.09774900       0.95087265       0.37869776
C       -2.14581995       3.53443112       1.27344901
C       -0.57087152       1.97425594       2.21602516
C        0.72294601       1.39422847       1.97441086
C       -1.77072025      -3.11523357       1.40016683
C       -2.12930950      -0.74708551      -1.35323785
C        3.13230080       0.24230608       1.19754930
C        1.79561499      -2.90362197       1.44023614
C        1.36965481      -3.12541722      -1.01392724
C        1.56729016      -1.21785955      -3.08330349
C        1.37837817       3.13618448       0.45746019
C        3.18211322      -1.86686747       0.43735258
C        1.75716975       2.20557882       1.43708304
C       -0.93377327       1.48405034      -3.94844667
C        2.69852817       1.58142880      -0.56398849
C        0.46856411      -3.05886688       1.79580609
C        1.20062594       1.08239153      -3.13209537
C       -2.04797505       2.85092023      -1.39526683
C       -0.91193244      -2.75400642      -1.25722432
C       -0.23049591      -2.17127499       2.64184559
C        1.91689933       0.03012196      -2.40532171
C        0.04232233       3.51952794       0.28971019
C       -2.47076191       0.51303240      -0.77666476
C       -0.07776089       3.67728406      -1.20104175
60
Properties=species:S:1:pos:R:3 trajectory=trial0001_proposal001_step005_proposal_relax trajectory_step=15 pbc="F F F"
C       -2.41513175      -2.05080887       0.70891315
C        2.23916068      -2.87059164       0.05865919
C        0.94451543      -0.00302014       2.12972130
C       -1.08304592       3.49028712      -2.21217086
C       -2.57110152       3.26646198      -0.12104067
C        2.67477299      -1.86649050       1.83825415
C       -2.97681008      -1.06929788       1.70151687
C       -1.59330961      -2.55412993       2.74387355
C        1.96004644       2.74126924      -0.78533246
C       -0.48904039       2.76315150      -3.38360231
C       -0.81151293       3.14948369       1.41919198
C        2.88115673       1.55041254       0.86598249
C       -1.92513180      -1.92971185      -0.64068128
C        1.07411892       3.09738574      -1.76470492
C        2.62726624       0.25948420      -1.11295665
C       -1.33818088      -0.22606655       3.09293496
C        3.21004712      -0.53255255      -0.01313051
C       -1.68987755       0.87480402      -2.92321856
C       -2.08442061       1.49905118      -1.70125855
C       -0.44447417      -3.57139426       0.87122314
C        0.28375983       0.59413125      -4.09064195
C       -0.70721053      -1.36687909      -3.29528023
C       -3.37080460       2.32676579       0.53765695
C       -3.28100876       0.33175963       1.59394668
C       -2.93114877       1.42922547       2.55529598
C       -1.58323084       1.19494991       2.91106231
C        0.41368126      -0.83070069      -3.98619784
C       -2.31132811      -1.31559303       2.92999058
C       -1.61881794      -0.51880698      -2.66725913
C        2.28216428      -0.49702248       2.07243729
C        1.16165790      -2.43747649      -2.33444291
C        0.00922259      -3.47149642      -0.48530470
C       -3.16425143       2.69300267       1.89670748
C        0.82932937       2.43803191      -2.94178294
C       -0.15718806      -0.77693218       2.58519257
C       -0.24678411      -2.38800907      -2.45195157
C       -3.09670458       0.95196409       0.38233199
C       -2.14546679       3.53511212       1.27445415
C       -0.56974567       1.97597920       2.21495781
C        0.72296111       1.39389737       1.97266018
C       -1.77082338      -3.11473917       1.40029872
C       -2.12664697      -0.74488075      -1.34880690
C        3.13223573       0.24030438       1.19406948
C        1.79511132      -2.90453954       1.43729632
C        1.36886138      -3.12817978      -1.01483234
C        1.56592876      -1.21901691      -3.08355205
C        1.37787764       3.13467593       0.45648437
C        3.18136070      -1.86829074       0.43452319
C        1.75711410       2.20526905       1.43708897
C       -0.93619947       1.48436742      -3.94870265
C        2.69675238       1.58080094      -0.56482931
C        0.46681899      -3.05925336       1.79541287
C        1.19902322       1.08193510      -3.13231015
C       -2.04800592       2.85375271      -1.39408516
C       -0.91205708      -2.75538214      -1.25661344
C       -0.22929999      -2.17180389       2.64200758
C        1.91542222       0.02886234      -2.40642074
C        0.04291009       3.52126601       0.28919764
C       -2.46733917       0.51416492      -0.77313980
C       -0.07660515       3.68134345      -1.20088442
60
Properties=species:S:1:pos:R:3 trajectory=trial0001_proposal001_step005_proposal_relax trajectory_step=16 pbc="F F F"
C       -2.41286577      -2.04890885       0.71070322
C        2.23809215      -2.87503461       0.05347814
C        0.94533123      -0.00361203       2.12362731
C       -1.08440695       3.49800321      -2.21130970
C       -2.57039917       3.26938369      -0.11733472
C        2.67177343      -1.86896139       1.83032228
C       -2.97390669      -1.06911158       1.70252944
C       -1.59135070      -2.55414700       2.74460388
C        1.95905314       2.74062625      -0.78717477
C       -0.49290944       2.76581700      -3.38276916
C       -0.80907732       3.15176314       1.41801828
C        2.87845641       1.54780407       0.86200039
C       -1.92166494      -1.92939413      -0.63671092
C        1.07072073       3.09579993      -1.76494288
C        2.62079220       0.25883005      -1.11682594
C       -1.33521017      -0.22441932       3.09097549
C        3.20691805      -0.53438104      -0.02100076
C       -1.68396120       0.87685877      -2.91369674
C       -2.07580603       1.50258629      -1.69205397
C       -0.44719975      -3.57173211       0.87086841
C        0.27980059       0.59409754      -4.09330426
C       -0.71112330      -1.36736035      -3.29371365
C       -3.36774394       2.32804737       0.54259740
C       -3.27939468       0.33169032       1.59900894
C       -2.92750444       1.42957417       2.55979242
C       -1.57920713       1.19701594       2.91168793
C        0.40892865      -0.83189545      -3.98752950
C       -2.30825861      -1.31563016       2.93078604
C       -1.61435899      -0.51637740      -2.65789484
C        2.28221332      -0.49894902       2.06640629
C        1.15834940      -2.44047360      -2.33572268
C        0.00774081      -3.47716767      -0.48546715
C       -3.16093395       2.69336631       1.90117551
C        0.82437602       2.43631734      -2.94171177
C       -0.15605122      -0.77676269       2.58145186
C       -0.24913555      -2.38895979      -2.45020416
C       -3.09311927       0.95398459       0.38984520
C       -2.14357060       3.53662872       1.27752977
C       -0.56702922       1.97849824       2.21387682
C        0.72307704       1.39294023       1.96864991
C       -1.77109574      -3.11358185       1.40128750
C       -2.12014346      -0.74128162      -1.33923430
C        3.13234680       0.23702597       1.18733554
C        1.79292855      -2.90678254       1.43098774
C        1.36736368      -3.13553436      -1.01828369
C        1.56231240      -1.22135758      -3.08569790
C        1.37706697       3.13195766       0.45410469
C        3.17898046      -1.87078431       0.42712796
C        1.75724184       2.20397541       1.43563578
C       -0.94192877       1.48580994      -3.94841876
C        2.69308856       1.57943738      -0.56776709
C        0.46456552      -3.06007426       1.79311227
C        1.19381539       1.08055656      -3.13342353
C       -2.04604795       2.85887017      -1.39018707
C       -0.91235225      -2.75782760      -1.25463793
C       -0.22737110      -2.17196077       2.64146378
C        1.90973221       0.02653384      -2.40892877
C        0.04423004       3.52351744       0.28785925
C       -2.45855058       0.51751516      -0.76324501
C       -0.07504401       3.68791632      -1.20144913
60
Properties=species:S:1:pos:R:3 trajectory=trial0001_proposal001_step005_proposal_relax trajectory_step=17 pbc="F F F"
C       -2.41060017      -2.04593179       0.71453587
C        2.23690543      -2.88105457       0.04636907
C        0.94559947      -0.00505878       2.11311419
C       -1.08651206       3.50400990      -2.20892436
C       -2.57063006       3.27508444      -0.11198740
C        2.66885252      -1.87170454       1.81981746
C       -2.97050425      -1.06776330       1.70677673
C       -1.58976967      -2.55406457       2.74708966
C        1.95570538       2.73756527      -0.79067698
C       -0.49937775       2.76836821      -3.38195739
C       -0.80515886       3.15427446       1.41704672
C        2.87985788       1.54533952       0.85633198
C       -1.91731737      -1.92775659      -0.63065454
C        1.06821616       3.09288314      -1.76800654
C        2.61133807       0.25706509      -1.12147897
C       -1.33017410      -0.22272131       3.08926011
C        3.20247097      -0.53744001      -0.03101249
C       -1.67530136       0.88034148      -2.90083383
C       -2.06385489       1.50606552      -1.67894023
C       -0.45102333      -3.57305562       0.86899124
C        0.27178913       0.59415390      -4.09697834
C       -0.71760331      -1.36665300      -3.29180500
C       -3.36373753       2.33034538       0.55070443
C       -3.27686611       0.33249097       1.60731433
C       -2.92269667       1.43034262       2.56780758
C       -1.57289388       1.19891566       2.91515646
C        0.40040090      -0.83207586      -3.98804378
C       -2.30408988      -1.31494572       2.93454948
C       -1.61026113      -0.51292849      -2.64742455
C        2.28128585      -0.50178647       2.05708793
C        1.15342982      -2.44294648      -2.33905899
C        0.00536087      -3.48387310      -0.48769068
C       -3.15438595       2.69413142       1.90852338
C        0.81542511       2.43328681      -2.94111705
C       -0.15433128      -0.77746583       2.57561255
C       -0.25336853      -2.38905539      -2.44806620
C       -3.08581561       0.95674845       0.39829353
C       -2.13989579       3.53882867       1.28161707
C       -0.56327022       1.98086935       2.21275134
C        0.72496680       1.39199679       1.96405617
C       -1.77266797      -3.11301192       1.40331575
C       -2.11238458      -0.73643238      -1.32892698
C        3.13257261       0.23355442       1.17817396
C        1.78924829      -2.90911739       1.42295362
C        1.36547385      -3.14399580      -1.02489207
C        1.55631169      -1.22298711      -3.09001727
C        1.37845348       3.12942763       0.45099432
C        3.17639978      -1.87548118       0.41735195
C        1.76009272       2.20332458       1.43299620
C       -0.95026205       1.48782287      -3.94769021
C        2.69113198       1.57571208      -0.57275250
C        0.46261209      -3.06044330       1.78896662
C        1.18538836       1.07883933      -3.13654542
C       -2.04236281       2.86352363      -1.38224626
C       -0.91303068      -2.75829454      -1.25260660
C       -0.22570451      -2.17264744       2.63939957
C        1.90028350       0.02524169      -2.41250425
C        0.04632635       3.52616147       0.28591644
C       -2.44701031       0.52081627      -0.74866024
C       -0.07246370       3.69344744      -1.20316837
60
Properties=species:S:1:pos:R:3 trajectory=trial0001_proposal001_step005_proposal_relax trajectory_step=18 pbc="F F F"
C       -2.40694797      -2.04061509       0.72371121
C        2.23137873      -2.89410093       0.02995842
C        0.94493469      -0.00866255       2.09190540
C       -1.08981323       3.51377869      -2.20443882
C       -2.57189446       3.28550269      -0.09943089
C        2.66387430      -1.87654066       1.80049484
C       -2.96460439      -1.06455028       1.71812649
C       -1.58585281      -2.55502542       2.75232285
C        1.95350744       2.72582155      -0.79754240
C       -0.51284354       2.77259202      -3.38003180
C       -0.79661842       3.15789760       1.41594458
C        2.88641390       1.54098071       0.84524077
C       -1.91035957      -1.92078596      -0.62046901
C        1.06316832       3.08930329      -1.77219265
C        2.59359042       0.25120703      -1.13139001
C       -1.31813780      -0.22194273       3.08775266
C        3.19402684      -0.54640629      -0.04841311
C       -1.66185205       0.88620083      -2.87504540
C       -2.03995698       1.51222884      -1.65210369
C       -0.45669526      -3.57606444       0.86679198
C        0.25394791       0.59456935      -4.10436726
C       -0.72973284      -1.36774012      -3.28602267
C       -3.35513258       2.33551843       0.56653526
C       -3.27095538       0.33755649       1.62127708
C       -2.91195964       1.43253978       2.58501694
C       -1.56041112       1.20315046       2.92251628
C        0.38281201      -0.83176844      -3.99033774
C       -2.29658404      -1.31167052       2.94344145
C       -1.60478721      -0.50294862      -2.62941110
C        2.27997295      -0.50734346       2.03720438
C        1.14381735      -2.44654898      -2.34672070
C        0.00062922      -3.49523137      -0.49367701
C       -3.14071456       2.69611180       1.92330496
C        0.79789686       2.42568817      -2.94388896
C       -0.15168104      -0.77862354       2.56342984
C       -0.26232496      -2.38532814      -2.44907529
C       -3.07346943       0.96184567       0.42235686
C       -2.13240145       3.54331852       1.28987301
C       -0.55423529       1.98317565       2.21126018
C        0.73023516       1.39183492       1.95481303
C       -1.77629950      -3.11247175       1.40805859
C       -2.09884481      -0.73142238      -1.30812210
C        3.13321080       0.22648004       1.16174667
C        1.78351508      -2.91269952       1.40769810
C        1.36247457      -3.15894641      -1.03712361
C        1.54256323      -1.22436823      -3.09905057
C        1.38052909       3.12668443       0.44354674
C        3.17282061      -1.88198215       0.39799857
C        1.76849803       2.20054667       1.42725939
C       -0.96687388       1.49182206      -3.94571843
C        2.68633141       1.57307570      -0.58329792
C        0.45769349      -3.06256283       1.77771879
C        1.16790502       1.07621661      -3.14374012
C       -2.03557826       2.86968780      -1.36521568
C       -0.91595709      -2.75821590      -1.24652720
C       -0.22393188      -2.17281479       2.63476464
C        1.88047398       0.02344914      -2.42003818
C        0.05330906       3.52986796       0.28255781
C       -2.42245989       0.52779593      -0.72614682
C       -0.06904622       3.70121877      -1.20688116
60
Properties=species:S:1:pos:R:3 trajectory=trial0001_proposal001_step005_proposal_relax trajectory_step=19 pbc="F F F"
C       -2.40856402      -2.04155560       0.72290334
C        2.23296260      -2.89075633       0.03392625
C        0.94491984      -0.00789142       2.09597674
C       -1.08934694       3.50827325      -2.20426523
C       -2.57244381       3.28384040      -0.10199725
C        2.66602180      -1.87529076       1.80512213
C       -2.96644940      -1.06441285       1.71762073
C       -1.58741643      -2.55487493       2.75197970
C        1.95222771       2.72833335      -0.79731690
C       -0.51068610       2.77038227      -3.38030098
C       -0.79794466       3.15635745       1.41637647
C        2.88865034       1.54240394       0.84758857
C       -1.91261508      -1.92221455      -0.62151353
C        1.06598223       3.08914620      -1.77296296
C        2.59794419       0.25202166      -1.12918007
C       -1.32025020      -0.22251814       3.08951199
C        3.19585364      -0.54459622      -0.04441825
C       -1.66582625       0.88544529      -2.88173156
C       -2.04545923       1.51010950      -1.65784415
C       -0.45576704      -3.57626816       0.86625204
C        0.25611508       0.59454940      -4.10303211
C       -0.72877972      -1.36570471      -3.28810083
C       -3.35743856       2.33468754       0.56433031
C       -3.27164296       0.33648815       1.62057681
C       -2.91400433       1.43265188       2.58243631
C       -1.56203962       1.20138439       2.92202250
C        0.38530296      -0.83096311      -3.98972534
C       -2.29805548      -1.31212769       2.94326297
C       -1.60782096      -0.50582637      -2.63503315
C        2.27978226      -0.50607272       2.04070466
C        1.14542536      -2.44403614      -2.34610104
C        0.00122144      -3.49138439      -0.49327365
C       -3.14261358       2.69606126       1.92101639
C        0.80133803       2.42822026      -2.94264931
C       -0.15174713      -0.77884365       2.56596727
C       -0.26117310      -2.38603492      -2.44844937
C       -3.07419028       0.96092090       0.41410425
C       -2.13320924       3.54248496       1.28836175
C       -0.55571241       1.98174263       2.21149821
C        0.73094667       1.39208411       1.95723580
C       -1.77620194      -3.11347186       1.40744051
C       -2.10330608      -0.73175983      -1.31514613
C        3.13338394       0.22870725       1.16504970
C        1.78455368      -2.91163590       1.41103871
C        1.36225319      -3.15388472      -1.03560889
C        1.54423792      -1.22255438      -3.09773026
C        1.38270294       3.12756437       0.44551344
C        3.17416856      -1.88206870       0.40254256
C        1.76888927       2.20215417       1.42782156
C       -0.96423169       1.49069922      -3.94562591
C        2.68999606       1.57128806      -0.58156390
C        0.45960109      -3.06174027       1.77938960
C        1.17120644       1.07657442      -3.14343441
C       -2.03700286       2.86698785      -1.36734091
C       -0.91566204      -2.75620299      -1.24871519
C       -0.22482472      -2.17336688       2.63467898
C        1.88406419       0.02479585      -2.41877942
C        0.05229491       3.52895562       0.28339788
C       -2.42938787       0.52587692      -0.72946428
C       -0.06965964       3.69715179      -1.20613549
60
Properties=species:S:1:pos:R:3 trajectory=trial0001_proposal001_step005_proposal_relax trajectory_step=20 pbc="F F F"
C       -2.40950034      -2.04176100       0.72380649
C        2.23295158      -2.89009931       0.03423968
C        0.94515091      -0.00771609       2.09651982
C       -1.08943816       3.50535173      -2.20352182
C       -2.57295599       3.28384045      -0.10179771
C        2.66716654      -1.87506609       1.80604588
C       -2.96716311      -1.06388236       1.71925105
C       -1.58784671      -2.55499868       2.75244058
C        1.95236268       2.72770380      -0.79765777
C       -0.51077332       2.76916267      -3.37993404
C       -0.79763980       3.15546195       1.41657589
C        2.89153972       1.54291831       0.84748465
C       -1.91377585      -1.92169583      -0.62118927
C        1.06684884       3.08917530      -1.77390176
C        2.59933850       0.25148326      -1.12920353
C       -1.31981275      -0.22309938       3.09114918
C        3.19621892      -0.54497254      -0.04367105
C       -1.66819651       0.88546994      -2.88324319
C       -2.04650795       1.50935499      -1.65846603
C       -0.45566821      -3.57714618       0.86572212
C        0.25507197       0.59471548      -4.10307667
C       -0.72942271      -1.36493086      -3.28873454
C       -3.35805995       2.33469382       0.56483798
C       -3.27112694       0.33724846       1.62113023
C       -2.91369136       1.43324507       2.58295830
C       -1.56135040       1.20055836       2.92238288
C        0.38443650      -0.83037510      -3.99011622
C       -2.29807072      -1.31203890       2.94448166
C       -1.60997373      -0.50601969      -2.63686110
C        2.27968098      -0.50595839       2.04039625
C        1.14508239      -2.44251504      -2.34665811
C        0.00078539      -3.48969977      -0.49387371
C       -3.14224655       2.69648075       1.92146391
C        0.80191556       2.42883258      -2.94292135
C       -0.15142662      -0.77922905       2.56640532
C       -0.26194564      -2.38551642      -2.44904024
C       -3.07380414       0.96090174       0.41310876
C       -2.13271780       3.54253307       1.28849414
C       -0.55520194       1.98071912       2.21129422
C        0.73257794       1.39237451       1.95766623
C       -1.77667056      -3.11438224       1.40779615
C       -2.10515870      -0.73192431      -1.31705015
C        3.13372838       0.22907417       1.16530644
C        1.78478872      -2.91142661       1.41154593
C        1.36155522      -3.15169559      -1.03583787
C        1.54314570      -1.22126302      -3.09797226
C        1.38461219       3.12829933       0.44562098
C        3.17483850      -1.88270892       0.40321420
C        1.77083471       2.20266591       1.42734597
C       -0.96451695       1.49038970      -3.94520063
C        2.69161343       1.57047696      -0.58196662
C        0.46043801      -3.06159680       1.77888972
C        1.17123038       1.07692672      -3.14428465
C       -2.03745497       2.86577113      -1.36656191
C       -0.91632476      -2.75473121      -1.24924421
C       -0.22515961      -2.17368826       2.63375996
C        1.88416956       0.02553621      -2.41907670
C        0.05290438       3.52872532       0.28390963
C       -2.43092650       0.52539981      -0.73012694
C       -0.06988531       3.69493322      -1.20584652
60
Properties=species:S:1:pos:R:3 trajectory=trial0001_proposal001_step005_proposal_relax trajectory_step=21 pbc="F F F"
C       -2.41122111      -2.04114697       0.72850373
C        2.23133539      -2.89139520       0.03065619
C        0.94695268      -0.00791979       2.09427158
C       -1.09052958       3.50157344      -2.20018038
C       -2.57397300       3.28565319      -0.09720624
C        2.66874817      -1.87680751       1.80300194
C       -2.96727791      -1.06186023       1.72619429
C       -1.58686741      -2.55588146       2.75435507
C        1.95257464       2.72513628      -0.80142777
C       -0.51426326       2.76709741      -3.37776966
C       -0.79429536       3.15380411       1.41642698
C        2.89970609       1.54230675       0.84356144
C       -1.91578136      -1.91918544      -0.61727335
C        1.06795580       3.08830121      -1.77537044
C        2.59969888       0.24881267      -1.13303991
C       -1.31533524      -0.22434268       3.09565540
C        3.19548852      -0.54838922      -0.04730971
C       -1.67354170       0.88685303      -2.88115506
C       -2.04441785       1.50966703      -1.65328290
C       -0.45711573      -3.58040386       0.86436629
C        0.24804130       0.59557104      -4.10519635
C       -0.73542834      -1.36288654      -3.28952366
C       -3.35764091       2.33619291       0.57063783
C       -3.26769780       0.33994782       1.62726726
C       -2.90885253       1.43574626       2.58845749
C       -1.55539381       1.19968345       2.92391155
C        0.37735122      -0.82913728      -3.99329125
C       -2.29572751      -1.31156272       2.94964303
C       -1.61490314      -0.50478516      -2.63629336
C        2.28017645      -0.50735136       2.03442889
C        1.14052626      -2.43953989      -2.34944489
C       -0.00225250      -3.48776029      -0.49624514
C       -3.13824057       2.69858984       1.92681279
C        0.80014692       2.42937582      -2.94531674
C       -0.14907456      -0.78014022       2.56528444
C       -0.26701430      -2.38385328      -2.45060824
C       -3.07038283       0.96249843       0.41694576
C       -2.12936012       3.54373556       1.29155020
C       -0.55049589       1.97874761       2.20955435
C        0.73885693       1.39293908       1.95570933
C       -1.77864040      -3.11666928       1.40994122
C       -2.10733875      -0.73048446      -1.31529823
C        3.13531895       0.22738894       1.16074299
C        1.78496995      -2.91224487       1.40823270
C        1.35784744      -3.14900629      -1.03889835
C        1.53593935      -1.21863780      -3.10071564
C        1.39045988       3.12907262       0.44390272
C        3.17559565      -1.88615918       0.39965803
C        1.77840284       2.20287432       1.42456981
C       -0.97000379       1.49066426      -3.94346526
C        2.69435835       1.56720867      -0.58597650
C        0.46054834      -3.06246127       1.77489827
C        1.16735091       1.07726999      -3.14831110
C       -2.03807252       2.86533004      -1.36091837
C       -0.91984126      -2.75139977      -1.24915224
C       -0.22473855      -2.17450710       2.62996876
C        1.88018549       0.02640361      -2.42257482
C        0.05704167       3.52921187       0.28477918
C       -2.42959916       0.52654668      -0.72545230
C       -0.06968583       3.69200143      -1.20498416
60
Properties=species:S:1:pos:R:3 trajectory=trial0001_proposal001_step005_proposal_relax trajectory_step=22 pbc="F F F"
C       -2.41415550      -2.03937035       0.73924250
C        2.22765773      -2.89509524       0.02030530
C        0.95344256      -0.00866697       2.08770841
C       -1.09325811       3.49921757      -2.19256040
C       -2.57352118       3.29037816      -0.08568371
C        2.67137498      -1.88173551       1.79260369
C       -2.96521628      -1.05837721       1.74144888
C       -1.58303238      -2.55676913       2.75842527
C        1.95803857       2.71795128      -0.80627893
C       -0.52302544       2.76549044      -3.37257538
C       -0.78511831       3.15127514       1.41596364
C        2.91381805       1.53885243       0.83163426
C       -1.91986211      -1.91454664      -0.60703930
C        1.06419623       3.08563373      -1.78436896
C        2.59835819       0.24323986      -1.14439784
C       -1.30402199      -0.22539740       3.10383514
C        3.19388802      -0.55601059      -0.05981417
C       -1.68440344       0.89061357      -2.87349701
C       -2.03914301       1.51214971      -1.63912443
C       -0.46234786      -3.58721624       0.86066656
C        0.23132072       0.59759991      -4.11009705
C       -0.75033907      -1.35892183      -3.29092257
C       -3.35548420       2.33956782       0.58601235
C       -3.25947892       0.34623684       1.64203615
C       -2.89521361       1.44136231       2.60170657
C       -1.53973077       1.19907922       2.92735220
C        0.35911004      -0.82722827      -4.00125168
C       -2.28801495      -1.31175036       2.96114679
C       -1.62561852      -0.50090582      -2.62971161
C        2.28279569      -0.51208568       2.02013210
C        1.12766404      -2.43521629      -2.35582491
C       -0.01045202      -3.48603050      -0.50042814
C       -3.12831478       2.70371302       1.94127427
C        0.79550388       2.43217932      -2.94847680
C       -0.14285618      -0.78178214       2.56215935
C       -0.28077718      -2.38070962      -2.45285668
C       -3.06384252       0.96702113       0.43196697
C       -2.11991187       3.54649851       1.30041963
C       -0.53826291       1.97587429       2.20508456
C        0.75261265       1.39225462       1.94946322
C       -1.78262967      -3.12075095       1.41508647
C       -2.11014209      -0.72543696      -1.30625590
C        3.13974123       0.22076638       1.14743701
C        1.78245567      -2.91688013       1.39834304
C        1.34775902      -3.14597856      -1.04687133
C        1.51862850      -1.21535146      -3.10838041
C        1.40317755       3.12910286       0.43905459
C        3.17559592      -1.89471941       0.38791768
C        1.79454417       2.20211897       1.41692686
C       -0.98493872       1.49209278      -3.93866554
C        2.69742750       1.56181973      -0.59734299
C        0.46210334      -3.06454826       1.76634736
C        1.15708129       1.07786782      -3.15742248
C       -2.03903705       2.86811108      -1.34783855
C       -0.92852089      -2.74628226      -1.24803886
C       -0.22149648      -2.17585634       2.62139894
C        1.86983687       0.02662571      -2.43226667
C        0.06589246       3.53020490       0.28651041
C       -2.42364747       0.53045600      -0.71097351
C       -0.06763533       3.68855147      -1.20243726
60
Properties=species:S:1:pos:R:3 trajectory=trial0001_proposal001_step005_proposal_relax trajectory_step=23 pbc="F F F"
C       -2.41532315      -2.03789843       0.74643805
C        2.22410196      -2.89911187       0.01166293
C        0.95822978      -0.00978121       2.08235494
C       -1.09554301       3.50134906      -2.18756683
C       -2.57265241       3.29365688      -0.07624327
C        2.67169259      -1.88671537       1.78309229
C       -2.96264837      -1.05614253       1.75119422
C       -1.57874983      -2.55764952       2.76075742
C        1.95834104       2.71616410      -0.81392602
C       -0.52998430       2.76601691      -3.36922697
C       -0.77824335       3.15038096       1.41560355
C        2.92106736       1.53469284       0.82265265
C       -1.92185518      -1.91136307      -0.59993286
C        1.06438340       3.08397997      -1.78315458
C        2.59575258       0.23973170      -1.15347952
C       -1.29553177      -0.22570530       3.10798200
C        3.19235533      -0.56160802      -0.07070222
C       -1.69032552       0.89353394      -2.86532403
C       -2.03439325       1.51542635      -1.62759240
C       -0.46600144      -3.59111510       0.85940201
C        0.21956210       0.59923026      -4.11353390
C       -0.76171394      -1.35684261      -3.29065261
C       -3.35270561       2.34306092       0.59731282
C       -3.25379157       0.34951582       1.65359272
C       -2.88488951       1.44487768       2.61138377
C       -1.52846264       1.19982507       2.92949230
C        0.34605367      -0.82654237      -4.00671928
C       -2.28208594      -1.31149129       2.96839835
C       -1.63110302      -0.49769670      -2.62282820
C        2.28551262      -0.51597117       2.00955452
C        1.11775990      -2.43390216      -2.36006751
C       -0.01640688      -3.48674778      -0.50310499
C       -3.12088090       2.70736268       1.95186102
C        0.79022971       2.43138549      -2.95380161
C       -0.13792930      -0.78237696       2.55925712
C       -0.29060238      -2.37871521      -2.45422993
C       -3.05910766       0.97045404       0.44374090
C       -2.11336811       3.54845490       1.30707171
C       -0.52913357       1.97471147       2.20203068
C        0.76138252       1.39163381       1.94390127
C       -1.78496630      -3.12269948       1.41869402
C       -2.11011725      -0.72188439      -1.29634535
C        3.14275918       0.21571987       1.13644033
C        1.78222104      -2.92009626       1.38980477
C        1.34087607      -3.14629684      -1.05243756
C        1.50652009      -1.21466594      -3.11417493
C        1.41027037       3.12840735       0.43503636
C        3.17476262      -1.90005562       0.37791883
C        1.80435865       2.20023905       1.41212378
C       -0.99574732       1.49400480      -3.93528803
C        2.69861179       1.55717820      -0.60544184
C        0.46044518      -3.06695446       1.76024816
C        1.14927987       1.07835220      -3.16330770
C       -2.03922556       2.87162792      -1.33911399
C       -0.93503859      -2.74433087      -1.24625495
C       -0.21845660      -2.17642892       2.61613898
C        1.86189795       0.02574979      -2.43957415
C        0.07290085       3.53103592       0.28678736
C       -2.41765164       0.53459577      -0.69863383
C       -0.06611801       3.68872021      -1.20106397
60
Properties=species:S:1:pos:R:3 trajectory=trial0001_proposal001_step005_proposal_relax trajectory_step=24 pbc="F F F"
C       -2.41688807      -2.03491254       0.76002996
C        2.21657260      -2.90756166      -0.00670427
C        0.96934465      -0.01283936       2.07145425
C       -1.09966863       3.51042924      -2.17803114
C       -2.56870341       3.30005578      -0.05688271
C        2.67151983      -1.89764468       1.76204259
C       -2.95567455      -1.05252740       1.76923404
C       -1.56839627      -2.55866787       2.76473063
C        1.96167209       2.71279497      -0.82715223
C       -0.54421560       2.76988662      -3.36306974
C       -0.76344001       3.14962508       1.41521640
C        2.93082546       1.52484109       0.80307069
C       -1.92579988      -1.90645388      -0.58572890
C        1.06169253       3.07973709      -1.78422541
C        2.58912870       0.23355589      -1.17328252
C       -1.27798469      -0.22522627       3.11365709
C        3.18993953      -0.57231881      -0.09483294
C       -1.70091959       0.89972378      -2.84718888
C       -2.02674576       1.52332977      -1.60439507
C       -0.47388945      -3.59731890       0.85756744
C        0.19631670       0.60235535      -4.11959096
C       -0.78564007      -1.35277901      -3.28926333
C       -3.34597483       2.35052558       0.62063050
C       -3.24283919       0.35483423       1.67729406
C       -2.86310364       1.45118604       2.63041999
C       -1.50544901       1.20257591       2.93384844
C        0.31944750      -0.82554989      -4.01669566
C       -2.26883212      -1.31118515       2.98183615
C       -1.64138442      -0.49115327      -2.60637162
C        2.29297759      -0.52467421       1.98923411
C        1.09633100      -2.43345159      -2.36829190
C       -0.02886677      -3.49008683      -0.50747246
C       -3.10546047       2.71461464       1.97386109
C        0.77919505       2.43154745      -2.96175724
C       -0.12704108      -0.78292658       2.55341381
C       -0.31120770      -2.37554342      -2.45542348
C       -3.05110433       0.97787591       0.46950356
C       -2.09936764       3.55189009       1.32112323
C       -0.51027686       1.97347214       2.19642086
C        0.77764347       1.38899739       1.93205901
C       -1.78878667      -3.12520024       1.42580601
C       -2.10899351      -0.71366547      -1.27369620
C        3.14928983       0.20387506       1.11315827
C        1.78113919      -2.92782181       1.37172322
C        1.32638347      -3.14912215      -1.06369532
C        1.48295833      -1.21571492      -3.12668889
C        1.42305506       3.12576632       0.42689291
C        3.17186238      -1.91003960       0.35587839
C        1.82195104       2.19514247       1.40184117
C       -1.01776208       1.49884791      -3.92790796
C        2.69888825       1.54983931      -0.62273372
C        0.45687837      -3.07227283       1.74890644
C        1.13365701       1.07859130      -3.17455209
C       -2.03932808       2.88073432      -1.32266948
C       -0.94880188      -2.74250459      -1.24223334
C       -0.21078766      -2.17699098       2.60681145
C        1.84614116       0.02278204      -2.45516128
C        0.08638973       3.53197705       0.28674763
C       -2.40503247       0.54367862      -0.67232472
C       -0.06225931       3.69135217      -1.19818382
60
Properties=species:S:1:pos:R:3 trajectory=trial0001_proposal001_step005_proposal_relax trajectory_step=25 pbc="F F F"
C       -2.41979809      -2.03148581       0.77810612
C        2.20617814      -2.91749528      -0.03138725
C        0.98699861      -0.01789149       2.05834986
C       -1.10474247       3.52239721      -2.16467060
C       -2.56121879       3.30829805      -0.03115220
C        2.67325960      -1.91218461       1.73394774
C       -2.94525799      -1.04806172       1.79356973
C       -1.55348113      -2.55869020       2.76999857
C        1.96870003       2.70856139      -0.84369565
C       -0.56303724       2.77702598      -3.35532806
C       -0.74196632       3.14835745       1.41600801
C        2.94240830       1.51023540       0.77546975
C       -1.93394449      -1.90065521      -0.56756685
C        1.05769172       3.07437874      -1.78842491
C        2.58150326       0.22590936      -1.20117702
C       -1.25312036      -0.22419785       3.11994626
C        3.18872255      -0.58592968      -0.12791860
C       -1.71723334       0.90852207      -2.82454618
C       -2.02373200       1.53391295      -1.57655787
C       -0.48471482      -3.60421050       0.85481792
C        0.16445403       0.60691651      -4.12546968
C       -0.81937995      -1.34671753      -3.28678092
C       -3.33654284       2.36086699       0.65284456
C       -3.22866066       0.36179918       1.70896805
C       -2.83301045       1.45892916       2.65567809
C       -1.47383385       1.20599670       2.94078054
C        0.28207482      -0.82340075      -4.02716227
C       -2.24912555      -1.31061951       2.99977729
C       -1.65901307      -0.48213278      -2.58528022
C        2.30603688      -0.53723268       1.96430293
C        1.06548273      -2.43280095      -2.37974192
C       -0.04679588      -3.49352375      -0.51296885
C       -3.08319502       2.72429756       2.00445073
C        0.76439764       2.43241443      -2.97135646
C       -0.11020099      -0.78393400       2.54689460
C       -0.34136240      -2.37076699      -2.45636835
C       -3.04259128       0.98792107       0.50376434
C       -2.07824961       3.55552333       1.34040494
C       -0.48408383       1.97133339       2.19038333
C        0.80006166       1.38382042       1.91726752
C       -1.79318225      -3.12788323       1.43569346
C       -2.11036214      -0.70267849      -1.24506050
C        3.15920459       0.18769366       1.08158973
C        1.77848365      -2.93948944       1.34853911
C        1.30500299      -3.15142209      -1.07896821
C        1.45146736      -1.21819425      -3.14483887
C        1.44139339       3.12205474       0.41620109
C        3.16763315      -1.92335465       0.32556692
C        1.84507707       2.18726805       1.38676765
C       -1.04679274       1.50626148      -3.91594369
C        2.70030717       1.54085384      -0.64746909
C        0.45501208      -3.07915270       1.73487178
C        1.11345197       1.07952962      -3.18994286
C       -2.03994465       2.89270243      -1.30142372
C       -0.96950204      -2.74030594      -1.23720772
C       -0.19894176      -2.17776980       2.59543243
C        1.82678534       0.01876567      -2.47737222
C        0.10438237       3.53123076       0.28642470
C       -2.39238867       0.55566451      -0.63851214
C       -0.05618906       3.69302659      -1.19431968
60
Properties=species:S:1:pos:R:3 trajectory=trial0001_proposal001_step005_proposal_relax trajectory_step=26 pbc="F F F"
C       -2.42842343      -2.02409125       0.82007799
C        2.17949488      -2.93917780      -0.08803347
C        1.03066918      -0.03202219       2.02993317
C       -1.11508002       3.54396941      -2.13288345
C       -2.54271720       3.32723880       0.02869229
C        2.68135806      -1.94645078       1.66957525
C       -2.92119050      -1.03632320       1.85052578
C       -1.51799619      -2.55734235       2.78329169
C        1.98613609       2.69820194      -0.88237097
C       -0.60597198       2.79420240      -3.33875635
C       -0.68939643       3.14418947       1.42099013
C        2.97008620       1.47663150       0.71124954
C       -1.95806566      -1.88660856      -0.52859733
C        1.05200923       3.06169367      -1.80487621
C        2.56632014       0.20784121      -1.26618670
C       -1.19259038      -0.22279168       3.13295988
C        3.18784937      -0.61735302      -0.20302039
C       -1.75780749       0.93018166      -2.77462243
C       -2.02922667       1.55766303      -1.51881568
C       -0.50676829      -3.61688401       0.84952039
C        0.08805539       0.61712690      -4.13509199
C       -0.90041968      -1.33060387      -3.27758675
C       -3.31285206       2.38671684       0.72807849
C       -3.19717973       0.37798646       1.78106645
C       -2.76470586       1.47480194       2.71474897
C       -1.40104360       1.21147400       2.95956227
C        0.19306645      -0.81532004      -4.04304370
C       -2.20090764      -1.30595091       3.04006849
C       -1.70555557      -0.45995942      -2.54187625
C        2.34114722      -0.56609150       1.90978970
C        0.99245191      -2.43004241      -2.40751364
C       -0.09016156      -3.49843902      -0.52693362
C       -3.02671872       2.74578046       2.07509535
C        0.73004204       2.43692444      -2.98837724
C       -0.06700499      -0.78833665       2.53300381
C       -0.41383275      -2.35866771      -2.45785285
C       -3.02468717       1.01041752       0.57720335
C       -2.02621548       3.56249339       1.38436209
C       -0.42304611       1.96440121       2.18182073
C        0.85283052       1.37038127       1.88715096
C       -1.80139484      -3.13243358       1.45945904
C       -2.12024156      -0.67857093      -1.18557975
C        3.18335435       0.15112981       1.00992210
C        1.77770830      -2.96394114       1.29684661
C        1.25385983      -3.15421455      -1.11482240
C        1.37888030      -1.22323958      -3.18755889
C        1.48539435       3.11412015       0.39148802
C        3.15737698      -1.95317086       0.25491203
C        1.89785259       2.16712799       1.34964738
C       -1.11152471       1.52524496      -3.88536063
C        2.70658031       1.52057428      -0.70617213
C        0.45072750      -3.09462921       1.70437661
C        1.06779918       1.08064252      -3.22603746
C       -2.04198532       2.91734060      -1.25273414
C       -1.02104846      -2.73396876      -1.22676372
C       -0.16960774      -2.18130111       2.57231772
C        1.78509943       0.01074098      -2.53012012
C        0.14646770       3.52653190       0.28535743
C       -2.37388567       0.58243131      -0.56677721
C       -0.04278697       3.69201131      -1.18652511
60
Properties=species:S:1:pos:R:3 trajectory=trial0001_proposal001_step005_proposal_relax trajectory_step=27 pbc="F F F"
C       -2.44762641      -2.00794715       0.90827021
C        2.12323797      -2.98123937      -0.20893385
C        1.12838688      -0.06397598       1.97133178
C       -1.13652308       3.58385102      -2.06522166
C       -2.49833934       3.36916968       0.15218929
C        2.70816460      -2.01181336       1.53489281
C       -2.87030941      -1.01042987       1.96986240
C       -1.44365127      -2.55082234       2.81310344
C        2.02397041       2.67689092      -0.96529363
C       -0.69331224       2.83208752      -3.30269893
C       -0.57641471       3.13476376       1.43576406
C        3.02719294       1.40496590       0.57464828
C       -2.01428677      -1.85890257      -0.44762992
C        1.04092549       3.04167240      -1.83492917
C        2.53693671       0.17005974      -1.40364162
C       -1.06109454      -0.22055243       3.15791350
C        3.18576193      -0.68104049      -0.36139235
C       -1.84563507       0.97943654      -2.67426349
C       -2.05407317       1.60776420      -1.40263890
C       -0.55378879      -3.63970345       0.83493154
C       -0.07444346       0.64106370      -4.14928476
C       -1.07220644      -1.29345881      -3.25482348
C       -3.26078512       2.43790253       0.88805659
C       -3.13151186       0.41463108       1.92865633
C       -2.62113469       1.50617834       2.83925760
C       -1.24867114       1.21919470       3.00077648
C        0.00126402      -0.79735454      -4.06688750
C       -2.09313034      -1.29466286       3.12096515
C       -1.81025213      -0.41201914      -2.44960289
C        2.42004383      -0.62840241       1.79812862
C        0.83676165      -2.42420093      -2.46694033
C       -0.18316037      -3.50674981      -0.55466823
C       -2.90130014       2.78828330       2.22497427
C        0.65744358       2.43805738      -3.03013531
C        0.02847176      -0.80086989       2.50501643
C       -0.56929039      -2.33407625      -2.45808073
C       -2.99186761       1.06027748       0.73184354
C       -1.90910801       3.57608422       1.47816203
C       -0.29371480       1.94916536       2.17110652
C        0.96474462       1.33828937       1.82858462
C       -1.81503866      -3.13777926       1.51138265
C       -2.14958632      -0.62477068      -1.06858873
C        3.23611526       0.07529253       0.85829726
C        1.76260935      -3.02105965       1.19205720
C        1.14121540      -3.16057242      -1.19235339
C        1.22463766      -1.23421658      -3.27650201
C        1.57999458       3.09446523       0.33654185
C        3.13322263      -2.01859955       0.10159435
C        2.00627043       2.12247295       1.26718772
C       -1.24668764       1.56637548      -3.81690511
C        2.72071982       1.47649503      -0.83131206
C        0.46166358      -3.12419901       1.64153974
C        0.96956531       1.08765855      -3.30082702
C       -2.04794281       2.96961269      -1.14960034
C       -1.13347401      -2.72001937      -1.20650139
C       -0.10569592      -2.19070603       2.52930809
C        1.70085257      -0.00692086      -2.64216184
C        0.23379983       3.51400773       0.28223924
C       -2.34730654       0.63578763      -0.42644193
C       -0.01202879       3.68539601      -1.17212414
60
Properties=species:S:1:pos:R:3 trajectory=trial0001_proposal001_step005_proposal_relax trajectory_step=28 pbc="F F F"
C       -2.45944136      -1.99760779       0.95987583
C        2.08301027      -3.00365781      -0.27999870
C        1.19303522      -0.08817206       1.93964553
C       -1.14415479       3.60081204      -2.02441159
C       -2.46564100       3.39363348       0.22897000
C        2.72854002      -2.05600194       1.45090202
C       -2.83814155      -0.99294756       2.03820660
C       -1.39499375      -2.54418842       2.82929685
C        2.04755204       2.66504471      -1.01521127
C       -0.74118732       2.85548960      -3.28128035
C       -0.50562356       3.12869431       1.45101980
C        3.05489055       1.36196887       0.49210855
C       -2.05554610      -1.84040090      -0.40694248
C        1.03548843       3.03007851      -1.86353922
C        2.52184663       0.14870110      -1.48610061
C       -0.97891517      -0.22036677       3.16584502
C        3.18447170      -0.71679227      -0.45470780
C       -1.90080842       1.01139659      -2.61796056
C       -2.08974267       1.63852240      -1.34527276
C       -0.57383423      -3.64223171       0.83118631
C       -0.17293909       0.65585611      -4.14723914
C       -1.17674881      -1.26785066      -3.22981846
C       -3.22236598       2.47401084       0.98415150
C       -3.09314652       0.43546647       2.01449815
C       -2.53586967       1.51915804       2.91165510
C       -1.16143756       1.21875400       3.02686758
C       -0.11524567      -0.78120208      -4.06472460
C       -2.02186771      -1.28296174       3.15977382
C       -1.87797236      -0.38039758      -2.39937492
C        2.47560898      -0.66516017       1.73642539
C        0.74111565      -2.42314335      -2.50190216
C       -0.24273123      -3.50756330      -0.57087906
C       -2.81603210       2.81045207       2.30999683
C        0.61539360       2.44454532      -3.04465342
C        0.09232604      -0.81215649       2.49029727
C       -0.66500856      -2.31842172      -2.45576256
C       -2.97695758       1.08831722       0.81256487
C       -1.83266951       3.58033729       1.53299399
C       -0.21659324       1.93847856       2.17728138
C        1.03007594       1.31531781       1.80125172
C       -1.81376253      -3.13218196       1.54453268
C       -2.17885431      -0.59894442      -1.00802556
C        3.26901718       0.03208299       0.76834141
C        1.76901465      -3.04764993       1.12834767
C        1.07168683      -3.16524654      -1.23763806
C        1.13241223      -1.24144982      -3.32638584
C        1.63382230       3.07878675       0.30082997
C        3.11323802      -2.05540178       0.00759146
C        2.06463862       2.09018551       1.21198156
C       -1.32125747       1.59450351      -3.77133016
C        2.72885808       1.45126154      -0.90710536
C        0.46204918      -3.14088874       1.61171300
C        0.91050795       1.08829955      -3.34298704
C       -2.05258561       2.99958968      -1.09093004
C       -1.20521600      -2.71213932      -1.19390969
C       -0.06267405      -2.20210171       2.51078571
C        1.65532440      -0.01754246      -2.71017885
C        0.28573545       3.50125085       0.27902744
C       -2.35401179       0.66746587      -0.35546288
C        0.00490057       3.67659766      -1.16603551
60
Properties=species:S:1:pos:R:3 trajectory=trial0001_proposal001_step005_proposal_relax trajectory_step=29 pbc="F F F"
C       -2.47575851      -1.97735447       1.03839208
C        2.00923374      -3.03439914      -0.39383129
C        1.29996475      -0.13410976       1.89306051
C       -1.14921353       3.61226141      -1.95981806
C       -2.40181524       3.43462384       0.34841109
C        2.77283674      -2.11999143       1.31674017
C       -2.78566338      -0.96158854       2.14016312
C       -1.31611423      -2.52956461       2.85535060
C        2.07921203       2.64494662      -1.09957724
C       -0.80923265       2.88999783      -3.24507575
C       -0.38665361       3.11690864       1.48498310
C        3.09193990       1.29681624       0.36202158
C       -2.12926219      -1.81368374      -0.34901880
C        1.03395265       3.01483887      -1.91533060
C        2.49950005       0.11554540      -1.61425165
C       -0.84539145      -0.22574546       3.16812885
C        3.17662964      -0.77080757      -0.59639986
C       -1.99058592       1.06503127      -2.53611616
C       -2.17247939       1.68872064      -1.26783945
C       -0.59633407      -3.62907667       0.82782591
C       -0.32942845       0.68045610      -4.12721954
C       -1.33828466      -1.22009099      -3.17373192
C       -3.15071486       2.53114005       1.13312584
C       -3.03186803       0.47125270       2.13832645
C       -2.40550962       1.53140457       3.01983268
C       -1.03016507       1.20816709       3.06849337
C       -0.29887268      -0.74802401      -4.03547739
C       -1.89958743      -1.25776046       3.20277349
C       -1.99002986      -0.32654373      -2.32494778
C        2.57454573      -0.72503758       1.64107036
C        0.58988632      -2.42500690      -2.55510347
C       -0.33789353      -3.50239511      -0.59187930
C       -2.66416371       2.83730866       2.43733384
C        0.55151684       2.45474348      -3.05972823
C        0.20244970      -0.83879881       2.46872503
C       -0.81577890      -2.29559046      -2.44465972
C       -2.96108660       1.13334086       0.92850237
C       -1.70241028       3.58369518       1.61797493
C       -0.09520316       1.91997023       2.20661210
C        1.13032787       1.27530417       1.77121870
C       -1.79696655      -3.10747282       1.59682665
C       -2.24588285      -0.55808253      -0.93219733
C        3.31987336      -0.03301351       0.62979273
C        1.77404375      -3.08558447       1.03392084
C        0.95808888      -3.17677748      -1.30772370
C        0.98464572      -1.25135497      -3.39444463
C        1.71102129       3.04568479       0.23825255
C        3.07438409      -2.10738294      -0.14670737
C        2.14328770       2.03151934       1.11714391
C       -1.42705335       1.64344501      -3.69535471
C        2.73826508       1.41306119      -1.02683976
C        0.48161516      -3.16447726       1.56870708
C        0.81517945       1.08817173      -3.40043648
C       -2.06078077       3.04474427      -0.99975406
C       -1.32228388      -2.69634969      -1.17482322
C        0.01136363      -2.22385608       2.49647200
C        1.58650409      -0.03415780      -2.81527254
C        0.36413064       3.47417604       0.27226446
C       -2.40046623       0.71189980      -0.27094955
C        0.02912307       3.65519148      -1.15974437
60
Properties=species:S:1:pos:R:3 trajectory=trial0001_proposal001_step005_proposal_relax trajectory_step=30 pbc="F F F"
C       -2.48780513      -1.95092271       1.12059252
C        1.94196275      -3.06467526      -0.50347904
C        1.39957573      -0.17516581       1.83663462
C       -1.16100198       3.62061357      -1.89263869
C       -2.34089337       3.47905664       0.46657276
C        2.81033692      -2.18481849       1.17520711
C       -2.73525256      -0.92623071       2.24502036
C       -1.23992678      -2.51942719       2.88800974
C        2.10707161       2.61366566      -1.18322099
C       -0.88139083       2.91726957      -3.20230525
C       -0.26569122       3.10434877       1.51372022
C        3.14316496       1.23137985       0.23130653
C       -2.19550586      -1.77985915      -0.28097847
C        1.02654821       3.00386960      -1.96358933
C        2.46896445       0.07829764      -1.74102743
C       -0.71474316      -0.23361139       3.17897698
C        3.15697943      -0.82515905      -0.74338505
C       -2.07982878       1.12077913      -2.45137079
C       -2.22632011       1.74231414      -1.16868657
C       -0.62294941      -3.62415517       0.81635819
C       -0.48661786       0.70681965      -4.11570180
C       -1.49072757      -1.17695385      -3.12536506
C       -3.07889873       2.58382067       1.28253552
C       -2.96318439       0.51066451       2.26518571
C       -2.27195639       1.54925858       3.13178296
C       -0.89095534       1.19602236       3.10766038
C       -0.48131088      -0.71896017      -4.02097510
C       -1.78438753      -1.23633554       3.25038469
C       -2.09656590      -0.27040885      -2.24248904
C        2.65821701      -0.78473730       1.52975492
C        0.44110820      -2.42520894      -2.60827854
C       -0.43019058      -3.49843122      -0.61116273
C       -2.51576656       2.86465779       2.56859812
C        0.48600029       2.45629245      -3.08949236
C        0.30890759      -0.86560531       2.44174045
C       -0.96378568      -2.27241519      -2.43579582
C       -2.93033616       1.18198623       1.04770291
C       -1.57088597       3.59485645       1.70770291
C        0.03308041       1.90211920       2.22456524
C        1.23720690       1.23712585       1.73536160
C       -1.78412417      -3.08651339       1.64296865
C       -2.30981088      -0.51423314      -0.84597840
C        3.36667269      -0.09579981       0.48390194
C        1.77556250      -3.12191166       0.92854264
C        0.84185818      -3.19315719      -1.38278765
C        0.82579469      -1.25482857      -3.45675879
C        1.78761508       3.01018460       0.17404488
C        3.03196340      -2.16886977      -0.30214053
C        2.22521879       1.97991007       1.02486607
C       -1.54346782       1.68617216      -3.62582186
C        2.74469142       1.36609154      -1.14968591
C        0.50138768      -3.18520839       1.52265560
C        0.71361259       1.09058569      -3.45512481
C       -2.06479638       3.09090804      -0.89752813
C       -1.43009021      -2.67674227      -1.15060222
C        0.08880661      -2.24872132       2.47293986
C        1.50034428      -0.04987783      -2.91435919
C        0.44039644       3.45281906       0.26809414
C       -2.44005077       0.76080734      -0.16541936
C        0.05676174       3.63653685      -1.14905058
60
Properties=species:S:1:pos:R:3 trajectory=trial0001_proposal001_step005_proposal_relax trajectory_step=31 pbc="F F F"
C       -2.47837093      -1.91216970       1.16761980
C        1.86777349      -3.06811821      -0.57201282
C        1.47634452      -0.22156328       1.79667782
C       -1.14941979       3.58261679      -1.84444209
C       -2.25962485       3.51362062       0.54706499
C        2.85445739      -2.21950175       1.06088098
C       -2.69266478      -0.88722099       2.29056556
C       -1.17575819      -2.50729179       2.90883960
C        2.10124001       2.57511119      -1.24449115
C       -0.90766114       2.92102000      -3.15976556
C       -0.16980396       3.09456298       1.55724340
C        3.15638011       1.20149906       0.14519923
C       -2.25522725      -1.74860583      -0.25327477
C        1.02710716       3.01500980      -2.01599257
C        2.43558127       0.05234533      -1.81536630
C       -0.62165834      -0.25826784       3.15592740
C        3.10837193      -0.84773077      -0.83265380
C       -2.14628720       1.17436741      -2.40732168
C       -2.31181560       1.78390400      -1.12398262
C       -0.60762634      -3.57074572       0.81577757
C       -0.58226769       0.73206025      -4.06133526
C       -1.56659276      -1.13313275      -3.04566166
C       -2.98536415       2.62382362       1.37060675
C       -2.90656622       0.54504057       2.31267019
C       -2.18331590       1.53506858       3.18584924
C       -0.81491505       1.15944594       3.12939147
C       -0.58987281      -0.68340731      -3.94849925
C       -1.69235844      -1.20981568       3.22435210
C       -2.17187290      -0.22201215      -2.19572089
C        2.72172441      -0.82709760       1.44481916
C        0.34315323      -2.44021524      -2.63207362
C       -0.48956059      -3.47637971      -0.60700481
C       -2.37415547       2.85814057       2.62333046
C        0.44622438       2.45404201      -3.09663271
C        0.40039403      -0.90743753       2.42755122
C       -1.05426968      -2.26152528      -2.40748733
C       -2.91619053       1.22305725       1.10089531
C       -1.45032427       3.59754934       1.76428654
C        0.12827716       1.88313454       2.28112148
C        1.30471494       1.19806312       1.74354762
C       -1.72692524      -3.02268179       1.66396130
C       -2.41491435      -0.48816741      -0.82738498
C        3.38505333      -0.12980228       0.38443081
C        1.77761826      -3.12339510       0.85844122
C        0.75668508      -3.22632903      -1.42609223
C        0.70570708      -1.24624753      -3.45222522
C        1.80339087       2.95336078       0.11112190
C        2.97270712      -2.19700211      -0.42164626
C        2.23858694       1.92529577       0.94178877
C       -1.59467146       1.71943701      -3.57582550
C        2.73204127       1.32879615      -1.23255966
C        0.54617574      -3.18878044       1.50931384
C        0.63043206       1.08736805      -3.45654743
C       -2.05815183       3.11678693      -0.82561254
C       -1.49676010      -2.65219646      -1.12163695
C        0.16481268      -2.28706066       2.49633032
C        1.42636094      -0.06120427      -2.95647982
C        0.47671324       3.41943505       0.25924787
C       -2.57393442       0.78555671      -0.15950318
C        0.07146893       3.60587561      -1.15143428
60
Properties=species:S:1:pos:R:3 trajectory=trial0001_proposal001_step005_proposal_relax trajectory_step=32 pbc="F F F"
C       -2.48437832      -1.87990794       1.25140563
C        1.78825284      -3.10661499      -0.69633621
C        1.56886063      -0.26364594       1.73395603
C       -1.15935409       3.59475022      -1.77292602
C       -2.19439611       3.56066052       0.67418788
C        2.88596940      -2.28006821       0.91589913
C       -2.63935006      -0.85181321       2.39437515
C       -1.09614949      -2.50402003       2.93545369
C        2.11231656       2.54149077      -1.33671119
C       -0.98712608       2.93997499      -3.11542209
C       -0.04772473       3.08154373       1.58185304
C        3.21038474       1.14190470       0.00997609
C       -2.31251083      -1.71332736      -0.17746872
C        1.02482821       2.99760453      -2.06224504
C        2.39108631       0.00982296      -1.94328801
C       -0.48904782      -0.26932277       3.16804055
C        3.07622873      -0.91014095      -0.98398783
C       -2.23915693       1.22719276      -2.30805622
C       -2.34586418       1.83587442      -1.01468956
C       -0.63223726      -3.56839080       0.80975686
C       -0.74245452       0.75376292      -4.05806769
C       -1.72187783      -1.08530351      -2.99554884
C       -2.90770343       2.67815226       1.51912238
C       -2.83021130       0.58793296       2.44115587
C       -2.03811971       1.55548026       3.29726480
C       -0.66689027       1.15215578       3.16342097
C       -0.76947717      -0.65590655      -3.94955740
C       -1.58113725      -1.19700359       3.27750991
C       -2.27193616      -0.16754181      -2.11141416
C        2.79477068      -0.88921429       1.31474522
C        0.19254352      -2.44211036      -2.68213849
C       -0.57522694      -3.47272826      -0.62706469
C       -2.22594938       2.88843294       2.75416367
C        0.37997334       2.46708801      -3.12285342
C        0.50147214      -0.93489798       2.40014253
C       -1.19931624      -2.24028810      -2.39474248
C       -2.87905447       1.27722305       1.23810865
C       -1.32108323       3.61321276       1.85761172
C        0.26153671       1.86149300       2.28951902
C        1.41744666       1.16496056       1.69737351
C       -1.71410134      -3.00115971       1.70857718
C       -2.47998700      -0.43259966      -0.72950241
C        3.42436730      -0.20063234       0.23017159
C        1.76426299      -3.16353512       0.75588031
C        0.64673257      -3.24539464      -1.49667326
C        0.54384959      -1.24618156      -3.50755885
C        1.87399032       2.91420358       0.04576742
C        2.93678770      -2.24797362      -0.58405722
C        2.33068105       1.86950995       0.85231572
C       -1.71952157       1.76170857      -3.51020256
C        2.73484057       1.27963562      -1.35431106
C        0.56895789      -3.21784125       1.44761467
C        0.52527736       1.08592165      -3.50897028
C       -2.05522138       3.16259680      -0.71615663
C       -1.60067332      -2.62314008      -1.09189455
C        0.23903682      -2.30489179       2.47497121
C        1.32345863      -0.07697800      -3.04470332
C        0.55744287       3.39954611       0.25446567
C       -2.60114248       0.83667762      -0.04917963
C        0.09362434       3.59234982      -1.14089512
60
Properties=species:S:1:pos:R:3 trajectory=trial0001_proposal001_step005_proposal_relax trajectory_step=33 pbc="F F F"
C       -2.46950255      -1.87165661       1.24509174
C        1.80071588      -3.10908226      -0.69000773
C        1.54014423      -0.25576084       1.72509524
C       -1.16216844       3.60148230      -1.77406128
C       -2.19432353       3.56111701       0.66483385
C        2.85691776      -2.27442698       0.91769460
C       -2.63639428      -0.85712610       2.38376862
C       -1.10469898      -2.51661907       2.92475984
C        2.08797052       2.53147913      -1.33473470
C       -0.99052275       2.92479471      -3.11199460
C       -0.05904470       3.08126999       1.56662907
C        3.21963865       1.14438391       0.01495448
C       -2.28633106      -1.70795498      -0.16519179
C        1.02168005       2.99459453      -2.04539996
C        2.36579545       0.00611990      -1.92717948
C       -0.50842963      -0.26976809       3.17564868
C        3.05484294      -0.90997535      -0.98014814
C       -2.22998901       1.21503947      -2.30227546
C       -2.29197252       1.83269585      -0.99549368
C       -0.63372923      -3.58023349       0.80776293
C       -0.72757578       0.74879288      -4.07896318
C       -1.69755506      -1.09240166      -3.00997537
C       -2.91033901       2.66829838       1.50318363
C       -2.81887192       0.58649668       2.43765983
C       -2.03207943       1.56409436       3.28228670
C       -0.66059023       1.16083894       3.14971640
C       -0.74821565      -0.66989735      -3.98413970
C       -1.60657425      -1.21822830       3.28725537
C       -2.24990895      -0.17341698      -2.10708710
C        2.75567970      -0.88471462       1.29190580
C        0.20629547      -2.44146945      -2.67134553
C       -0.55423452      -3.47498156      -0.62004607
C       -2.24731491       2.89092071       2.74653351
C        0.37986371       2.46919864      -3.13132451
C        0.48002218      -0.92920188       2.39786136
C       -1.17815266      -2.23828679      -2.39235724
C       -2.86182775       1.27962906       1.24068276
C       -1.33612981       3.62339511       1.85623724
C        0.25791712       1.86218016       2.25833315
C        1.41793750       1.17428964       1.67802286
C       -1.71869660      -3.00883716       1.69595581
C       -2.46825552      -0.42290462      -0.71371591
C        3.40250884      -0.19648271       0.22591269
C        1.74870723      -3.16227761       0.75403659
C        0.66004197      -3.24679807      -1.48907943
C        0.55434765      -1.24054835      -3.48855815
C        1.85658482       2.91049279       0.05066583
C        2.94079112      -2.24493567      -0.57196691
C        2.33881319       1.87926696       0.87184381
C       -1.72768174       1.74918967      -3.52329635
C        2.72337529       1.28231362      -1.34210380
C        0.56316022      -3.21961097       1.44059639
C        0.52611202       1.08962744      -3.49711298
C       -2.03897645       3.15709254      -0.70960241
C       -1.57109473      -2.61101405      -1.08142865
C        0.22914233      -2.30038997       2.46537337
C        1.29744926      -0.07527259      -3.01142640
C        0.55262548       3.40696309       0.25541595
C       -2.56717818       0.84303964      -0.01906057
C        0.08987817       3.60546656      -1.13845771
60
Properties=species:S:1:pos:R:3 trajectory=trial0001_proposal001_step005_proposal_relax trajectory_step=34 pbc="F F F"
C       -2.45375450      -1.83320832       1.32037519
C        1.74251668      -3.13949732      -0.79788483
C        1.61368158      -0.29227776       1.65385648
C       -1.17023777       3.61536823      -1.70806390
C       -2.11460174       3.60377854       0.78222987
C        2.85764378      -2.33042818       0.77288007
C       -2.57008433      -0.82859473       2.46937408
C       -1.02917577      -2.52129787       2.93543611
C        2.08817841       2.47977452      -1.40665101
C       -1.06551743       2.93914279      -3.05908766
C        0.04787884       3.06968453       1.58258436
C        3.26669484       1.09074173      -0.11902824
C       -2.32455779      -1.65430235      -0.09556881
C        0.99272099       2.99256005      -2.06898694
C        2.29055634      -0.02966598      -2.03006324
C       -0.39679382      -0.28496246       3.18546055
C        3.00084379      -0.95687321      -1.13229202
C       -2.31247319       1.26404998      -2.21172817
C       -2.30766313       1.86863250      -0.88527168
C       -0.65680381      -3.57766148       0.79820892
C       -0.86731261       0.77490476      -4.07910595
C       -1.82391280      -1.04745381      -2.96577488
C       -2.82388140       2.72526779       1.63666677
C       -2.72489314       0.62331680       2.55434192
C       -1.87004706       1.58453009       3.36595824
C       -0.51218054       1.15419076       3.16916839
C       -0.91171350      -0.65744474      -3.99624533
C       -1.50767822      -1.22283553       3.34270052
C       -2.34045692      -0.13033054      -2.01918938
C        2.78520921      -0.94072141       1.15476733
C        0.06815333      -2.44305912      -2.70545820
C       -0.62591006      -3.46108194      -0.62757347
C       -2.10910429       2.92238804       2.86205641
C        0.30968605       2.46440466      -3.17584501
C        0.56059722      -0.94976106       2.37549951
C       -1.30437114      -2.20239914      -2.36880925
C       -2.82481089       1.33483580       1.39085441
C       -1.20338427       3.64039009       1.94449413
C        0.38875163       1.84332152       2.23907684
C        1.52080568       1.13177009       1.62418086
C       -1.69865994      -2.98828305       1.72488489
C       -2.53633327      -0.37281648      -0.60997456
C        3.41533092      -0.26410038       0.06519170
C        1.73354232      -3.19923176       0.64113000
C        0.55585835      -3.26049486      -1.55083351
C        0.40895329      -1.24396450      -3.52100588
C        1.90839872       2.85431932      -0.01453388
C        2.89333614      -2.30492601      -0.72241966
C        2.43933482       1.83530976       0.78508661
C       -1.84832207       1.77527993      -3.45868841
C        2.70874407       1.23880262      -1.45677200
C        0.57303478      -3.24114262       1.40154704
C        0.41494312       1.10429788      -3.52879295
C       -2.01134865       3.19875062      -0.60149947
C       -1.63949216      -2.56906517      -1.03257212
C        0.29910454      -2.32633832       2.43566992
C        1.17422504      -0.08824676      -3.05284580
C        0.62144064       3.38294757       0.24638069
C       -2.57310891       0.89111616       0.07973709
C        0.11902254       3.59887982      -1.12905291
60
Properties=species:S:1:pos:R:3 trajectory=trial0001_proposal001_step005_proposal_relax trajectory_step=35 pbc="F F F"
C       -2.43153332      -1.81103372       1.33807981
C        1.70980437      -3.14816422      -0.83434741
C        1.63061536      -0.31065446       1.62776165
C       -1.16388285       3.61063674      -1.68697885
C       -2.06392936       3.61708575       0.81807831
C        2.85099506      -2.34502433       0.71802305
C       -2.53472643      -0.81871245       2.48418667
C       -1.00053414      -2.52420327       2.93218019
C        2.06394160       2.46216044      -1.43099047
C       -1.08531497       2.93770133      -3.03652261
C        0.08843924       3.06451723       1.58941508
C        3.27207557       1.07368147      -0.16823084
C       -2.33348809      -1.63152428      -0.07571969
C        0.97929898       2.99169794      -2.07989684
C        2.24465149      -0.03582528      -2.05157556
C       -0.36234721      -0.29660502       3.17779522
C        2.96205869      -0.96906857      -1.18176649
C       -2.33972909       1.27720097      -2.18565457
C       -2.32366610       1.88563754      -0.86084190
C       -0.65244042      -3.55992515       0.80106463
C       -0.90914247       0.78175902      -4.06371320
C       -1.85261106      -1.02663328      -2.93282839
C       -2.77668114       2.74801797       1.67663432
C       -2.67734800       0.63142922       2.58494965
C       -1.80511500       1.58345346       3.37440522
C       -0.46346083       1.14255373       3.16649438
C       -0.95639574      -0.64759025      -3.98342206
C       -1.46938139      -1.22771263       3.34465019
C       -2.37266305      -0.11389626      -1.99421490
C        2.78211015      -0.96004351       1.10021593
C        0.02414361      -2.44739475      -2.70426246
C       -0.64305191      -3.44353715      -0.61950204
C       -2.04489889       2.92861463       2.88864539
C        0.28718989       2.47157572      -3.17779930
C        0.58805600      -0.96394491       2.36948687
C       -1.33580193      -2.18500247      -2.34420069
C       -2.81550945       1.35387168       1.41777382
C       -1.14561629       3.64466757       1.97185208
C        0.43462011       1.83328230       2.23651993
C        1.55282383       1.11429483       1.60691218
C       -1.67473328      -2.96621575       1.72555010
C       -2.58008281      -0.35928003      -0.58969942
C        3.40165787      -0.28182937       0.00660587
C        1.72262003      -3.20633956       0.60799203
C        0.52224418      -3.26649991      -1.56318737
C        0.36179977      -1.24394955      -3.51076507
C        1.90713765       2.81788694      -0.04250016
C        2.86737568      -2.31586647      -0.77891361
C        2.46258404       1.81251108       0.75343705
C       -1.87563164       1.78452248      -3.43346333
C        2.69164592       1.22051185      -1.49488090
C        0.58475846      -3.24851840       1.39169476
C        0.37063177       1.10184712      -3.52050933
C       -1.98950916       3.20444295      -0.56767709
C       -1.64972419      -2.53964309      -1.00665585
C        0.32797405      -2.33729246       2.43853802
C        1.11781537      -0.08971303      -3.04019356
C        0.63873246       3.36424210       0.23951905
C       -2.60320557       0.90526877       0.10805224
C        0.12495846       3.59686080      -1.12742084
60
Properties=species:S:1:pos:R:3 trajectory=trial0001_proposal001_step005_proposal_relax trajectory_step=36 pbc="F F F"
C       -2.40309561      -1.76837544       1.40347893
C        1.63545793      -3.17797274      -0.93427730
C        1.69965043      -0.35673506       1.56432973
C       -1.16151558       3.61449767      -1.62431529
C       -1.95971114       3.65196583       0.92473739
C        2.85250592      -2.39970953       0.56597590
C       -2.44810979      -0.79050924       2.56577620
C       -0.92035153      -2.52249296       2.94370956
C        2.04534155       2.41851912      -1.50776899
C       -1.14611080       2.95509412      -2.98499659
C        0.20980660       3.04852880       1.60701812
C        3.30159831       1.01379642      -0.30813101
C       -2.37599355      -1.58893677      -0.00891938
C        0.95701626       2.97795685      -2.12294451
C        2.15974193      -0.06224013      -2.14503535
C       -0.24267230      -0.31527846       3.17405378
C        2.90064674      -1.01672178      -1.32172690
C       -2.42241771       1.32385519      -2.10377026
C       -2.37511625       1.93534192      -0.77317131
C       -0.66031694      -3.53570364       0.79916203
C       -1.04666747       0.80717315      -4.03130208
C       -1.97159571      -0.97721830      -2.86465065
C       -2.67470537       2.79875796       1.81119657
C       -2.57439486       0.66924328       2.68020769
C       -1.64271336       1.59063027       3.43754388
C       -0.32196729       1.12206733       3.17841336
C       -1.11241724      -0.62209600      -3.95138178
C       -1.35900342      -1.22392848       3.37301417
C       -2.47760399      -0.06515240      -1.91868624
C        2.81982056      -1.01811656       0.96424318
C       -0.11603338      -2.44666425      -2.72863556
C       -0.71317995      -3.41308378      -0.61506356
C       -1.87468477       2.95048593       2.99135275
C        0.21237475       2.48532935      -3.18660759
C        0.68183358      -0.99531302       2.34368264
C       -1.45104957      -2.14255561      -2.30181653
C       -2.78684216       1.40517058       1.52871942
C       -0.99602034       3.65432289       2.04914846
C        0.56461795       1.80656217       2.23609513
C        1.65271836       1.07509781       1.55588121
C       -1.63792530      -2.92949350       1.75368239
C       -2.66700086      -0.31129057      -0.51739782
C        3.39922487      -0.34454525      -0.14625857
C        1.70792046      -3.23830883       0.50823657
C        0.41088891      -3.27674741      -1.61524857
C        0.21545667      -1.24485601      -3.53376360
C        1.94400493       2.75303510      -0.11038139
C        2.80442776      -2.36433799      -0.93296283
C        2.53631399       1.75007805       0.66280227
C       -1.96671208       1.82085317      -3.35945661
C        2.66457386       1.18495649      -1.61007300
C        0.60882614      -3.27008273       1.35104964
C        0.25414508       1.09803832      -3.53622682
C       -1.95979651       3.23144652      -0.47236295
C       -1.71719094      -2.48479124      -0.95869166
C        0.40297719      -2.36761852       2.42415696
C        0.99087044      -0.09860534      -3.07637860
C        0.70499592       3.32549069       0.22877224
C       -2.65593626       0.95301349       0.20302524
C        0.14170274       3.58846331      -1.11888630
60
Properties=species:S:1:pos:R:3 trajectory=trial0001_proposal001_step005_proposal_relax trajectory_step=37 pbc="F F F"
C       -2.35602289      -1.72748786       1.46678016
C        1.54980373      -3.21605408      -1.02706612
C        1.76306597      -0.40004551       1.49365368
C       -1.16155208       3.62373892      -1.56654293
C       -1.84794326       3.66217498       1.02099829
C        2.83474326      -2.45093293       0.41449173
C       -2.34668685      -0.75773551       2.63458271
C       -0.84359207      -2.52437310       2.95075974
C        2.01011571       2.38449605      -1.57318700
C       -1.20212883       2.98189433      -2.93204713
C        0.33511279       3.02572077       1.61405183
C        3.31260594       0.95571406      -0.44831898
C       -2.41040118      -1.53405501       0.05323412
C        0.92095580       2.96424185      -2.15706637
C        2.05587633      -0.07990957      -2.22133173
C       -0.12162588      -0.33609544       3.16851919
C        2.82749938      -1.05887612      -1.45450630
C       -2.50012635       1.37211636      -2.02353796
C       -2.42897303       1.98005663      -0.68777930
C       -0.66156544      -3.51027470       0.80154594
C       -1.18036460       0.82634413      -3.98543155
C       -2.08182338      -0.93022704      -2.79420927
C       -2.55929081       2.84712618       1.93450374
C       -2.45444324       0.69688532       2.75972584
C       -1.47627318       1.59357695       3.47266790
C       -0.17658218       1.09823924       3.17544006
C       -1.25883641      -0.59260940      -3.90455722
C       -1.23917599      -1.22169376       3.40264040
C       -2.58998036      -0.01808028      -1.85125497
C        2.83034743      -1.07559272       0.83319766
C       -0.25168413      -2.43424162      -2.73745738
C       -0.77271379      -3.36665131      -0.60355036
C       -1.69463435       2.96644875       3.07695085
C        0.12967369       2.48964528      -3.18079576
C        0.76770077      -1.03098583       2.31455161
C       -1.54758087      -2.08592164      -2.24474226
C       -2.75316459       1.45523080       1.63334497
C       -0.83754639       3.65743515       2.10400071
C        0.69382313       1.77750623       2.21832248
C        1.74189884       1.02756420       1.49772823
C       -1.59757790      -2.89925018       1.77964851
C       -2.74674139      -0.26915570      -0.43545731
C        3.37230289      -0.40760454      -0.29887521
C        1.68733477      -3.27495636       0.42061892
C        0.30434520      -3.27286154      -1.64568274
C        0.07388944      -1.24503059      -3.55408128
C        1.97246877       2.68551839      -0.17266046
C        2.73211073      -2.40940229      -1.07804482
C        2.60417174       1.68716025       0.55994655
C       -2.03975872       1.85879410      -3.27811802
C        2.62418806       1.14394243      -1.72292123
C        0.62762433      -3.29193459       1.30733578
C        0.13575040       1.10284044      -3.53310694
C       -1.91904563       3.24868922      -0.38831329
C       -1.76560846      -2.42164543      -0.90220120
C        0.47578881      -2.39710763       2.40021235
C        0.85848593      -0.10205573      -3.09530113
C        0.76401489       3.28296451       0.21380622
C       -2.70332548       1.00436248       0.29414546
C        0.16168244       3.58271044      -1.11108653
60
Properties=species:S:1:pos:R:3 trajectory=trial0001_proposal001_step005_proposal_relax trajectory_step=38 pbc="F F F"
C       -2.31322100      -1.68662190       1.53756914
C        1.47028149      -3.25768322      -1.11876846
C        1.82824235      -0.44791255       1.42020973
C       -1.15705325       3.64184216      -1.50330191
C       -1.73900235       3.66795284       1.11510544
C        2.81458586      -2.50413624       0.26689076
C       -2.24082297      -0.72744050       2.70851676
C       -0.75752986      -2.52632343       2.96066009
C        1.99106941       2.34440959      -1.64134550
C       -1.26986774       3.01525006      -2.87748726
C        0.45872325       3.00577421       1.61407950
C        3.32254072       0.89003886      -0.59633062
C       -2.44003261      -1.48473397       0.13351314
C        0.88237154       2.95240450      -2.18031636
C        1.95738483      -0.10629598      -2.30649155
C        0.01349706      -0.35738959       3.16614171
C        2.75133947      -1.10642903      -1.59527241
C       -2.58292897       1.42197662      -1.93316096
C       -2.47114950       2.03208360      -0.59760871
C       -0.67414454      -3.49479327       0.79778034
C       -1.31952500       0.85714421      -3.93974328
C       -2.21338159      -0.87770789      -2.72345418
C       -2.44542950       2.89086731       2.06531395
C       -2.33094969       0.72526185       2.84892366
C       -1.30041314       1.59351213       3.51378635
C       -0.02723566       1.07999048       3.17436630
C       -1.41606680      -0.56309995      -3.86591992
C       -1.11429987      -1.21677304       3.44135988
C       -2.70836233       0.03178098      -1.76663324
C        2.84566534      -1.13885570       0.69608317
C       -0.38937279      -2.41562163      -2.74563103
C       -0.83437506      -3.32486863      -0.59105242
C       -1.51278038       2.98560285       3.15795857
C        0.04630974       2.49345938      -3.17360665
C        0.85858984      -1.06300104       2.27748243
C       -1.64942073      -2.03007947      -2.19065559
C       -2.70641838       1.50666233       1.74701207
C       -0.67853435       3.65215059       2.15170876
C        0.82965977       1.74308440       2.19318247
C        1.83863362       0.98055958       1.42814506
C       -1.56393597      -2.87729689       1.81487604
C       -2.81345485      -0.21275258      -0.34849519
C        3.34963709      -0.46994067      -0.45074715
C        1.66604250      -3.32352825       0.32281442
C        0.19008075      -3.26138803      -1.67858555
C       -0.07697267      -1.23958772      -3.58634271
C        2.00948138       2.63260437      -0.24492929
C        2.65351500      -2.46279464      -1.22363476
C        2.67319236       1.62258686       0.45781231
C       -2.12713297       1.90035399      -3.19058740
C        2.57986867       1.10752225      -1.83682304
C        0.63995602      -3.31428520       1.26135255
C        0.01060936       1.10295537      -3.53977413
C       -1.88728106       3.26699098      -0.29873088
C       -1.82420305      -2.35844521      -0.84617001
C        0.54100515      -2.42550683       2.36553975
C        0.73119600      -0.10434312      -3.13120279
C        0.83101493       3.24679187       0.19720588
C       -2.73555402       1.05213595       0.40043859
C        0.17697440       3.57617675      -1.10485609
60
Properties=species:S:1:pos:R:3 trajectory=trial0001_proposal001_step005_proposal_relax trajectory_step=39 pbc="F F F"
C       -2.25123726      -1.64573118       1.60779186
C        1.39041674      -3.30546544      -1.19345734
C        1.87847140      -0.49859164       1.33930398
C       -1.15764488       3.66630425      -1.44237846
C       -1.62141909       3.65294059       1.18325767
C        2.76748088      -2.55871822       0.12732121
C       -2.11036128      -0.70459740       2.77179538
C       -0.67469358      -2.52790015       2.96822816
C        1.95632702       2.31311246      -1.70425030
C       -1.32907720       3.05539172      -2.81938443
C        0.58593720       2.97620542       1.59223632
C        3.30843116       0.82808186      -0.74134625
C       -2.45035555      -1.42656662       0.21973839
C        0.83839750       2.93038280      -2.19576429
C        1.84308414      -0.12865217      -2.37670133
C        0.15176297      -0.37906676       3.16185167
C        2.65496130      -1.15359624      -1.72047807
C       -2.66007443       1.47298701      -1.84116151
C       -2.50265064       2.07683986      -0.50665036
C       -0.68634148      -3.48342475       0.79972365
C       -1.45378761       0.89219412      -3.87821182
C       -2.33312675      -0.83059483      -2.65010550
C       -2.32663091       2.91751847       2.17629117
C       -2.19212999       0.75365829       2.91007559
C       -1.12266130       1.59006807       3.52337236
C        0.12901209       1.05513367       3.15305099
C       -1.56831549      -0.52872858      -3.81438553
C       -0.98459289      -1.21885161       3.47369025
C       -2.82883038       0.08403255      -1.67653280
C        2.83546977      -1.19865562       0.55907101
C       -0.51465460      -2.37793596      -2.73263476
C       -0.88726574      -3.26851643      -0.57017795
C       -1.32063909       2.99139532       3.21316885
C       -0.04396508       2.49952956      -3.14273690
C        0.94240944      -1.09608813       2.22955260
C       -1.73453780      -1.95486002      -2.12439183
C       -2.63982354       1.54582476       1.86169792
C       -0.52147004       3.63402599       2.16645680
C        0.95946099       1.70477856       2.14734425
C        1.92521771       0.92996505       1.34299239
C       -1.52932616      -2.86284888       1.85213763
C       -2.86239707      -0.16117755      -0.25165765
C        3.29968465      -0.53483366      -0.59658941
C        1.63687970      -3.38191642       0.23631672
C        0.08220653      -3.23232995      -1.68948339
C       -0.22382911      -1.22557159      -3.61053355
C        2.04379635       2.58299178      -0.31158060
C        2.55777176      -2.51235130      -1.35122532
C        2.72488717       1.56415612       0.34511423
C       -2.20541850       1.94412344      -3.09423667
C        2.51366511       1.07231314      -1.94142257
C        0.64457718      -3.33713327       1.21104640
C       -0.11286630       1.10871292      -3.52593159
C       -1.84614842       3.27782196      -0.22342935
C       -1.86188272      -2.28693687      -0.77869210
C        0.59735049      -2.45227878       2.31555852
C        0.60201668      -0.10277485      -3.15877757
C        0.89132464       3.21616614       0.17259579
C       -2.74996153       1.10613494       0.50401234
C        0.18773436       3.57419498      -1.09231789
60
Properties=species:S:1:pos:R:3 trajectory=trial0001_proposal001_step005_proposal_relax trajectory_step=40 pbc="F F F"
C       -2.20958676      -1.60790120       1.68917272
C        1.30272597      -3.35086468      -1.28680605
C        1.95064073      -0.54653872       1.25733136
C       -1.16197493       3.68578367      -1.37516295
C       -1.51912199       3.65732302       1.27464786
C        2.74606433      -2.62172991      -0.02022664
C       -2.00035857      -0.67366253       2.85163741
C       -0.58802996      -2.52872288       2.97982151
C        1.93793806       2.28104571      -1.78179782
C       -1.39593986       3.09030093      -2.75821613
C        0.71589448       2.94991723       1.58483231
C        3.31298765       0.76004398      -0.88766086
C       -2.47692789      -1.37109814       0.30429417
C        0.80685117       2.91358107      -2.21603066
C        1.75181247      -0.15941947      -2.47290112
C        0.29409684      -0.39926769       3.15945673
C        2.57454256      -1.20552518      -1.85706918
C       -2.74745446       1.52794975      -1.74221773
C       -2.53795984       2.12688908      -0.40355860
C       -0.70455919      -3.47312529       0.80094891
C       -1.60317266       0.92682967      -3.82905988
C       -2.47068973      -0.77773902      -2.57784143
C       -2.21135983       2.95750632       2.30190632
C       -2.06383807       0.77964473       3.00170365
C       -0.94737787       1.59398569       3.56797064
C        0.28868585       1.03371835       3.14985202
C       -1.73970572      -0.49075349      -3.77518981
C       -0.85170119      -1.21503958       3.50994783
C       -2.94463063       0.13879772      -1.58356025
C        2.85505592      -1.26410125       0.42220129
C       -0.65535531      -2.34832202      -2.73973377
C       -0.95653236      -3.22830676      -0.56110129
C       -1.13619087       3.00135811       3.28984737
C       -0.13237038       2.50076242      -3.13744222
C        1.03533935      -1.13108696       2.18772244
C       -1.84576968      -1.89528085      -2.07184720
C       -2.57878469       1.59011339       1.97538744
C       -0.36859225       3.62173246       2.20345016
C        1.09711021       1.67124110       2.11744748
C        2.02181924       0.88063551       1.26940064
C       -1.49832164      -2.84297948       1.89634295
C       -2.91771738      -0.10988915      -0.14594506
C        3.27909323      -0.60046714      -0.75516167
C        1.61363450      -3.43660201       0.14120366
C       -0.02839463      -3.21804082      -1.72018027
C       -0.38586538      -1.21410347      -3.64299573
C        2.09081736       2.54092033      -0.38531358
C        2.47526926      -2.56529510      -1.49171264
C        2.78892390       1.50370638       0.23433071
C       -2.30403859       1.99228433      -3.00328846
C        2.46771011       1.02736850      -2.05570206
C        0.65090227      -3.36297880       1.15709926
C       -0.23611326       1.12178461      -3.53275452
C       -1.81742886       3.30351061      -0.13379004
C       -1.92508767      -2.22793611      -0.72030462
C        0.66403608      -2.47767925       2.27143486
C        0.47812431      -0.10912611      -3.21562369
C        0.96452797       3.18900716       0.15062735
C       -2.77062074       1.16232203       0.61853531
C        0.20759146       3.56381049      -1.08019470
60
Properties=species:S:1:pos:R:3 trajectory=trial0001_proposal001_step005_proposal_relax trajectory_step=41 pbc="F F F"
C       -2.13789819      -1.57038040       1.77018349
C        1.19777501      -3.40746951      -1.36052495
C        2.00496370      -0.59439959       1.15625546
C       -1.15922311       3.71539710      -1.31280083
C       -1.40771910       3.62948364       1.33403506
C        2.69125255      -2.68331192      -0.15436309
C       -1.85589808      -0.64592215       2.91372114
C       -0.49361052      -2.53815425       2.98102978
C        1.91715827       2.24300807      -1.85096226
C       -1.45949205       3.13357305      -2.68225703
C        0.84938420       2.91221152       1.54321989
C        3.27362169       0.68866527      -1.03859818
C       -2.46789103      -1.31220512       0.40767337
C        0.74726927       2.89874523      -2.21838701
C        1.63486689      -0.18803111      -2.55520731
C        0.45149367      -0.43183241       3.14362682
C        2.45629949      -1.25510134      -1.97420123
C       -2.83265771       1.58396417      -1.62757052
C       -2.55630340       2.17451493      -0.29538028
C       -0.72750567      -3.46676843       0.80935743
C       -1.74810213       0.97186091      -3.74782050
C       -2.60631590      -0.71006036      -2.49018452
C       -2.06960612       2.97869987       2.39631358
C       -1.89854918       0.78996146       3.05714954
C       -0.75468040       1.58524008       3.56616757
C        0.45743851       1.00814721       3.11855225
C       -1.90772831      -0.43883382      -3.71481108
C       -0.69778402      -1.21612931       3.53830684
C       -3.05861703       0.18949491      -1.47601871
C        2.83890310      -1.33636897       0.28382354
C       -0.78492114      -2.28418918      -2.70933841
C       -1.00999148      -3.17079324      -0.53016052
C       -0.93801109       2.99213856       3.31514111
C       -0.22731591       2.50034884      -3.10306793
C        1.11879738      -1.16986829       2.13038187
C       -1.92661542      -1.81936219      -1.98740793
C       -2.48682791       1.62153678       2.08167260
C       -0.21444197       3.58140191       2.18668599
C        1.23514952       1.62485603       2.05114315
C        2.10067973       0.82598650       1.16963319
C       -1.46300092      -2.83135003       1.94622599
C       -2.94890790      -0.04429295      -0.02432398
C        3.21673933      -0.66536564      -0.90882404
C        1.57062246      -3.51282272       0.06317304
C       -0.13226358      -3.17452043      -1.71743892
C       -0.55439186      -1.18724755      -3.65788691
C        2.12445779       2.52100556      -0.47033827
C        2.36225557      -2.61555914      -1.60600884
C        2.82857271       1.43842991       0.11084012
C       -2.39095367       2.05307360      -2.89895365
C        2.38186495       0.99137289      -2.15622582
C        0.64250192      -3.39269932       1.09959313
C       -0.36617284       1.14850327      -3.50892337
C       -1.77972969       3.31487532      -0.06292006
C       -1.96474174      -2.14645609      -0.64881027
C        0.71737696      -2.49955470       2.20710031
C        0.34937665      -0.10409661      -3.26673430
C        1.04071543       3.16622813       0.11609019
C       -2.76097398       1.21503604       0.73396342
C        0.21993218       3.55567756      -1.06644832
60
Properties=species:S:1:pos:R:3 trajectory=trial0001_proposal001_step005_proposal_relax trajectory_step=42 pbc="F F F"
C       -2.06856972      -1.53346011       1.86061534
C        1.09104159      -3.46370018      -1.43269046
C        2.05975225      -0.64954875       1.05104897
C       -1.15681390       3.74402200      -1.24413220
C       -1.30032853       3.60987662       1.38253967
C        2.63319946      -2.75539181      -0.28388529
C       -1.71021338      -0.62485385       2.97766401
C       -0.39235590      -2.54540612       2.98533638
C        1.87874055       2.22816198      -1.93203629
C       -1.52815525       3.17314132      -2.60023713
C        0.98304427       2.87280495       1.49544141
C        3.22683519       0.62007200      -1.18672719
C       -2.45634026      -1.24312244       0.51920474
C        0.70336671       2.87710938      -2.21685574
C        1.52178969      -0.22244012      -2.65310159
C        0.61763374      -0.46246981       3.12365749
C        2.32719457      -1.30640284      -2.09341170
C       -2.92096002       1.64704384      -1.50414017
C       -2.56238843       2.22395482      -0.17985644
C       -0.76067187      -3.46488691       0.81807118
C       -1.89662538       1.03003519      -3.66334843
C       -2.74184881      -0.65184856      -2.39339592
C       -1.92784187       2.98884887       2.48717924
C       -1.72884502       0.80484546       3.11326037
C       -0.55761640       1.57202121       3.56928143
C        0.63589504       0.97869089       3.08562394
C       -2.08845590      -0.38011922      -3.65474857
C       -0.53587671      -1.22254470       3.56387230
C       -3.16330375       0.25525071      -1.34355543
C        2.82855765      -1.40919913       0.14158693
C       -0.91461044      -2.21538611      -2.67170420
C       -1.07026013      -3.11744542      -0.49938116
C       -0.73913439       2.97815563       3.33103252
C       -0.31838110       2.51035407      -3.06688401
C        1.21229690      -1.20590138       2.05923289
C       -2.02443217      -1.72916950      -1.91614820
C       -2.37447617       1.64816657       2.19494772
C       -0.06493356       3.53301535       2.16193973
C        1.37437553       1.57816066       1.98163250
C        2.18131771       0.76862646       1.06106653
C       -1.42772303      -2.82234736       2.00165697
C       -2.96708279       0.01685312       0.11143180
C        3.15660950      -0.73800705      -1.06409167
C        1.52392147      -3.59406134      -0.02498786
C       -0.24287055      -3.12859902      -1.71430294
C       -0.73976251      -1.14773955      -3.66790597
C        2.18623606       2.49584751      -0.56384476
C        2.23946449      -2.67237249      -1.71448926
C        2.86019706       1.38621268      -0.02550296
C       -2.49850950       2.11709275      -2.78421351
C        2.29684167       0.93523039      -2.25902231
C        0.63003836      -3.42363207       1.04539295
C       -0.50160024       1.16999102      -3.49240787
C       -1.74639084       3.33440732       0.01514498
C       -2.00523562      -2.07451610      -0.56404827
C        0.76942954      -2.52610207       2.13519085
C        0.22070191      -0.09330636      -3.33564704
C        1.11808125       3.15745271       0.07753900
C       -2.73666603       1.26577294       0.85850593
C        0.23334767       3.54305389      -1.05423550
60
Properties=species:S:1:pos:R:3 trajectory=trial0001_proposal001_step005_proposal_relax trajectory_step=43 pbc="F F F"
C       -1.99121140      -1.50250951       1.94812956
C        0.97085082      -3.50858758      -1.47406516
C        2.10057746      -0.70567924       0.94006146
C       -1.15366795       3.75718028      -1.18234467
C       -1.19831568       3.59730704       1.38878022
C        2.55607663      -2.83346963      -0.37851049
C       -1.55581233      -0.62873769       3.01995948
C       -0.29455131      -2.55280699       2.97786791
C        1.84386625       2.19931467      -2.02275209
C       -1.57286509       3.19788879      -2.50685337
C        1.09700518       2.82723427       1.42382465
C        3.13927193       0.55411650      -1.30901666
C       -2.41902419      -1.17353879       0.62651763
C        0.65510852       2.86393049      -2.21080838
C        1.40557913      -0.25199887      -2.75286148
C        0.77414772      -0.49522603       3.07363817
C        2.17516564      -1.36114785      -2.17109895
C       -2.99347272       1.71709110      -1.37432710
C       -2.55333475       2.25570667      -0.07271924
C       -0.79037076      -3.46422643       0.84591421
C       -2.02519568       1.10099766      -3.55893949
C       -2.84600410      -0.58368094      -2.27790642
C       -1.78358389       2.97466226       2.52446280
C       -1.55129455       0.80794553       3.13457462
C       -0.37487600       1.54315852       3.54381668
C        0.80717681       0.93351690       3.03248582
C       -2.25415366      -0.30448622      -3.57214165
C       -0.37802087      -1.24361558       3.55459462
C       -3.21874039       0.32707473      -1.18654671
C        2.80651299      -1.47726275       0.01797320
C       -1.01543384      -2.12741605      -2.60739439
C       -1.12658638      -3.06207154      -0.45861406
C       -0.55576039       2.93658779       3.29102660
C       -0.39955430       2.52700765      -3.02604768
C        1.29286365      -1.24945657       1.97609904
C       -2.10307862      -1.64243598      -1.81399711
C       -2.23436064       1.64543878       2.27431227
C        0.04643829       3.46907588       2.09649517
C        1.48861826       1.53308365       1.90208584
C        2.23391496       0.71584511       0.94215138
C       -1.38123603      -2.81143149       2.05493685
C       -2.95499324       0.06141418       0.25148631
C        3.07541590      -0.80372501      -1.19727760
C        1.45635463      -3.67105320      -0.09333250
C       -0.33989075      -3.07615566      -1.68357987
C       -0.91862288      -1.08125155      -3.63548759
C        2.23741445       2.49940122      -0.66825462
C        2.09793730      -2.71519350      -1.78025414
C        2.85652101       1.34759433      -0.16350761
C       -2.60368969       2.18161469      -2.66402873
C        2.18645452       0.90458921      -2.33334631
C        0.60456796      -3.46029548       1.00044145
C       -0.61957473       1.20893617      -3.45871961
C       -1.70887322       3.36441815       0.07528378
C       -2.02442341      -2.00487227      -0.47544657
C        0.81516795      -2.54814920       2.06305436
C        0.09023401      -0.06961401      -3.40914538
C        1.20250124       3.16144077       0.01374959
C       -2.68257439       1.30924018       0.96968681
C        0.24803737       3.52757475      -1.03592946
60
Properties=species:S:1:pos:R:3 trajectory=trial0001_proposal001_step005_proposal_relax trajectory_step=44 pbc="F F F"
C       -1.93290122      -1.46535988       2.02764074
C        0.85825225      -3.54693650      -1.54897047
C        2.16345597      -0.75940213       0.84127241
C       -1.14409055       3.76408459      -1.11443015
C       -1.08662044       3.61192896       1.45394682
C        2.51144768      -2.90198970      -0.51469179
C       -1.41980851      -0.61102894       3.08964000
C       -0.19403212      -2.56081830       2.97448748
C        1.80950119       2.17062699      -2.11177171
C       -1.63337625       3.21759159      -2.42356562
C        1.22323805       2.79449714       1.38743475
C        3.09877153       0.48963719      -1.45581028
C       -2.41655662      -1.11936239       0.72971695
C        0.61087044       2.84907147      -2.23620406
C        1.29036219      -0.28046816      -2.86088808
C        0.92323783      -0.53093138       3.03810981
C        2.05388664      -1.40953457      -2.29142609
C       -3.07762223       1.78232537      -1.24742676
C       -2.56842980       2.30829279       0.04415351
C       -0.81251497      -3.44973669       0.85598410
C       -2.17446716       1.15514205      -3.48175200
C       -2.96485422      -0.51289018      -2.17028730
C       -1.64298442       2.99462386       2.61176629
C       -1.39383213       0.82079990       3.19435555
C       -0.17886943       1.52869492       3.56015676
C        0.97934944       0.90099639       3.00809436
C       -2.43198415      -0.24671556      -3.50115668
C       -0.22679617      -1.25221044       3.56396588
C       -3.29990212       0.38963119      -1.05698125
C        2.81200106      -1.55342852      -0.12818483
C       -1.15379184      -2.07510993      -2.57951452
C       -1.19134698      -3.02001007      -0.42403555
C       -0.36505991       2.92056628       3.32275432
C       -0.48370535       2.54396680      -3.00761538
C        1.38922256      -1.28998041       1.91322040
C       -2.20436397      -1.57280688      -1.73425072
C       -2.13344005       1.67261132       2.38920678
C        0.19706443       3.43981642       2.09615565
C        1.62493129       1.49366952       1.84808348
C        2.31499877       0.66483128       0.84574843
C       -1.33325701      -2.78562189       2.09849642
C       -2.99265618       0.12177594       0.37597491
C        3.02166524      -0.88259067      -1.35675289
C        1.39807486      -3.73093315      -0.18142736
C       -0.46039740      -3.05093166      -1.69133302
C       -1.10122710      -1.04283608      -3.62381848
C        2.28815761       2.46440385      -0.77129429
C        1.98035573      -2.76861674      -1.89636013
C        2.89500983       1.29361157      -0.29186719
C       -2.70569161       2.24056406      -2.55881214
C        2.10742608       0.85289332      -2.44284544
C        0.60511607      -3.49206140       0.95269118
C       -0.75268219       1.23614616      -3.45046993
C       -1.67672806       3.39252877       0.15861961
C       -2.07213167      -1.93552183      -0.39372198
C        0.88318884      -2.58324479       2.01042488
C       -0.05354216      -0.05727391      -3.46453400
C        1.28592379       3.14304259      -0.02496468
C       -2.67257421       1.35708985       1.07882641
C        0.26736536       3.51318327      -1.02561071
60
Properties=species:S:1:pos:R:3 trajectory=trial0001_proposal001_step005_proposal_relax trajectory_step=45 pbc="F F F"
C       -1.87329826      -1.45063069       2.08465083
C        0.72100146      -3.55365388      -1.57096920
C        2.20991630      -0.80175468       0.74378467
C       -1.11712673       3.74469534      -1.06499730
C       -1.00264648       3.64498633       1.47894173
C        2.44368293      -2.96622496      -0.60860086
C       -1.29176830      -0.60763776       3.13724393
C       -0.09839712      -2.58221327       2.94527786
C        1.74829752       2.17940962      -2.19683177
C       -1.67301141       3.21388144      -2.33329592
C        1.31248874       2.76314658       1.31529132
C        3.00491520       0.42355669      -1.57282532
C       -2.38849699      -1.09122860       0.83402462
C        0.59779161       2.83764944      -2.26470786
C        1.17742432      -0.29344622      -2.95885978
C        1.03964527      -0.58218012       2.95837341
C        1.92032796      -1.43451963      -2.36441125
C       -3.12738379       1.84451364      -1.10619426
C       -2.54583310       2.37752707       0.16158002
C       -0.82632948      -3.43316813       0.87476884
C       -2.29268969       1.21930802      -3.39125667
C       -3.02496053      -0.43118437      -2.02492954
C       -1.49373970       2.98772225       2.63472661
C       -1.23885329       0.79111566       3.20887189
C       -0.01057751       1.49416348       3.54527749
C        1.12451113       0.86422171       2.96129335
C       -2.57651053      -0.17549609      -3.38266654
C       -0.08611719      -1.26881505       3.53188784
C       -3.30497089       0.44539554      -0.92172739
C        2.80852515      -1.63089848      -0.24154465
C       -1.27003930      -2.00899485      -2.51301738
C       -1.23812717      -2.99660129      -0.36248117
C       -0.22023772       2.87898967       3.29364889
C       -0.55916306       2.57173258      -2.99136226
C        1.47204302      -1.33301638       1.83287356
C       -2.26865326      -1.50854293      -1.64852106
C       -2.01361065       1.67332562       2.44563263
C        0.31318711       3.40849288       2.05656700
C        1.72653625       1.45542167       1.76910630
C        2.35523498       0.63196530       0.74274316
C       -1.27345764      -2.76021742       2.12824555
C       -2.98509031       0.17780736       0.49774275
C        2.93428514      -0.94193516      -1.48324941
C        1.31524041      -3.76542825      -0.24077165
C       -0.57247550      -3.02720041      -1.67027812
C       -1.26755136      -0.98124523      -3.55285147
C        2.32607932       2.45212428      -0.89879427
C        1.84427835      -2.81303537      -1.95044683
C        2.89259569       1.25169598      -0.40641474
C       -2.77234208       2.30316703      -2.45796927
C        2.00954788       0.79284111      -2.53265407
C        0.58755221      -3.52303759       0.93181642
C       -0.86953098       1.28414463      -3.44187991
C       -1.66104911       3.41443665       0.21639432
C       -2.09777471      -1.88322636      -0.29870959
C        0.94366340      -2.63510827       1.95911422
C       -0.19456932      -0.01768704      -3.50048668
C        1.36385396       3.13541053      -0.07803837
C       -2.60765550       1.38371400       1.18424299
C        0.29205275       3.49205934      -1.03422707
60
Properties=species:S:1:pos:R:3 trajectory=trial0001_proposal001_step005_proposal_relax trajectory_step=46 pbc="F F F"
C       -1.82428888      -1.42884033       2.14567603
C        0.61869723      -3.56399487      -1.61399495
C        2.25877856      -0.84392746       0.67002934
C       -1.10000560       3.73141421      -1.01755970
C       -0.91578212       3.67217637       1.52799912
C        2.40241862      -3.01652784      -0.71032376
C       -1.19936700      -0.60788447       3.17976822
C       -0.02407002      -2.58897625       2.93412543
C        1.72835649       2.14008118      -2.27112742
C       -1.70527505       3.22252113      -2.27162741
C        1.39744271       2.74137556       1.28668030
C        2.96291260       0.37373149      -1.67926129
C       -2.39994426      -1.04787961       0.90115854
C        0.55471711       2.84208350      -2.29540576
C        1.08056120      -0.30686733      -3.03270524
C        1.13698076      -0.60568098       2.91467967
C        1.82730166      -1.47177638      -2.45062641
C       -3.17224754       1.89544115      -1.01451243
C       -2.56444098       2.41655743       0.24754889
C       -0.82716258      -3.41561366       0.89297313
C       -2.39716499       1.25917554      -3.33431556
C       -3.08799043      -0.37674063      -1.92735826
C       -1.38159434       3.00044465       2.69714914
C       -1.12356282       0.79975684       3.25075773
C        0.12773288       1.47627197       3.55256017
C        1.24519718       0.83301367       2.93346822
C       -2.69539641      -0.12841426      -3.30320291
C        0.02241518      -1.28392449       3.52077224
C       -3.34365227       0.50036859      -0.82278909
C        2.81240469      -1.68265038      -0.34669700
C       -1.37698559      -1.98383151      -2.48409338
C       -1.29083168      -2.96381756      -0.33892328
C       -0.07886417       2.86892323       3.31021210
C       -0.61860643       2.59082863      -2.98504900
C        1.54375734      -1.37365057       1.78108528
C       -2.33839113      -1.46153968      -1.57193296
C       -1.93892820       1.69046252       2.51014502
C        0.42408886       3.40153972       2.06609953
C        1.81917359       1.42884521       1.72825064
C        2.41011605       0.59621778       0.67231810
C       -1.22592649      -2.73717130       2.14694183
C       -3.00474467       0.20683677       0.58482298
C        2.88102216      -0.99309400      -1.59710300
C        1.26727528      -3.78731086      -0.30276714
C       -0.67283509      -3.01944603      -1.67005849
C       -1.39890608      -0.94929235      -3.52181497
C        2.35042868       2.41523478      -0.97839943
C        1.75325296      -2.84178603      -2.03702873
C        2.91578332       1.20955008      -0.51172164
C       -2.83492609       2.33970056      -2.36966492
C        1.94737440       0.77236202      -2.61586371
C        0.58724884      -3.54852063       0.90347691
C       -0.97430071       1.30402112      -3.44417684
C       -1.62337342       3.44667356       0.28275017
C       -2.12555807      -1.84604424      -0.23888138
C        1.00566968      -2.66917588       1.93075075
C       -0.31567913       0.00020294      -3.51589365
C        1.42062404       3.11221371      -0.12068675
C       -2.59336790       1.41941990       1.27155509
C        0.31308020       3.47722698      -1.04003944
60
Properties=species:S:1:pos:R:3 trajectory=trial0001_proposal001_step005_proposal_relax trajectory_step=47 pbc="F F F"
C       -1.81061631      -1.43470739       2.14936721
C        0.57423750      -3.52580305      -1.59493820
C        2.26971811      -0.85653684       0.65444961
C       -1.07411297       3.69172296      -1.01105717
C       -0.89135913       3.71007287       1.54077473
C        2.38000376      -3.01198797      -0.72710280
C       -1.19444713      -0.63351687       3.16899872
C       -0.00784269      -2.59532513       2.91616050
C        1.71954955       2.11551865      -2.30084211
C       -1.68612786       3.21167937      -2.25860164
C        1.38852207       2.74451117       1.27378585
C        2.92592890       0.37575820      -1.69393029
C       -2.41493115      -1.05163780       0.90718714
C        0.53998348       2.86224151      -2.33500337
C        1.03575580      -0.29066393      -3.03023134
C        1.12745888      -0.60906098       2.86580064
C        1.79762269      -1.47479298      -2.45884633
C       -3.13971680       1.91260537      -0.99240855
C       -2.56866604       2.42808512       0.27124984
C       -0.80456474      -3.39928566       0.90401251
C       -2.40999277       1.27026200      -3.32144472
C       -3.04828132      -0.35506382      -1.87206719
C       -1.35052699       2.99717473       2.69069523
C       -1.11412645       0.79686386       3.24741691
C        0.14070604       1.46107018       3.53842171
C        1.24830506       0.81492317       2.90308971
C       -2.68713439      -0.11145553      -3.23000844
C        0.03259956      -1.30305278       3.48082118
C       -3.29926962       0.52366762      -0.79034495
C        2.80840806      -1.68571140      -0.36888380
C       -1.40598682      -2.00298079      -2.45925216
C       -1.30176077      -2.96873319      -0.32433515
C       -0.05195615       2.86015442       3.29887033
C       -0.62179273       2.60475486      -3.00278462
C        1.55533413      -1.40025867       1.75923881
C       -2.33293364      -1.47070557      -1.51803094
C       -1.89988818       1.68544206       2.50045575
C        0.44519678       3.43135834       2.07497421
C        1.81536755       1.43077187       1.71017669
C        2.40831172       0.59102361       0.65463736
C       -1.19232792      -2.72870979       2.12659328
C       -2.98248600       0.19896111       0.59686478
C        2.83733079      -1.00117399      -1.60240058
C        1.23225428      -3.74816527      -0.30002259
C       -0.72123794      -3.03673634      -1.65388078
C       -1.41718576      -0.93569787      -3.46254022
C        2.32712162       2.38670358      -1.00461675
C        1.71685217      -2.82885153      -2.04814768
C        2.90373190       1.19591732      -0.54946793
C       -2.81469382       2.33400132      -2.33465139
C        1.92546213       0.79156861      -2.63794970
C        0.59432405      -3.55742522       0.91043932
C       -1.00135694       1.32104138      -3.45935306
C       -1.59059475       3.47017010       0.30047702
C       -2.12345835      -1.85967232      -0.22289056
C        1.04144992      -2.69541840       1.94185827
C       -0.36315724       0.01745350      -3.46312556
C        1.41671865       3.08844221      -0.15908622
C       -2.57383460       1.42227386       1.27724865
C        0.32875513       3.46722934      -1.06767015
60
Properties=species:S:1:pos:R:3 trajectory=trial0001_proposal001_step005_proposal_relax trajectory_step=48 pbc="F F F"
C       -1.74645157      -1.41023753       2.22290080
C        0.44185604      -3.53697904      -1.64064971
C        2.33128251      -0.91428743       0.55062240
C       -1.04849729       3.67932630      -0.94385354
C       -0.77676621       3.72928173       1.59991729
C        2.30775332      -3.07365636      -0.85830519
C       -1.06291982      -0.63047871       3.22110762
C        0.09495627      -2.61105800       2.90149321
C        1.67520812       2.08642453      -2.39669119
C       -1.72610109       3.23502174      -2.17532993
C        1.49535844       2.71475961       1.21857159
C        2.85531734       0.30045853      -1.84258864
C       -2.41604771      -1.00629462       1.01271265
C        0.50722820       2.85405002      -2.37615447
C        0.90203348      -0.30394188      -3.11106455
C        1.25972623      -0.64309504       2.80210239
C        1.66350817      -1.51833132      -2.56966286
C       -3.18626365       1.98145910      -0.86161165
C       -2.56993570       2.49178487       0.39405592
C       -0.80847826      -3.38346593       0.91804903
C       -2.55426376       1.33012439      -3.23708755
C       -3.13031099      -0.28254897      -1.73680062
C       -1.19663064       3.00790922       2.76775707
C       -0.96048709       0.79871591       3.29698961
C        0.32000319       1.43927968       3.53096980
C        1.40082808       0.77580141       2.84864295
C       -2.83565228      -0.04797168      -3.11205830
C        0.17802959      -1.31884049       3.46641067
C       -3.34781264       0.59540087      -0.65042956
C        2.79683981      -1.75189951      -0.50742129
C       -1.55071971      -1.96092998      -2.40752762
C       -1.36455632      -2.93316033      -0.28159664
C        0.14130994       2.84052687       3.30795475
C       -0.71466056       2.62344280      -2.99595714
C        1.64688249      -1.45373202       1.68152181
C       -2.41559503      -1.40593804      -1.41315629
C       -1.77387101       1.70540076       2.58496706
C        0.59264117       3.41982471       2.06570626
C        1.93172875       1.39249946       1.63350701
C        2.47897583       0.53924603       0.54475507
C       -1.13218590      -2.71006078       2.15944277
C       -2.97958399       0.25028601       0.72458443
C        2.74828545      -1.05496517      -1.74949270
C        1.16610970      -3.77589973      -0.38033360
C       -0.85664302      -3.01810418      -1.64004619
C       -1.59488784      -0.89457687      -3.41624102
C        2.34624712       2.34874377      -1.11174296
C        1.57679699      -2.86872980      -2.15234149
C        2.92371213       1.13241285      -0.68778219
C       -2.88240412       2.38614463      -2.21012008
C        1.83035261       0.76039698      -2.74918623
C        0.58775752      -3.59191146       0.87060653
C       -1.13775373       1.36115340      -3.46089984
C       -1.53786848       3.50313106       0.38480711
C       -2.16285421      -1.80879647      -0.13267750
C        1.11977991      -2.74348728       1.89103486
C       -0.51461165       0.03991825      -3.47618504
C        1.48402066       3.05311366      -0.22509178
C       -2.53331250       1.47083686       1.39824729
C        0.35424343       3.44679615      -1.08120393
60
Properties=species:S:1:pos:R:3 trajectory=trial0001_proposal001_step005_proposal_relax trajectory_step=49 pbc="F F F"
C       -1.67949936      -1.39744418       2.29693232
C        0.30137799      -3.54227308      -1.67360265
C        2.38644710      -0.97261912       0.44413911
C       -1.01433647       3.66769314      -0.88032124
C       -0.66195671       3.73695779       1.65204623
C        2.22293686      -3.12285577      -0.98318699
C       -0.92843816      -0.62634448       3.26317044
C        0.20006805      -2.63271907       2.88386920
C        1.63304725       2.06977882      -2.48970961
C       -1.75808165       3.26281723      -2.09060532
C        1.59262037       2.68255381       1.14439210
C        2.76993132       0.24209111      -1.98928657
C       -2.40320335      -0.97058326       1.12602655
C        0.45845637       2.84813308      -2.42742791
C        0.75927682      -0.31218609      -3.17495811
C        1.38687980      -0.68328196       2.72851071
C        1.51767653      -1.55194530      -2.66990930
C       -3.21483990       2.05114260      -0.71692634
C       -2.54717461       2.55774628       0.52260294
C       -0.81176695      -3.37533263       0.93289609
C       -2.69372377       1.39518396      -3.14456839
C       -3.20148113      -0.21299819      -1.58996710
C       -1.03143726       3.01538159       2.83519737
C       -0.80499812       0.78743597       3.34094580
C        0.49681306       1.41403726       3.50605207
C        1.53911870       0.74033189       2.77155651
C       -2.96900346       0.02032709      -2.97957154
C        0.32246474      -1.33247685       3.44377321
C       -3.38173424       0.66549022      -0.49797839
C        2.76594017      -1.81525773      -0.65198667
C       -1.69372377      -1.91481031      -2.33958115
C       -1.42544687      -2.90478600      -0.23085640
C        0.33280945       2.81917779       3.29869223
C       -0.79523469       2.64869651      -2.98475945
C        1.73353664      -1.50552614       1.59706186
C       -2.49583132      -1.33654123      -1.30844270
C       -1.63328372       1.72118522       2.65345517
C        0.73499626       3.40582858       2.03697662
C        2.03442054       1.35225756       1.53541735
C        2.54149349       0.48342887       0.42505995
C       -1.07123512      -2.70063984       2.19637144
C       -2.94776697       0.31251450       0.86119849
C        2.63814021      -1.11187830      -1.88775408
C        1.09387493      -3.79924370      -0.45280523
C       -0.98609058      -2.99918900      -1.61324410
C       -1.76808525      -0.85134708      -3.35383328
C        2.35866348       2.30469182      -1.22405274
C        1.42246868      -2.90095987      -2.24467689
C        2.92494379       1.07006089      -0.83381093
C       -2.93263648       2.44290607      -2.08154846
C        1.72555639       0.72290387      -2.85802031
C        0.57995076      -3.62616430       0.83150860
C       -1.27517852       1.40390071      -3.46170839
C       -1.47647372       3.53270462       0.46693118
C       -2.20163634      -1.76674643      -0.02608990
C        1.19023083      -2.79641009       1.83163021
C       -0.66267011       0.06334392      -3.47904422
C        1.53413210       3.01800639      -0.29491027
C       -2.46739440       1.52143041       1.52174679
C        0.37673919       3.42271429      -1.10487131
60
Properties=species:S:1:pos:R:3 trajectory=trial0001_proposal001_step005_proposal_relax trajectory_step=50 pbc="F F F"
C       -1.61019700      -1.40347895       2.37442406
C        0.16585383      -3.53685510      -1.69023517
C        2.43453723      -1.03269947       0.33506374
C       -0.96561556       3.65895410      -0.82210448
C       -0.53701538       3.73369779       1.70018238
C        2.11688212      -3.15239013      -1.10965004
C       -0.79588906      -0.63177693       3.29141657
C        0.30473046      -2.65740028       2.86458308
C        1.57949221       2.06411486      -2.59056746
C       -1.77136591       3.29782634      -2.01150680
C        1.66801267       2.65183809       1.04865532
C        2.67550766       0.18044587      -2.13993996
C       -2.37937483      -0.94313357       1.25356350
C        0.42652895       2.84195339      -2.48709058
C        0.60135705      -0.31263830      -3.20596545
C        1.50015003      -0.72100680       2.64349220
C        1.35585255      -1.57044353      -2.76047733
C       -3.20603262       2.12031590      -0.55991578
C       -2.48722645       2.63119299       0.65597003
C       -0.81115392      -3.37852575       0.95069686
C       -2.81804149       1.46642287      -3.04390761
C       -3.26349011      -0.13783575      -1.43333939
C       -0.85822263       3.01913852       2.90111206
C       -0.65886057       0.77957827       3.37955300
C        0.66818987       1.38803685       3.45765253
C        1.64551083       0.70744533       2.65585444
C       -3.07337232       0.09059429      -2.82410559
C        0.45829718      -1.34757114       3.40674425
C       -3.39315630       0.73629383      -0.32619091
C        2.70294146      -1.86689530      -0.80260879
C       -1.83843094      -1.87653561      -2.25334056
C       -1.48844344      -2.89181238      -0.16681352
C        0.52916709       2.80152238       3.27671035
C       -0.88454467       2.67645473      -2.98505860
C        1.81226873      -1.56017914       1.50765822
C       -2.56600318      -1.28967792      -1.17954363
C       -1.47028479       1.73718218       2.71840475
C        0.87667844       3.39413609       1.99207507
C        2.11236541       1.30862128       1.40743197
C        2.59619302       0.42241463       0.29334123
C       -1.00514947      -2.71117850       2.23563696
C       -2.87228747       0.37794521       1.00401625
C        2.50417410      -1.14182632      -2.01946267
C        1.01985424      -3.80753305      -0.52222655
C       -1.12380328      -2.97917569      -1.57089360
C       -1.92640938      -0.81196623      -3.26916753
C        2.34273810       2.25255087      -1.33646219
C        1.24896402      -2.92072764      -2.32990212
C        2.90300426       1.00324292      -0.98099914
C       -2.94963100       2.50057755      -1.94086057
C        1.61478858       0.70149849      -2.96378361
C        0.57342240      -3.65723124       0.79342154
C       -1.41178624       1.44838249      -3.46436141
C       -1.39341234       3.55531983       0.54727994
C       -2.25054270      -1.74303652       0.07727327
C        1.25103491      -2.85110109       1.76633676
C       -0.81026143       0.08545196      -3.45552037
C        1.55513836       2.96937491      -0.37913093
C       -2.36978245       1.57735690       1.64155971
C        0.38680271       3.39504482      -1.14683485
60
Properties=species:S:1:pos:R:3 trajectory=trial0001_proposal001_step005_proposal_relax trajectory_step=51 pbc="F F F"
C       -1.54183176      -1.43015694       2.44535319
C        0.01727283      -3.51703688      -1.68624677
C        2.46879213      -1.09310440       0.22179537
C       -0.91490300       3.65794794      -0.78418796
C       -0.40493669       3.72015724       1.73559586
C        1.99762408      -3.15705018      -1.23525521
C       -0.67217536      -0.64030984       3.30650361
C        0.40110196      -2.68833716       2.83655053
C        1.51650547       2.06178321      -2.69561503
C       -1.76432026       3.33236299      -1.93985043
C        1.71230736       2.61723209       0.93020917
C        2.57869614       0.16369062      -2.28393780
C       -2.33694094      -0.93513746       1.38026592
C        0.38820620       2.84254636      -2.55324950
C        0.44509511      -0.29643922      -3.20367335
C        1.59082012      -0.75745887       2.54014524
C        1.17536758      -1.56557582      -2.82676928
C       -3.14932690       2.18943485      -0.39722576
C       -2.38227132       2.70423902       0.78550648
C       -0.80815459      -3.39363531       0.97435531
C       -2.91457545       1.53464010      -2.92901228
C       -3.29749946      -0.08297345      -1.25604790
C       -0.67593311       3.02518168       2.95053350
C       -0.51706314       0.76160983       3.40269902
C        0.81954285       1.36769831       3.38209303
C        1.70973639       0.67297723       2.50078006
C       -3.14039123       0.16707363      -2.65188661
C        0.57875600      -1.36350013       3.34980824
C       -3.36378170       0.80345773      -0.14744052
C        2.60465993      -1.89340560      -0.94687445
C       -1.97135349      -1.84622106      -2.14789808
C       -1.54878098      -2.90423416      -0.08592205
C        0.72046249       2.78001407       3.23495116
C       -0.95052979       2.70292381      -2.99731408
C        1.87670838      -1.61601976       1.42215735
C       -2.65179342      -1.23963091      -1.06327173
C       -1.30332761       1.75627347       2.77929228
C        1.00201421       3.37549591       1.92812285
C        2.15463849       1.26276784       1.25210821
C        2.63116766       0.36410461       0.15759579
C       -0.93575188      -2.74322403       2.27924354
C       -2.75411492       0.43520100       1.14786095
C        2.34759947      -1.17947719      -2.13389564
C        0.93911732      -3.80498222      -0.57425687
C       -1.24349223      -2.96951527      -1.50797670
C       -2.06436958      -0.77676225      -3.14911520
C        2.28776154       2.20412395      -1.44943783
C        1.06828229      -2.91691742      -2.40512380
C        2.85099438       0.93238014      -1.12341805
C       -2.93097513       2.55286766      -1.79337716
C        1.50053588       0.69357101      -3.06082687
C        0.56372959      -3.68168973       0.75413205
C       -1.53065326       1.50468259      -3.45539645
C       -1.28729534       3.56796605       0.61139253
C       -2.30697238      -1.74180484       0.21628410
C        1.29686153      -2.89252105       1.70346473
C       -0.95043483       0.10646718      -3.40928938
C        1.54747423       2.91083769      -0.48074740
C       -2.23313371       1.63243439       1.75325379
C        0.39590565       3.36327152      -1.19937200
60
Properties=species:S:1:pos:R:3 trajectory=trial0001_proposal001_step005_proposal_relax trajectory_step=52 pbc="F F F"
C       -1.46237398      -1.43783379       2.52785325
C       -0.12079584      -3.51651149      -1.70374017
C        2.50404615      -1.15049088       0.11069864
C       -0.87496999       3.66267265      -0.74710555
C       -0.27393816       3.71597289       1.76395950
C        1.89069237      -3.18723572      -1.36316820
C       -0.53655619      -0.65010752       3.33456164
C        0.49926001      -2.70782665       2.81042718
C        1.45123932       2.05349305      -2.79676086
C       -1.77712578       3.35451432      -1.86354553
C        1.78068722       2.57566660       0.83037914
C        2.48644702       0.11724662      -2.42421814
C       -2.29801945      -0.90713424       1.50298693
C        0.33522610       2.84223413      -2.59805655
C        0.29971299      -0.28985834      -3.24487168
C        1.70024238      -0.79555352       2.44850359
C        1.00080404      -1.57222252      -2.89806668
C       -3.13227613       2.25670606      -0.23922760
C       -2.30931218       2.76108446       0.91147843
C       -0.81399024      -3.40044296       1.00602890
C       -3.01323361       1.60198513      -2.80888143
C       -3.36575120       0.00074567      -1.09748534
C       -0.49506406       3.03238194       3.00100260
C       -0.35632198       0.75627339       3.42304889
C        0.99201531       1.33760859       3.32262066
C        1.81079100       0.63439260       2.38193954
C       -3.24681652       0.24288765      -2.50047363
C        0.71470483      -1.38411789       3.30294576
C       -3.35158595       0.87038239       0.02639908
C        2.53162302      -1.93837654      -1.09312563
C       -2.10197089      -1.80086725      -2.05354326
C       -1.61663351      -2.89201932      -0.01033941
C        0.91396978       2.75516150       3.19733615
C       -1.01161219       2.73663599      -2.98367361
C        1.95510154      -1.66610309       1.33510014
C       -2.73016786      -1.21031917      -0.92625554
C       -1.15303206       1.77605037       2.86459391
C        1.13292120       3.33620894       1.86879025
C        2.22378873       1.21463501       1.12331997
C        2.67027950       0.30783941       0.02970847
C       -0.86940847      -2.75732082       2.32335547
C       -2.68271723       0.48867480       1.28701624
C        2.22228392      -1.21346321      -2.26613701
C        0.85453073      -3.82664038      -0.64051706
C       -1.36911275      -2.94434771      -1.45198164
C       -2.21659519      -0.72516929      -3.05152088
C        2.27527173       2.15135729      -1.57323174
C        0.89429919      -2.93422324      -2.48227982
C        2.81361261       0.88376743      -1.27285155
C       -2.95118733       2.60820721      -1.65549893
C        1.39048078       0.67112894      -3.15892174
C        0.55316676      -3.70277520       0.71584849
C       -1.65768915       1.54477080      -3.43390330
C       -1.19848340       3.58685927       0.67238534
C       -2.35949167      -1.71937118       0.32054867
C        1.34027549      -2.93209685       1.63836677
C       -1.10078332       0.13320026      -3.40126219
C        1.57138379       2.87342992      -0.56455789
C       -2.12552218       1.67966196       1.86473704
C        0.40433741       3.33888649      -1.23259791
60
Properties=species:S:1:pos:R:3 trajectory=trial0001_proposal001_step005_proposal_relax trajectory_step=53 pbc="F F F"
C       -1.38852011      -1.47470025       2.58463301
C       -0.20244615      -3.50271218      -1.67791325
C        2.48433174      -1.18302802       0.02514816
C       -0.83636251       3.69119632      -0.76431517
C       -0.16377652       3.68955889       1.73194737
C        1.76606283      -3.18150842      -1.43406840
C       -0.44231690      -0.67302257       3.32242935
C        0.55067168      -2.72309998       2.77760962
C        1.38279990       2.05915158      -2.86388936
C       -1.74965919       3.36304003      -1.83522323
C        1.77528919       2.52829865       0.72215302
C        2.40169475       0.09133114      -2.50233240
C       -2.22674416      -0.91371929       1.58930516
C        0.28270573       2.85758620      -2.61936337
C        0.19750638      -0.25289577      -3.23410233
C        1.73239067      -0.81754758       2.35689782
C        0.84829895      -1.53220979      -2.88551613
C       -3.03765576       2.28889364      -0.11890966
C       -2.17929050       2.76886275       0.98122498
C       -0.81958860      -3.43066406       1.05018813
C       -3.00244373       1.65146546      -2.67726132
C       -3.37647521       0.04004637      -0.97061304
C       -0.35339567       3.04040261       2.99735195
C       -0.23945253       0.74446237       3.39558429
C        1.08812563       1.30058659       3.21346923
C        1.81129551       0.60549339       2.24323837
C       -3.25924829       0.29970429      -2.35839776
C        0.78127914      -1.40143253       3.23410077
C       -3.25780579       0.90945652       0.16122103
C        2.41231710      -1.93608743      -1.17993631
C       -2.16251677      -1.77151026      -1.93619212
C       -1.66870137      -2.90907499       0.07829384
C        1.03995676       2.73000162       3.11261088
C       -1.03288966       2.76898077      -2.95972286
C        1.98835784      -1.69555363       1.26339208
C       -2.79396603      -1.22192094      -0.79701094
C       -1.04996323       1.79568490       2.92515759
C        1.19224253       3.26904475       1.77058426
C        2.20514243       1.17327619       0.99211373
C        2.64685470       0.27167378      -0.07997654
C       -0.82862692      -2.80230656       2.36221958
C       -2.56447733       0.50672564       1.37771728
C        2.11371065      -1.17840410      -2.32980459
C        0.78360184      -3.82641730      -0.67376017
C       -1.43957352      -2.91675429      -1.35415533
C       -2.27361000      -0.67160656      -2.92284083
C        2.21927089       2.11673103      -1.66838903
C        0.74249751      -2.91438823      -2.49536280
C        2.72661764       0.87258162      -1.36817101
C       -2.90269595       2.63624673      -1.55868897
C        1.30118998       0.67915772      -3.20891054
C        0.53615115      -3.69036823       0.69270081
C       -1.71445280       1.56970700      -3.37398733
C       -1.08993578       3.58783309       0.66641585
C       -2.40253043      -1.74375057       0.40828653
C        1.32644789      -2.94059486       1.57898077
C       -1.18770667       0.15928817      -3.36612031
C        1.54490741       2.84684653      -0.64603867
C       -1.97927702       1.69889830       1.92703434
C        0.38504383       3.33335906      -1.27289583
60
Properties=species:S:1:pos:R:3 trajectory=trial0001_proposal001_step005_proposal_relax trajectory_step=54 pbc="F F F"
C       -1.30672245      -1.47262535       2.66388727
C       -0.34700517      -3.50503041      -1.69477696
C        2.51340677      -1.23659805      -0.09371328
C       -0.80353851       3.69966484      -0.72823573
C       -0.02752232       3.69151881       1.75191995
C        1.65908256      -3.21761795      -1.56077936
C       -0.30077341      -0.68199548       3.35277914
C        0.64331812      -2.73849446       2.74653362
C        1.31445471       2.03643765      -2.96200452
C       -1.76458797       3.37946628      -1.76247688
C        1.84883885       2.47945428       0.63054057
C        2.31504987       0.05397080      -2.63985562
C       -2.19010886      -0.88404705       1.70026898
C        0.24094128       2.86044568      -2.65048361
C        0.05355277      -0.24542557      -3.29574668
C        1.83799484      -0.85360072       2.26678364
C        0.68605110      -1.54130736      -2.94844556
C       -3.02477268       2.35028460       0.03026832
C       -2.11006053       2.81181487       1.09641118
C       -0.82813275      -3.43123346       1.08589610
C       -3.08475024       1.71241735      -2.55039608
C       -3.43768219       0.10367856      -0.81303010
C       -0.17531538       3.05342663       3.04346910
C       -0.07606735       0.74413389       3.41046992
C        1.25944335       1.26800785       3.15517572
C        1.92286217       0.56038427       2.13973168
C       -3.37032419       0.37089087      -2.20808270
C        0.91527276      -1.42397332       3.18625087
C       -3.24120416       0.97294860       0.31960510
C        2.34452887      -1.98322219      -1.32337163
C       -2.28906684      -1.72472771      -1.84139555
C       -1.73426768      -2.89486887       0.15414000
C        1.23268331       2.70009606       3.07207992
C       -1.11655436       2.79443040      -2.94073839
C        2.06606841      -1.74697679       1.17777631
C       -2.89133733      -1.17792820      -0.66500067
C       -0.91448012       1.82022420       3.02436719
C        1.32095091       3.22114488       1.71613977
C        2.27767619       1.12350912       0.87881729
C        2.67874614       0.22357655      -0.20883164
C       -0.76286838      -2.80820809       2.40482093
C       -2.51023650       0.54563852       1.51012397
C        1.99690795      -1.22630712      -2.45730100
C        0.69660193      -3.85015141      -0.73915005
C       -1.55909511      -2.89065351      -1.29639178
C       -2.41930422      -0.61349868      -2.82080543
C        2.20219013       2.08039355      -1.79224042
C        0.57639253      -2.92470736      -2.57441911
C        2.69977101       0.81715542      -1.51170641
C       -2.92771085       2.68702953      -1.42787692
C        1.19384042       0.66641904      -3.30665039
C        0.52021004      -3.70390882       0.64883063
C       -1.83311286       1.60982184      -3.33523845
C       -1.00534906       3.60952810       0.71814262
C       -2.44890233      -1.71942899       0.51924117
C        1.37026668      -2.97259042       1.51378506
C       -1.34220096       0.19056317      -3.36333026
C        1.58357284       2.81291978      -0.73328952
C       -1.88354837       1.73882958       2.03581557
C        0.39658644       3.31919745      -1.30016828
60
Properties=species:S:1:pos:R:3 trajectory=trial0001_proposal001_step005_proposal_relax trajectory_step=55 pbc="F F F"
C       -1.23745829      -1.45468358       2.71646036
C       -0.48077448      -3.49662134      -1.69444841
C        2.50845115      -1.27471119      -0.21075530
C       -0.78346540       3.71506960      -0.70343281
C        0.09045571       3.69163145       1.74261652
C        1.56093424      -3.24552045      -1.65564462
C       -0.18091556      -0.67914557       3.36651739
C        0.70562799      -2.75262074       2.70329079
C        1.24582138       2.01555442      -3.02343471
C       -1.78510980       3.40014752      -1.70051339
C        1.90873379       2.42489538       0.55152608
C        2.24258497       0.04262735      -2.75040527
C       -2.15997541      -0.86787757       1.77086866
C        0.19491456       2.86775830      -2.67409834
C       -0.05507937      -0.23475587      -3.36709659
C        1.91155782      -0.88678453       2.18660651
C        0.57646011      -1.53603350      -2.98346853
C       -2.99559310       2.38184500       0.11917843
C       -2.02730993       2.82805594       1.15464814
C       -0.83728239      -3.42490591       1.11968980
C       -3.12166095       1.73091685      -2.42471618
C       -3.48617611       0.16239822      -0.66732327
C       -0.02801748       3.06779242       3.06040952
C        0.05385527       0.74912313       3.40799617
C        1.37048756       1.24751617       3.09869127
C        2.02309205       0.50929520       2.07228184
C       -3.43771197       0.42094216      -2.08239430
C        1.01698670      -1.44328797       3.14145899
C       -3.21205580       0.99494898       0.40740701
C        2.28909071      -2.02336995      -1.41055039
C       -2.38322060      -1.68038675      -1.74935175
C       -1.77906200      -2.88361374       0.21795696
C        1.37519465       2.65732368       3.01619223
C       -1.17829303       2.80723372      -2.90887078
C        2.11503180      -1.78951109       1.09512169
C       -2.97270863      -1.16766376      -0.54964642
C       -0.80377351       1.84850831       3.11921442
C        1.41633003       3.16882674       1.66939834
C        2.33110422       1.07778415       0.79812144
C        2.67471371       0.18956847      -0.31795669
C       -0.71111557      -2.80288935       2.43776040
C       -2.46920467       0.54973521       1.60502084
C        1.89362247      -1.27578199      -2.54663455
C        0.61813526      -3.86190712      -0.78146695
C       -1.63631029      -2.86810227      -1.23881643
C       -2.50899357      -0.56254833      -2.71347992
C        2.18127904       2.06967063      -1.88527230
C        0.44015040      -2.91581143      -2.62099359
C        2.68643077       0.77578247      -1.62519984
C       -2.93853236       2.71763242      -1.31885206
C        1.10065629       0.66438765      -3.38486478
C        0.48130533      -3.69663972       0.60493917
C       -1.91454879       1.63758203      -3.26637703
C       -0.94704653       3.62408081       0.74815918
C       -2.47318769      -1.69721901       0.63396081
C        1.40275029      -2.98056414       1.45483721
C       -1.46497931       0.22637180      -3.34757211
C        1.62147513       2.79686925      -0.80880000
C       -1.81500945       1.75167980       2.12360060
C        0.42800033       3.32969777      -1.32335590
60
Properties=species:S:1:pos:R:3 trajectory=trial0001_proposal001_step005_proposal_relax trajectory_step=56 pbc="F F F"
C       -1.20374851      -1.44360892       2.73367151
C       -0.53105154      -3.48959018      -1.69326009
C        2.49307365      -1.28700718      -0.25530569
C       -0.76863019       3.72562569      -0.69963466
C        0.13750247       3.68644627       1.73212814
C        1.51407962      -3.25252139      -1.68658949
C       -0.13247066      -0.67429950       3.36319800
C        0.73049072      -2.75314575       2.68290120
C        1.21134207       2.01013659      -3.03935230
C       -1.78844704       3.41679948      -1.67533287
C        1.93076641       2.40128661       0.51827843
C        2.20681147       0.03428272      -2.79260416
C       -2.14263180      -0.86425826       1.80204255
C        0.17879283       2.87403409      -2.67923814
C       -0.09976427      -0.22735521      -3.39787780
C        1.93944069      -0.90582350       2.15111530
C        0.52995201      -1.53116645      -2.99524670
C       -2.96851404       2.38300931       0.15030040
C       -1.98964623       2.81369384       1.16902702
C       -0.84440602      -3.41908070       1.13307367
C       -3.12517893       1.73847574      -2.36384070
C       -3.50012344       0.14869258      -0.62010367
C        0.03312606       3.07568158       3.05886298
C        0.10435695       0.75209577       3.40480387
C        1.41257774       1.23024166       3.06566991
C        2.06488058       0.49098874       2.04705864
C       -3.45572993       0.42915059      -2.01665524
C        1.05555652      -1.45381441       3.11928322
C       -3.18905182       1.00901008       0.44819617
C        2.25571197      -2.04198065      -1.45349783
C       -2.41587263      -1.66417139      -1.70041210
C       -1.79382272      -2.87747540       0.25067867
C        1.42962094       2.64119511       2.98543871
C       -1.20748541       2.81146690      -2.88623875
C        2.12673225      -1.80241998       1.05499023
C       -3.01719318      -1.14864656      -0.49873345
C       -0.76612643       1.86236863       3.14997778
C        1.45650127       3.14195712       1.63694159
C        2.34969445       1.05364958       0.76266203
C        2.66148761       0.17404436      -0.36737539
C       -0.69325747      -2.79779211       2.44855028
C       -2.44871130       0.55135816       1.63691790
C        1.85738136      -1.28288988      -2.57310193
C        0.57615931      -3.86238356      -0.79716468
C       -1.66899900      -2.85152567      -1.20469840
C       -2.53444963      -0.54349345      -2.65684032
C        2.17156306       2.06091487      -1.92413235
C        0.37981037      -2.90566823      -2.62914532
C        2.67805373       0.76644211      -1.67608564
C       -2.93747206       2.72420814      -1.27526519
C        1.06080766       0.66812023      -3.41578710
C        0.46472968      -3.68406529       0.58897099
C       -1.94205490       1.64649102      -3.22381873
C       -0.91349097       3.63050020       0.75362613
C       -2.47981339      -1.69740950       0.68036694
C        1.40381212      -2.98587355       1.41957994
C       -1.50547482       0.23934198      -3.33069752
C        1.63871309       2.79298420      -0.83749022
C       -1.78201861       1.75422092       2.16019014
C        0.43277057       3.34884811      -1.33483856
60
Properties=species:S:1:pos:R:3 trajectory=trial0001_proposal001_step005_proposal_relax trajectory_step=57 pbc="F F F"
C       -1.13966779      -1.42884251       2.76012922
C       -0.62697886      -3.46632707      -1.68371799
C        2.45963288      -1.31256721      -0.33888283
C       -0.73451692       3.74576446      -0.69006417
C        0.22504722       3.67234221       1.71380079
C        1.41474467      -3.26125525      -1.73682164
C       -0.04818726      -0.66667935       3.34731942
C        0.77532822      -2.76109399       2.64155286
C        1.14969938       2.00516719      -3.06725701
C       -1.78937347       3.45339489      -1.62911298
C        1.96692964       2.36080084       0.44693501
C        2.13310428       0.01976060      -2.86978650
C       -2.10765771      -0.86215794       1.86514089
C        0.14191430       2.89293617      -2.69274017
C       -0.18433447      -0.21258863      -3.43682606
C        1.99050698      -0.93998563       2.08241002
C        0.43619870      -1.51781607      -3.02165829
C       -2.89955459       2.37770045       0.21265033
C       -1.90326214       2.79386347       1.19867752
C       -0.85034997      -3.40902179       1.15821582
C       -3.14007112       1.74933101      -2.24531966
C       -3.52294326       0.14065728      -0.50879654
C        0.14487195       3.08394439       3.05098763
C        0.18985582       0.75247160       3.40000093
C        1.48708509       1.20078078       2.99925478
C        2.13447018       0.45507116       1.98397482
C       -3.47099544       0.44439605      -1.89272363
C        1.12488772      -1.46741323       3.07272051
C       -3.14503295       1.01888952       0.52369814
C        2.18762210      -2.06897287      -1.53141273
C       -2.47581293      -1.64163934      -1.59995216
C       -1.82238868      -2.86655289       0.31184843
C        1.52872701       2.61355576       2.92287134
C       -1.24991118       2.82555531      -2.84551353
C        2.13794785      -1.82740310       0.97579504
C       -3.08323479      -1.13920727      -0.39656321
C       -0.68573718       1.88555404       3.18593001
C        1.52810572       3.10376119       1.57198039
C        2.37779090       1.00908581       0.68370580
C        2.63431970       0.14113391      -0.46394252
C       -0.65749210      -2.78941479       2.46494010
C       -2.39323178       0.56349670       1.69813418
C        1.77634182      -1.28210268      -2.62326001
C        0.49525043      -3.85163629      -0.82500888
C       -1.73425881      -2.81948457      -1.13590150
C       -2.57383217      -0.51804023      -2.54258580
C        2.14168603       2.04331301      -1.99357125
C        0.26150516      -2.88076383      -2.63820682
C        2.65427693       0.74367084      -1.77144741
C       -2.91882393       2.73958799      -1.19339549
C        0.98314285       0.67339436      -3.47378759
C        0.43241495      -3.66305223       0.56150623
C       -1.99255147       1.66328883      -3.14684615
C       -0.84642773       3.63377513       0.76582561
C       -2.50208843      -1.69847606       0.76598344
C        1.40269899      -2.99917485       1.35299142
C       -1.57201898       0.25683728      -3.27813754
C        1.65656174       2.78340960      -0.89654141
C       -1.71038557       1.76307309       2.22276927
C        0.44911552       3.38220140      -1.36383138
60
Properties=species:S:1:pos:R:3 trajectory=trial0001_proposal001_step005_proposal_relax trajectory_step=58 pbc="F F F"
C       -1.03954386      -1.41520258       2.80522931
C       -0.78224834      -3.42703454      -1.67414197
C        2.42502094      -1.36476376      -0.47799449
C       -0.67614296       3.77500018      -0.66357565
C        0.36598960       3.65243082       1.70197188
C        1.26035106      -3.27329952      -1.82948607
C        0.08833084      -0.66610911       3.33018509
C        0.85451201      -2.77343270       2.58612764
C        1.05358322       1.99782654      -3.12964713
C       -1.78799320       3.50172157      -1.55414432
C        2.03005335       2.31189818       0.33412547
C        2.01671944      -0.01049528      -3.00262492
C       -2.05979836      -0.83946635       1.97191427
C        0.08881155       2.91872750      -2.71799824
C       -0.32206219      -0.19806147      -3.48013895
C        2.08926274      -0.98777130       1.97837496
C        0.27792193      -1.50482562      -3.08112718
C       -2.80552687       2.38162044       0.32981953
C       -1.77722921       2.79292362       1.27196873
C       -0.85978410      -3.39091506       1.19050790
C       -3.18474182       1.78609904      -2.07950367
C       -3.57601866       0.16754604      -0.33322078
C        0.32852687       3.08541545       3.04966416
C        0.33876903       0.75390657       3.39467148
C        1.62504651       1.16314544       2.90510424
C        2.24043673       0.40496090       1.87259158
C       -3.51437108       0.47692086      -1.70021210
C        1.24098695      -1.48785364       3.00027214
C       -3.09300385       1.04320888       0.68001194
C        2.08515497      -2.10548584      -1.66337595
C       -2.58421561      -1.61007254      -1.45548457
C       -1.87472388      -2.84692311       0.40827199
C        1.69073212       2.57442522       2.83372478
C       -1.31743682       2.85740670      -2.78779989
C        2.16071719      -1.87250034       0.85606558
C       -3.17746063      -1.13911005      -0.23430730
C       -0.53281223       1.90854567       3.23421883
C        1.64815917       3.05649252       1.47932509
C        2.43324377       0.94796075       0.54687477
C        2.61881606       0.08291260      -0.61640163
C       -0.58792108      -2.78034147       2.48996623
C       -2.30616659       0.58649741       1.81343013
C        1.63353902      -1.29295347      -2.72683724
C        0.36948084      -3.83976010      -0.87167466
C       -1.84136040      -2.78046755      -1.04125524
C       -2.65299819      -0.48357784      -2.38196288
C        2.10075767       2.00181007      -2.10793560
C        0.06784686      -2.85650926      -2.66570192
C        2.60872703       0.70302063      -1.92159770
C       -2.89694501       2.77786885      -1.05434445
C        0.85883382       0.67514532      -3.56628277
C        0.38502658      -3.65284498       0.51287060
C       -2.09064976       1.69022471      -3.04190638
C       -0.73912185       3.63093483       0.79518400
C       -2.54777823      -1.69134531       0.91212894
C        1.41286554      -3.02403109       1.26069384
C       -1.68442153       0.27692619      -3.19584654
C        1.68440316       2.76134407      -0.98768834
C       -1.59627574       1.79251663       2.31012126
C        0.46679036       3.41806676      -1.40306155
60
Properties=species:S:1:pos:R:3 trajectory=trial0001_proposal001_step005_proposal_relax trajectory_step=59 pbc="F F F"
C       -0.94468975      -1.38838342       2.79845205
C       -0.90472380      -3.36162729      -1.63672010
C        2.33397127      -1.39841349      -0.58989997
C       -0.62487104       3.82533053      -0.64839895
C        0.47466285       3.62461289       1.65458676
C        1.10347861      -3.24898322      -1.86346220
C        0.18712324      -0.65974229       3.26981306
C        0.89594066      -2.77521793       2.51833235
C        0.95449262       2.00417555      -3.13929389
C       -1.76881621       3.55476328      -1.48296302
C        2.08115194       2.28338664       0.24169030
C        1.91302548      -0.00948092      -3.09388872
C       -2.01042095      -0.82687104       2.05376378
C        0.04779974       2.96410233      -2.70720966
C       -0.42118819      -0.18481391      -3.48447806
C        2.16305576      -1.02945812       1.89158674
C        0.16780121      -1.49270961      -3.12670144
C       -2.66516918       2.32444307       0.39093563
C       -1.65161816       2.75191384       1.27705130
C       -0.85736315      -3.34973302       1.21361498
C       -3.18015335       1.77900781      -1.92438970
C       -3.61091272       0.14740394      -0.15218807
C        0.46236508       3.06058820       2.99385790
C        0.44924679       0.75552030       3.34724500
C        1.70580436       1.13311000       2.81623023
C        2.31696936       0.37533128       1.77317029
C       -3.48784967       0.49006301      -1.55505005
C        1.31489803      -1.49729294       2.91961503
C       -3.04955964       1.00811676       0.78127131
C        1.96202357      -2.12713938      -1.77650458
C       -2.64635780      -1.62173660      -1.31200758
C       -1.91005278      -2.81361681       0.50223568
C        1.77707673       2.53990566       2.72021270
C       -1.36116450       2.88544428      -2.70262034
C        2.11780963      -1.89003427       0.73638940
C       -3.25483565      -1.16593792      -0.05184259
C       -0.38340310       1.90654883       3.21125024
C        1.73109851       3.03072163       1.39056119
C        2.46609490       0.90176473       0.43812958
C        2.57605757       0.03764510      -0.73593879
C       -0.52608793      -2.75053654       2.47093605
C       -2.23856772       0.59670260       1.88689436
C        1.51520599      -1.29330986      -2.79435489
C        0.23684098      -3.80120521      -0.89931950
C       -1.91494177      -2.74247984      -0.93619878
C       -2.63996030      -0.48714657      -2.22055694
C        2.03852937       1.98002529      -2.17775624
C       -0.08824530      -2.79785738      -2.65154481
C        2.54749257       0.66602792      -2.04688027
C       -2.83747082       2.79546208      -0.95025908
C        0.75360021       0.68778568      -3.61806748
C        0.32027438      -3.62866176       0.49160892
C       -2.12519943       1.68778352      -2.88595935
C       -0.63022295       3.59743835       0.79213837
C       -2.59355016      -1.69535272       1.02671355
C        1.36937671      -3.03979029       1.17523702
C       -1.72569700       0.28162539      -3.04701504
C        1.69241182       2.76844045      -1.06139802
C       -1.49067126       1.79544946       2.33374752
C        0.50874971       3.47718958      -1.43626681
60
Properties=species:S:1:pos:R:3 trajectory=trial0001_proposal001_step005_proposal_relax trajectory_step=60 pbc="F F F"
C       -0.85869433      -1.38838865       2.86025650
C       -1.05078395      -3.34328535      -1.63838606
C        2.34404107      -1.45356923      -0.71919046
C       -0.57571214       3.83515303      -0.60945973
C        0.61272330       3.61858158       1.66759680
C        0.96680163      -3.27343979      -1.98135703
C        0.33144964      -0.66482146       3.27720733
C        0.99011419      -2.79759652       2.47675523
C        0.88311854       1.99164166      -3.22706155
C       -1.77588195       3.57860568      -1.39579320
C        2.15352497       2.24838267       0.13616538
C        1.80419460      -0.06754829      -3.23713336
C       -1.97134996      -0.80518147       2.17279040
C       -0.01948628       2.97422092      -2.74391942
C       -0.57008126      -0.17598764      -3.51109956
C        2.27020850      -1.06362152       1.78785612
C       -0.00379353      -1.49737023      -3.20153424
C       -2.63047144       2.37053203       0.53057211
C       -1.55777554       2.79957139       1.38405508
C       -0.86096020      -3.34274329       1.24388079
C       -3.26369064       1.83975323      -1.79052846
C       -3.67013658       0.21251609       0.02358348
C        0.64499812       3.05976910       3.02058057
C        0.61850228       0.73656433       3.34537181
C        1.87861766       1.10541333       2.74218473
C        2.41738774       0.33352409       1.64997508
C       -3.57271843       0.55185280      -1.38481692
C        1.44816217      -1.51346031       2.86035800
C       -3.03707849       1.06298785       0.94354930
C        1.87625647      -2.16727704      -1.91087419
C       -2.78401286      -1.57879039      -1.19848545
C       -1.97265118      -2.79986598       0.58219071
C        1.96618892       2.50644675       2.66478052
C       -1.41679801       2.91374851      -2.67253036
C        2.17064998      -1.94247354       0.63865444
C       -3.34917769      -1.12832216       0.08493175
C       -0.22878494       1.91661708       3.25889008
C        1.86348230       2.99951812       1.32298581
C        2.53280666       0.86059829       0.30652369
C        2.60536680      -0.01831457      -0.87372150
C       -0.45565986      -2.75070170       2.50076892
C       -2.16592678       0.64046661       2.02903577
C        1.38272627      -1.31132914      -2.93757908
C        0.14506997      -3.80643360      -0.95454998
C       -2.03967577      -2.72170777      -0.86014954
C       -2.77136541      -0.44438694      -2.09340114
C        2.00189143       1.93944673      -2.29291672
C       -0.27402961      -2.80202926      -2.71690983
C        2.50088739       0.61102036      -2.18868425
C       -2.83817278       2.84170311      -0.80405840
C        0.62852016       0.67673163      -3.70775337
C        0.28998297      -3.64942414       0.44786632
C       -2.22919088       1.72810683      -2.83300136
C       -0.53630406       3.60580250       0.84134114
C       -2.63793321      -1.67383514       1.16625728
C        1.40707388      -3.07109036       1.10611021
C       -1.85839642       0.30578177      -3.00011404
C        1.71805351       2.73284387      -1.15309486
C       -1.36321978       1.82953152       2.44098570
C        0.52778060       3.46586015      -1.46782192
60
Properties=species:S:1:pos:R:3 trajectory=trial0001_proposal001_step005_proposal_relax trajectory_step=61 pbc="F F F"
C       -0.94610686      -1.40051642       2.80985088
C       -0.91324024      -3.36868470      -1.64193796
C        2.36439234      -1.40585923      -0.60512524
C       -0.61062175       3.80415702      -0.63623633
C        0.48718124       3.63457008       1.67675318
C        1.09751921      -3.26178433      -1.89406713
C        0.20906149      -0.67099186       3.27997701
C        0.91461740      -2.78104509       2.52526592
C        0.96430255       1.99748072      -3.16301357
C       -1.77156140       3.52960093      -1.46506645
C        2.09572932       2.30506489       0.23824152
C        1.90284622      -0.03685348      -3.11640979
C       -2.02401210      -0.81968295       2.06597242
C        0.03378668       2.94771988      -2.71812230
C       -0.44050931      -0.18922884      -3.45818645
C        2.17624523      -1.01298117       1.87309810
C        0.14352598      -1.49987666      -3.15433357
C       -2.72289100       2.35690498       0.40910850
C       -1.66041232       2.79255587       1.31675709
C       -0.86532364      -3.35085565       1.20752909
C       -3.20751284       1.82376035      -1.94408126
C       -3.63001229       0.20841666      -0.17230740
C        0.47872344       3.05552122       3.00630962
C        0.48377545       0.73253397       3.33909605
C        1.76003809       1.13987074       2.81738171
C        2.31927501       0.37252324       1.75713112
C       -3.53136777       0.48431025      -1.52663360
C        1.33918506      -1.50004015       2.91960266
C       -3.07293393       1.05151372       0.81615380
C        1.97501555      -2.12018323      -1.76948292
C       -2.69777543      -1.59394681      -1.31842128
C       -1.91287654      -2.82369224       0.49488432
C        1.81495773       2.54136610       2.74573825
C       -1.34711666       2.88440111      -2.70933733
C        2.13438637      -1.90645395       0.75130288
C       -3.25460964      -1.14966373      -0.08301400
C       -0.36806742       1.88472002       3.19391253
C        1.75456290       3.04803349       1.39837829
C        2.48263048       0.92434296       0.42503532
C        2.61504343       0.03527322      -0.74089618
C       -0.51568427      -2.75000474       2.47652827
C       -2.24725693       0.60441996       1.92501209
C        1.50713592      -1.30846689      -2.85098196
C        0.25829095      -3.81191518      -0.88701161
C       -1.93521590      -2.76508920      -0.94330977
C       -2.69733342      -0.47562134      -2.22550546
C        2.03556446       1.96468060      -2.18752849
C       -0.10444996      -2.82822592      -2.68102566
C        2.53522143       0.66305058      -2.03464853
C       -2.85518092       2.79656106      -0.92982074
C        0.73497507       0.68241662      -3.61124324
C        0.32697044      -3.66406913       0.47287358
C       -2.13013865       1.70418241      -2.91784429
C       -0.64460966       3.60401356       0.80430988
C       -2.58278417      -1.67460034       1.06157125
C        1.40430110      -3.03616248       1.18985579
C       -1.73935198       0.28171373      -3.06381527
C        1.70143660       2.74769878      -1.06142591
C       -1.46888959       1.79745637       2.34570491
C        0.48781548       3.44595826      -1.42436642
60
Properties=species:S:1:pos:R:3 trajectory=trial0001_proposal001_step005_proposal_relax trajectory_step=62 pbc="F F F"
C       -0.91010910      -1.39446785       2.82520170
C       -0.96162486      -3.35899556      -1.63509959
C        2.35239693      -1.42198650      -0.64662740
C       -0.60031471       3.81436335      -0.62546502
C        0.53389596       3.62902118       1.66688466
C        1.04711328      -3.26161545      -1.92440727
C        0.25887178      -0.67304918       3.27201278
C        0.94226774      -2.78405146       2.50634952
C        0.92578615       1.99944454      -3.18368497
C       -1.76758169       3.54050517      -1.43603516
C        2.12139981       2.28943671       0.20201859
C        1.86688944      -0.03738742      -3.15931901
C       -2.00261739      -0.81249713       2.10857664
C        0.02583912       2.95399187      -2.72031380
C       -0.48583572      -0.18373439      -3.46772952
C        2.20692109      -1.03188067       1.83776020
C        0.08856927      -1.50166200      -3.17307606
C       -2.69067575       2.36515487       0.46230296
C       -1.62581685       2.79136319       1.33813492
C       -0.86244467      -3.34728091       1.21918697
C       -3.22259700       1.82274137      -1.88724338
C       -3.64823129       0.21025492      -0.09672702
C        0.54268730       3.05043352       3.00276173
C        0.54267017       0.73231785       3.32703025
C        1.81065062       1.12514865       2.78713310
C        2.35571196       0.36445219       1.71159945
C       -3.54606617       0.52252950      -1.48352483
C        1.38185620      -1.50562686       2.89335570
C       -3.06308881       1.05726897       0.86830511
C        1.92849557      -2.13344994      -1.82606878
C       -2.73214914      -1.59409849      -1.26916085
C       -1.93662300      -2.81224536       0.53223590
C        1.87220776       2.53069694       2.71163908
C       -1.37479307       2.89314312      -2.68626558
C        2.14521257      -1.91477788       0.70602182
C       -3.28996472      -1.13774018      -0.01288364
C       -0.30437584       1.88585507       3.20977589
C        1.79602464       3.03272033       1.37109024
C        2.50312216       0.90569631       0.38105710
C        2.61266860       0.01997252      -0.78867827
C       -0.49195211      -2.74804959       2.48017345
C       -2.22540271       0.61755354       1.96511705
C        1.46391586      -1.32545149      -2.88774137
C        0.21450989      -3.81005859      -0.91466379
C       -1.97719001      -2.74780836      -0.91174552
C       -2.72631918      -0.46008263      -2.17479252
C        2.01957652       1.95311796      -2.22452965
C       -0.16966816      -2.81967673      -2.69285722
C        2.51168887       0.64176526      -2.08948786
C       -2.84816176       2.81099547      -0.88841209
C        0.69159152       0.67762451      -3.63727006
C        0.31637045      -3.65916954       0.47246826
C       -2.16023497       1.71088934      -2.87690594
C       -0.60252731       3.60257954       0.81532950
C       -2.60454345      -1.67169354       1.09409923
C        1.39780533      -3.05051933       1.15738345
C       -1.78323694       0.29136940      -3.03255291
C        1.70561670       2.74571418      -1.09423648
C       -1.42965584       1.80224451       2.36759872
C        0.50213561       3.44898904      -1.43696278
60
Properties=species:S:1:pos:R:3 trajectory=trial0001_proposal001_step005_proposal_relax trajectory_step=63 pbc="F F F"
C       -0.88030552      -1.38744526       2.83098282
C       -1.00402684      -3.34531647      -1.62574482
C        2.33836825      -1.43326730      -0.68490837
C       -0.58602772       3.81937169      -0.61441208
C        0.57089906       3.62478928       1.65913273
C        1.00181021      -3.26118932      -1.94637352
C        0.30040101      -0.67361897       3.25921253
C        0.96325456      -2.78718048       2.48852672
C        0.89909865       1.99521319      -3.19696472
C       -1.76405288       3.54774366      -1.40898667
C        2.14549696       2.28442345       0.17384597
C        1.83153788      -0.04976760      -3.19390493
C       -1.99169321      -0.80587765       2.13895046
C        0.00989160       2.96245782      -2.71953689
C       -0.52315049      -0.18167221      -3.46648813
C        2.23253948      -1.04153475       1.80494378
C        0.04782264      -1.50588142      -3.19437338
C       -2.67011444       2.36834613       0.49494236
C       -1.59644841       2.79046912       1.35280567
C       -0.86144149      -3.33873367       1.22624716
C       -3.23257682       1.82929085      -1.84517544
C       -3.66403162       0.21725386      -0.04334974
C        0.59242556       3.04185766       2.99324618
C        0.59156415       0.72675590       3.31146163
C        1.85543050       1.11685938       2.76144956
C        2.38710502       0.35509397       1.67631810
C       -3.55762595       0.53775398      -1.43633210
C        1.41627811      -1.51042620       2.87040185
C       -3.06210877       1.06211540       0.90937016
C        1.89377442      -2.14218719      -1.86287010
C       -2.76693719      -1.59047997      -1.22845391
C       -1.95200876      -2.80267279       0.55871005
C        1.91802474       2.52108737       2.68520235
C       -1.38828363       2.89838345      -2.66376209
C        2.14460904      -1.92456423       0.66905570
C       -3.31700023      -1.12772026       0.03711197
C       -0.25264693       1.88006158       3.20365647
C        1.83186701       3.02869943       1.34923304
C        2.52262391       0.89653431       0.34547591
C        2.61143879       0.00668051      -0.82713284
C       -0.47096049      -2.74051632       2.47850684
C       -2.21132036       0.62466963       1.99898502
C        1.42967865      -1.33087023      -2.92746541
C        0.18032580      -3.80439794      -0.92519977
C       -2.01037772      -2.73876408      -0.88488822
C       -2.74803742      -0.45232680      -2.12988082
C        2.00221118       1.94474592      -2.24944004
C       -0.22330401      -2.81265441      -2.70103442
C        2.49112435       0.62606789      -2.12798341
C       -2.84120706       2.81815808      -0.84969880
C        0.65320119       0.67848579      -3.65228610
C        0.30265554      -3.66064922       0.46322483
C       -2.17835255       1.71556027      -2.84049608
C       -0.57245630       3.59890553       0.82376434
C       -2.61594421      -1.66525250       1.13241548
C        1.39770616      -3.05746205       1.13316897
C       -1.81125202       0.29637256      -2.99668668
C        1.71238359       2.74212993      -1.11809801
C       -1.39412265       1.80252824       2.38308034
C        0.51293483       3.45386144      -1.44336605
60
Properties=species:S:1:pos:R:3 trajectory=trial0001_proposal001_step005_proposal_relax trajectory_step=64 pbc="F F F"
C       -0.80077361      -1.36528476       2.84309482
C       -1.11135887      -3.31062344      -1.59970035
C        2.30135997      -1.45938900      -0.78779818
C       -0.54723594       3.82260064      -0.58390535
C        0.67006792       3.61548002       1.63864819
C        0.88167997      -3.26218330      -2.00324508
C        0.41596749      -0.67845362       3.22005161
C        1.02056627      -2.79419940       2.43967031
C        0.82563565       1.98872777      -3.22421833
C       -1.75442184       3.55457850      -1.33356236
C        2.21634255       2.27824125       0.10460356
C        1.74012045      -0.07350048      -3.28207312
C       -1.96474162      -0.78794769       2.21878156
C       -0.02531376       2.97626028      -2.71427201
C       -0.62388736      -0.17787169      -3.45388572
C        2.29454336      -1.06537732       1.70924889
C       -0.05795664      -1.51927142      -3.25524661
C       -2.63757650       2.38172628       0.58503860
C       -1.52402396       2.78590034       1.39447517
C       -0.86225172      -3.31475335       1.24191171
C       -3.25591428       1.85388334      -1.73447132
C       -3.70946370       0.25168124       0.08761494
C        0.72645522       3.01521748       2.96123029
C        0.73112778       0.70844263       3.25829923
C        1.98779063       1.09340615       2.69025055
C        2.47584513       0.33255058       1.58403732
C       -3.59787918       0.57582375      -1.31217858
C        1.51152219      -1.52632165       2.80647716
C       -3.06731340       1.08845731       1.02122975
C        1.80181833      -2.16096975      -1.95841624
C       -2.86995949      -1.57198394      -1.12190643
C       -1.98967884      -2.77702849       0.62828203
C        2.04698965       2.49838003       2.61894285
C       -1.42092260       2.90665737      -2.59654754
C        2.14382270      -1.94762515       0.57302042
C       -3.38361752      -1.10049087       0.16538263
C       -0.11595236       1.85434338       3.17537218
C        1.93098122       3.02323454       1.29219690
C        2.58072319       0.87986189       0.25460813
C        2.60951863      -0.02291394      -0.92690682
C       -0.41480935      -2.71683521       2.47122117
C       -2.18787800       0.64233953       2.08828154
C        1.34422026      -1.36608793      -3.03800936
C        0.09257754      -3.78955932      -0.95104233
C       -2.10308655      -2.71600035      -0.81261871
C       -2.81726089      -0.42623719      -2.01051333
C        1.95674466       1.91522804      -2.31427502
C       -0.36406914      -2.80144054      -2.72032806
C        2.42980469       0.58755312      -2.22370701
C       -2.82756602       2.83477084      -0.75281145
C        0.54750771       0.67398111      -3.68060056
C        0.27102567      -3.66643823       0.44054911
C       -2.22086165       1.72703775      -2.74331793
C       -0.50056161       3.59126888       0.84582730
C       -2.63989730      -1.64102095       1.22965190
C        1.40051767      -3.07508645       1.06865993
C       -1.88427506       0.30847902      -2.90247607
C        1.73476087       2.73272460      -1.17535127
C       -1.30254197       1.79380898       2.41757303
C        0.53368187       3.46254720      -1.45271283
60
Properties=species:S:1:pos:R:3 trajectory=trial0001_proposal001_step005_proposal_relax trajectory_step=65 pbc="F F F"
C       -0.77903480      -1.35485343       2.83011513
C       -1.14542733      -3.29100578      -1.57782191
C        2.28082381      -1.45158183      -0.81258981
C       -0.54713267       3.80673213      -0.57114832
C        0.68977417       3.61113096       1.62339514
C        0.85604435      -3.25838273      -2.00232067
C        0.44848268      -0.68180038       3.18983464
C        1.03272600      -2.79753098       2.41831892
C        0.80579812       1.97816020      -3.21321561
C       -1.74023099       3.54296928      -1.31656010
C        2.24338591       2.28416795       0.08610959
C        1.70649327      -0.08926245      -3.28812953
C       -1.95828212      -0.77764828       2.22951331
C       -0.02986360       2.97756405      -2.69580960
C       -0.64349949      -0.18815021      -3.42293117
C        2.29333901      -1.06982220       1.66791531
C       -0.08598534      -1.53025773      -3.26843955
C       -2.64719918       2.40177615       0.61559157
C       -1.51079476       2.76835988       1.40105844
C       -0.85978434      -3.30952610       1.24463354
C       -3.25697078       1.84984674      -1.70429351
C       -3.71840145       0.26551027       0.11674398
C        0.75803287       2.99315780       2.93429088
C        0.77400249       0.70248861       3.22128098
C        2.03652622       1.09199791       2.66176510
C        2.51167283       0.32481248       1.54896169
C       -3.61430382       0.59995741      -1.28884696
C        1.53657168      -1.53712051       2.77431151
C       -3.08150626       1.10733732       1.05474475
C        1.77534217      -2.16742596      -1.96848082
C       -2.89778869      -1.56531442      -1.08952867
C       -1.99426403      -2.76577105       0.64161527
C        2.09324894       2.49704541       2.59811854
C       -1.41458667       2.89512592      -2.56982043
C        2.13480083      -1.94357326       0.54124326
C       -3.39489664      -1.07959625       0.19147753
C       -0.07536507       1.83088949       3.13554398
C        1.96195472       3.03294628       1.27418294
C        2.60308947       0.88243197       0.22938150
C        2.59188121      -0.01925469      -0.94696960
C       -0.40131877      -2.70805319       2.46161341
C       -2.18964388       0.64149692       2.10360696
C        1.32624004      -1.36796102      -3.07612254
C        0.06977787      -3.78089767      -0.93994946
C       -2.12267899      -2.70926149      -0.79695607
C       -2.84284157      -0.41744209      -1.97966316
C        1.93788633       1.91615442      -2.31059196
C       -0.39087564      -2.79522021      -2.71208748
C        2.40412418       0.58513899      -2.23085425
C       -2.82882973       2.84151410      -0.72515406
C        0.51802496       0.67377599      -3.65690356
C        0.26132195      -3.66178300       0.43490032
C       -2.22150347       1.72111194      -2.71109961
C       -0.48802544       3.58384366       0.85427563
C       -2.62685743      -1.63402066       1.25059347
C        1.40353233      -3.07583296       1.04634308
C       -1.89482296       0.30202167      -2.86658613
C        1.74010586       2.73062381      -1.18334028
C       -1.29154064       1.77124945       2.40085514
C        0.53992125       3.45730982      -1.44798599
60
Properties=species:S:1:pos:R:3 trajectory=trial0001_proposal001_step005_proposal_relax trajectory_step=66 pbc="F F F"
C       -0.75081212      -1.34689030       2.83012776
C       -1.17573098      -3.27871262      -1.56929857
C        2.26451629      -1.45674794      -0.84762663
C       -0.53168958       3.80177912      -0.56079280
C        0.72487425       3.60495261       1.61553222
C        0.81430801      -3.25952039      -2.01454634
C        0.48846541      -0.68272226       3.17042232
C        1.05170053      -2.80280083       2.39767689
C        0.78231168       1.97592593      -3.21435372
C       -1.73961611       3.53951364      -1.29029339
C        2.26882616       2.28295030       0.06308075
C        1.67618623      -0.08971128      -3.31081229
C       -1.94640257      -0.77434569       2.25210160
C       -0.04112815       2.97894685      -2.69265207
C       -0.67905675      -0.18883787      -3.41088843
C        2.31084932      -1.07502253       1.62929549
C       -0.12174974      -1.53451547      -3.28569587
C       -2.64453519       2.41234724       0.64789944
C       -1.48644625       2.76554139       1.41454642
C       -0.86217719      -3.30218927       1.24974763
C       -3.25972089       1.87095190      -1.66708230
C       -3.73061642       0.28382945       0.15791405
C        0.80532300       2.98112124       2.91689964
C        0.82386315       0.69371441       3.19631616
C        2.08620098       1.08325793       2.63227345
C        2.54453538       0.31539748       1.51615729
C       -3.63369708       0.60249002      -1.24052649
C        1.56650511      -1.54289782       2.74786149
C       -3.08784608       1.11999713       1.09194064
C        1.74565216      -2.16968522      -1.99945477
C       -2.93362160      -1.55212123      -1.05411936
C       -2.00162124      -2.75918893       0.66395549
C        2.14052645       2.49192924       2.57432554
C       -1.42302858       2.89161449      -2.54656442
C        2.13223308      -1.95082683       0.50667457
C       -3.41167768      -1.06899284       0.23354957
C       -0.03376851       1.81926649       3.11580389
C        1.99679387       3.03255955       1.25184201
C        2.62393132       0.87811131       0.19664866
C        2.58425261      -0.02655577      -0.97964723
C       -0.38259849      -2.70105236       2.45855538
C       -2.18272331       0.64753961       2.12957311
C        1.29554193      -1.38836412      -3.10733317
C        0.03859677      -3.77313295      -0.94705938
C       -2.15588340      -2.69794822      -0.76918786
C       -2.87018625      -0.40834459      -1.94019226
C        1.92205228       1.90467996      -2.33125792
C       -0.43564050      -2.79202344      -2.71013559
C        2.38057745       0.57528194      -2.26004900
C       -2.82544040       2.84942953      -0.69342808
C        0.48067802       0.66898745      -3.65723546
C        0.25129492      -3.65980868       0.42780231
C       -2.23332567       1.72275257      -2.67819631
C       -0.46839242       3.57834315       0.86213425
C       -2.63107046      -1.62229764       1.27996880
C        1.40567840      -3.08074565       1.02139282
C       -1.91930362       0.30238718      -2.83341399
C        1.74721088       2.72832840      -1.19841598
C       -1.25649319       1.76259254       2.41275602
C        0.54318423       3.45978124      -1.44638150
60
Properties=species:S:1:pos:R:3 trajectory=trial0001_proposal001_step005_proposal_relax trajectory_step=67 pbc="F F F"
C       -0.73418770      -1.34422162       2.82805068
C       -1.19344330      -3.27016021      -1.56353561
C        2.25323169      -1.45787216      -0.86784897
C       -0.52339115       3.79452463      -0.55590681
C        0.74559367       3.59788096       1.61012749
C        0.79386241      -3.26009944      -2.01735145
C        0.50972605      -0.68386906       3.15624682
C        1.06250835      -2.80668315       2.38381523
C        0.76864943       1.97517388      -3.21003768
C       -1.73857710       3.53555567      -1.27759109
C        2.28180581       2.28002298       0.04906955
C        1.65749768      -0.09006887      -3.31768877
C       -1.93570030      -0.77331665       2.25943433
C       -0.04532574       2.97593234      -2.69113403
C       -0.70043341      -0.19100528      -3.40075335
C        2.31841506      -1.07880616       1.60427095
C       -0.14338191      -1.53504592      -3.28831185
C       -2.64854357       2.42300135       0.66988657
C       -1.47356756       2.76314229       1.42503977
C       -0.86473117      -3.30047339       1.25306830
C       -3.26317103       1.88131464      -1.64295392
C       -3.73429120       0.29688907       0.17834535
C        0.83389941       2.97332869       2.90453505
C        0.85173979       0.69117350       3.17949517
C        2.11495786       1.07789630       2.61152847
C        2.56458538       0.30900000       1.49577331
C       -3.64663299       0.60866328      -1.21316692
C        1.58017685      -1.54757628       2.72728042
C       -3.08892155       1.13397777       1.11559473
C        1.73130947      -2.17038780      -2.01438551
C       -2.95148957      -1.53927961      -1.03428734
C       -2.00305798      -2.75653370       0.67535821
C        2.16947217       2.48932697       2.55958336
C       -1.42803944       2.88596493      -2.53495705
C        2.13134188      -1.95443186       0.48681215
C       -3.41550551      -1.06274883       0.25515654
C       -0.00959606       1.81251021       3.10474432
C        2.01676509       3.03010940       1.23545313
C        2.63489819       0.87382456       0.17554087
C        2.57308766      -0.02919711      -0.99791673
C       -0.37186766      -2.70099267       2.45886491
C       -2.17498262       0.64976529       2.14001911
C        1.27553721      -1.39809442      -3.11674940
C        0.02030512      -3.76809572      -0.94642671
C       -2.17015915      -2.69015920      -0.75480791
C       -2.89011166      -0.40228820      -1.92038753
C        1.91510346       1.89904599      -2.34182758
C       -0.45710814      -2.78958557      -2.70288022
C        2.36826424       0.57379861      -2.27390711
C       -2.82529620       2.85897158      -0.67528595
C        0.46007721       0.66403299      -3.65113075
C        0.24528525      -3.65403465       0.42151677
C       -2.24193785       1.72212205      -2.66154338
C       -0.45841541       3.57305985       0.86649797
C       -2.62898101      -1.61526031       1.29439798
C        1.40743297      -3.08296354       1.00419058
C       -1.93575263       0.29974906      -2.81781582
C        1.75054089       2.72615207      -1.20527686
C       -1.23855316       1.75684884       2.41789452
C        0.53975327       3.46079019      -1.44359194
60
Properties=species:S:1:pos:R:3 trajectory=trial0001_proposal001_step005_proposal_relax trajectory_step=68 pbc="F F F"
C       -0.71590409      -1.34402698       2.82726945
C       -1.21457712      -3.26173176      -1.55737205
C        2.24288259      -1.46103031      -0.88969824
C       -0.51680601       3.78711849      -0.54970712
C        0.76866568       3.58907032       1.60322108
C        0.77288107      -3.26129868      -2.02204057
C        0.53270904      -0.68496283       3.14235545
C        1.07504555      -2.81142317       2.36845221
C        0.75449739       1.97146086      -3.20935998
C       -1.73667374       3.53257575      -1.26449904
C        2.29437852       2.27406234       0.03184972
C        1.63575666      -0.09382537      -3.32613008
C       -1.92150404      -0.77129537       2.26684524
C       -0.05405890       2.97343860      -2.68947449
C       -0.72636032      -0.19263146      -3.39209220
C        2.32970190      -1.08451458       1.57860191
C       -0.16879371      -1.53524892      -3.28698962
C       -2.65157445       2.43770831       0.69568702
C       -1.46128009       2.76500547       1.43976754
C       -0.86578965      -3.29983106       1.25763914
C       -3.27029002       1.89277058      -1.61662630
C       -3.73663717       0.31198913       0.20488158
C        0.86695312       2.96565626       2.89469066
C        0.88225721       0.68837037       3.16298388
C        2.14452868       1.07222988       2.58974830
C        2.58553713       0.30186934       1.47202168
C       -3.66086365       0.61895738      -1.18424774
C        1.59492700      -1.55163818       2.70357339
C       -3.08872661       1.14844438       1.14226716
C        1.71645042      -2.17446988      -2.03033477
C       -2.96871406      -1.52675412      -1.01288330
C       -2.00683224      -2.75278140       0.68753524
C        2.20175075       2.48442276       2.54263114
C       -1.43544428       2.88132635      -2.52432085
C        2.13302013      -1.95965169       0.46480146
C       -3.41896173      -1.05283611       0.27873766
C        0.02096250       1.80776748       3.09927524
C        2.03881952       3.02454488       1.21796312
C        2.64552178       0.86711081       0.15204334
C        2.56232750      -0.03370151      -1.01874186
C       -0.35924132      -2.70420255       2.46055917
C       -2.16216977       0.65283646       2.15231950
C        1.25115624      -1.40329628      -3.12489624
C        0.00111377      -3.76355194      -0.94810714
C       -2.18453358      -2.68064084      -0.74112559
C       -2.91506865      -0.39431281      -1.90131604
C        1.90931893       1.89624341      -2.35457868
C       -0.48028004      -2.78681280      -2.69653971
C        2.35763380       0.57053478      -2.29159200
C       -2.82705575       2.87079807      -0.65322833
C        0.43730779       0.65970387      -3.64564433
C        0.23771620      -3.64737841       0.41540260
C       -2.25671058       1.72195363      -2.64458326
C       -0.44446549       3.56684561       0.87149183
C       -2.62555440      -1.60934650       1.31097540
C        1.40868301      -3.08612879       0.98585861
C       -1.95885181       0.29832510      -2.80437173
C        1.75250446       2.72310914      -1.21536383
C       -1.21839951       1.75463365       2.42618056
C        0.53778460       3.45873950      -1.44363096
60
Properties=species:S:1:pos:R:3 trajectory=trial0001_proposal001_step005_proposal_relax trajectory_step=69 pbc="F F F"
C       -0.67525128      -1.34750278       2.82591220
C       -1.25904235      -3.24620216      -1.54386567
C        2.22345122      -1.47250158      -0.93345420
C       -0.50320420       3.77319350      -0.53740992
C        0.81912334       3.56685372       1.58509008
C        0.72874286      -3.26470649      -2.03487776
C        0.58147508      -0.68954081       3.11082799
C        1.10221437      -2.81992386       2.33591886
C        0.72149223       1.96613410      -3.21203298
C       -1.73548617       3.52753388      -1.23296251
C        2.31731744       2.25915400      -0.00801314
C        1.58576657      -0.10330288      -3.34547111
C       -1.88489361      -0.76621759       2.28174354
C       -0.07566118       2.96496630      -2.68721720
C       -0.78485910      -0.19264716      -3.37553625
C        2.36117250      -1.09735237       1.52669175
C       -0.22462548      -1.53208597      -3.27564137
C       -2.65180975       2.47036547       0.75178256
C       -1.43708141       2.77950030       1.47439064
C       -0.86905597      -3.29661542       1.26617862
C       -3.29050828       1.91402887      -1.56103368
C       -3.73795746       0.33839730       0.26564906
C        0.94033333       2.95277332       2.87597600
C        0.94708631       0.67806257       3.12830328
C        2.20404721       1.05685051       2.54280806
C        2.62546668       0.28579511       1.42185833
C       -3.68750041       0.64736568      -1.12382307
C        1.62520634      -1.55868230       2.65133563
C       -3.08157292       1.17638177       1.20055805
C        1.68372326      -2.18847743      -2.06225584
C       -3.00206319      -1.50131582      -0.96811239
C       -2.01401616      -2.74498926       0.71419615
C        2.26902294       2.46890235       2.50287740
C       -1.45886911       2.87414167      -2.49936877
C        2.13737591      -1.97498922       0.41764214
C       -3.42226859      -1.02492443       0.33197206
C        0.08670678       1.80070425       3.09215223
C        2.08434248       3.00772261       1.18098744
C        2.66299694       0.85176495       0.10229820
C        2.54574077      -0.04728121      -1.06532678
C       -0.33161038      -2.71343626       2.46414495
C       -2.12682887       0.66204174       2.17981576
C        1.19538001      -1.40790751      -3.13784470
C       -0.03836307      -3.75525688      -0.95105745
C       -2.21334803      -2.65905973      -0.71155637
C       -2.97153208      -0.37833715      -1.86123542
C        1.89882820       1.89162795      -2.38840710
C       -0.53106621      -2.78141162      -2.68634291
C        2.33923198       0.56207823      -2.33243890
C       -2.82935289       2.89581306      -0.60589616
C        0.38421220       0.65281807      -3.63484847
C        0.21825799      -3.63645101       0.40052056
C       -2.29352798       1.72808734      -2.60586052
C       -0.41137780       3.55111214       0.87950930
C       -2.61747371      -1.59600058       1.34738864
C        1.40825781      -3.09185866       0.94891131
C       -2.01776601       0.30151231      -2.77785490
C        1.75492583       2.71574101      -1.24134639
C       -1.16782892       1.75736762       2.44981275
C        0.53457509       3.45048526      -1.44802798
60
Properties=species:S:1:pos:R:3 trajectory=trial0001_proposal001_step005_proposal_relax trajectory_step=70 pbc="F F F"
C       -0.60451244      -1.35311659       2.82640629
C       -1.33858450      -3.22229863      -1.51845707
C        2.19813398      -1.49936511      -1.00812759
C       -0.48140063       3.75180654      -0.51854127
C        0.90403123       3.52938421       1.55251626
C        0.64751206      -3.27734272      -2.06200519
C        0.66689851      -0.70155584       3.05592658
C        1.14633375      -2.83468575       2.28159351
C        0.66598966       1.94557155      -3.23293431
C       -1.72902700       3.52638131      -1.17789842
C        2.35383760       2.23042825      -0.08244957
C        1.49519078      -0.11383806      -3.38241565
C       -1.81904306      -0.75062412       2.31332508
C       -0.13311084       2.95907981      -2.67592238
C       -0.89444984      -0.18458961      -3.34577328
C        2.41969160      -1.13131561       1.43970895
C       -0.32805233      -1.52265661      -3.25407352
C       -2.64063136       2.52206310       0.85031072
C       -1.38965990       2.81026915       1.54263186
C       -0.86430376      -3.29359529       1.28245077
C       -3.32985352       1.95905255      -1.46283493
C       -3.73796231       0.39661905       0.37535195
C        1.06561839       2.93139120       2.84914502
C        1.05088151       0.66548668       3.07440036
C        2.30134114       1.02719571       2.46714845
C        2.69398602       0.25829035       1.32695459
C       -3.73514797       0.68701329      -1.01274273
C        1.68784175      -1.57172774       2.56515602
C       -3.05610073       1.21958000       1.30195933
C        1.62222597      -2.21332115      -2.12225280
C       -3.05914763      -1.46262764      -0.88415863
C       -2.03901412      -2.72052305       0.75911356
C        2.38477552       2.43574562       2.43362169
C       -1.49360130       2.87383556      -2.45239775
C        2.15048968      -2.00044180       0.34226264
C       -3.42180528      -0.98921916       0.42503068
C        0.21593449       1.78924837       3.08737251
C        2.16206802       2.97475523       1.11379252
C        2.68842710       0.82135341       0.01439475
C        2.53044509      -0.07342780      -1.14507991
C       -0.28544815      -2.72882451       2.46712929
C       -2.05179787       0.68400086       2.23429119
C        1.09741668      -1.41736285      -3.15864462
C       -0.10671060      -3.74420995      -0.97176637
C       -2.26266962      -2.62430704      -0.66205525
C       -3.06868086      -0.34334594      -1.79269146
C        1.87976154       1.88495331      -2.45185431
C       -0.62515590      -2.77498021      -2.67671724
C        2.30639164       0.54245272      -2.41391086
C       -2.83732845       2.92883566      -0.51420877
C        0.28976751       0.64979939      -3.62294866
C        0.18999459      -3.62269408       0.38932215
C       -2.36750769       1.73979784      -2.54077054
C       -0.34841747       3.52870407       0.89220611
C       -2.60216665      -1.57293640       1.41258226
C        1.40052855      -3.10619468       0.88522207
C       -2.12262506       0.31492176      -2.73509332
C        1.76079064       2.69833080      -1.29794144
C       -1.09215332       1.77290184       2.48558276
C        0.53043767       3.43217762      -1.46210940
60
Properties=species:S:1:pos:R:3 trajectory=trial0001_proposal001_step005_proposal_relax trajectory_step=71 pbc="F F F"
C       -0.61998886      -1.35487189       2.82456927
C       -1.31746473      -3.22989266      -1.52355047
C        2.20767942      -1.49585226      -0.98737968
C       -0.48752622       3.75570121      -0.52305071
C        0.88398777       3.53395279       1.55698192
C        0.66911896      -3.27554136      -2.05686915
C        0.64540346      -0.69987678       3.06514296
C        1.13410079      -2.83102417       2.29376035
C        0.67524072       1.95608067      -3.22867684
C       -1.73375390       3.52683634      -1.18843265
C        2.34064813       2.23431881      -0.06844753
C        1.51224008      -0.11226829      -3.36995857
C       -1.82762055      -0.75239646       2.30326827
C       -0.11720236       2.95479857      -2.67943185
C       -0.87125587      -0.18286669      -3.35037530
C        2.41042812      -1.12400730       1.46163646
C       -0.30514361      -1.52133459      -3.24797615
C       -2.63833496       2.51223500       0.82971970
C       -1.40273557       2.81186788       1.52875500
C       -0.86817725      -3.29324676       1.27702506
C       -3.32509815       1.94634318      -1.48629026
C       -3.72998811       0.37803659       0.35289465
C        1.03846408       2.93738851       2.85496877
C        1.02386579       0.66421881       3.08579817
C        2.27386507       1.03064349       2.48350828
C        2.67353664       0.26218117       1.34935813
C       -3.72227291       0.68336176      -1.04158299
C        1.67091197      -1.57003123       2.58453158
C       -3.05323391       1.20834532       1.27756208
C        1.63609142      -2.21074298      -2.10380625
C       -3.03984599      -1.47202742      -0.90593982
C       -2.02795768      -2.72749588       0.74867684
C        2.35470135       2.44064059       2.44616524
C       -1.49444495       2.87443678      -2.46091693
C        2.14819736      -1.99812679       0.36012560
C       -3.41576065      -0.98922756       0.40254622
C        0.18270000       1.79539400       3.08992428
C        2.14028884       2.97754085       1.12882689
C        2.67698016       0.82665473       0.03420097
C        2.53798832      -0.06936186      -1.12777940
C       -0.29599809      -2.72763109       2.46596982
C       -2.06104656       0.68071021       2.21924334
C        1.11604166      -1.40796892      -3.14561731
C       -0.08886872      -3.74896488      -0.96216975
C       -2.24778047      -2.63072175      -0.67509667
C       -3.04900995      -0.35119016      -1.81041680
C        1.88503305       1.88789480      -2.44206846
C       -0.60244953      -2.77756401      -2.67897063
C        2.31724846       0.54667570      -2.39536842
C       -2.83357993       2.92166036      -0.53552055
C        0.30877159       0.65128526      -3.62353687
C        0.19467911      -3.62822461       0.38871664
C       -2.35580336       1.74333260      -2.55561764
C       -0.36170901       3.53299111       0.88717183
C       -2.60012776      -1.57653757       1.39665017
C        1.40027635      -3.10174533       0.90265354
C       -2.10609240       0.31712983      -2.74782464
C        1.75637826       2.70160608      -1.28895515
C       -1.10435123       1.77539991       2.48122592
C        0.53042849       3.43137721      -1.46181767
60
Properties=species:S:1:pos:R:3 trajectory=trial0001_proposal001_step005_proposal_relax trajectory_step=72 pbc="F F F"
C       -0.61109160      -1.35409059       2.82464740
C       -1.32603091      -3.22877265      -1.51998131
C        2.20894503      -1.50179412      -0.99487168
C       -0.48405399       3.75610680      -0.52114677
C        0.89304206       3.53062068       1.55267704
C        0.65798917      -3.27796894      -2.06432658
C        0.65526929      -0.70230294       3.05851590
C        1.13751613      -2.83147824       2.28955518
C        0.66512099       1.95843007      -3.23520425
C       -1.73522866       3.52936408      -1.17845660
C        2.34275609       2.23115181      -0.07918056
C        1.49896228      -0.11409680      -3.37617055
C       -1.81948826      -0.74780520       2.31062911
C       -0.12330046       2.95358898      -2.67800561
C       -0.88323218      -0.17795457      -3.34654557
C        2.42020076      -1.12901403       1.45481269
C       -0.31804637      -1.51870350      -3.24517173
C       -2.62784790       2.51302785       0.83916596
C       -1.39475936       2.81892520       1.53466178
C       -0.86902547      -3.29037195       1.27701985
C       -3.33179704       1.94702355      -1.47483167
C       -3.72698043       0.37754575       0.36770752
C        1.05174446       2.93591647       2.85173771
C        1.03289884       0.66035107       3.08069999
C        2.28136654       1.02509212       2.47598513
C        2.67772714       0.25733685       1.34040040
C       -3.72455119       0.69035050      -1.03032769
C        1.68054958      -1.57364243       2.58003107
C       -3.04248094       1.20836465       1.28737238
C        1.62535664      -2.21455373      -2.10978990
C       -3.04487392      -1.47055567      -0.89705106
C       -2.02831788      -2.72412673       0.75540702
C        2.36388146       2.43439305       2.43669125
C       -1.50272524       2.87816701      -2.45191446
C        2.14927304      -2.00371665       0.35221499
C       -3.41620460      -0.98265961       0.41517967
C        0.19360824       1.79573104       3.08841584
C        2.14586132       2.97230603       1.12121686
C        2.67733679       0.82297381       0.02446728
C        2.54369105      -0.07487254      -1.13936049
C       -0.29179552      -2.72564701       2.46401684
C       -2.04996245       0.68506517       2.22697066
C        1.10349576      -1.40608760      -3.14957006
C       -0.09573205      -3.75024161      -0.96317632
C       -2.25370493      -2.62850029      -0.66876975
C       -3.05594306      -0.34803755      -1.79902678
C        1.88024023       1.88517365      -2.45406431
C       -0.61710165      -2.77780161      -2.68235531
C        2.31300946       0.54259108      -2.40615527
C       -2.82990431       2.92147825      -0.52407431
C        0.29512852       0.65386223      -3.62654971
C        0.19066267      -3.63255094       0.38556486
C       -2.36588993       1.75098510      -2.54608091
C       -0.35360670       3.53336611       0.88770117
C       -2.59746133      -1.57200527       1.40578129
C        1.39852790      -3.10319530       0.89877962
C       -2.11903164       0.32470261      -2.74013727
C        1.75702863       2.69916522      -1.29951485
C       -1.09192044       1.78141157       2.48746893
C        0.53157260       3.42827861      -1.46555138
60
Properties=species:S:1:pos:R:3 trajectory=trial0001_proposal001_step005_proposal_relax trajectory_step=73 pbc="F F F"
C       -0.58870319      -1.35253795       2.82319004
C       -1.34709998      -3.22535962      -1.51062393
C        2.21063355      -1.51500322      -1.01519142
C       -0.47644611       3.75297155      -0.51624636
C        0.91657119       3.52080923       1.54111372
C        0.63098587      -3.28494709      -2.07833370
C        0.68026017      -0.70811397       3.04029987
C        1.14592454      -2.83538427       2.27625039
C        0.64169607       1.96078817      -3.24886049
C       -1.73641962       3.53358615      -1.15656907
C        2.34762493       2.22020554      -0.10747459
C        1.46447142      -0.11688655      -3.38678302
C       -1.79625343      -0.73729510       2.32492487
C       -0.14146729       2.94984363      -2.67295102
C       -0.91567127      -0.16723423      -3.33285914
C        2.44103983      -1.14342291       1.43413601
C       -0.35349690      -1.51135142      -3.23302805
C       -2.60716302       2.52071925       0.86587817
C       -1.37488456       2.83446445       1.55252889
C       -0.86881961      -3.28694965       1.27894543
C       -3.34702201       1.95733578      -1.44355252
C       -3.71660134       0.38634624       0.40308922
C        1.08627062       2.93050708       2.84158920
C        1.05592300       0.65264443       3.06491771
C        2.30164841       1.01145222       2.45329161
C        2.69053187       0.24384755       1.31414734
C       -3.73514165       0.70323290      -0.99739648
C        1.70363851      -1.58353069       2.56447222
C       -3.01534582       1.21336313       1.31261763
C        1.60014474      -2.22283298      -2.12277984
C       -3.05612242      -1.46209612      -0.87343690
C       -2.02915539      -2.71445735       0.76955140
C        2.39048302       2.41942890       2.41138895
C       -1.52072842       2.88480876      -2.43155108
C        2.15381415      -2.01637689       0.33234434
C       -3.41148299      -0.96975039       0.44403664
C        0.22342951       1.79578318       3.08476058
C        2.16061378       2.95746255       1.09856193
C        2.67906640       0.81132355      -0.00257713
C        2.55143184      -0.08680140      -1.16751421
C       -0.28125097      -2.72428492       2.46004599
C       -2.01838394       0.69547540       2.24411809
C        1.06811378      -1.40233581      -3.15304548
C       -0.11382655      -3.75260214      -0.96675405
C       -2.26655168      -2.62083582      -0.65297537
C       -3.07730460      -0.33645139      -1.77360010
C        1.86880204       1.88132314      -2.48120865
C       -0.65066309      -2.77796054      -2.68481676
C        2.30108386       0.53499630      -2.43216561
C       -2.82457486       2.92395021      -0.49345950
C        0.26142763       0.65832925      -3.62863346
C        0.18214447      -3.63861045       0.37958383
C       -2.39384886       1.76682580      -2.52485233
C       -0.33402038       3.53436393       0.88998675
C       -2.58549013      -1.56029652       1.42679308
C        1.39464376      -3.10777837       0.88555001
C       -2.15201180       0.34040542      -2.72365887
C        1.75778644       2.69176067      -1.32543007
C       -1.06440999       1.79429742       2.50102603
C        0.53082908       3.41913479      -1.47267840
60
Properties=species:S:1:pos:R:3 trajectory=trial0001_proposal001_step005_proposal_relax trajectory_step=74 pbc="F F F"
C       -0.53942668      -1.34609856       2.82077373
C       -1.39808724      -3.21407073      -1.49132471
C        2.20465769      -1.53761255      -1.06576420
C       -0.45809406       3.74590109      -0.50226822
C        0.97060814       3.50712808       1.51992095
C        0.57046243      -3.29473728      -2.10429472
C        0.73852673      -0.71803349       3.00763651
C        1.16919383      -2.84552203       2.24622884
C        0.59383321       1.96169145      -3.27063793
C       -1.73481612       3.53765139      -1.11237456
C        2.36698505       2.19837906      -0.16239897
C        1.39573458      -0.12150720      -3.41276392
C       -1.75425749      -0.71903258       2.35733130
C       -0.17621996       2.94570032      -2.66376690
C       -0.98506146      -0.15177886      -3.30411405
C        2.47662372      -1.17069938       1.38323676
C       -0.42972487      -1.50314504      -3.22165896
C       -2.57662203       2.53760967       0.92268006
C       -1.33005202       2.85325894       1.58685614
C       -0.86867070      -3.28181985       1.28396065
C       -3.37446208       1.97913614      -1.37173396
C       -3.70430834       0.41016806       0.47675945
C        1.16153700       2.91470670       2.81637578
C        1.11601795       0.64160492       3.02603854
C        2.35610744       0.98823625       2.40040863
C        2.72635186       0.21688563       1.25536103
C       -3.76073052       0.73329502      -0.92505751
C        1.75273043      -1.60449026       2.52864842
C       -2.97434098       1.23229212       1.36854761
C        1.54476162      -2.23418043      -2.15812355
C       -3.08871034      -1.44006034      -0.82005712
C       -2.03070502      -2.69547774       0.80196835
C        2.45411650       2.39400605       2.35916149
C       -1.55023459       2.89336858      -2.39334917
C        2.16223583      -2.03915591       0.28487969
C       -3.41122193      -0.94543055       0.50744894
C        0.29591165       1.78845656       3.07407665
C        2.19945494       2.93192302       1.04813093
C        2.69548302       0.78750968      -0.06159476
C        2.55353013      -0.10812640      -1.22753705
C       -0.25458697      -2.71866791       2.45423275
C       -1.96765307       0.71193648       2.28237694
C        0.99423093      -1.40884996      -3.16833839
C       -0.15746807      -3.75467568      -0.97592712
C       -2.29858537      -2.60445810      -0.61764665
C       -3.12207716      -0.31129333      -1.71497152
C        1.84263254       1.86997072      -2.53204127
C       -0.72334605      -2.77561193      -2.68344572
C        2.26595466       0.52150389      -2.48578777
C       -2.81363657       2.93796656      -0.43055401
C        0.19291752       0.66195286      -3.63142298
C        0.16648949      -3.64479015       0.36698021
C       -2.44426285       1.79040164      -2.47837069
C       -0.29562724       3.53812070       0.90023054
C       -2.56406534      -1.53830511       1.47148616
C        1.39267089      -3.11992544       0.85024233
C       -2.21087134       0.36355878      -2.68165173
C        1.76093137       2.67967731      -1.36871902
C       -1.01022644       1.80753738       2.52421586
C        0.52813514       3.40632080      -1.48036637
60
Properties=species:S:1:pos:R:3 trajectory=trial0001_proposal001_step005_proposal_relax trajectory_step=75 pbc="F F F"
C       -0.46211248      -1.33343676       2.81590683
C       -1.47448492      -3.19908865      -1.46159778
C        2.19182432      -1.57089615      -1.14585417
C       -0.43132505       3.73613189      -0.48084841
C        1.05329984       3.48965917       1.48679664
C        0.47293063      -3.30931752      -2.13872360
C        0.82952129      -0.73185103       2.96134382
C        1.20458169      -2.86420704       2.19729769
C        0.51857386       1.96470939      -3.30007417
C       -1.72590205       3.54295057      -1.04793519
C        2.39587419       2.16200806      -0.24669284
C        1.28144647      -0.14115300      -3.44938961
C       -1.68880973      -0.69494522       2.40514435
C       -0.22698516       2.93902209      -2.64886050
C       -1.08830338      -0.12998939      -3.25799964
C        2.52504384      -1.21420924       1.30391786
C       -0.55083763      -1.49137443      -3.20326126
C       -2.52409723       2.56817956       1.00836616
C       -1.26150426       2.87487245       1.63792585
C       -0.85869542      -3.27526357       1.29629457
C       -3.40627025       2.02928487      -1.26470731
C       -3.68384883       0.45383758       0.58437570
C        1.27852973       2.89049847       2.77155547
C        1.21146519       0.62003737       2.96199630
C        2.44024138       0.95152556       2.31207160
C        2.78062118       0.17349381       1.16348171
C       -3.80071915       0.76723139      -0.80431939
C        1.82736465      -1.63750746       2.47326130
C       -2.91250400       1.25899802       1.45272861
C        1.45809453      -2.25129639      -2.20653983
C       -3.13608643      -1.40344634      -0.73537909
C       -2.03129998      -2.66353409       0.84590570
C        2.55034317       2.35791144       2.27214627
C       -1.59635951       2.90567476      -2.33484288
C        2.17456155      -2.07475584       0.21097914
C       -3.40359196      -0.91449724       0.60484504
C        0.39857508       1.77718946       3.05259060
C        2.25575316       2.89282302       0.97052321
C        2.72424350       0.74737142      -0.15575600
C        2.54920884      -0.14054388      -1.32069397
C       -0.21167549      -2.71256877       2.43950856
C       -1.89187974       0.73832273       2.34040185
C        0.87679785      -1.40330121      -3.19424160
C       -0.22480889      -3.75811224      -0.98776745
C       -2.34709514      -2.57658036      -0.55984091
C       -3.18721631      -0.26843653      -1.62297736
C        1.79583731       1.86097915      -2.60324159
C       -0.83636773      -2.77202773      -2.67459757
C        2.20555291       0.49941270      -2.56382498
C       -2.79946199       2.95952736      -0.33528076
C        0.08690516       0.66617474      -3.63330300
C        0.14336639      -3.65304463       0.34485055
C       -2.52033167       1.82655446      -2.40401599
C       -0.23504340       3.54939926       0.91886841
C       -2.52727108      -1.50252662       1.53653739
C        1.39036415      -3.14091037       0.79673169
C       -2.29830329       0.39938527      -2.61012201
C        1.76209441       2.65713892      -1.43716068
C       -0.92024086       1.82257281       2.55974565
C        0.52109149       3.38624353      -1.48811824
60
Properties=species:S:1:pos:R:3 trajectory=trial0001_proposal001_step005_proposal_relax trajectory_step=76 pbc="F F F"
C       -0.46635718      -1.33376112       2.81482184
C       -1.46976571      -3.20212055      -1.46168877
C        2.18954054      -1.56898609      -1.14174110
C       -0.43298738       3.73807733      -0.48121192
C        1.04684620       3.49538661       1.48836170
C        0.47727447      -3.30614410      -2.13287652
C        0.82405692      -0.73209174       2.96841766
C        1.20249497      -2.86472913       2.19962444
C        0.52273417       1.96382330      -3.29609512
C       -1.72432857       3.54176562      -1.05422485
C        2.39205049       2.16145654      -0.24173034
C        1.28845318      -0.13060952      -3.44422606
C       -1.69200460      -0.69751009       2.40094292
C       -0.22525614       2.94080692      -2.64819307
C       -1.08193950      -0.13119478      -3.25850759
C        2.51617152      -1.21268555       1.30833015
C       -0.54598937      -1.49259080      -3.20342841
C       -2.52507577       2.56524196       1.00057647
C       -1.26125324       2.86969717       1.63239119
C       -0.85807627      -3.27620870       1.29355218
C       -3.40259332       2.02691372      -1.26934550
C       -3.68143167       0.45047267       0.57603846
C        1.26896758       2.89106974       2.77071436
C        1.20479033       0.62315516       2.96377200
C        2.43274780       0.95486545       2.31281641
C        2.77592032       0.17332431       1.16693023
C       -3.79530757       0.76834734      -0.81218627
C        1.82084786      -1.63818621       2.47806269
C       -2.91484514       1.25874561       1.44413672
C        1.45944795      -2.24607366      -2.20247763
C       -3.12927904      -1.40428304      -0.73962474
C       -2.02418291      -2.66567946       0.84166539
C        2.54166403       2.36012434       2.27358182
C       -1.58992869       2.90573489      -2.34060479
C        2.17343996      -2.07332155       0.21614165
C       -3.40080123      -0.91637877       0.59637399
C        0.39342423       1.77601063       3.05174815
C        2.24856812       2.89482439       0.97180482
C        2.72487359       0.74716574      -0.15147267
C        2.54311070      -0.13830917      -1.31552935
C       -0.21161658      -2.71174834       2.43891948
C       -1.89783743       0.73459041       2.33622742
C        0.87723416      -1.41218643      -3.18575865
C       -0.22118475      -3.75939001      -0.98581636
C       -2.34077492      -2.57789416      -0.56350151
C       -3.17877479      -0.26852319      -1.62598240
C        1.79423120       1.86036088      -2.59687868
C       -0.82884577      -2.77088593      -2.67040592
C        2.20053791       0.50182636      -2.55749830
C       -2.79744922       2.96210904      -0.34311033
C        0.09414037       0.66565609      -3.63187201
C        0.14782367      -3.65160051       0.34668799
C       -2.51353990       1.82495274      -2.40784013
C       -0.24028361       3.55400857       0.91998355
C       -2.52372344      -1.50526158       1.52982195
C        1.39218877      -3.14193807       0.79920623
C       -2.28762944       0.39745385      -2.60990863
C        1.75798820       2.65797604      -1.42904984
C       -0.92704545       1.81777108       2.55425417
C        0.51921408       3.38687739      -1.48498773
60
Properties=species:S:1:pos:R:3 trajectory=trial0001_proposal001_step005_proposal_relax trajectory_step=77 pbc="F F F"
C       -0.45129088      -1.33479271       2.81352600
C       -1.48548920      -3.19993099      -1.45517311
C        2.17896657      -1.57327384      -1.15699325
C       -0.42772768       3.73654610      -0.47586748
C        1.06272044       3.49446560       1.48194183
C        0.45898251      -3.30501882      -2.13347736
C        0.84159635      -0.73481356       2.96345477
C        1.21260811      -2.86972969       2.18836007
C        0.50945349       1.96240578      -3.29512507
C       -1.72139963       3.54079506      -1.04544763
C        2.39721886       2.15356852      -0.25529434
C        1.26750101      -0.13164905      -3.44847425
C       -1.67903534      -0.69682161       2.40560806
C       -0.23301525       2.94009454      -2.64648145
C       -1.10245169      -0.13023184      -3.25076218
C        2.52017556      -1.21874944       1.29022568
C       -0.56901455      -1.49198334      -3.19979099
C       -2.52055335       2.57342544       1.01547941
C       -1.24717182       2.86972665       1.64111578
C       -0.85559565      -3.27535427       1.29421628
C       -3.40678067       2.03641152      -1.24888317
C       -3.67856225       0.45964752       0.59496684
C        1.29104355       2.88606305       2.76043845
C        1.22620226       0.62053835       2.95026837
C        2.45007427       0.95003286       2.29137420
C        2.78776850       0.16486249       1.14677325
C       -3.79994229       0.78004677      -0.79094370
C        1.83036186      -1.64306576       2.46265927
C       -2.91036974       1.26881065       1.46035296
C        1.44235484      -2.24711323      -2.21196112
C       -3.13637716      -1.39454865      -0.72298821
C       -2.01989327      -2.66187246       0.84905215
C        2.56074019       2.35462959       2.25503996
C       -1.59484814       2.90558126      -2.33364742
C        2.17378463      -2.07976086       0.20065610
C       -3.39780772      -0.90866109       0.61307008
C        0.41803992       1.77143207       3.04616643
C        2.25966740       2.88940318       0.95477253
C        2.73329734       0.73910412      -0.17076283
C        2.53080105      -0.14356891      -1.33179119
C       -0.19936435      -2.71281067       2.43779932
C       -1.88773711       0.73561476       2.34588990
C        0.85340919      -1.41560785      -3.18639557
C       -0.23520103      -3.75892299      -0.98614337
C       -2.34702077      -2.57057491      -0.55284419
C       -3.19112880      -0.25997128      -1.60802781
C        1.78476210       1.85704827      -2.60575625
C       -0.84805844      -2.76840503      -2.66210845
C        2.18408881       0.50025780      -2.56887973
C       -2.79439494       2.97416714      -0.32867998
C        0.07536273       0.66410568      -3.62820654
C        0.14509582      -3.64828657       0.34304050
C       -2.52213792       1.82786953      -2.39321018
C       -0.23069062       3.55585339       0.92465198
C       -2.51529479      -1.50150502       1.53916534
C        1.39430737      -3.14731109       0.78567346
C       -2.30007582       0.39988885      -2.59403230
C        1.75397944       2.65379567      -1.43376484
C       -0.91101154       1.81416916       2.55765820
C        0.51575328       3.38427392      -1.48335258
60
Properties=species:S:1:pos:R:3 trajectory=trial0001_proposal001_step005_proposal_relax trajectory_step=78 pbc="F F F"
C       -0.42389434      -1.33605303       2.81239343
C       -1.51335977      -3.19924523      -1.44219161
C        2.16221778      -1.58344633      -1.18137043
C       -0.41963087       3.73804949      -0.46789491
C        1.08864190       3.49495115       1.46967360
C        0.42455179      -3.30392947      -2.13759510
C        0.87196865      -0.74099911       2.95530945
C        1.22919440      -2.87879197       2.17062212
C        0.48356329       1.96051385      -3.29879521
C       -1.71609293       3.54506026      -1.02812953
C        2.40216940       2.13928014      -0.28136522
C        1.22665342      -0.13412624      -3.45679974
C       -1.65504933      -0.69377596       2.41605406
C       -0.24837365       2.94205628      -2.64175437
C       -1.13908390      -0.12435125      -3.23711600
C        2.52878028      -1.23187685       1.26054591
C       -0.61148329      -1.48929377      -3.19158629
C       -2.50102025       2.58318330       1.03881632
C       -1.22089674       2.87191624       1.65401603
C       -0.84678046      -3.27176212       1.29571888
C       -3.41345932       2.05454012      -1.21542221
C       -3.67040733       0.47350624       0.62965701
C        1.32895400       2.87853936       2.74222980
C        1.26071313       0.61257538       2.92892362
C        2.47551965       0.93849508       2.25448222
C        2.80442835       0.14951457       1.11108024
C       -3.80423817       0.79802876      -0.75263718
C        1.85034604      -1.65225270       2.43994190
C       -2.89424244       1.28051316       1.48777661
C        1.40777401      -2.25057610      -2.22648448
C       -3.14492149      -1.38052223      -0.69424360
C       -2.01276981      -2.65216196       0.86153561
C        2.58898720       2.34287730       2.21952715
C       -1.60613101       2.91081012      -2.31802712
C        2.17339502      -2.09288897       0.17451463
C       -3.39003058      -0.89563890       0.64357678
C        0.45683218       1.76518370       3.03488684
C        2.27527574       2.87936587       0.92544041
C        2.74363521       0.72431357      -0.20475750
C        2.51484932      -0.15511260      -1.36014251
C       -0.17902010      -2.71369782       2.43223432
C       -1.86643069       0.73948845       2.36333593
C        0.81006521      -1.41682678      -3.18885926
C       -0.25789587      -3.76181219      -0.98588317
C       -2.35675817      -2.55935980      -0.53350251
C       -3.20671249      -0.24405495      -1.57367192
C        1.76377515       1.85210493      -2.62208780
C       -0.88601036      -2.76473309      -2.65190658
C        2.15357517       0.49261976      -2.58990791
C       -2.78668467       2.99017355      -0.30119314
C        0.03854348       0.66598519      -3.62607346
C        0.14055631      -3.64878117       0.33629102
C       -2.53741053       1.83757624      -2.36584255
C       -0.21182229       3.56254142       0.93153764
C       -2.49834444      -1.49380489       1.55689503
C        1.39759326      -3.15818005       0.76568680
C       -2.32105321       0.41061106      -2.56347826
C        1.74501540       2.64343520      -1.44689281
C       -0.87876129       1.81165298       2.56368891
C        0.51187069       3.37889269      -1.48264966
60
Properties=species:S:1:pos:R:3 trajectory=trial0001_proposal001_step005_proposal_relax trajectory_step=79 pbc="F F F"
C       -0.34975603      -1.34222386       2.81421544
C       -1.58760799      -3.20228786      -1.41027500
C        2.11263960      -1.61527505      -1.24897160
C       -0.39418593       3.74765977      -0.44889308
C        1.16534686       3.49063275       1.43468426
C        0.31817523      -3.30817485      -2.15389989
C        0.96052798      -0.76315832       2.92523859
C        1.28100999      -2.90031012       2.12346933
C        0.40211723       1.96989442      -3.30961542
C       -1.70948289       3.56974914      -0.97571383
C        2.41283450       2.10237427      -0.35666792
C        1.10623006      -0.14526372      -3.48815941
C       -1.58065207      -0.68252947       2.45141890
C       -0.28883067       2.94639357      -2.63443780
C       -1.24413199      -0.10600901      -3.20419981
C        2.56336724      -1.26733219       1.17307053
C       -0.73371393      -1.47373846      -3.16743898
C       -2.44141026       2.60547615       1.10865377
C       -1.14461267       2.88399864       1.69456411
C       -0.83157480      -3.25580458       1.29645342
C       -3.43370619       2.10379051      -1.11940510
C       -3.64971603       0.51427159       0.73602848
C        1.43967667       2.86025551       2.69512940
C        1.35656284       0.59022254       2.87778347
C        2.54878123       0.90407041       2.15603808
C        2.84955926       0.10649350       1.01032415
C       -3.81442228       0.84800155      -0.64204694
C        1.91346803      -1.68077215       2.37066827
C       -2.84271313       1.31120482       1.57245576
C        1.31458902      -2.26506526      -2.26634394
C       -3.16912523      -1.34325014      -0.60857018
C       -1.99341037      -2.62974182       0.90402485
C        2.67094537       2.30254218       2.12175531
C       -1.63887890       2.93614686      -2.26633850
C        2.17066353      -2.12974640       0.10353413
C       -3.37025694      -0.86022946       0.73325528
C        0.57261995       1.74897131       3.00610757
C        2.32262051       2.85285334       0.84472396
C        2.75992347       0.68761333      -0.29991121
C        2.47739229      -0.19210957      -1.44156796
C       -0.11741115      -2.71864874       2.42219803
C       -1.78934199       0.75307750       2.41657412
C        0.68569846      -1.41470558      -3.20637349
C       -0.32529297      -3.77086290      -0.99659570
C       -2.38945898      -2.52764901      -0.47583710
C       -3.24952215      -0.19873425      -1.47915674
C        1.70580898       1.82617946      -2.67429810
C       -1.00096101      -2.75973369      -2.62867673
C        2.07735184       0.46928411      -2.65031216
C       -2.76704890       3.02757543      -0.22129502
C       -0.07434569       0.66875670      -3.62733677
C        0.12994927      -3.65734542       0.32219862
C       -2.58273485       1.87144123      -2.28635362
C       -0.15436902       3.57603143       0.94343429
C       -2.45769229      -1.46899347       1.61464511
C        1.40488982      -3.19164232       0.71297184
C       -2.38766723       0.44411524      -2.48444758
C        1.72102984       2.61079114      -1.49327773
C       -0.79020344       1.81382437       2.57742498
C        0.50113589       3.36794518      -1.48849753
60
Properties=species:S:1:pos:R:3 trajectory=trial0001_proposal001_step005_proposal_relax trajectory_step=80 pbc="F F F"
C       -0.32606292      -1.34407396       2.81555838
C       -1.61334844      -3.20048425      -1.39865556
C        2.10042087      -1.62424943      -1.26719171
C       -0.38795534       3.75056551      -0.44489899
C        1.18655122       3.48844996       1.42490590
C        0.29237536      -3.30776210      -2.16344670
C        0.98496388      -0.76797571       2.91580373
C        1.29333427      -2.90822360       2.11023988
C        0.38184744       1.96347879      -3.31810260
C       -1.70717145       3.57779222      -0.95988251
C        2.41539934       2.09310560      -0.37841783
C        1.07448388      -0.14777350      -3.49726027
C       -1.56150586      -0.67883010       2.46202726
C       -0.30388669       2.95235652      -2.62854958
C       -1.27472572      -0.09966081      -3.19498779
C        2.57404810      -1.27852129       1.14979094
C       -0.76743997      -1.47284651      -3.16017040
C       -2.42476953       2.61136297       1.12709884
C       -1.12463085       2.88916395       1.70358814
C       -0.82041253      -3.25320106       1.30017256
C       -3.43952810       2.11611521      -1.09237803
C       -3.64371628       0.52360320       0.76517854
C        1.47179582       2.85431211       2.68205960
C        1.38400218       0.58130292       2.86318158
C        2.56895315       0.89239146       2.13064738
C        2.86129700       0.09679919       0.98387159
C       -3.81768539       0.86067903      -0.61065783
C        1.93253201      -1.68627520       2.35319381
C       -2.82619625       1.31814390       1.59675806
C        1.28503669      -2.26970726      -2.28036529
C       -3.17650937      -1.33226773      -0.58632831
C       -1.99412481      -2.61971766       0.91453405
C        2.69309292       2.29362366       2.09535529
C       -1.64998941       2.94281168      -2.25216224
C        2.16997076      -2.14040526       0.08286339
C       -3.36619586      -0.84897162       0.75992158
C        0.59883659       1.74667693       2.99816697
C        2.33637343       2.84474385       0.82373284
C        2.76313716       0.67687000      -0.32552965
C        2.46932490      -0.20175727      -1.46398408
C       -0.10388960      -2.71992400       2.41811000
C       -1.76868282       0.75763824       2.43033124
C        0.65355915      -1.41601281      -3.21039768
C       -0.34160530      -3.77562330      -0.99134412
C       -2.39670364      -2.52265391      -0.46069389
C       -3.26157004      -0.18735987      -1.45164788
C        1.68787698       1.82273358      -2.68873547
C       -1.03279613      -2.75603292      -2.62688519
C        2.05543656       0.45913609      -2.67055262
C       -2.76048901       3.03677261      -0.19673237
C       -0.10388610       0.67485800      -3.62834934
C        0.12237815      -3.66157905       0.31287812
C       -2.59516626       1.88259170      -2.26488487
C       -0.13685282       3.57912169       0.94691009
C       -2.44598234      -1.46246473       1.63256957
C        1.40752774      -3.19969059       0.69971161
C       -2.40668098       0.45486279      -2.46413727
C        1.71536668       2.60225039      -1.50774093
C       -0.75919028       1.81495531       2.58512749
C        0.50010520       3.36507676      -1.49108854
