60
Properties=species:S:1:pos:R:3 trajectory=trial0001_proposal001_step002_proposal_relax trajectory_step=0 pbc="F F F"
C       -2.47633367      -2.06812387       0.65660525
C        2.21427857      -2.80912319       0.07341688
C        1.10566312       0.01910503       2.41334566
C       -0.99462911       3.26963574      -2.14728932
C       -2.55780264       3.10934365      -0.20601316
C        2.76588379      -1.85489108       1.83262954
C       -2.95354685      -1.06107709       1.61903173
C       -1.53915877      -2.49430985       2.74097459
C        2.07825921       2.84655441      -0.72890569
C       -0.37387767       2.72549107      -3.34623875
C       -0.79684776       3.04136010       1.42799631
C        2.97453697       1.60669984       0.94697891
C       -2.13944532      -1.96970329      -0.75079073
C        1.21151381       3.18410171      -1.73011665
C        2.81472991       0.41111789      -1.07849251
C       -1.30399601      -0.22849782       3.11441709
C        3.25719708      -0.45380026       0.00755261
C       -1.86902721       0.80902422      -3.13102634
C       -2.44171347       1.41553766      -1.95178060
C       -0.43013335      -3.45610090       0.91907325
C        0.37972504       0.64631501      -3.94959977
C       -0.77707938      -1.37099221      -3.31926570
C       -3.55833931       2.29279505       0.36954321
C       -3.31075193       0.28964328       1.41179962
C       -2.90503630       1.34801462       2.32930339
C       -1.58617992       1.14540977       2.83396439
C        0.41639151      -0.74202902      -3.77096336
C       -2.26240096      -1.27719760       2.85462005
C       -1.86684983      -0.60664189      -2.85224436
C        2.43280870      -0.48805913       2.15834006
C        1.07072643      -2.35537083      -2.22893274
C       -0.07156191      -3.34579936      -0.44516883
C       -3.21725511       2.61388943       1.74460392
C        1.01823221       2.54330492      -2.95213259
C       -0.00778986      -0.76602454       2.82705429
C       -0.34455231      -2.38533995      -2.45200482
C       -3.44563275       0.88903581       0.14769314
C       -2.11897053       3.35979644       1.16554151
C       -0.50374524       1.95714214       2.31898554
C        0.84358794       1.41028155       2.18557101
C       -1.72948232      -3.03275157       1.40707964
C       -2.49206052      -0.84935941      -1.55973714
C        3.18521934       0.28323354       1.22070776
C        1.85333035      -2.89432826       1.48123584
C        1.26298011      -3.00889110      -0.93600050
C        1.52488474      -1.13859034      -2.88117915
C        1.40914653       3.07769140       0.51660803
C        3.18105771      -1.80370578       0.40074765
C        1.82512188       2.21388381       1.52129949
C       -0.82485072       1.46431285      -3.87715308
C        2.88345590       1.72072409      -0.50257942
C        0.52428295      -3.03768867       1.87812562
C        1.40241052       1.18641796      -3.10210236
C       -2.07279467       2.67410804      -1.47246971
C       -1.04175459      -2.74177013      -1.28635439
C       -0.13881538      -2.17031250       2.78369341
C        2.08032128       0.13721948      -2.32541064
C        0.06762419       3.37608858       0.30969086
C       -2.95236428       0.42609441      -1.07822356
C       -0.03801678       3.55739183      -1.14784464
60
Properties=species:S:1:pos:R:3 trajectory=trial0001_proposal001_step002_proposal_relax trajectory_step=1 pbc="F F F"
C       -2.47614380      -2.06648500       0.65760869
C        2.21506540      -2.81141354       0.07548645
C        1.11203225       0.02155619       2.42008839
C       -0.99844503       3.27138247      -2.14224109
C       -2.57086214       3.10466339      -0.20820392
C        2.76608910      -1.85206070       1.82872893
C       -2.94966054      -1.06481438       1.61629865
C       -1.53915803      -2.49318004       2.73864793
C        2.08691202       2.84071076      -0.71579519
C       -0.37635670       2.72596302      -3.33586691
C       -0.79325283       3.04416208       1.42022263
C        2.97478465       1.60830459       0.94676055
C       -2.14096791      -1.96727627      -0.75263457
C        1.20987521       3.19062826      -1.73852249
C        2.81681140       0.40694482      -1.08603245
C       -1.29823071      -0.22810176       3.11088189
C        3.25875841      -0.45392613       0.00484496
C       -1.86782083       0.81261060      -3.12593544
C       -2.44232442       1.41693596      -1.95868176
C       -0.42758160      -3.45520145       0.91450544
C        0.38080447       0.63946703      -3.94902454
C       -0.77739799      -1.37457859      -3.31684120
C       -3.56128496       2.29191599       0.37289095
C       -3.31009346       0.29419314       1.40835857
C       -2.90045577       1.34644210       2.32988496
C       -1.58668478       1.14347228       2.83214292
C        0.41639590      -0.74618182      -3.76956416
C       -2.25734525      -1.27375175       2.85307687
C       -1.86283241      -0.60518447      -2.85543604
C        2.42768547      -0.48667217       2.16146889
C        1.07148105      -2.35122984      -2.22345080
C       -0.07296256      -3.34490335      -0.43696492
C       -3.21403532       2.61122366       1.73984913
C        1.02281240       2.54338695      -2.94711261
C       -0.01548235      -0.77120494       2.83692635
C       -0.34664668      -2.38624658      -2.45665903
C       -3.44969768       0.88753302       0.15601837
C       -2.12769009       3.35786434       1.16141718
C       -0.50071819       1.95449592       2.31531527
C        0.84096307       1.41629168       2.19141009
C       -1.72692486      -3.03341863       1.40795365
C       -2.49075065      -0.84933359      -1.56475561
C        3.18496609       0.27418488       1.22306098
C        1.85032762      -2.89148191       1.48022974
C        1.25888877      -3.00664910      -0.93783929
C        1.52311412      -1.13240883      -2.87715903
C        1.40655069       3.08524966       0.51399073
C        3.18092721      -1.80909359       0.39442736
C        1.82874960       2.20640405       1.52385234
C       -0.82449273       1.45923996      -3.87135960
C        2.88576158       1.72421968      -0.50268664
C        0.52769399      -3.03623703       1.87781856
C        1.40383122       1.18633657      -3.10832705
C       -2.07911114       2.68069838      -1.48019386
C       -1.04408614      -2.74579419      -1.28219347
C       -0.14130508      -2.17679906       2.78457761
C        2.07690376       0.13785618      -2.33049001
C        0.06738260       3.38061866       0.31090728
C       -2.95354654       0.42690066      -1.07770687
C       -0.03064550       3.56205753      -1.14976404
60
Properties=species:S:1:pos:R:3 trajectory=trial0001_proposal001_step002_proposal_relax trajectory_step=2 pbc="F F F"
C       -2.47468224      -2.06492348       0.65780987
C        2.21390670      -2.81650159       0.07559309
C        1.11362877       0.02364079       2.43499324
C       -1.00122419       3.27614514      -2.13417899
C       -2.58949629       3.09912381      -0.21546895
C        2.76525210      -1.84904902       1.82242675
C       -2.94441224      -1.06524453       1.61268490
C       -1.53948374      -2.49291227       2.73531310
C        2.08785827       2.84140446      -0.70922878
C       -0.37914391       2.72280829      -3.32171141
C       -0.79416982       3.04749116       1.40962955
C        2.97749115       1.60207993       0.94871870
C       -2.14256683      -1.96478295      -0.75494391
C        1.22016207       3.19910270      -1.73717499
C        2.82100786       0.40347837      -1.09575937
C       -1.29322027      -0.22746458       3.10619916
C        3.26036918      -0.45675778      -0.00027099
C       -1.86416055       0.81486991      -3.12097044
C       -2.44622909       1.42060276      -1.96432733
C       -0.42415617      -3.45348344       0.91472905
C        0.38077095       0.63152121      -3.94879327
C       -0.77788965      -1.37836452      -3.31600214
C       -3.57003470       2.28762473       0.37682581
C       -3.30709406       0.29470007       1.40891652
C       -2.89499417       1.34471868       2.32967382
C       -1.58369749       1.14161954       2.82882455
C        0.41672277      -0.75358489      -3.76735976
C       -2.25064183      -1.26944860       2.84924140
C       -1.85799933      -0.60260031      -2.85869720
C        2.42227907      -0.48663615       2.16490291
C        1.07068011      -2.34339425      -2.21571488
C       -0.07436381      -3.34194303      -0.43145027
C       -3.20993920       2.60556528       1.73735234
C        1.02617250       2.54157345      -2.94394504
C       -0.01708634      -0.77673664       2.85038524
C       -0.34949360      -2.39217270      -2.45740144
C       -3.45535850       0.88574670       0.16015003
C       -2.13458839       3.35570797       1.15393680
C       -0.49930657       1.95368403       2.30807205
C        0.84116243       1.42150917       2.20121826
C       -1.72351223      -3.03436154       1.40733119
C       -2.48933817      -0.84768389      -1.57179515
C        3.18417350       0.26813694       1.22335781
C        1.84858115      -2.88560949       1.47877044
C        1.25430221      -3.00330783      -0.93658068
C        1.51937667      -1.12495716      -2.87030130
C        1.40854422       3.09089993       0.51820660
C        3.18197348      -1.81502222       0.38518900
C        1.83000574       2.20202066       1.52386605
C       -0.82170052       1.45456222      -3.86072419
C        2.89257359       1.72270017      -0.50235733
C        0.52968045      -3.03497321       1.87709028
C        1.40668280       1.18671097      -3.11824985
C       -2.09341991       2.68996030      -1.48996225
C       -1.04749172      -2.75080410      -1.27898704
C       -0.14453397      -2.18578782       2.78740747
C        2.07307296       0.13942725      -2.33758506
C        0.06807294       3.38959539       0.30875530
C       -2.95550692       0.42933818      -1.07675320
C       -0.02299381       3.57072359      -1.15266637
60
Properties=species:S:1:pos:R:3 trajectory=trial0001_proposal001_step002_proposal_relax trajectory_step=3 pbc="F F F"
C       -2.46702186      -2.06316411       0.65062439
C        2.21126218      -2.83045892       0.07125301
C        1.10898765       0.02635427       2.48374962
C       -1.00049375       3.29053511      -2.11517422
C       -2.63667072       3.09432640      -0.23297451
C        2.76054865      -1.84113727       1.80507448
C       -2.92962608      -1.05960029       1.60794545
C       -1.54360731      -2.49534663       2.72951084
C        2.10517058       2.83566356      -0.68954158
C       -0.37578908       2.70676719      -3.28623119
C       -0.80608857       3.05144052       1.38261823
C        2.97928539       1.58960692       0.94914225
C       -2.14494966      -1.96061557      -0.76115084
C        1.24375542       3.21810201      -1.74563081
C        2.83474585       0.40269457      -1.11428297
C       -1.28522768      -0.22842756       3.09940154
C        3.26208801      -0.47118186      -0.01601982
C       -1.85374356       0.81440055      -3.11278885
C       -2.46618400       1.43064092      -1.96848446
C       -0.41803065      -3.45032336       0.92184460
C        0.37810956       0.61787148      -3.95303335
C       -0.77845065      -1.39417294      -3.31670369
C       -3.60284342       2.27269958       0.38310342
C       -3.29818875       0.28893099       1.41394975
C       -2.88323036       1.33741783       2.32879168
C       -1.56605718       1.14210390       2.81691595
C        0.41683917      -0.76705242      -3.76429030
C       -2.23749024      -1.26502014       2.83396516
C       -1.84921412      -0.59772416      -2.86044511
C        2.41918609      -0.49074052       2.16514339
C        1.06144832      -2.32339026      -2.19349314
C       -0.07705816      -3.33303810      -0.42818429
C       -3.20218502       2.59143000       1.73794556
C        1.02990382       2.54274328      -2.92995245
C       -0.00223136      -0.78974056       2.88468687
C       -0.35559736      -2.40902057      -2.45387249
C       -3.47023991       0.87521807       0.15893389
C       -2.14682587       3.35030384       1.12396754
C       -0.50180035       1.96052763       2.28623510
C        0.84804322       1.42894029       2.22718328
C       -1.72064172      -3.03506767       1.40102899
C       -2.48824499      -0.83981357      -1.58107332
C        3.17890068       0.24708576       1.22052349
C        1.84623352      -2.87215283       1.47427588
C        1.24479826      -2.99421404      -0.92580140
C        1.50554856      -1.11644840      -2.85067705
C        1.41357562       3.10042641       0.53169220
C        3.18675979      -1.82448970       0.36392821
C        1.83281263       2.19350973       1.52450812
C       -0.81043265       1.44874532      -3.83115384
C        2.90395168       1.72242664      -0.50360883
C        0.53118396      -3.03264197       1.87966748
C        1.41596035       1.18804299      -3.14370120
C       -2.13917615       2.71549442      -1.51109175
C       -1.05891778      -2.76063803      -1.27758784
C       -0.14560020      -2.19867573       2.80309927
C        2.07269056       0.14734861      -2.35100354
C        0.07822001       3.41738712       0.30043818
C       -2.95832600       0.43704183      -1.08209148
C       -0.00925097       3.59835496      -1.15289385
60
Properties=species:S:1:pos:R:3 trajectory=trial0001_proposal001_step002_proposal_relax trajectory_step=4 pbc="F F F"
C       -2.46264876      -2.05983289       0.64307399
C        2.21808016      -2.83559430       0.07262039
C        1.12425113       0.02876832       2.51576872
C       -1.00780124       3.29354821      -2.10419384
C       -2.67290656       3.09892265      -0.23843792
C        2.75689314      -1.84128441       1.79262211
C       -2.91879198      -1.06266765       1.60099122
C       -1.54244835      -2.49935702       2.72908121
C        2.09761763       2.85245296      -0.70267223
C       -0.36727630       2.69908947      -3.26075530
C       -0.81046328       3.05292735       1.35784277
C        2.97854772       1.57046160       0.94892783
C       -2.14678538      -1.95745501      -0.76689060
C        1.26943730       3.23019198      -1.72147630
C        2.84594763       0.40811872      -1.12027867
C       -1.27299076      -0.23089413       3.10178667
C        3.26127307      -0.47436875      -0.03007058
C       -1.85441155       0.81519711      -3.10325493
C       -2.48038271       1.43859527      -1.97786332
C       -0.41886677      -3.44921552       0.91886150
C        0.38220411       0.61840487      -3.95978439
C       -0.78368307      -1.40486232      -3.32039892
C       -3.62633850       2.26557039       0.38682749
C       -3.29491606       0.28889787       1.40786357
C       -2.87381327       1.33222036       2.32838220
C       -1.55619929       1.13947671       2.80656457
C        0.41319668      -0.77138652      -3.76290135
C       -2.22955968      -1.26520858       2.82575580
C       -1.84290313      -0.60358244      -2.85545357
C        2.41539166      -0.49482075       2.16621846
C        1.05079953      -2.31678108      -2.17511067
C       -0.08294939      -3.33047361      -0.42107681
C       -3.20319097       2.58498155       1.73114749
C        1.03188062       2.53228256      -2.93159259
C        0.00264874      -0.79345620       2.91313515
C       -0.35990574      -2.41564466      -2.45339109
C       -3.48076755       0.86413611       0.15834812
C       -2.15912032       3.34188106       1.09904579
C       -0.49740876       1.96812780       2.27237276
C        0.84904767       1.43341972       2.24237125
C       -1.72111704      -3.03499483       1.39670234
C       -2.48682910      -0.83600159      -1.57943120
C        3.17158103       0.24807856       1.20399946
C        1.84309104      -2.86991030       1.47056942
C        1.23607978      -2.98710390      -0.92061197
C        1.49633020      -1.11411276      -2.83868946
C        1.42363521       3.09900994       0.53542532
C        3.18872405      -1.83664303       0.35306717
C        1.83229008       2.18786495       1.53172874
C       -0.80367147       1.44694574      -3.81484815
C        2.91583132       1.70956805      -0.49994115
C        0.53233255      -3.02989804       1.88867802
C        1.42639588       1.19173189      -3.15525288
C       -2.16263765       2.73830921      -1.52374600
C       -1.06627098      -2.76682916      -1.28162760
C       -0.14156467      -2.20476269       2.81886870
C        2.08171979       0.15380371      -2.35536065
C        0.08547569       3.43675118       0.30157855
C       -2.96365986       0.43943065      -1.08504779
C        0.00215008       3.61826098      -1.15185729
60
Properties=species:S:1:pos:R:3 trajectory=trial0001_proposal001_step002_proposal_relax trajectory_step=5 pbc="F F F"
C       -2.46386801      -2.06105905       0.64475153
C        2.21519553      -2.83505672       0.07067440
C        1.12047498       0.02762447       2.50740492
C       -1.00270023       3.29245083      -2.10750062
C       -2.66248823       3.10021380      -0.23849680
C        2.75776154      -1.84273736       1.79704771
C       -2.92253930      -1.06068865       1.60186276
C       -1.54144888      -2.49908654       2.73006242
C        2.10233458       2.84675870      -0.69901551
C       -0.36893468       2.70062412      -3.26903675
C       -0.81023263       3.05163892       1.36425516
C        2.97642856       1.57746061       0.94813550
C       -2.14592580      -1.95933757      -0.76506798
C        1.25875997       3.22542794      -1.73135200
C        2.84310004       0.40791520      -1.11747181
C       -1.27778099      -0.22976374       3.10321892
C        3.26097073      -0.47435529      -0.02574898
C       -1.85465991       0.81330418      -3.10731322
C       -2.47764496       1.43768399      -1.97406694
C       -0.42018094      -3.44919544       0.92293050
C        0.38211376       0.62026271      -3.95909401
C       -0.78310372      -1.40068564      -3.32145810
C       -3.62135913       2.26716688       0.38398155
C       -3.29534897       0.28613319       1.41019494
C       -2.87757617       1.33453330       2.32655048
C       -1.55838455       1.13986868       2.80889602
C        0.41377727      -0.76768889      -3.76300171
C       -2.23183728      -1.26639960       2.82908040
C       -1.84626207      -0.60242084      -2.85443456
C        2.41934731      -0.49398602       2.16338171
C        1.05256958      -2.31962637      -2.18139950
C       -0.08182031      -3.33149817      -0.42594051
C       -3.20506512       2.58660033       1.73360250
C        1.03252794       2.53716598      -2.92830691
C        0.00528501      -0.79005831       2.90552380
C       -0.35899254      -2.41375616      -2.45243598
C       -3.47791720       0.86875925       0.15505862
C       -2.15353210       3.34329883       1.10622437
C       -0.49873273       1.96662391       2.27697829
C        0.84980340       1.43062972       2.23713234
C       -1.72120653      -3.03488289       1.39786213
C       -2.48693791      -0.83731708      -1.57790374
C        3.17214381       0.24657999       1.20703076
C        1.84426070      -2.87279833       1.47256457
C        1.23926574      -2.98952943      -0.91976769
C        1.49910739      -1.11536786      -2.84250440
C        1.42232721       3.09628581       0.53496265
C        3.18948196      -1.83047181       0.35757382
C        1.83243445       2.19186530       1.52810321
C       -0.80630629       1.44885199      -3.82043908
C        2.91031917       1.71575662      -0.50124436
C        0.53058645      -3.03158591       1.88631368
C        1.42544768       1.19003292      -3.14980555
C       -2.15619381       2.73060248      -1.51763238
C       -1.06422050      -2.76484824      -1.28215234
C       -0.14174748      -2.20207489       2.81593403
C        2.08161445       0.15154413      -2.35322965
C        0.08472449       3.43123163       0.30193229
C       -2.96341848       0.43877593      -1.08406250
C       -0.00322297       3.61288984      -1.15113288
60
Properties=species:S:1:pos:R:3 trajectory=trial0001_proposal001_step002_proposal_relax trajectory_step=6 pbc="F F F"
C       -2.46370406      -2.06142813       0.64424717
C        2.21534077      -2.83570514       0.07048078
C        1.12235216       0.02779208       2.50909341
C       -1.00113437       3.29196083      -2.10682767
C       -2.66435381       3.10280999      -0.23943947
C        2.75768701      -1.84436241       1.79735062
C       -2.92211190      -1.06076553       1.60109873
C       -1.54026125      -2.49948025       2.73098316
C        2.10397510       2.84670355      -0.69982921
C       -0.36789053       2.69998569      -3.26887627
C       -0.81059449       3.05050214       1.36301277
C        2.97434337       1.57785847       0.94707598
C       -2.14580291      -1.96032314      -0.76492742
C        1.25692387       3.22472214      -1.73207748
C        2.84394457       0.40919168      -1.11697848
C       -1.27790961      -0.22962331       3.10543099
C        3.26056035      -0.47465788      -0.02626851
C       -1.85542738       0.81233452      -3.10778710
C       -2.47945103       1.43851981      -1.97376471
C       -0.42136609      -3.44886702       0.92411283
C        0.38368003       0.62240184      -3.96020301
C       -0.78408254      -1.40035824      -3.32306106
C       -3.62367602       2.26743866       0.38203618
C       -3.29521836       0.28497351       1.40908568
C       -2.87791650       1.33441337       2.32440463
C       -1.55807280       1.13976015       2.80770383
C        0.41321779      -0.76524905      -3.76236025
C       -2.23134732      -1.26750437       2.82962297
C       -1.84735174      -0.60263214      -2.85230307
C        2.42175486      -0.49463546       2.16132644
C        1.05138286      -2.32018035      -2.18184711
C       -0.08289282      -3.33216185      -0.42647492
C       -3.20710633       2.58639766       1.73285327
C        1.03393168       2.53790979      -2.92589266
C        0.00848376      -0.78860219       2.90777021
C       -0.35963344      -2.41311970      -2.45290232
C       -3.47878815       0.86951029       0.15337016
C       -2.15323691       3.34162841       1.10518667
C       -0.49837643       1.96682657       2.27728132
C        0.85092528       1.42994926       2.23662362
C       -1.72157328      -3.03454797       1.39830652
C       -2.48659935      -0.83731291      -1.57576311
C        3.17008083       0.24606287       1.20487725
C        1.84446052      -2.87524478       1.47311603
C        1.23869209      -2.98959508      -0.91842577
C        1.49879339      -1.11567493      -2.84240541
C        1.42285377       3.09469635       0.53412219
C        3.19018308      -1.82972228       0.35850875
C        1.83266051       2.19273780       1.52788749
C       -0.80656054       1.44969971      -3.82092507
C        2.90874165       1.71787890      -0.50174195
C        0.52968155      -3.03230854       1.88697159
C        1.42785113       1.19006769      -3.14808262
C       -2.15632168       2.73039109      -1.51643738
C       -1.06486767      -2.76525520      -1.28336562
C       -0.14032363      -2.20122628       2.81806948
C        2.08431253       0.15109704      -2.35273389
C        0.08676069       3.43169738       0.30249871
C       -2.96480860       0.43915060      -1.08474704
C       -0.00424032       3.61375967      -1.14985127
60
Properties=species:S:1:pos:R:3 trajectory=trial0001_proposal001_step002_proposal_relax trajectory_step=7 pbc="F F F"
C       -2.46287127      -2.06275911       0.64351988
C        2.21568873      -2.83868474       0.07078580
C        1.12955891       0.02915122       2.51757193
C       -0.99926436       3.29083840      -2.10254705
C       -2.67450277       3.10887589      -0.24339562
C        2.75789916      -1.84848657       1.79647862
C       -2.91874433      -1.06148396       1.59897067
C       -1.53683860      -2.49972473       2.73329395
C        2.10677132       2.84908136      -0.70088451
C       -0.36493833       2.69778405      -3.26405886
C       -0.81127067       3.04732627       1.35725109
C        2.96950676       1.57708790       0.94395737
C       -2.14623056      -1.96255822      -0.76487501
C        1.25541957       3.22635253      -1.73081764
C        2.84775334       0.41191692      -1.11861722
C       -1.27581780      -0.22920233       3.11066985
C        3.25987443      -0.47558907      -0.02957792
C       -1.85702065       0.81150505      -3.10740496
C       -2.48554397       1.44105290      -1.97527313
C       -0.42388778      -3.44766010       0.92665124
C        0.38849471       0.62712480      -3.96237787
C       -0.78728342      -1.39967325      -3.32684631
C       -3.63325139       2.26851216       0.37730591
C       -3.29428126       0.28286169       1.40483963
C       -2.87718514       1.33277365       2.31764448
C       -1.55703321       1.13879857       2.80338247
C        0.41173354      -0.75990768      -3.75948025
C       -2.22812010      -1.26868816       2.82978292
C       -1.84846757      -0.60252334      -2.84792943
C        2.42583283      -0.49704262       2.15779909
C        1.04780697      -2.31972218      -2.18099712
C       -0.08641798      -3.33350622      -0.42607542
C       -3.21190588       2.58452159       1.72885510
C        1.03771663       2.53737662      -2.92052138
C        0.01584998      -0.78674523       2.91898670
C       -0.36242328      -2.41280893      -2.45501284
C       -3.48337746       0.87073370       0.14961431
C       -2.15501996       3.33572011       1.09969598
C       -0.49670181       1.96672257       2.27590172
C        0.85405486       1.42976081       2.23799987
C       -1.72172280      -3.03385496       1.40021766
C       -2.48546477      -0.83631610      -1.57123051
C        3.16403856       0.24398130       1.19806523
C        1.84461794      -2.88129627       1.47438562
C        1.23507580      -2.98872454      -0.91540089
C        1.49669202      -1.11466278      -2.84033610
C        1.42512913       3.09280086       0.53243902
C        3.19165116      -1.83094173       0.35857547
C        1.83348175       2.19368445       1.52767988
C       -0.80567062       1.45055997      -3.81955035
C        2.90780752       1.72072934      -0.50350526
C        0.52867243      -3.03371541       1.88927487
C        1.43541719       1.19118479      -3.14599992
C       -2.15949694       2.73236193      -1.51620830
C       -1.06773165      -2.76819065      -1.28606821
C       -0.13612584      -2.20108623       2.82469898
C        2.09131065       0.15029113      -2.35327856
C        0.09104147       3.43517482       0.30346324
C       -2.96978338       0.44088719      -1.08649620
C       -0.00392842       3.61830591      -1.14678206
60
Properties=species:S:1:pos:R:3 trajectory=trial0001_proposal001_step002_proposal_relax trajectory_step=8 pbc="F F F"
C       -2.46270678      -2.06612035       0.64578828
C        2.21362528      -2.84252517       0.07173068
C        1.13531388       0.02979952       2.52640108
C       -0.99818859       3.28830872      -2.09768720
C       -2.68291433       3.11338116      -0.24733595
C        2.75996953      -1.85343683       1.79613964
C       -2.91408063      -1.06122325       1.59856217
C       -1.53257580      -2.49719458       2.73690164
C        2.10876810       2.85254341      -0.70114207
C       -0.36282220       2.69535269      -3.25844890
C       -0.81259881       3.04233344       1.35319981
C        2.96751945       1.57401813       0.93942530
C       -2.14799303      -1.96471248      -0.76375835
C        1.25664317       3.22983868      -1.72896989
C        2.85256866       0.41210044      -1.12325239
C       -1.27246823      -0.22823029       3.11539447
C        3.25937191      -0.47827693      -0.03286206
C       -1.85781691       0.81327220      -3.10771579
C       -2.49112541       1.44265178      -1.97784865
C       -0.42436578      -3.44680027       0.92810225
C        0.39315854       0.63106541      -3.96118772
C       -0.78882288      -1.39703863      -3.32794178
C       -3.64506625       2.27240871       0.37104262
C       -3.29337266       0.28228753       1.39768612
C       -2.87622420       1.32995833       2.30812330
C       -1.55688262       1.13719259       2.79946659
C        0.41074627      -0.75389578      -3.75475341
C       -2.22315933      -1.26655275       2.83003611
C       -1.84950518      -0.59908760      -2.84572241
C        2.42789322      -0.50039188       2.15662331
C        1.04411214      -2.31850770      -2.18098923
C       -0.09014054      -3.33513059      -0.42450107
C       -3.21596552       2.58200750       1.72250673
C        1.03948173       2.53803388      -2.91462986
C        0.02295496      -0.78601243       2.93252747
C       -0.36612230      -2.41266039      -2.45887000
C       -3.49107587       0.87317874       0.14623886
C       -2.15703691       3.32843759       1.09412413
C       -0.49511777       1.96354252       2.27404613
C        0.85780521       1.43064493       2.24021668
C       -1.72076002      -3.03366644       1.40559613
C       -2.48458063      -0.83470477      -1.56771485
C        3.15805592       0.24334140       1.19260227
C        1.84717798      -2.88792332       1.47593034
C        1.23077726      -2.98764154      -0.91440078
C        1.49428615      -1.11265659      -2.83806634
C        1.42494254       3.09623547       0.53271087
C        3.19103943      -1.83445312       0.35720990
C        1.83396754       2.19474123       1.52654132
C       -0.80249298       1.45173771      -3.81730903
C        2.90873910       1.72332827      -0.50760217
C        0.52937551      -3.03493630       1.89175429
C        1.44302696       1.19273447      -3.14547568
C       -2.16216353       2.73201676      -1.51682455
C       -1.07169478      -2.77225826      -1.28856810
C       -0.13091497      -2.20140411       2.83028925
C        2.09756696       0.14980680      -2.35563806
C        0.09245185       3.43692203       0.30459453
C       -2.97579070       0.44278331      -1.08963162
C       -0.00421969       3.62172220      -1.14445481
60
Properties=species:S:1:pos:R:3 trajectory=trial0001_proposal001_step002_proposal_relax trajectory_step=9 pbc="F F F"
C       -2.46294762      -2.06856135       0.64833446
C        2.21190836      -2.84565435       0.07164943
C        1.14086881       0.03031242       2.53427112
C       -0.99892396       3.28542179      -2.09397692
C       -2.68959352       3.11533048      -0.25114561
C        2.76260617      -1.85660674       1.79560595
C       -2.90999969      -1.06053100       1.59733304
C       -1.52834733      -2.49473584       2.74027347
C        2.10952865       2.85694294      -0.70027065
C       -0.36064116       2.69465640      -3.25211247
C       -0.81377504       3.03759926       1.34953614
C        2.96406959       1.57549616       0.93509013
C       -2.14981325      -1.96618963      -0.76268915
C        1.25780036       3.23499167      -1.72584590
C        2.85745758       0.41210225      -1.12736920
C       -1.26853994      -0.22703391       3.11934841
C        3.25837603      -0.48037370      -0.03583828
C       -1.85826327       0.81581558      -3.10831939
C       -2.49565134       1.44405784      -1.98095584
C       -0.42454173      -3.44600888       0.93140327
C        0.39666846       0.63468799      -3.95961155
C       -0.79116191      -1.39269050      -3.32803561
C       -3.65618370       2.27533081       0.36611762
C       -3.29209751       0.28169923       1.39210891
C       -2.87466754       1.32809118       2.30017487
C       -1.55652738       1.13525766       2.79615133
C        0.41000150      -0.75068681      -3.75028735
C       -2.21841765      -1.26361777       2.83012167
C       -1.84901409      -0.59745536      -2.84452763
C        2.42892203      -0.50295497       2.15600163
C        1.04070274      -2.31738209      -2.18012468
C       -0.09309055      -3.33563365      -0.42517530
C       -3.21902023       2.57949028       1.71685987
C        1.04169885       2.53655456      -2.91170667
C        0.02768262      -0.78573368       2.94455686
C       -0.36939609      -2.41411342      -2.46009835
C       -3.49896067       0.87506641       0.13974774
C       -2.15889321       3.32212465       1.08899569
C       -0.49402705       1.96097481       2.27181453
C        0.86026971       1.43095318       2.24296783
C       -1.71888397      -3.03412395       1.41004833
C       -2.48428559      -0.83300275      -1.56593375
C        3.15385941       0.23738272       1.18855245
C        1.84823586      -2.89381246       1.47778635
C        1.22636919      -2.98690869      -0.91379198
C        1.49252882      -1.11083258      -2.83580565
C        1.42784565       3.09890114       0.53374006
C        3.18967404      -1.83797128       0.35527188
C        1.83569850       2.19475388       1.52488367
C       -0.79999904       1.45223911      -3.81469047
C        2.91083715       1.72309153      -0.51087246
C        0.53204541      -3.03564434       1.89350006
C        1.44867874       1.19658925      -3.14575830
C       -2.16462117       2.73270543      -1.51745427
C       -1.07545273      -2.77559368      -1.29055306
C       -0.12645063      -2.20167024       2.83520366
C        2.10271925       0.14965897      -2.35820983
C        0.09084049       3.43866313       0.30524586
C       -2.98209606       0.44459365      -1.09109931
C       -0.00303601       3.62427244      -1.14222713
60
Properties=species:S:1:pos:R:3 trajectory=trial0001_proposal001_step002_proposal_relax trajectory_step=10 pbc="F F F"
C       -2.46309735      -2.07003640       0.65012767
C        2.21029374      -2.84729866       0.07166885
C        1.14236046       0.03044377       2.53824456
C       -0.99898246       3.28436555      -2.09190804
C       -2.69208540       3.11437968      -0.25251130
C        2.76410534      -1.85859223       1.79510783
C       -2.90754706      -1.05972047       1.59718947
C       -1.52633345      -2.49272754       2.74186780
C        2.11049248       2.85870958      -0.69897392
C       -0.36015429       2.69415680      -3.24902644
C       -0.81468138       3.03507306       1.34805678
C        2.96483418       1.57137493       0.93344335
C       -2.15135189      -1.96622547      -0.76199060
C        1.25927616       3.23819214      -1.72522853
C        2.86013885       0.41117280      -1.13019817
C       -1.26645100      -0.22616089       3.12066820
C        3.25772770      -0.48229465      -0.03736626
C       -1.85829659       0.81738007      -3.10862431
C       -2.49750509       1.44457300      -1.98281626
C       -0.42313247      -3.44580276       0.93170582
C        0.39758667       0.63502435      -3.95781694
C       -0.79085464      -1.39144127      -3.32600304
C       -3.66180820       2.27679560       0.36362907
C       -3.29160769       0.28257635       1.38811927
C       -2.87349989       1.32691916       2.29611620
C       -1.55614465       1.13442140       2.79485792
C        0.40998538      -0.74924494      -3.74798880
C       -2.21563629      -1.26120461       2.82981603
C       -1.84899098      -0.59509817      -2.84463403
C        2.42827332      -0.50471767       2.15690483
C        1.03912978      -2.31645390      -2.17944865
C       -0.09466699      -3.33575555      -0.42401380
C       -3.21970236       2.57795799       1.71368915
C        1.04236734       2.53787819      -2.90961904
C        0.02969813      -0.78613861       2.95023860
C       -0.37141842      -2.41445090      -2.46134144
C       -3.50448221       0.87583335       0.13810071
C       -2.16009461       3.31914899       1.08647854
C       -0.49360363       1.95893946       2.27045305
C        0.86149231       1.43129758       2.24470734
C       -1.71753147      -3.03429755       1.41307058
C       -2.48462687      -0.83224326      -1.56605693
C        3.15237411       0.23813712       1.18669918
C        1.85053590      -2.89547658       1.47816199
C        1.22424173      -2.98659296      -0.91414111
C        1.49174257      -1.10969301      -2.83438642
C        1.42760960       3.10251225       0.53506623
C        3.18805375      -1.84046983       0.35336132
C        1.83574544       2.19440613       1.52450831
C       -0.79822466       1.45292361      -3.81270822
C        2.91213066       1.72331032      -0.51281269
C        0.53342819      -3.03545605       1.89478605
C        1.45093158       1.19792740      -3.14699386
C       -2.16632757       2.73230448      -1.51856673
C       -1.07792020      -2.77723795      -1.29063736
C       -0.12419498      -2.20213747       2.83707098
C        2.10438311       0.15021200      -2.36026162
C        0.09040816       3.43867970       0.30564597
C       -2.98479770       0.44536302      -1.09362701
C       -0.00302086       3.62486467      -1.14165066
60
Properties=species:S:1:pos:R:3 trajectory=trial0001_proposal001_step002_proposal_relax trajectory_step=11 pbc="F F F"
C       -2.46308595      -2.07041312       0.65091236
C        2.20941029      -2.84790252       0.07124988
C        1.14251675       0.03017518       2.53947557
C       -0.99910326       3.28411760      -2.09119793
C       -2.69218639       3.11230145      -0.25259529
C        2.76499374      -1.85899731       1.79487144
C       -2.90647473      -1.05889620       1.59700318
C       -1.52548850      -2.49167057       2.74237721
C        2.11092309       2.85963517      -0.69852797
C       -0.35993736       2.69439242      -3.24818000
C       -0.81499265       3.03391322       1.34756652
C        2.96491334       1.57014812       0.93293674
C       -2.15236873      -1.96577196      -0.76161338
C        1.26044494       3.23980692      -1.72451416
C        2.86117062       0.41069469      -1.13149402
C       -1.26560561      -0.22572660       3.12107139
C        3.25702503      -0.48323789      -0.03797372
C       -1.85846161       0.81803592      -3.10904991
C       -2.49807821       1.44462968      -1.98382787
C       -0.42194110      -3.44566038       0.93186964
C        0.39723075       0.63499606      -3.95671755
C       -0.79027512      -1.39089708      -3.32401565
C       -3.66390769       2.27694458       0.36275711
C       -3.29135223       0.28330843       1.38617204
C       -2.87277258       1.32656153       2.29454023
C       -1.55579388       1.13440118       2.79456303
C        0.41010033      -0.74922467      -3.74706219
C       -2.21452483      -1.25997784       2.82940966
C       -1.84901418      -0.59416243      -2.84483022
C        2.42819811      -0.50534167       2.15712340
C        1.03848688      -2.31617707      -2.17892469
C       -0.09533861      -3.33554759      -0.42316955
C       -3.21974353       2.57735621       1.71238987
C        1.04272816       2.53943568      -2.90933854
C        0.03024575      -0.78619421       2.95170460
C       -0.37227703      -2.41457829      -2.46096636
C       -3.50783304       0.87558524       0.13692878
C       -2.16042906       3.31818712       1.08563828
C       -0.49347114       1.95803815       2.26995354
C        0.86176608       1.43133200       2.24520727
C       -1.71664793      -3.03416409       1.41424381
C       -2.48554822      -0.83200070      -1.56675008
C        3.15233994       0.23691772       1.18674566
C        1.85160927      -2.89587405       1.47813715
C        1.22334113      -2.98681181      -0.91443847
C        1.49180007      -1.10939949      -2.83374162
C        1.42772398       3.10406469       0.53624597
C        3.18689883      -1.84113089       0.35213465
C        1.83595271       2.19352896       1.52457299
C       -0.79764707       1.45352245      -3.81171348
C        2.91257383       1.72313416      -0.51311943
C        0.53468524      -3.03497698       1.89535658
C        1.45124479       1.19856988      -3.14769492
C       -2.16679775       2.73188112      -1.51929274
C       -1.07921261      -2.77741968      -1.29001287
C       -0.12317953      -2.20201738       2.83773116
C        2.10483515       0.15088243      -2.36115486
C        0.09046259       3.43800496       0.30588736
C       -2.98623447       0.44563879      -1.09534174
C       -0.00332351       3.62431591      -1.14130839
60
Properties=species:S:1:pos:R:3 trajectory=trial0001_proposal001_step002_proposal_relax trajectory_step=12 pbc="F F F"
C       -2.46290784      -2.07031848       0.65196336
C        2.20832479      -2.84870390       0.07035362
C        1.14342006       0.02977796       2.54067364
C       -0.99910843       3.28371705      -2.09046269
C       -2.69157258       3.10777231      -0.25290841
C        2.76666218      -1.86006348       1.79413862
C       -2.90461511      -1.05724161       1.59609530
C       -1.52369996      -2.48999645       2.74303865
C        2.11240038       2.86122780      -0.69717866
C       -0.35917753       2.69596701      -3.24720474
C       -0.81497507       3.03181038       1.34675992
C        2.96460802       1.56695042       0.93270681
C       -2.15439390      -1.96484539      -0.76097298
C        1.26135769       3.24239736      -1.72366284
C        2.86263506       0.41078635      -1.13286335
C       -1.26447626      -0.22474566       3.12202690
C        3.25537461      -0.48434268      -0.03943422
C       -1.85920719       0.81886997      -3.11035963
C       -2.49937511       1.44473176      -1.98585653
C       -0.42029591      -3.44493089       0.93373151
C        0.39648343       0.63543624      -3.95480012
C       -0.78977276      -1.38934084      -3.32041126
C       -3.66742136       2.27618229       0.36121255
C       -3.29062637       0.28402178       1.38316364
C       -2.87156343       1.32629623       2.29140731
C       -1.55526135       1.13446950       2.79423183
C        0.41025226      -0.74911481      -3.74542166
C       -2.21288790      -1.25808821       2.82860405
C       -1.84919903      -0.59354108      -2.84494018
C        2.42833947      -0.50678872       2.15761309
C        1.03737786      -2.31616191      -2.17779594
C       -0.09656982      -3.33492588      -0.42233091
C       -3.22029468       2.57650216       1.71049552
C        1.04421784       2.54231834      -2.90968927
C        0.03132684      -0.78574327       2.95329821
C       -0.37355039      -2.41466465      -2.45861131
C       -3.51432890       0.87468218       0.13331679
C       -2.16026930       3.31655580       1.08443480
C       -0.49301565       1.95714855       2.26926010
C        0.86216372       1.43043115       2.24565539
C       -1.71478851      -3.03346163       1.41560437
C       -2.48826076      -0.83163613      -1.56803845
C        3.15265870       0.23580893       1.18595399
C        1.85358242      -2.89661053       1.47793808
C        1.22159074      -2.98778687      -0.91459474
C        1.49232700      -1.10928951      -2.83280108
C        1.42939788       3.10526501       0.53830010
C        3.18465858      -1.84210879       0.34995292
C        1.83620397       2.19216883       1.52472436
C       -0.79731845       1.45465982      -3.81035070
C        2.91252482       1.72289411      -0.51308928
C        0.53685076      -3.03399537       1.89643161
C        1.45128878       1.20052881      -3.14812560
C       -2.16716334       2.73084901      -1.52011753
C       -1.08126313      -2.77708099      -1.28829671
C       -0.12118191      -2.20129141       2.83905473
C        2.10590238       0.15204254      -2.36232884
C        0.09064104       3.43616756       0.30665606
C       -2.99012900       0.44601365      -1.09818572
C       -0.00332709       3.62265350      -1.13975513
60
Properties=species:S:1:pos:R:3 trajectory=trial0001_proposal001_step002_proposal_relax trajectory_step=13 pbc="F F F"
C       -2.46233881      -2.06922923       0.65220645
C        2.20728013      -2.84995959       0.06902041
C        1.14464733       0.02904451       2.54058249
C       -0.99811597       3.28373279      -2.08956054
C       -2.69059959       3.10292332      -0.25261857
C        2.76837329      -1.86093979       1.79303471
C       -2.90255316      -1.05610229       1.59493937
C       -1.52208436      -2.48827538       2.74335242
C        2.11413148       2.86295637      -0.69626255
C       -0.35860390       2.69811861      -3.24773722
C       -0.81429731       3.02996310       1.34655179
C        2.96316640       1.56640432       0.93260557
C       -2.15675920      -1.96370364      -0.76054897
C        1.26232773       3.24361722      -1.72242155
C        2.86290058       0.41204811      -1.13358081
C       -1.26379491      -0.22369950       3.12289422
C        3.25368701      -0.48484548      -0.04108829
C       -1.86071786       0.81881496      -3.11192499
C       -2.50166292       1.44458204      -1.98798818
C       -0.41891189      -3.44368810       0.93499335
C        0.39588868       0.63639200      -3.95271203
C       -0.78897880      -1.38881877      -3.31665996
C       -3.67005569       2.27473665       0.35948641
C       -3.29008496       0.28449429       1.37971687
C       -2.87041113       1.32592006       2.28789253
C       -1.55503241       1.13510845       2.79393137
C        0.41020883      -0.74829542      -3.74371100
C       -2.21149688      -1.25693958       2.82793687
C       -1.85073555      -0.59297147      -2.84466726
C        2.43021791      -0.50821617       2.15722842
C        1.03662412      -2.31653791      -2.17641176
C       -0.09785083      -3.33457521      -0.41987401
C       -3.22124768       2.57615467       1.70860018
C        1.04604189       2.54592035      -2.91056058
C        0.03249051      -0.78470556       2.95380388
C       -0.37460263      -2.41297397      -2.45594132
C       -3.52120563       0.87310041       0.13115145
C       -2.15980969       3.31462294       1.08313139
C       -0.49226758       1.95655804       2.26934924
C        0.86265481       1.42921169       2.24530925
C       -1.71345806      -3.03157864       1.41654578
C       -2.49233385      -0.83176024      -1.56919130
C        3.15304152       0.23220333       1.18556013
C        1.85494318      -2.89783743       1.47778216
C        1.22046141      -2.98932865      -0.91386730
C        1.49306391      -1.10946440      -2.83214544
C        1.43098433       3.10535843       0.53973973
C        3.18309404      -1.84175403       0.34753042
C        1.83710856       2.19008033       1.52571020
C       -0.79719922       1.45645972      -3.80953713
C        2.91204711       1.72244913      -0.51216166
C        0.53891949      -3.03280865       1.89790973
C        1.45114432       1.20209582      -3.14745326
C       -2.16676445       2.72901495      -1.52095056
C       -1.08294476      -2.77580297      -1.28574088
C       -0.11909017      -2.19990151       2.84046188
C        2.10692113       0.15337118      -2.36290905
C        0.09270636       3.43353272       0.30776735
C       -2.99535645       0.44583810      -1.10237907
C       -0.00313659       3.62017028      -1.13791159
60
Properties=species:S:1:pos:R:3 trajectory=trial0001_proposal001_step002_proposal_relax trajectory_step=14 pbc="F F F"
C       -2.46199361      -2.06856364       0.65194015
C        2.20770951      -2.85034463       0.06916445
C        1.14530083       0.02869822       2.54040283
C       -0.99779473       3.28359874      -2.08909023
C       -2.69072792       3.10196787      -0.25304090
C        2.76870685      -1.86141472       1.79221971
C       -2.90206136      -1.05579409       1.59449740
C       -1.52162831      -2.48802541       2.74334944
C        2.11502988       2.86312176      -0.69632158
C       -0.35824799       2.69888326      -3.24809351
C       -0.81389993       3.02981393       1.34644693
C        2.96306305       1.56549994       0.93293888
C       -2.15732236      -1.96352925      -0.76067615
C        1.26269311       3.24320500      -1.72213122
C        2.86245945       0.41269218      -1.13352477
C       -1.26371491      -0.22346389       3.12304618
C        3.25341316      -0.48468599      -0.04177325
C       -1.86122531       0.81874893      -3.11246025
C       -2.50303177       1.44452960      -1.98873564
C       -0.41918659      -3.44300193       0.93618419
C        0.39588993       0.63712998      -3.95222269
C       -0.78956088      -1.38807571      -3.31654011
C       -3.67073556       2.27420138       0.35917166
C       -3.28977694       0.28385005       1.37948202
C       -2.87019404       1.32582637       2.28681577
C       -1.55504116       1.13535051       2.79364014
C        0.40999625      -0.74801958      -3.74305573
C       -2.21130333      -1.25682945       2.82784314
C       -1.85134889      -0.59356644      -2.84467103
C        2.43122669      -0.50871422       2.15693117
C        1.03652363      -2.31657210      -2.17581109
C       -0.09808780      -3.33437685      -0.41961805
C       -3.22176512       2.57605146       1.70819080
C        1.04662802       2.54672659      -2.91078142
C        0.03309849      -0.78416421       2.95388610
C       -0.37449926      -2.41253971      -2.45423258
C       -3.52263175       0.87237056       0.12980830
C       -2.15933302       3.31381186       1.08260085
C       -0.49192930       1.95663541       2.26965513
C        0.86297083       1.42871700       2.24518040
C       -1.71323033      -3.03073407       1.41632670
C       -2.49394023      -0.83187130      -1.56958516
C        3.15296079       0.23223018       1.18497472
C        1.85516491      -2.89827097       1.47770894
C        1.21998510      -2.98986894      -0.91349574
C        1.49323642      -1.10941356      -2.83190307
C        1.43190665       3.10449273       0.54025365
C        3.18299519      -1.84183048       0.34671570
C        1.83729117       2.19008123       1.52600514
C       -0.79742371       1.45676802      -3.80937805
C        2.91161319       1.72303696      -0.51166427
C        0.53907502      -3.03267661       1.89830077
C        1.45133172       1.20237398      -3.14684772
C       -2.16650511       2.72868024      -1.52103079
C       -1.08290655      -2.77508728      -1.28512472
C       -0.11872866      -2.19943963       2.84105254
C        2.10721043       0.15374967      -2.36271084
C        0.09352002       3.43301933       0.30818567
C       -2.99801191       0.44571692      -1.10285710
C       -0.00263880       3.61958014      -1.13733268
