60
Properties=species:S:1:pos:R:3 entry_id=10 rank=0 energy=-479.46807861328125 pbc="F F F"
C        5.25820712      -1.91550269      -0.53210827
C        2.21512434       0.21129885      -3.54278746
C        1.30679760       3.27720147       1.06577274
C        3.20096762      -0.66205067      -1.47534369
C       -5.26441325       2.77799946       3.49659579
C        2.45304622       1.61076165      -1.65799845
C       -6.28799292      -3.10902843       6.32000511
C        8.04394858      -3.97851599       1.12585575
C       -2.39112891       0.28080059      -4.63423977
C        1.38423037      -0.27091077       0.29167268
C       -1.12312268       1.14125609       2.79240659
C       -0.03649234       3.92462270      -0.68130982
C        4.32335079      -1.24712515      -1.03866406
C       -2.49724855       3.83340509      -0.41321088
C       -0.59659211       2.71050228      -3.36371816
C        1.73988287       1.06297996       0.66901096
C        0.58713414       1.97897633      -3.21373083
C       -2.05187148      -3.27828854       0.51571588
C       -2.95161143      -3.53234440       1.39054173
C        2.86062701       0.44443664      -2.36337496
C       -4.54810736       2.81639538      -3.19042017
C       -1.13361030      -2.80259482      -0.20878016
C       -4.50625829      -2.27396907       4.62038967
C       -4.27625233      -3.10759550       3.52315828
C       -3.63866870      -1.17179919       4.44442359
C        1.00278460       1.96041679       1.52603193
C       -3.43067438       1.05948722      -4.58530926
C        7.15369311      -3.27979198       0.52402217
C       -0.06686431      -1.94713656      -0.33861970
C        2.08275442       3.20565276      -0.09919148
C       -1.35647303      -3.77144603      -3.37686575
C        0.72309464      -1.55897264      -1.53053797
C       -2.80213212      -0.41151149       3.94697733
C       -3.73196437       3.79216085      -1.02101320
C        9.73284580      -5.39810611       2.39739210
C       -0.72389174      -2.74017839      -3.04827326
C       -5.40457087      -2.51878535       5.66747611
C       -1.92429825       0.43150368       3.40226162
C       -0.38903672       2.00445167       2.01733202
C        0.06514967       3.86843282       0.72496622
C        6.22275715      -2.58750433       0.00451858
C        0.35749799      -1.09836021       0.71569203
C        1.19679797       3.46664853      -1.20941519
C        2.50620558       1.84775211      -0.25449224
C        1.85051021      -0.86070455      -0.96863588
C       -4.16917868       1.95370252      -4.05657283
C       -0.09699926      -0.46677715      -3.70281347
C        0.91195793       0.60743781      -3.66883070
C       -0.95918876       3.19288211       1.40262692
C       -4.34690189       3.46173945      -2.07943496
C       -1.32636852       3.84191095      -1.28102471
C        1.45138266       2.45773750      -2.18786921
C       -1.32927349       3.44078669      -2.63038747
C       -4.30016160       2.98240099       2.66298636
C        0.09728834      -1.62638554      -2.82163840
C        9.01569885      -4.68508287       1.61860677
C       -1.30275488      -0.26625902      -4.31231439
C       -2.32251833       3.45735940       1.00184741
C       -3.67826483      -3.39855877       2.45412656
C       -3.38197439       3.22328917       1.80147408
60
Properties=species:S:1:pos:R:3 entry_id=12 rank=1 energy=-479.26007080078125 pbc="F F F"
C        5.18184667      -2.03613231      -0.48239671
C        1.96457391      -0.21194167      -3.43617827
C        1.65918906       3.67596949       0.60480309
C        3.06998889      -0.80330643      -1.33520334
C       -4.75805586       3.90523512       3.45906228
C        2.45996964       1.47045477      -1.85229457
C       -7.47687175      -6.20419951       5.54522745
C        8.14998526      -3.98387402       0.99134487
C       -2.69077964       0.04346551      -4.18924052
C        1.45397154       0.04141298       0.46516152
C       -0.81966654       1.83062104       2.58037007
C        0.22953260       4.12563270      -1.13244737
C        4.19763091      -1.40538280      -0.93693609
C       -2.20216044       4.29062436      -0.70405719
C       -0.63803418       2.50601284      -3.51153987
C        1.91426853       1.39136519       0.56955338
C        0.49413257       1.71012332      -3.30472813
C       -2.11344011      -2.77583904       1.47688734
C       -2.98002624      -2.61345627       2.58645513
C        2.71757376       0.16889713      -2.36366285
C       -4.53250404       2.98024391      -3.11202490
C       -1.21976050      -2.39796699       0.71404897
C       -5.71825591      -4.80375694       4.33369166
C       -4.80443110      -4.07003715       3.73853343
C       -2.70460634      -1.33666645       3.11253041
C        1.29791471       2.47741593       1.28636603
C       -3.66106801       0.90742205      -4.21934901
C        7.19787780      -3.31140334       0.45796136
C       -0.12888933      -1.62691878       0.29136871
C        2.33190784       3.33948980      -0.57975744
C       -1.87033666      -3.79004703      -2.30294869
C        0.54075848      -1.50600849      -1.02014470
C       -2.16853528      -0.22248014       3.18098971
C       -3.47930434       4.25580111      -1.21962642
C        9.97396847      -5.37077026       2.10319777
C       -1.12443355      -2.78749335      -2.20603446
C       -6.65740574      -5.40146207       4.96622025
C       -1.52298821       0.93106850       3.05555153
C       -0.06164049       2.67524749       1.81097782
C        0.43727558       4.30760912       0.25423968
C        6.19763487      -2.67715288      -0.00303286
C        0.43571562      -0.64358923       1.11782966
C        1.37482668       3.47205441      -1.65103909
C        2.65521401       1.94517854      -0.52474566
C        1.76259585      -0.79979690      -0.69508174
C       -4.28666811       1.94404757      -3.82157874
C       -0.39308057      -0.72249602      -3.28424556
C        0.68319390       0.25686792      -3.52395724
C       -0.58057961       3.83233670       1.09697736
C       -4.19936066       3.79892805      -2.15746827
C       -1.10358093       4.05472765      -1.62963892
C        1.47256753       2.28916260      -2.44643956
C       -1.24379054       3.42320275      -2.87958382
C       -3.84930007       3.97684974       2.54619797
C       -0.20572114      -1.72874813      -2.23048839
C        9.19787630      -4.61510353       1.42772720
C       -1.62665144      -0.53479924      -3.84051277
C       -1.94968766       4.12317705       0.73547776
C       -3.91108045      -3.47077252       3.10647186
C       -2.97243320       4.06206093       1.61612436
60
Properties=species:S:1:pos:R:3 entry_id=14 rank=2 energy=-477.6759338378906 pbc="F F F"
C        3.02139781      -1.92427378       0.17858788
C        1.36522492      -0.32361446      -5.16534178
C        1.58668134       3.58327562       0.68731264
C        1.67062886      -0.48688908      -1.53275860
C       -5.06995701       3.15170990       2.70355760
C        1.86565544       0.92939686      -1.41799328
C       -3.59650846      -7.12530085       7.02088483
C        5.35633165      -3.84343153       2.55142923
C       -2.42176150       0.80698125      -4.94299735
C        1.72524552       0.18587208       2.00334558
C       -1.47986491       2.45732477       2.41689758
C        0.65906056       4.28928720      -1.33348900
C        2.28202358      -1.28839018      -0.60202572
C       -2.73308148       4.89222454      -0.02365455
C        0.48778752       3.17077588      -4.19532513
C        1.66848763       1.30084301       1.20042381
C        1.04141335       2.00454947      -3.68181278
C       -1.15221566      -2.84093378       1.43564236
C       -1.63357438      -2.65113092       2.72568673
C        0.97381230      -0.54218450      -3.82895606
C       -3.35159874       4.10600993      -3.52965452
C       -0.74304009      -2.72038506       0.24200978
C       -2.77969312      -5.38911959       5.33438772
C       -2.38347706      -4.47022226       4.47394737
C       -1.74927709      -1.30223398       3.04800007
C        1.06621671       2.58045002       1.56886982
C       -2.81873966       2.00323418      -4.82593554
C        4.58000837      -3.21355043       1.74715349
C       -0.35887050      -2.52885324      -0.97087729
C        2.26758601       2.92002376      -0.33328069
C       -2.47578111      -4.69167917      -3.22787482
C       -0.12703111      -2.08438104      -2.22260926
C       -1.73447340      -0.03649414       3.06400569
C       -3.14647918       5.03814757      -1.20183176
C        6.88098936      -5.08627979       4.17487638
C       -1.81827975      -3.62990555      -3.18354667
C       -3.13380220      -6.20143694       6.25499020
C       -1.67951030       1.24284399       2.94508657
C       -0.27197414       2.97639569       1.80616227
C        0.51705078       4.36240399       0.11673761
C        3.77308114      -2.57179602       1.01725763
C        1.80856187      -0.75631770       2.82629066
C        1.62291147       3.21904513      -1.54399345
C        2.19455785       1.51749553      -0.14021583
C        0.81469789      -1.05302641      -2.54655069
C       -3.15265072       3.15440377      -4.36549620
C       -1.50799977      -1.42371445      -4.12788770
C        1.14445555       0.76029247      -4.33658880
C       -0.59638779       4.05428940       0.93765626
C       -3.37535428       4.77837641      -2.45375983
C        0.01992934       4.85188310      -2.41883633
C        1.50228351       2.02527699      -2.31270772
C        0.11402985       4.24492481      -3.58644918
C       -3.87321689       3.26419420       2.33549708
C       -1.10455180      -2.43025279      -3.28603716
C        6.21626077      -4.53562349       3.23307523
C       -1.98372606      -0.38449572      -4.64591381
C       -2.01621871       4.28963666       0.96541165
C       -2.00931599      -3.66014533       3.60628502
C       -2.55106862       3.39562953       1.99792723
60
Properties=species:S:1:pos:R:3 entry_id=35 rank=3 energy=-477.54571533203125 pbc="F F F"
C        5.13797081      -2.17367708      -0.35437456
C        2.41631863       0.40285999      -3.43076989
C        1.38542412       3.60197944       0.81972988
C        3.25172788      -0.68591490      -1.32656833
C       -5.22497909       3.44080874       3.10999594
C        2.81819316       1.66113302      -1.56087761
C       -7.06155031      -4.20885400       7.71470373
C        7.95268394      -4.32693830       1.13768876
C       -2.62568168       0.09136552      -4.95481705
C        1.37892817       0.05027283       0.30351247
C       -1.05012251       1.66335422       2.68905752
C        0.10983320       3.94852361      -1.06255154
C        4.24550840      -1.43786148      -0.83688353
C       -2.36093271       3.98666963      -0.84729820
C       -0.78012676       2.25954544      -3.63550892
C        1.81329592       1.35330546       0.68213388
C        1.43818742       1.40807453      -3.33763635
C       -1.82022139      -2.83842071       0.68484253
C       -2.45512177      -3.12306698       1.70808475
C        3.12704776       0.42586904      -2.21812096
C       -4.51854161       2.81961406      -3.53677020
C       -1.16668271      -2.49659844      -0.46947050
C       -4.60204534      -3.91313872       4.82397397
C       -3.87448485      -3.64627388       3.77791113
C       -5.40045356      -4.03251883       5.79566767
C        1.06684255       2.34795957       1.41110682
C       -3.63392412       0.91597704      -4.91140722
C        6.98631990      -3.64642271       0.63898534
C       -0.12331561      -1.50671358      -0.38377565
C        2.21384989       3.38287300      -0.28649983
C       -1.37191288      -2.95131413      -1.80905047
C        0.66492015      -1.11022484      -1.56990539
C       -2.39765076       0.20239514       4.30074730
C       -3.58713945       3.92686674      -1.47136819
C        9.90285522      -5.63029384       2.13160400
C       -0.86066830      -2.36468851      -2.82453573
C       -6.13741023      -4.30046183       6.84420486
C       -1.73776116       0.93970599       3.48334877
C       -0.34918647       2.43408546       1.84448363
C        0.15858557       4.12134602       0.33822782
C        6.08480301      -2.89973859       0.14577146
C        0.28734210      -0.74447800       0.69856747
C        1.36719168       3.42349646      -1.47014004
C        2.72129378       2.04036365      -0.20274817
C        1.84729567      -0.57137353      -0.94885466
C       -4.26459806       1.88816400      -4.37456088
C       -0.35029487      -0.20831491      -3.84240652
C        0.09491557       1.17980645      -3.75446239
C       -0.89238099       3.56265067       1.07463496
C       -4.23452031       3.53361798      -2.48687922
C       -1.16931079       3.82534469      -1.67648442
C        1.81394997       2.33106947      -2.28000992
C       -1.20439957       3.20241726      -2.92942494
C       -4.25075135       3.54625429       2.27054758
C        0.02593829      -1.24279531      -2.87495635
C        8.83324637      -5.14224430       1.63399126
C       -1.52899752      -0.39159267      -4.54634975
C       -2.23507302       3.78868716       0.60641463
C       -3.15448703      -3.42513534       2.78015079
C       -3.32193565       3.67361852       1.39973333
60
Properties=species:S:1:pos:R:3 entry_id=13 rank=4 energy=-477.4357604980469 pbc="F F F"
C        5.51066997      -1.98646627      -0.64071244
C        2.39391413       0.19975195      -3.37022961
C        0.76815573       2.66212507       1.35709230
C        3.29689487      -0.84470325      -1.36115584
C       -5.75526466       6.38462720       2.06179509
C        2.50445813       1.45262962      -1.35818245
C       -7.43666847      -3.81550145       6.59380019
C        8.80239204      -3.65448967       0.44190386
C       -2.06959846       0.64259274      -4.81129869
C        1.51964021      -0.69340541       0.42053476
C       -0.17489609       0.43396623       2.27540176
C       -0.15865807       3.68689934      -0.49208319
C        4.45177894      -1.40983149      -0.98682594
C       -2.42967509       4.54980386      -0.78006843
C       -0.26273051       2.84783974      -3.34380535
C        1.77591482       0.60062011       0.87375651
C        0.82116759       1.99968396      -3.08913457
C       -5.23065668      -6.45273372       4.65186828
C       -3.10508071      -3.38734560       3.43776213
C        2.96532000       0.35016550      -2.13945053
C       -4.03268146       3.57465235      -3.81067703
C       -1.31751585      -2.49344226      -1.01451531
C       -5.84629022      -5.35372441       5.25786086
C       -4.64787892      -5.21321420       4.35307232
C       -2.25315758      -2.51218114       2.92490446
C        0.76439608       1.24351246       1.73011652
C       -2.98303613       1.56508541      -4.89298281
C        7.71247883      -3.10942678       0.04144991
C       -0.16019324      -1.96525934      -0.45176910
C        1.75697274       2.78183354       0.34029715
C       -2.06803107      -3.07792182      -2.00455679
C        0.76093007      -1.59322354      -1.51115169
C       -1.44712991      -1.71684014       2.44364920
C       -3.51064763       4.72630998      -1.62371505
C       10.93238434      -4.75007696       1.30722301
C       -1.17190325      -2.19666176      -2.54950055
C       -6.61487549      -4.47149200       5.88843126
C       -0.48134998      -0.87318163       1.90058386
C       -1.78865775       4.07499284       2.88386879
C       -0.33248024       3.48242616       0.91341473
C        6.61635300      -2.54914695      -0.27104787
C        0.27324172      -1.31427257       0.73900811
C        1.11579276       3.19368209      -0.85968051
C        2.43284978       1.55818922       0.06488291
C        1.96270530      -1.14802639      -0.87177885
C       -3.64808497       2.58676274      -4.52962307
C        0.04080629      -0.36865707      -3.71088693
C        1.12501442       0.63763331      -3.60567733
C       -1.49501981       4.03924533       1.56405473
C       -3.93559710       4.32001156      -2.75081511
C       -1.21347326       4.04525655      -1.36894951
C        1.54574656       2.33759259      -1.90997716
C       -1.01280926       3.64745686      -2.70503863
C       -4.68334034       5.80835995       1.63116766
C        0.02402502      -1.46474418      -2.76367074
C        9.93909711      -4.22696742       0.69915953
C       -1.10286515      -0.04632017      -4.39078801
C       -2.52033152       4.66102666       0.66532355
C       -3.89782423      -4.20738800       3.91725519
C       -3.61661026       5.22634248       1.21626097
60
Properties=species:S:1:pos:R:3 entry_id=3 rank=5 energy=-477.1478576660156 pbc="F F F"
C        5.40735115      -4.16078468       1.89628500
C        1.33320328       0.31915479      -3.33471608
C        2.39356946       1.51197381       1.32131040
C        0.72163316      -0.86340574      -3.68515113
C       -4.83408247       2.52976198       1.64050784
C        2.27345835      -0.04088426      -0.99974565
C       -5.53793979      -3.80683077       6.81073339
C        4.86794544      -0.70653932       2.94458071
C       -4.41815819       2.19203901      -3.59094428
C        1.90897694      -1.42353702      -0.49767333
C       -1.79437892       0.58140920       2.17131331
C        1.33931592       3.46883508       0.26157893
C        4.73595628      -4.70857673       0.93297405
C       -1.14866378       3.50074423       0.00025257
C        0.90567342       3.85687411      -2.83916603
C        1.43906318      -0.72967557       0.73511008
C        1.54068264       2.65793914      -3.17748333
C       -0.89649977      -4.90190242       3.84709417
C       -0.18812355      -1.86483449       2.23652831
C        2.21264156       0.65107178      -2.22238446
C       -7.38041966       1.48672684      -5.20344927
C       -3.74742739       0.56226735      -5.06935941
C       -4.07961146      -2.76156724       4.98602330
C       -1.15901526      -2.39688638       2.99735667
C       -3.31110146      -2.22108587       4.18393428
C        0.32779217      -0.74298838       1.66727685
C       -4.82622546       1.32340942      -4.63571399
C        5.36603277      -1.87531772       2.91603779
C        2.33574701      -2.68185240      -0.71089634
C        3.06335318       2.86680388      -1.29624638
C       -1.15998006       0.97490822      -5.04966520
C       -0.34001759      -1.20348508      -4.33116965
C       -2.39127434      -1.59076033       3.34630199
C       -2.23345910       3.58589830      -0.86350838
C        3.32793767       1.19527171       2.24790872
C       -2.48944529       0.30066205      -5.05930971
C       -4.95857258      -3.34762454       5.79149280
C       -2.49538088      -0.34822614       2.81880068
C       -0.36712896       0.51814340       1.83294499
C        1.24956242       2.38862000       1.16150511
C        5.59794603      -3.09897594       2.58970565
C        2.96467017      -3.76026451      -0.51066691
C        2.63014635       3.57540732      -0.35123113
C        2.13589255       0.45047910       0.35452089
C        3.83049125      -4.55658021       0.04227635
C       -6.15797412       1.27854244      -5.08334416
C       -0.19265539       1.75835987      -4.72244896
C        0.89926140       1.59819232      -3.91860597
C       -0.00958663       1.81679183       1.38043831
C       -3.10643899       3.33384828      -1.70235682
C        0.17243743       3.92044474      -0.43703704
C        2.45813052       2.06114176      -2.25838811
C        0.38723745       4.28997122      -1.77615569
C       -3.61511479       2.23879370       1.56088796
C       -1.31302596      -0.44899686      -4.85986297
C        4.15384542       0.34727557       2.69689828
C       -3.84372993       2.80068506      -2.68357892
C       -1.18737598       2.53287509       1.04236686
C       -1.09829008      -3.72380219       3.49067710
C       -2.30194690       1.85121108       1.59963850
60
Properties=species:S:1:pos:R:3 entry_id=23 rank=6 energy=-476.5860900878906 pbc="F F F"
C        4.66326858      -2.17830479      -0.18907367
C        2.72668587       0.01847892      -3.31582290
C       -0.05896675       4.82875916       0.80983555
C        2.41291328      -1.05856742      -0.87309080
C       -3.28843749       9.48954127       0.15824666
C        1.17461765       1.74941114      -0.33216690
C       -6.77842755     -10.11981967       7.90959689
C        8.13587027      -3.71086730       0.46675300
C       -1.21411498       1.02746864      -4.27106881
C        0.99538825       0.43392716       0.23187202
C       -0.51563603      -0.76730593       2.70213569
C        0.10579031       4.79577071      -1.48161011
C        3.56031291      -1.65854150      -0.45053153
C       -2.03337398       6.58859914      -1.80165514
C       -0.37959357       1.99257129      -3.58274766
C        0.58550469       1.04779046       1.51601283
C        0.70016247       1.56392219      -2.76089380
C       -5.51768584      -8.52638023       6.37839433
C       -3.05430554      -4.96986032       3.64739384
C        2.40321408      -0.35796616      -2.09396356
C       -1.98015237       3.83666257      -4.25560498
C       -2.07073938      -2.66347300      -1.29214473
C       -4.89513873      -7.70404986       5.64185785
C       -4.28569983      -6.76621464       4.99042623
C       -2.44810279      -4.07548143       3.00653169
C        0.01652569       0.37371439       2.54907007
C       -2.24025039       1.59809119      -5.05363417
C        6.96680443      -3.22206959       0.24341654
C       -1.17342745      -2.39062495      -0.23336147
C        0.36726142       3.68360044       1.13235571
C       -2.05637316      -1.33016482      -3.57844225
C       -0.00076468      -1.66659308      -0.78534462
C       -1.82364086      -3.14337255       2.31593081
C       -2.25553593       5.89760564      -2.87018178
C       10.46411852      -4.66114071       0.88101894
C       -1.62238883      -2.06753604      -2.46128782
C       -6.12692194      -9.49310806       7.01218068
C       -1.05805529      -1.90946807       2.32517353
C       -0.37714874       7.38459657       2.82323755
C       -0.40005955       5.50401073      -0.37037049
C        5.81580308      -2.71587122       0.10051196
C       -1.36051877      -2.59506987       1.13288743
C        0.89081031       3.69739867      -1.75995781
C        0.76186090       2.39632235       0.93609302
C        1.09543171      -0.91750880      -0.21297029
C       -2.57940641       2.83302021      -5.08564371
C        0.10085691      -0.64997781      -3.09901623
C        1.22785025       0.22234820      -2.94053430
C       -0.88397555       7.28344805       1.68113721
C       -2.42285532       5.07218654      -3.83815814
C       -0.04029177       4.19468242      -2.72007867
C        1.10785260       2.31866883      -1.62169167
C       -0.77108474       3.36884617      -3.58621178
C       -2.49807648       8.52869117       0.26262578
C       -0.27371564      -1.57984202      -2.15227935
C        9.33001099      -4.21482875       0.49699478
C       -1.08982206      -0.34076085      -3.85081749
C       -1.35986292       6.56349462      -0.60434645
C       -3.67370697      -5.89257853       4.31497863
C       -1.59256418       7.47820849       0.48410345
60
Properties=species:S:1:pos:R:3 entry_id=33 rank=7 energy=-476.5750427246094 pbc="F F F"
C        7.86219656      -3.12454866       3.34593876
C       -0.02127672       3.32658474      -4.30032646
C        3.09476040      -0.71812889       0.95013223
C       -0.52122374       4.79553680      -6.19660041
C       -4.32966350       0.42540075       0.45583985
C        4.75879886      -3.93074554       5.13574993
C       -7.13804897      -3.44503722       6.04638924
C        6.79774806      -1.04129357       0.68492713
C       -5.32265225       3.01171444      -4.65531774
C        0.89010164      -3.41242693       5.10423957
C       -1.48808392      -1.03452735       2.02960754
C        1.93461758       0.60090729      -0.70657232
C        7.10106682      -3.64024145       4.23375915
C       -0.47790879       0.87899464      -0.98286696
C        3.55523186       3.26510884      -3.64471887
C        2.05686987      -1.95532396       2.87735434
C        2.29232377       3.49681981      -4.13990265
C       -0.04203038      -3.98953182       6.07629558
C        0.07433039      -2.65466642       4.14968447
C        0.34765973       4.19067370      -5.30932470
C      -10.31408596       3.25124215      -5.82050793
C       -5.22219302       3.93347573      -5.83952374
C       -4.80791241      -2.85503251       5.15459287
C       -1.29361196      -2.80775966       4.57602170
C       -3.71187304      -2.59970168       4.65373071
C        0.65987174      -1.95181736       3.06203639
C       -6.46586538       3.43132121      -5.40194811
C        7.68717647      -1.65877807       1.35028350
C        2.24555866      -3.55902476       5.08518704
C        1.12228719       2.02499088      -2.49593804
C       -7.76597100       3.37124524      -5.54958480
C       -1.72144766       4.91184665      -6.53511390
C       -2.50643668      -2.28346236       4.00597154
C       -2.58930141       1.62315517      -2.33131134
C        4.33259482      -0.47811376       0.39520696
C       -4.20261577       4.50007848      -6.40043931
C       -5.94875295      -3.14178331       5.77148082
C       -2.37816271      -1.52795368       2.88750642
C       -0.02874921      -1.19007613       2.05614608
C        1.84866941      -0.19373064       0.39147513
C        8.10470609      -2.41479273       2.30601751
C        3.46418613      -3.80760279       5.21325409
C        0.91564452       1.20285552      -1.44369946
C        2.91096042      -1.49232698       2.09123380
C        5.98140361      -3.88871504       4.82265411
C       -9.03984680       3.31543718      -5.69219011
C        2.36639329       5.19138496      -6.18329646
C        1.90021743       4.35291424      -5.25546468
C        0.50477561      -0.46198780       0.92855310
C       -3.59443396       2.02658659      -3.05864310
C       -1.57499253       1.28513093      -1.68953113
C        1.08531050       2.85922354      -3.54232668
C        4.77077775       3.18376359      -3.33587853
C       -3.10273937       0.17176923       0.55014858
C       -3.01489568       4.84544835      -6.65343198
C        5.57456606      -0.67105511       0.42268295
C       -4.47723561       2.48545633      -3.82259076
C       -0.60422332       0.10953841       0.20900276
C       -1.26351871      -3.63255135       5.75311559
C       -1.81880029      -0.20770376       0.85908851
60
Properties=species:S:1:pos:R:3 entry_id=17 rank=8 energy=-476.4422912597656 pbc="F F F"
C        7.78153093      -1.69426863       0.01539905
C        0.83807494      -1.51594342      -2.32137117
C        1.58942395       0.24229519       1.14431943
C        0.08638344      -1.28204515      -3.28204135
C       -4.94308510       3.12914329       1.16774418
C        1.69782262      -1.88191692       0.05372458
C       -8.04352597      -3.16176656       4.72832053
C        6.53151933       1.72042088       0.05922338
C       -4.46965881       2.52072845      -3.58449859
C        2.51040628      -2.95964079       0.11827659
C       -2.47366110       0.84890817       2.54450477
C        1.55949856       2.49809962       0.75693140
C        7.17136793      -2.82081061       0.03415026
C       -0.79493793       2.89170121      -0.02241157
C        0.78820389       2.31410571      -1.62867337
C        0.24713417      -1.43643349       2.21970505
C        1.66863315       1.27731363      -2.10049169
C       -2.47217353      -5.01210667       3.51681213
C       -0.95867076      -1.84491573       2.85307322
C        1.59102568      -1.11605683      -1.22415582
C       -6.58386396       2.61660481      -5.10240469
C       -3.76648351       1.52973093      -4.23092688
C       -5.69774100      -2.47407036       3.96362739
C       -2.22165293      -2.41694273       3.10348052
C       -4.59333320      -2.06035220       3.59827145
C       -0.50215136      -0.53811623       3.00925648
C       -5.76143354       2.94813691      -4.01052822
C        7.39413217       0.78371283       0.01948632
C        3.60633571      -3.58940936       0.09899660
C        2.48439969       0.66466753       0.10541995
C        0.71504941       0.55951687      -4.41746175
C       -0.40364022      -0.31095643      -4.18220358
C       -3.37650360      -1.48147741       3.19783648
C       -1.40935558       3.02601033      -1.34675777
C        4.13829131       2.52910335       0.25222246
C       -2.73780733       0.78025137      -4.38477715
C       -6.85495374      -3.00310259       4.34691198
C       -3.28156955      -0.16313125       2.85743619
C       -1.04737738       0.70401984       2.77852280
C        0.98078176       1.44794096       1.57956941
C        7.85833625      -0.41475387       0.00756567
C        4.88164464      -3.84334222       0.08246994
C        2.88030187       2.06329270       0.32300922
C        1.16784932      -1.10616515       1.20020101
C        6.12246769      -3.56735012       0.05845057
C       -7.01212429       3.52974977      -4.14394417
C        1.84720331       1.21186268      -4.87311469
C        1.62106025       1.09234224      -3.49363723
C       -0.35562410       1.60043821       1.96936829
C       -2.73518933       3.14060128      -1.76922201
C        0.61400249       2.72683603      -0.25459453
C        2.04772466       0.24427667      -1.16413084
C       -0.39309506       2.70513311      -2.27262022
C       -3.79111009       2.64191986       1.29106500
C       -1.67148987       0.07954532      -4.43095012
C        5.37727960       2.29690820       0.13597592
C       -3.71965133       3.04441381      -2.50437560
C       -1.28404209       2.36697488       1.19210086
C       -2.43073658      -3.77272501       3.33925155
C       -2.61433161       2.05216969       1.65752194
60
Properties=species:S:1:pos:R:3 entry_id=22 rank=9 energy=-476.4158935546875 pbc="F F F"
C        5.60358357      -1.77240874      -0.83895607
C        2.03893344       0.07030129      -3.01448322
C        0.21905662       3.62725767       1.35114856
C        3.19106228      -0.86344505      -1.05059859
C       -4.82619972       7.06031348       0.67501056
C        1.91756624       1.27739380      -0.98595998
C       -7.86325934      -3.90625241       5.77299219
C        9.17557230      -3.10122731      -0.32245388
C       -2.27449251       0.06738564      -4.41336368
C        1.43257129      -0.92337721       0.79615470
C        0.14374951      -0.47721585       3.08675099
C       -0.02201544       4.24065589      -0.84507859
C        4.44031458      -1.32261248      -0.96901500
C       -2.10972005       5.12143089      -1.16286768
C       -0.60028010       2.66273286      -3.35399218
C        1.51080451       0.39934361       1.34345117
C        0.42338989       1.86009450      -2.92513195
C       -6.32229663      -5.75943832       4.83667756
C       -3.10840443      -4.19365908       3.50690467
C        2.54104705       0.24009337      -1.74915874
C       -3.41553998       3.44942424      -4.13663840
C       -1.25360990      -2.88518861      -0.67684299
C       -5.74599642      -6.96162771       4.42652381
C       -4.95060666      -5.83565291       4.18995966
C       -2.17021071      -3.34418063       3.13094763
C        0.90230025       0.45401065       2.63756452
C       -2.90735725       1.07545629      -4.76652639
C        7.99852983      -2.63828788      -0.53429887
C       -0.09814378      -2.41462435      -0.08120800
C        1.05066801       2.79089236       0.55905511
C       -2.10034073      -2.00692174      -3.00664821
C        0.81901334      -1.89555318      -1.10990257
C       -1.29746941      -2.54635000       2.78507840
C       -3.13944971       5.01736381      -2.08407101
C       11.48586660      -4.05312156       0.17082542
C       -1.23865550      -2.43436726      -2.01722642
C       -7.03413452      -4.73470835       5.29250576
C       -0.32506270      -1.64857935       2.39839273
C       -1.84140157       5.86197366       3.79737859
C       -0.49760695       4.51105435       0.49316002
C        6.80613820      -2.22514966      -0.68152021
C        0.32829855      -1.77457434       1.13257439
C        0.87069207       3.20512565      -0.80919207
C        1.68997891       1.47828883       0.43349801
C        1.94476296      -1.31957655      -0.48018711
C       -3.35688693       2.32132093      -4.68326429
C       -0.18736293      -0.67538666      -3.18512856
C        0.73844366       0.42997713      -3.31398708
C       -2.09645793       5.78873568       2.57637346
C       -2.74648135       4.17277127      -3.16992139
C       -0.96745067       4.50040228      -1.78595714
C        1.16582295       2.21293796      -1.73271077
C       -1.30071048       3.74572346      -2.93863543
C       -3.74964907       6.44581932       0.83282965
C        0.02901294      -1.69945013      -2.24429331
C       10.41213389      -3.48355934      -0.21923865
C       -1.57198947      -0.86442341      -3.67267547
C       -1.75922703       5.20286153       0.25952921
C       -4.04290797      -4.92699467       3.86172652
C       -2.54983323       5.82119542       1.24026537
60
Properties=species:S:1:pos:R:3 entry_id=2 rank=10 energy=-476.2811279296875 pbc="F F F"
C        3.03431356      -2.95833152      -0.41467069
C        1.61429345       0.17967441      -3.03246526
C        2.16896129       1.71943962       1.26294493
C        2.74084062      -2.18823334      -2.85388796
C       -4.77523981       2.94520803       3.41821667
C        2.57560288       0.64363666      -0.62024314
C       -3.29554988      -5.18483300       6.54423219
C        3.70450751      -1.07980554       2.57535698
C       -2.35165290       0.71743929      -4.20324577
C        0.37478769      -1.26863701      -0.41566233
C       -0.89171109       1.10537427       3.81941394
C        1.07755555       3.33931163      -0.06377736
C        2.43151915      -2.56603620      -1.57384101
C       -1.32752523       3.76873584       0.13942037
C       -0.17510360       3.28967465      -2.96247349
C        0.55704464      -0.34676546       0.67194511
C        0.84526562       2.38921762      -3.10431878
C       -2.51600804      -2.51859134      -0.76278349
C       -2.24517325      -2.43854064       0.49926087
C        2.19590541       0.88799029      -1.97579135
C       -3.48777532       1.93335583      -2.24067380
C       -1.94792173      -1.55573232      -3.09434391
C       -2.46257495      -3.25062118       5.08677966
C       -1.10493789      -1.20963435       2.42898622
C       -2.02922837      -2.30123433       4.41772070
C       -0.24832079      -0.15571331       1.87075151
C       -2.61896614      -0.34965181      -3.32123869
C        3.69601533      -2.10960724       1.85400154
C       -1.67755023      -2.15541287      -1.79754234
C        2.92575527       1.96155727      -0.04479704
C       -0.19743539      -0.75960161      -4.81486710
C        1.55044070      -1.27763491      -3.05012610
C       -1.47593939      -1.17212215       3.84697280
C       -2.06230469       3.69392613      -1.12735791
C        2.84610143       1.26567398       2.45333521
C       -0.86454262      -1.66378859      -4.00134617
C       -2.97021843      -4.31079517       5.69512020
C       -1.30775437       0.08376978       4.46330216
C       -0.33610833       1.13834490       2.53019080
C        1.01809363       2.65410659       1.15736608
C        3.43340154      -2.78016510       0.75807152
C       -0.33242232      -1.98807258      -1.31885779
C        2.13957411       2.89145547      -0.86341554
C        1.69082667       0.44400437       0.46031482
C        1.06339761      -1.79483754      -1.62900173
C       -3.20902188       0.87877903      -3.02914898
C       -0.13761341       0.66326521      -4.73109907
C        0.81694125       1.07784401      -3.78087613
C       -0.18140637       2.38800016       1.79317969
C       -3.08597287       2.92372821      -1.57362406
C       -0.10165932       3.89739029      -0.54094030
C        1.85390500       2.24520020      -2.07859019
C       -0.69919485       3.84117972      -1.86174132
C       -3.65863479       2.98947606       2.77923055
C        0.52270582      -1.66978486      -4.03248202
C        3.39795076       0.18388523       2.79508091
C       -1.38817429       1.24027602      -4.94771214
C       -1.40353035       3.11508554       1.42282782
C       -1.75330686      -2.10239997       1.62476050
C       -2.55831666       3.02172784       2.12914788
60
Properties=species:S:1:pos:R:3 entry_id=1 rank=11 energy=-476.2800598144531 pbc="F F F"
C        3.03759619      -2.95200178      -0.41633669
C        1.61085033       0.17791815      -3.03425648
C        2.16956294       1.71892013       1.26233233
C        2.74148259      -2.18532315      -2.85761903
C       -4.76906292       2.93893616       3.42670584
C        2.57442191       0.64148713      -0.62162582
C       -3.27904276      -5.18736009       6.54588598
C        3.69158749      -1.08017672       2.58271518
C       -2.35171946       0.72165355      -4.19992000
C        0.37951227      -1.27199544      -0.41282821
C       -0.88998452       1.10316476       3.81953830
C        1.07840689       3.33578683      -0.06593478
C        2.43539065      -2.56185911      -1.57644865
C       -1.32537220       3.76756823       0.13657692
C       -0.17068334       3.29276322      -2.96626183
C        0.56045597      -0.34950171       0.67491648
C        0.84699533       2.38893597      -3.10807715
C       -2.50995513      -2.52891707      -0.75855938
C       -2.23869189      -2.45374316       0.50446121
C        2.19266102       0.88525505      -1.97695064
C       -3.49029036       1.93886415      -2.24071209
C       -1.94603797      -1.54955703      -3.08828553
C       -2.47024706      -3.24870163       5.08254121
C       -1.10241313      -1.21168907       2.43000285
C       -2.03684380      -2.29939323       4.41389329
C       -0.24723094      -0.15661660       1.87168929
C       -2.61737822      -0.34428607      -3.31652391
C        3.68443228      -2.10921477       1.85980484
C       -1.67552123      -2.15505620      -1.79332429
C        2.92708438       1.95923566      -0.04624506
C       -0.20105134      -0.75837719      -4.81672903
C        1.54865432      -1.27896690      -3.05401119
C       -1.47757532      -1.17203379       3.84627236
C       -2.05986916       3.69812853      -1.13132410
C        2.84170960       1.26879650       2.45689275
C       -0.86651547      -1.65978829      -3.99886374
C       -2.97472450      -4.30711768       5.69524827
C       -1.30612805       0.08239462       4.46450405
C       -0.33663920       1.13798283       2.52987687
C        1.01762740       2.65198598       1.15569342
C        3.42732252      -2.77491189       0.75947398
C       -0.32899689      -1.98995939      -1.31574010
C        2.14122389       2.88914556      -0.86520551
C        1.69250582       0.44253271       0.46072815
C        1.06554928      -1.79542454      -1.62954522
C       -3.21010607       0.88361337      -3.02768459
C       -0.13944561       0.66448698      -4.73416978
C        0.81633861       1.07715576      -3.78420297
C       -0.18208352       2.38725567       1.79244386
C       -3.08557234       2.93044045      -1.57681565
C       -0.09975490       3.89468392      -0.54355855
C        1.85371238       2.24286163      -2.08047912
C       -0.69641889       3.84252076      -1.86526134
C       -3.66039164       2.99159310       2.77607009
C        0.51992657      -1.66953828      -4.03526986
C        3.38789328       0.18427952       2.80029829
C       -1.38966922       1.24390707      -4.94627936
C       -1.40374834       3.11517666       1.42033450
C       -1.74558797      -2.11158154       1.62786690
C       -2.56124080       3.02481186       2.12327126
60
Properties=species:S:1:pos:R:3 entry_id=7 rank=12 energy=-476.0518798828125 pbc="F F F"
C        4.12194073      -2.42724470      -0.50645946
C        1.63664519       0.81799495      -3.03263013
C        1.65228437       3.33203618       0.40367768
C        3.57977444      -0.98307383      -2.57573977
C       -5.24041099       2.78453825       3.25224649
C        2.62672285       2.33653463      -1.13163468
C       -5.34197301      -3.98883740       5.98130395
C        5.97774261      -4.68244389       1.92992748
C       -2.31163696      -0.46253798      -3.69859531
C        1.49328655      -0.42295640       0.02087024
C       -1.32087176       1.65138541       3.14560620
C       -0.01804432       4.18710899      -0.89880168
C        3.43221934      -1.63255840      -1.37523557
C       -2.40750015       3.80212212      -0.44726655
C       -1.27373076       2.90802974      -3.44829149
C        1.38937151       0.84686646       0.70334376
C        0.01339659       2.44579165      -3.49622497
C       -1.27335027      -2.35248229       0.36557198
C       -1.92440516      -2.59777789       1.38354445
C        1.98037885       1.99813793      -2.34479166
C       -3.80118870       0.75609373      -1.98825762
C       -0.96254259      -1.90246035      -2.08453027
C       -3.79866877      -2.27270138       4.80256655
C       -3.25272640      -2.72626333       3.58106414
C       -3.32792628      -0.94957381       4.96147193
C        0.48322382       1.14770508       1.66900777
C       -2.09854296      -1.22386947      -2.52784421
C        5.39351903      -3.94944307       1.09665336
C       -0.47871573      -2.04069722      -0.72792898
C        2.23324617       3.73587721      -0.86944123
C        0.23690103      -1.19639878      -4.24164049
C        2.14870273      -0.50751188      -2.69723677
C       -2.69735570       0.04150336       4.57182985
C       -3.11006380       3.14046900      -1.54682493
C        7.06970806      -6.11035451       3.73647093
C        0.01928635      -1.95245907      -3.09645947
C       -4.63136868      -3.02401049       5.63341462
C       -1.96531302       0.95794048       3.93569762
C       -0.44915337       2.04508788       2.11281230
C        0.26511554       3.67742659       0.38488259
C        4.73795555      -3.16369192       0.27832112
C        0.82537430      -1.48353167      -0.51793433
C        1.10428878       4.04656321      -1.74343336
C        2.06548781       1.99315914       0.15252602
C        2.04018451      -0.99880575      -1.20407596
C       -3.13940394      -0.29364546      -2.51038682
C       -0.26280260       0.11586578      -4.50045664
C        0.48607983       1.08929951      -3.81711685
C       -0.74087480       3.18187812       1.22421176
C       -3.78889706       1.96804575      -1.64371954
C       -1.34645524       4.17990899      -1.30689293
C        1.06472713       3.00344039      -2.67130678
C       -1.93673735       3.55013981      -2.47620563
C       -4.18446743       2.96832158       2.53823820
C        1.30056735      -1.51050804      -3.37909617
C        6.66482434      -5.49549728       2.70068989
C       -1.64534307       0.12286323      -4.68218841
C       -2.15156282       3.43525917       0.93392008
C       -2.61685817      -2.69945846       2.52385378
C       -3.14718725       3.14448447       1.79990611
60
Properties=species:S:1:pos:R:3 entry_id=32 rank=13 energy=-476.05096435546875 pbc="F F F"
C        7.61682508      -3.22751037       3.65910194
C       -0.01281738       3.34127361      -4.34523918
C        3.17109861      -0.68746052       0.85784404
C       -0.62601053       4.80819614      -6.21451319
C       -4.25933736       0.43765700       0.27133357
C        4.49716745      -4.11916943       5.40536033
C       -6.68311254      -3.58062384       6.29672150
C        6.82045766      -1.12065610       0.87617722
C       -5.35828941       3.02831411      -4.61969058
C        0.67162770      -3.44505161       5.16123233
C       -1.46844654      -0.97146698       1.90368361
C        2.02564212       0.62905824      -0.79763715
C        6.83835976      -3.76046076       4.51989425
C       -0.37590820       0.92329605      -1.09928781
C        3.58465626       3.39177759      -3.81936413
C        2.13930776      -1.92750363       2.78360174
C        2.29934856       3.58536469      -4.27123527
C       -0.51942269      -3.85525161       5.94627752
C        0.14783909      -2.59446634       4.04946521
C        0.28860451       4.22129905      -5.36283661
C      -10.39234514       3.16262450      -5.58025126
C       -5.32117504       3.95836532      -5.80981359
C       -4.30189199      -3.15772289       5.45205190
C       -1.19677460      -2.59073844       4.28058783
C       -3.08040161      -2.94994963       5.01952778
C        0.75179543      -1.90710315       2.96016021
C       -6.53333009       3.43330684      -5.32353653
C        7.60730164      -1.76427823       1.64003937
C        1.97831143      -3.76265189       5.36598211
C        1.24743091       2.06927014      -2.59193293
C       -7.83907760       3.34964454      -5.41713745
C       -1.83009909       4.92513401      -6.53626038
C       -2.43504617      -2.16224527       3.80621074
C       -2.49840635       1.67337620      -2.42823678
C        4.42489285      -0.45461569       0.33425019
C       -4.31481542       4.52896600      -6.39050995
C       -5.48723921      -3.37613525       5.88583012
C       -2.48194737      -1.41676331       2.70491397
C        0.00948898      -1.15105426       1.96892045
C        1.92314428      -0.16420608       0.30011096
C        7.91380181      -2.51989451       2.63410023
C        3.19928016      -3.99216014       5.46174369
C        1.02298674       1.24073578      -1.54685337
C        2.98614824      -1.46330617       1.99341661
C        5.71840243      -4.04212258       5.09174533
C       -9.11561904       3.26342606      -5.50764244
C        2.23683516       5.28740883      -6.30984314
C        1.83858262       4.43236097      -5.36630554
C        0.56922752      -0.42505706       0.83097779
C       -3.53195603       2.07163666      -3.11621912
C       -1.46564539       1.34081567      -1.81229624
C        1.13647557       2.90608058      -3.63241485
C        4.80728348       3.33353714      -3.53522960
C       -3.02854213       0.21466644       0.37907726
C       -3.12548010       4.86766079      -6.64834540
C        5.65342317      -0.70017188       0.47932766
C       -4.45911908       2.52014558      -3.83424797
C       -0.51956393       0.15320498       0.09223061
C       -1.66428125      -3.35460937       5.43133610
C       -1.74738840      -0.15603840       0.72190367
60
Properties=species:S:1:pos:R:3 entry_id=20 rank=14 energy=-475.5664367675781 pbc="F F F"
C        4.02995347      -2.24362759      -0.34082509
C        2.22514517      -0.94596251      -1.31545049
C        2.17946920       1.97778625       1.37039061
C        3.24239549      -2.47499824      -2.78376197
C       -3.78471901       3.79791006       4.72720981
C        2.51919771       0.37976296      -1.70220076
C       -4.27295171      -3.50279776       7.01766954
C        3.43607361      -0.55865602       2.84796771
C       -3.26389577       1.02628488      -4.50966236
C       -0.29657209      -2.01606820      -0.69142448
C       -0.35269130       0.65279071       3.33264439
C        0.70438325       3.08789797      -0.38439962
C        3.32069863      -2.01730674      -1.48716976
C       -1.67828519       3.31955464       0.35861160
C       -0.47613805       2.07113164      -2.87815113
C       -0.47967165      -1.88808506       0.74821599
C        0.91784177       2.08991608      -2.59316333
C       -2.30396509      -3.23642325      -1.23399624
C       -2.61399751      -3.47992281      -0.00734956
C        3.29808831       2.23033376      -3.11076573
C       -3.59354611       1.81339050      -2.19094965
C       -2.11448072      -0.80657954      -3.62627715
C       -2.98369321      -2.68856103       4.95800195
C       -1.49422432      -2.25687461       1.69245825
C       -2.35388022      -2.27576915       3.97255054
C        0.78928080      -1.25389740       0.81791757
C       -3.40376030      -0.25171920      -3.81207706
C        4.00112783      -1.40143195       2.05008624
C       -1.25404573      -1.79336638      -2.98924290
C        3.07842196       1.38021369      -0.81750848
C       -0.97487703      -0.06323945      -3.95933459
C        2.28881123      -2.19372516      -3.61553665
C       -1.54362431      -1.67116283       3.02763963
C       -2.91674530       3.18881920      -0.22906690
C        1.86886514       1.39668500       2.68874988
C       -0.05920346      -1.17656870      -3.63402597
C       -3.72002042      -3.22823064       5.91875455
C       -0.89108916      -0.46093628       3.28893089
C        0.46481613       1.70710734       2.93789474
C        1.04232363       2.76659132       0.95606955
C        4.15121168      -1.93966160       0.88396974
C       -1.27152156      -2.42382446      -1.70061060
C        2.89755569       2.52482237      -1.76733328
C        3.10355246       1.46526821       0.52228407
C        1.07420620      -1.35795748      -0.57764088
C       -3.82175579       0.93275229      -3.10023987
C       -1.07098707       1.36452053      -3.99594277
C        2.18979928       1.31189512      -2.85667404
C        0.04191247       2.68593796       1.96225947
C       -2.72689627       2.63405353      -1.55865171
C       -0.67822758       3.14415827      -0.65350427
C        1.46897021       2.87219103      -1.56017359
C       -1.26913372       2.68344403      -1.85019732
C       -2.97019975       3.58646891       3.74792884
C        1.15813880      -1.66139518      -3.88126081
C        2.61974961       0.36731116       3.15631522
C       -2.18749065       1.76872685      -4.72485818
C       -1.28824498       3.20953473       1.76279665
C       -2.43542051      -3.17426309       1.25027428
C       -2.16909793       3.36687345       2.77684798
60
Properties=species:S:1:pos:R:3 entry_id=8 rank=15 energy=-475.43414306640625 pbc="F F F"
C        4.22150884      -2.66391770      -0.58140814
C        0.77557949       0.41935916      -2.50448207
C        1.15842965       2.68673887       0.77469216
C        2.42017002      -2.82615422      -2.29402885
C       -5.31600736       6.45407850       1.82106937
C        1.76841343       1.85333671      -0.66627711
C       -4.67747785      -4.21697359       6.02764981
C        7.31070458      -3.94254771       1.23066747
C       -0.84566030       0.33747535      -5.82595482
C        1.36011863      -1.01009301       0.23790263
C       -0.38713124       1.04596919       2.90518034
C       -0.18975563       3.15468219       0.63393027
C        3.08621596      -2.22547547      -1.21540182
C       -2.00692033       3.88597481      -0.63302668
C       -1.18777384       2.44788607      -2.88941983
C        1.16759464       0.08194477       1.15224495
C       -0.80025431       1.61164503      -3.95499159
C       -1.63608789      -2.31080072       0.08609433
C       -2.14596394      -2.44457598       1.19776575
C        0.82869233       1.62746443      -1.74387857
C       -3.55302440       0.65633780      -3.34826347
C       -1.10369384      -2.08523011      -2.43990676
C       -3.52458353      -2.16145107       4.90708150
C       -3.12307557      -2.44595856       3.57932463
C       -3.16236852      -0.86069257       5.22749126
C        0.31885095       0.27439570       2.24525688
C       -2.23886427      -1.47901561      -2.90436790
C        6.32760133      -3.49567324       0.60028823
C       -0.80044936      -2.03190167      -0.99418052
C        2.21556356       3.24422350      -0.19285957
C       -0.00324360      -1.78292041      -4.61600721
C        1.29226449      -0.82938511      -1.91304262
C       -2.59721350       0.23354873       4.86963184
C       -2.84249593       3.78690011      -1.68488175
C        9.21660902      -4.94599847       2.59255341
C        0.03626329      -2.26830617      -3.33319616
C       -4.17822287      -3.12243488       5.70018960
C       -2.07690182       1.32971953       4.46925955
C       -1.31910689       1.94426701       3.49324352
C       -1.22163842       3.59304599       1.58631331
C        5.23768068      -3.08371119      -0.01368517
C        0.40654397      -1.35923334      -0.76318846
C        3.03178631       4.24640503      -0.42792664
C        1.52931414       1.30151913       0.61202836
C        2.37368399      -0.99234869      -0.82879998
C       -3.03637943      -0.56407183      -3.22306621
C       -0.16752843      -0.45663155      -4.78587944
C        0.02100713       0.48518147      -3.67699923
C       -1.47677950       3.14462657       2.82164848
C       -3.48211426       1.90517727      -3.20847556
C       -0.72018099       3.22247344      -0.65638908
C       -0.28894763       2.51680554      -1.79388228
C       -2.58887694       2.87202238      -2.70146033
C       -4.30242463       5.73445113       1.48931666
C        1.32721622      -2.13670752      -2.68220311
C        8.42301873      -4.31685913       1.82670609
C       -1.23897524       1.47673090      -5.32271499
C       -2.24416818       4.30680070       0.75592354
C       -2.67594962      -2.46223594       2.43133763
C       -3.29769544       5.00120926       1.18045363
60
Properties=species:S:1:pos:R:3 entry_id=25 rank=16 energy=-475.1949768066406 pbc="F F F"
C        4.65425807      -2.55088426      -0.96601428
C        3.77108858       0.62338328      -4.13137198
C        0.48174002       3.26431184       0.08243779
C        2.91682618      -1.09637234      -2.24206081
C       -5.37450709       7.15800902       0.82345285
C        1.39827030       1.21843277      -0.70744226
C       -7.51371834     -10.92439879       7.89003616
C        7.28853473      -4.54110217       1.01462424
C       -0.94950832       1.76049344      -5.43545859
C        1.31638141      -0.07182672      -1.04363118
C       -0.29896878      -0.09501320       3.64175017
C       -0.26513149       5.35692129      -1.51729882
C        3.79729240      -1.85560144      -1.55266515
C       -2.85655435       5.93247331      -1.60350537
C        0.91877815       2.84589630      -3.91942929
C        0.44461454       1.28239598       1.62954246
C        1.84991260       2.14738353      -3.06694648
C       -5.95985611      -8.91824025       7.66413150
C       -2.44682107      -3.75793654       6.40881712
C        3.22307559      -0.11028010      -3.18100266
C       -0.71309016       4.62367031      -4.10790926
C       -1.43282733      -1.98963575      -5.27965730
C       -5.18654320      -7.91063074       7.56853931
C       -4.52653631      -6.82956249       7.33556474
C       -1.83905530      -2.75356160       5.88856454
C        0.10911400       0.63333144       2.64555925
C       -1.74703885       2.91072831      -5.55325105
C        6.37787574      -3.93653598       0.33956997
C       -2.05468506      -3.05597304      -5.43574868
C       -0.44937580       4.17941615       0.53228256
C       -1.28929145       0.43776313      -5.70749452
C        0.60578338      -1.27476688      -3.14796176
C       -1.27325480      -1.79713663       5.27001382
C       -2.66206545       5.60455456      -2.81046795
C        9.16949041      -5.61530000       2.34863610
C       -0.82314771      -0.72207017      -5.18561228
C       -6.59581499     -10.03919990       7.86833480
C       -0.76213831      -0.90679286       4.48833270
C       -2.11736908       5.64443463       3.35002918
C       -0.95424391       5.18122421      -0.31105484
C        5.52904560      -3.26203990      -0.31534230
C       -3.11892697      -4.76848907       6.79483759
C        1.03575089       3.44285630      -1.22559537
C        0.81645010       1.90062907       0.49526218
C        1.40569288      -0.97664044      -2.05932840
C       -1.75243044       4.03537198      -4.90284980
C        1.07178130       0.65334231      -4.48030862
C        2.29897365       0.95810751      -3.76778546
C       -2.32973346       5.74745380       2.11769121
C       -1.99052113       5.05053637      -3.84164166
C        0.56073207       4.45047170      -2.10424015
C        1.64977322       2.28095428      -1.70044553
C        0.40384664       4.09327391      -3.50074613
C       -4.23566263       6.64756141       0.81624956
C        0.36232127      -0.56699584      -4.27460276
C        8.12231996      -5.23983595       1.72058632
C        0.34664964       1.83921641      -4.75571604
C       -2.29574739       5.79757540      -0.33077587
C       -3.79051130      -5.81230413       7.12359517
C       -2.95321394       6.06404712       0.89661160
60
Properties=species:S:1:pos:R:3 entry_id=26 rank=17 energy=-474.8353271484375 pbc="F F F"
C        4.46610697      -2.88682566      -1.31034430
C        4.31827628       1.04863206      -3.39970325
C       -0.04525025       3.07107648       0.08709689
C        2.97159030      -1.00429281      -2.29370263
C       -6.15369107       6.53049735       0.13491963
C        1.05258922       1.25809040      -0.92546164
C       -6.03786557     -10.60645371      11.66720316
C        6.85639141      -5.54761968       0.11385493
C        0.12383957       2.56182452      -5.69738326
C        1.10514593       0.05469734      -1.49321007
C       -1.42877119      -0.79207861       2.78913916
C       -0.34080651       5.63380515      -0.73217832
C        3.69336064      -2.01366613      -1.76510513
C       -2.98906189       5.79035956      -1.65183820
C        1.74583511       3.39602991      -3.85599493
C       -0.39015447       0.81617328       1.10213610
C        2.19420786       2.54513468      -2.77251650
C       -5.31645035      -8.68384147      10.16312981
C       -3.37208727      -4.18669925       6.07225244
C        3.50759297       0.18523228      -2.80887934
C        1.28654243       5.38485038      -2.57284756
C       -0.25523076      -1.11108791      -6.52879660
C       -4.95727592      -7.73183205       9.39999088
C       -4.57836732      -6.87918366       8.51235823
C       -2.91266462      -3.31886373       5.24355979
C       -0.89698558       0.03793491       1.93927251
C       -0.71746436       3.65447613      -5.49078939
C        6.08064768      -4.64171035      -0.36376441
C       -0.69037782      -2.12944758      -7.09539061
C       -1.05912689       3.85548630       0.58003476
C       -0.14369648       1.35568349      -6.33855182
C        1.01122675      -0.92373722      -3.78499808
C       -2.44020442      -2.46128133       4.43308924
C       -2.58314257       5.56848572      -2.84596380
C        8.37764241      -7.36403259       1.05013631
C        0.22283540       0.09772929      -5.98158933
C       -5.69889865      -9.52454601      11.08479860
C       -1.93053716      -1.61367940       3.60239219
C       -3.29128616       5.05091688       3.25381665
C       -1.37845648       5.08519947       0.00243139
C        5.24325607      -3.81051165      -0.82694995
C       -3.79366299      -5.07928063       6.87713122
C        0.80188668       3.58678138      -0.95631631
C        0.19551291       1.64822019       0.21938512
C        1.47171465      -0.80285861      -2.47756798
C       -1.41063717       4.46951177      -4.83442733
C        1.82816173       1.21351375      -4.50040264
C        2.79385121       1.36526539      -3.42175598
C       -3.34703624       5.27022451       2.02199361
C       -2.07375119       5.16161653      -3.95236669
C        0.66777958       4.96693519      -1.36323217
C        1.51155455       2.52804042      -1.56278939
C        1.56622396       4.75255950      -3.62591474
C       -4.99495454       6.12570277       0.36167808
C        1.09476769       0.01837990      -4.75567820
C        7.76414272      -6.34426568       0.58720773
C        1.30112130       2.46302681      -4.84791277
C       -2.74535479       5.58987574      -0.31764661
C       -4.19816416      -5.95785814       7.72129184
C       -3.71424963       5.66090342       0.72144629
60
Properties=species:S:1:pos:R:3 entry_id=0 rank=18 energy=-474.66937255859375 pbc="F F F"
C        1.73371608      -3.37200038      -0.91556922
C        2.04957886       0.15015547      -2.30047542
C        1.91461903       1.86835369       2.12916675
C        2.52884499      -2.20609865      -1.15210740
C       -2.92200419       1.05204822       2.39594868
C        2.47136305       0.67202139       0.13217174
C       -0.04089987      -3.76349419       0.95439856
C        2.54720026      -1.61399513       2.33258815
C       -2.62084301       0.78830593      -3.27636751
C       -0.06684000      -1.52263779       0.07082808
C       -1.20715264       1.61933050       3.80267580
C        1.12448966       3.57888889       0.02860241
C        0.41955600      -3.26535615      -1.41276504
C       -0.98240140       3.98398128      -0.79209072
C        0.59124502       3.45873460      -2.41988464
C        0.13105387      -0.46071508       1.05568021
C        1.59393186       2.42832547      -2.51772261
C       -2.92907432      -2.99351430       0.17127086
C       -3.25116520      -1.87027816       0.68346307
C        2.73041757       0.89480101      -1.26186671
C       -3.00464876       1.85951605      -2.42987874
C       -1.87765758      -1.71761340      -1.63141249
C       -0.05082469      -2.59176686       2.92551192
C       -2.28516498       0.25996623       1.38874367
C       -0.86684425      -1.79349338       3.48435429
C       -0.81676257       0.19404197       1.94200345
C       -2.52225087      -0.54226699      -1.09458109
C        2.06834269      -2.60077026       1.54487368
C       -1.83477327      -2.81578418      -0.70595375
C        2.56813960       1.90547335       0.84549653
C       -1.21508914      -1.06854712      -3.92662293
C        1.56541324      -1.24186295      -1.89628420
C       -1.35604566      -0.55270629       3.18181638
C       -1.68160891       3.77050401      -2.04567962
C        2.27194273       0.79291610       2.90942823
C       -0.89618323      -1.68186914      -2.71251871
C        0.74163119      -3.16596914       1.91231455
C       -2.18561007       0.62088596       3.62385541
C       -0.41481034       1.52487873       2.68510903
C        0.56552508       2.39152219       2.09872004
C        2.35966298      -2.78565635       0.16166209
C       -0.44059145      -2.96514305      -0.22561514
C        2.32619824       2.90024144      -0.14520544
C        1.27932892      -0.03264468       0.29035495
C        0.83939985      -0.87208714      -0.71810891
C       -2.77658540       0.52410911      -1.93712970
C       -1.42286233      -0.70084922      -5.25032097
C        1.47008633       1.13882096      -3.09434700
C        0.19706307       3.27868348       1.06261760
C       -2.92419008       3.15319696      -2.15354583
C        0.38724239       3.94315600      -1.09666249
C        2.49879807       2.28638614      -1.42313547
C       -0.65727669       3.58436549      -3.03886990
C       -2.98785825       2.36922385       1.93555831
C        0.40313529      -2.20389281      -2.38065830
C        2.57813448      -0.45707482       2.88080977
C       -2.02690406       0.05599240      -4.24669942
C       -1.16036064       3.57221561       0.58800680
C       -2.82104648      -0.57631764       0.36635203
C       -2.31280278       3.17450259       1.25269623
60
Properties=species:S:1:pos:R:3 entry_id=24 rank=19 energy=-474.344482421875 pbc="F F F"
C        5.03756802      -2.53723576      -0.27259842
C        2.78087106      -0.67210931      -3.62347531
C        0.03188670       4.74602726       0.41528106
C        2.78385770      -1.52052887      -1.06298314
C       -4.48526801       8.24861925       0.87740194
C        1.58178741       1.39923606      -0.11612475
C       -6.51777864      -9.50151792       7.44445930
C        8.55177959      -3.84606542       0.59444314
C       -2.02232486       0.53351906      -3.62526701
C        1.56648849       0.07950179       0.05718365
C       -0.92189080      -0.24524721       2.23142299
C       -0.20498978       5.17223125      -1.90128361
C        3.91613035      -2.06962542      -0.57415233
C       -2.74274324       5.99924381      -1.57889842
C        0.26006192       1.85277728      -3.37699999
C        0.37586300       1.91692896       1.93586524
C        1.44154124       1.43645807      -2.65338123
C       -5.16750013      -7.75495461       6.17861547
C       -2.98992480      -4.23959519       3.14964355
C        2.67846106      -0.92567396      -2.33034751
C       -1.34193928       3.61167748      -3.81247278
C       -2.44653776      -2.40805634      -1.29348791
C       -4.53063104      -6.88676048       5.51910948
C       -4.00999096      -5.99482357       4.72237647
C       -2.55430727      -3.39393392       2.35478506
C       -0.26494296       0.90911116       2.32119377
C       -2.78880866       1.61808451      -4.08114578
C        7.36440398      -3.41348739       0.36321675
C       -3.19389293      -3.49717585      -0.86371248
C        0.81465310       3.64686695       0.13099378
C       -2.47838621      -0.66831337      -3.08428164
C        0.26251133      -1.70419395      -0.89165461
C       -2.10492755      -2.45991184       1.43104520
C       -2.86458574       5.24234001      -2.58606512
C       10.93304124      -4.67294108       0.95653402
C       -1.86569799      -1.49452068      -2.21715489
C       -5.69411959      -8.65465469       6.97175375
C       -1.47944055      -1.29271983       1.86738784
C       -0.49124590       7.39447396       2.65516641
C       -0.59358186       5.48908188      -0.59606128
C        6.20042978      -3.01621713       0.05971935
C       -2.44513128      -2.73108577       0.05727997
C        1.12600166       3.36640008      -1.24304708
C        1.06613845       2.40711226       0.86333830
C        1.46334271      -1.18812603      -0.39944364
C       -2.56635865       2.89856641      -4.01789103
C        0.19058131      -0.36859584      -2.90478427
C        1.59670467       0.00108461      -2.88020262
C       -1.18363935       7.08431040       1.65888052
C       -2.48858613       4.26893849      -3.43944977
C        0.45137367       4.04646269      -2.29504062
C        1.61935363       2.06504835      -1.42375059
C       -0.10073791       3.22074376      -3.35617203
C       -3.40673816       7.64474667       0.70125275
C       -0.40976632      -1.29460133      -2.00118661
C        9.74285683      -4.21030130       0.95562601
C       -0.57439368       0.69224638      -3.45443120
C       -1.86722968       6.23641027      -0.51912154
C       -3.47671432      -5.13758550       3.98623552
C       -2.15482748       6.99680234       0.64193555
60
Properties=species:S:1:pos:R:3 entry_id=30 rank=20 energy=-474.2913513183594 pbc="F F F"
C        7.45279359      -3.69494133       3.29523367
C        0.39755186       1.57023692      -6.05209623
C        3.07359740      -0.14825785       1.00935780
C       -0.52715529       1.26785497      -6.89099619
C       -4.25068351       1.55465698       0.82282082
C        4.34202144      -4.86740011       4.79620009
C       -7.44945391      -3.07853110       5.08629504
C        6.67182729      -0.93836982       1.06665555
C       -4.50996776       3.00104363      -3.39343510
C        0.88462307      -3.53704249       4.19025016
C       -1.52304676      -0.47340561       1.91093752
C        2.05426721       1.15254715      -0.71558672
C        6.70219439      -4.42447428       4.04034872
C       -0.51890960       2.35078336      -0.14517023
C        0.91238052       5.57160858      -3.46387395
C        1.91741153      -1.63864304       2.66015959
C        0.78027610       4.41386879      -4.15778734
C       -1.92169460      -4.96532734       5.61352991
C       -0.06989633      -2.69862767       3.61238448
C        0.58959675       2.59689200      -5.20932314
C       -7.94813052       3.11854072      -3.62288105
C       -4.77970046       2.80730402      -5.62847531
C       -5.02039038      -2.76667680       4.32751036
C       -1.43978809      -2.94427464       3.95117863
C       -3.85945339      -2.56060477       3.96514941
C        0.51985592      -1.68573614       2.73449549
C       -5.45460443       2.95420905      -4.41704622
C        7.40105751      -1.78533682       1.67280399
C        1.90658232      -4.15553857       4.56048890
C        1.79419053       2.39457978      -2.91413869
C       -2.29620824       3.43226126      -6.22114495
C       -1.71714297       1.32451281      -7.43696995
C       -2.59065870      -2.18911760       3.48091949
C       -1.45101141       3.04571405      -1.06044829
C        4.37128911       0.04376505       0.55789254
C       -3.66472328       2.76496517      -6.25032121
C       -6.23129700      -3.08519245       4.77429423
C       -2.41016294      -1.16777453       2.61184838
C       -0.07917579      -0.69483987       1.90074082
C        1.87206200       0.44605308       0.43735388
C        7.69519111      -2.76021420       2.45942221
C        3.10003320      -4.64010990       4.79380755
C        2.00887716       1.75949304      -1.82308065
C        2.82975310      -1.05110710       2.04074550
C        5.61033370      -4.82862473       4.56044941
C       -6.84077397       3.03182694      -4.18583110
C       -1.33292504       4.11352182      -5.71153242
C       -0.10362627       3.90920665      -5.21244810
C        0.52680362       0.26758911       0.98461209
C       -2.49462901       2.99316578      -1.82699932
C       -0.30184466       3.65314854      -0.41425797
C        1.32812889       3.01426175      -3.97924293
C        1.01461106       6.69661338      -2.91526307
C       -3.04126682       1.21622413       0.84635224
C       -2.57202435       2.24570453      -6.95944342
C        5.56102065      -0.34448290       0.73407717
C       -3.50209481       2.99990218      -2.63986527
C       -0.55344306       1.13176962       0.53316560
C       -1.70080398      -4.00609472       4.83201648
C       -1.79652765       0.67160210       1.04214555
60
Properties=species:S:1:pos:R:3 entry_id=34 rank=21 energy=-474.0841064453125 pbc="F F F"
C        7.65991203      -2.49446506       3.53757834
C        0.20351916       3.65206751      -2.72797618
C        3.48838875      -0.55715660      -0.31278176
C       -0.42141684       5.51870776      -5.80406124
C       -3.86010708       1.54162377       0.48211825
C        4.56446548      -3.51624800       5.30404541
C       -7.31095032      -3.42149105       6.19270147
C        7.08216572      -0.75153595       0.44028412
C       -5.18604042       2.63939923      -4.51537764
C        0.66272346      -3.39860619       5.34608945
C       -2.16243442      -0.89351490       1.97533880
C        2.11460361      -0.21007009      -0.82200088
C        6.87557525      -3.00443935       4.40405080
C       -0.23339034       0.54099058      -0.97068669
C        3.28743316       2.46657758      -4.53362448
C        2.37354318      -1.87994215       1.93989475
C        2.10655555       3.17774813      -4.23718666
C       -0.28312397      -3.90603909       6.31569387
C       -0.17450406      -2.72302457       4.28351389
C       -0.10435629       4.55722341      -3.57831742
C       -9.83212590       2.77385277      -6.14059659
C       -5.14152342       4.33843338      -5.95815976
C       -5.06293684      -2.84143352       5.09977578
C       -1.56098863      -2.86557581       4.75996383
C       -3.94755067      -2.60096507       4.62503862
C        0.20272670      -2.15521093       3.15162304
C       -5.99126169       3.37631364      -5.39784496
C        7.79267443      -1.25577922       1.37059160
C        2.01951344      -3.47604990       5.35883584
C        1.60577630       1.63122407      -2.35073120
C       -7.33528133       3.17157185      -5.65426422
C       -1.62646542       5.63893865      -6.15077438
C       -2.69151525      -2.34105191       4.09602744
C       -2.25567513       1.33424954      -2.43565372
C        4.78105454      -0.32045937      -0.51742774
C       -4.06393391       4.94543977      -6.17192124
C       -6.29237089      -3.05999627       5.54769912
C       -2.48430293      -1.55967009       2.94848832
C        0.88977766      -1.70891873       2.09771104
C        1.56543261      -1.12241169       0.04595042
C        8.00852412      -1.87694996       2.47076103
C        3.26367456      -3.54403065       5.40701931
C        1.21253223       0.72692110      -1.42887219
C        2.80217685      -1.48789013       0.72563086
C        5.76928534      -3.33799099       4.97572271
C       -8.57237209       2.96885272      -5.88890819
C        0.40622616       4.86919650      -4.90263270
C        1.60607474       4.17650388      -5.02815346
C        0.43418020      -1.04609505       0.82755572
C       -3.26829034       1.70656042      -3.11345414
C       -1.25471215       0.99881016      -1.73205797
C        1.30226551       2.75631871      -3.01636804
C        4.36340151       1.96994920      -4.91929873
C       -2.82828667       0.82779535       0.47440034
C       -2.89238731       5.48412960      -6.32232803
C        5.99912732      -0.44614747      -0.18488587
C       -4.22000100       2.20841204      -3.84409693
C       -0.56279243      -0.20709678       0.26879275
C       -1.52007412      -3.59858376       5.97083941
C       -1.84980331      -0.09080980       0.86493981
60
Properties=species:S:1:pos:R:3 entry_id=31 rank=22 energy=-473.7656555175781 pbc="F F F"
C        7.41226675      -3.42309455       3.09824788
C        0.63098760       3.12605505      -4.62874356
C        2.84331795       0.08647971       1.12294868
C       -0.38731705       3.68223505      -6.76606938
C       -4.54664889       1.45762165       1.03660492
C        4.37230595      -4.76513899       4.60941466
C       -7.54640647      -3.47745694       4.97408693
C        6.47232796      -0.58624282       1.04861242
C       -5.00342299       2.55526841      -3.17967293
C        0.85137435      -3.53399663       4.17372855
C       -1.72349177      -0.49236919       2.05186948
C        1.76061424       1.45168192      -0.49750744
C        6.69863544      -4.21204200       3.81894712
C       -0.88016315       2.36634859      -0.03502025
C        4.22415258       3.45594155      -4.69298898
C        1.77621306      -1.52607529       2.72129244
C        2.88429807       3.43632680      -5.00739122
C       -1.87045000      -5.09254911       5.64115814
C       -0.14792397      -2.70965209       3.65534780
C        0.70572236       3.53930362      -5.94516469
C       -9.77891654       1.88277227      -4.06529100
C       -5.06800023       2.87254858      -5.35266459
C       -5.10007926      -3.02012572       4.36477840
C       -1.49958350      -3.02327959       4.00981843
C       -3.93836414      -2.75781841       4.04138994
C        0.38335193      -1.63643783       2.81317410
C       -5.88580579       2.56465788      -4.25932122
C        7.25297940      -1.43425158       1.58484918
C        1.90865314      -4.12688418       4.48169894
C        2.16159135       2.57641886      -2.74080788
C       -7.24702254       2.32714483      -4.21825960
C       -1.64868915       3.56373743      -6.78318986
C       -2.68890431      -2.31055390       3.57117140
C       -1.93138512       2.92862574      -0.91408999
C        4.12629367       0.34286886       0.66310478
C       -4.02307349       3.13566351      -5.99038913
C       -6.30646559      -3.39338994       4.77981027
C       -2.56685696      -1.25346786       2.73576559
C       -0.26986715      -0.64198517       2.02561671
C        1.60511522       0.66659238       0.59744214
C        7.60577621      -2.43877599       2.30754314
C        3.12446164      -4.57875821       4.65618658
C        1.96400481       2.04014595      -1.61165822
C        2.64968618      -0.87336073       2.11138045
C        5.63197128      -4.67511482       4.34267511
C       -8.50047249       2.10673028      -4.13365558
C        2.41788988       4.17468082      -7.51975667
C        2.21458172       3.77347248      -6.26530278
C        0.27681215       0.37803226       1.13651231
C       -3.00000045       2.71938967      -1.61033111
C       -0.78138272       3.65862274      -0.40593188
C        1.88158290       3.01508438      -4.00329358
C        5.45614883       3.50164636      -4.46074773
C       -3.32774739       1.15225157       1.03770217
C       -2.90126646       3.39241478      -6.59713462
C        5.33159413      -0.01564039       0.78576551
C       -3.99405553       2.64608471      -2.43667304
C       -0.84685661       1.17880471       0.69241980
C       -1.70190988      -4.11654812       4.86748324
C       -2.05993846       0.65746851       1.21076782
60
Properties=species:S:1:pos:R:3 entry_id=6 rank=23 energy=-473.5644836425781 pbc="F F F"
C        6.65116249      -3.88347849       1.67462701
C        1.04225424       0.30507083      -3.07969805
C        2.30758824       0.95731373       1.07559670
C        0.55306143      -0.77379999      -3.75541799
C       -4.80914420       2.59200395       1.94701782
C        2.38526486      -0.55597076      -1.12702854
C       -7.10121474      -2.21718473       6.15428769
C        5.45262676      -0.57720753       2.47749880
C       -4.57353349       2.17956421      -3.77954010
C        2.80841520      -1.83242199      -1.34913425
C       -1.75516793       0.60461362       2.22097441
C        2.02452713       3.32796097       0.91749999
C        6.07131731      -4.54572174       0.73006701
C       -1.44590504       3.39203143      -0.04228635
C        0.56615173       3.70084040      -1.76391430
C        1.17851961      -1.10944581       1.02933124
C        1.08142742       2.51854226      -2.30041646
C       -0.87191134      -4.97905530       4.13781587
C       -0.92276890      -1.53570447       2.48538073
C        2.10324176       0.45848356      -2.09334205
C       -7.21045873       1.80287663      -6.09815272
C       -3.81341231       0.59009033      -5.23413541
C       -4.93401486      -2.05461128       4.81381240
C       -1.47287245      -2.58735573       3.27918142
C       -3.86905716      -1.91547889       4.17457150
C        0.14173835      -0.77562293       1.83843781
C       -4.86199080       1.42860395      -4.94910909
C        6.19842835      -1.60134496       2.55822170
C        3.42389460      -2.91229837      -1.15743050
C        3.19720586       2.61660062      -1.11009864
C       -1.39948267       0.70673422      -4.34456367
C       -0.61017254      -0.65174331      -4.42010968
C       -2.73056973      -1.69138530       3.50136566
C       -2.61963549       3.30874287      -0.77752998
C        3.51569122       0.89607970       1.71912533
C       -2.59042246       0.15608533      -4.99049472
C       -6.03880687      -2.30256798       5.46882687
C       -2.08501160      -0.68430925       2.68116113
C       -0.38433915       0.56372629       1.84257043
C        1.38740582       2.09938497       1.13753595
C        6.67591434      -2.77650791       2.33094145
C        4.22196646      -3.87910310      -0.80630730
C        2.91977346       3.30875835      -0.05530064
C        1.94340824      -0.26500837       0.29105036
C        5.14352946      -4.47613885      -0.16985453
C       -6.07593056       1.53502723      -5.66276187
C       -0.85701735       1.77572386      -3.76377769
C        0.35244753       1.62265542      -3.13766164
C        0.01700866       1.79297546       1.30896707
C       -3.44356845       3.11681039      -1.67913472
C       -0.38930330       4.03332579      -0.77063555
C        2.26088807       1.86739359      -1.81701149
C        0.26780711       5.03300019      -1.47679612
C       -3.61540089       2.25095696       1.76646057
C       -1.74690234      -1.05659753      -5.12075128
C        4.51203496       0.25874956       2.16623607
C       -4.10042742       2.68037541      -2.75756297
C       -1.21280818       2.51932849       1.05031580
C       -1.16146672      -3.83141051       3.71716084
C       -2.30507428       1.83216670       1.72892043
60
Properties=species:S:1:pos:R:3 entry_id=11 rank=24 energy=-473.2276916503906 pbc="F F F"
C        5.78979171      -1.63562644      -0.28857448
C        2.72344846      -0.01559656      -1.48311196
C       -3.24660646       4.10075576      -0.50660541
C        3.26963662      -1.03483697      -0.62037890
C       -5.40181804       2.40582148       3.66832492
C        1.35808238      -0.03296693      -2.06342389
C       -4.99789712      -2.57761626       8.09927262
C        9.33260105      -2.99025499       0.37926962
C       -6.61968447       9.85543963      -5.72616252
C        0.86602572      -1.33467246       0.51816290
C       -2.16647389       0.32000461       2.30700343
C       -1.43460882       2.57199868      -1.25412652
C        4.60655955      -1.28589144      -0.45229563
C       -2.26859937       4.27294995      -2.86801823
C        0.29332295       2.15092975      -4.21199663
C       -0.03013209      -0.40991818       0.58087690
C        1.34666420       1.35403820      -3.75392929
C       -0.10107349      -4.71099541       2.77231393
C       -0.82223743      -4.68971638       3.84503504
C        3.05188684       1.27027284      -1.85179601
C       -4.32261026       7.07226205      -4.44041838
C        0.51321198      -4.61520669       1.68301949
C       -3.30167467      -2.88493202       6.15918491
C       -2.44701475      -3.84351873       5.62215968
C       -3.20833132      -1.77026099       5.29546994
C       -0.79837646       0.68591917       0.29796274
C       -5.78041981       8.92223078      -5.48632952
C        8.18411650      -2.47569570       0.11021861
C        1.07496811      -4.05909494       0.56540995
C       -4.06114151       5.04181900      -0.33129525
C        1.39697815      -3.44267814      -3.08966610
C        1.18258120      -4.44218138      -0.75176718
C       -2.89971517      -1.02991271       4.36137181
C       -2.88817750       5.19369329      -3.44162343
C       11.53981534      -4.13349728       0.92738806
C        1.31815011      -4.03754978      -1.94706924
C       -4.12330573      -2.94694457       7.28994446
C       -2.56549225      -0.25420832       3.32192022
C       -1.87980681       1.05595346       1.16653045
C       -2.43714382       2.96656794      -0.32916373
C        7.01934249      -2.02725568      -0.08311880
C        1.45885298      -2.65616212       0.59633631
C       -0.52375083       1.50455826      -0.89559139
C        0.63212509       1.17315685      -1.58631497
C        2.24790973      -1.69960220       0.09606391
C       -5.07224434       8.01006270      -4.89670039
C        1.40109530      -1.14620751      -4.40789830
C        1.34675859      -0.06719072      -3.58444484
C       -2.68010036       2.20221456       0.85899239
C       -3.61439728       6.15972209      -3.92522348
C       -1.42090452       3.22955949      -2.54762612
C        1.75553934       1.69775919      -2.36092126
C       -0.59014606       2.76482380      -3.56335319
C       -6.14406681       2.14755058       4.65138697
C        1.42918698      -2.64039590      -4.10470566
C       10.53398590      -3.44996663       0.53600199
C        1.43329147      -2.06279309      -5.41328584
C       -3.71458449       2.49711102       1.73887886
C       -1.63739950      -4.28025588       4.75954016
C       -4.50913056       2.41750145       2.69385876
60
Properties=species:S:1:pos:R:3 entry_id=4 rank=25 energy=-473.1749267578125 pbc="F F F"
C        8.05804231      -3.67800102       2.55817362
C        0.54566189       2.45235040      -6.08243717
C        2.60477546      -0.41658302       1.22168357
C       -0.12478768       2.05454381      -7.23534147
C       -4.58709586       1.43808817       0.68230145
C        5.35568873      -4.69954332       4.62789986
C       -7.79436008      -3.44871094       5.46236787
C        6.34287681      -1.11208392       0.68624498
C       -4.43926791       2.96325607      -3.68701385
C        2.13026831      -2.94423369       3.91554059
C       -1.89250774      -0.51235414       2.13915218
C        1.73648718       1.02278153      -0.49000042
C        7.55906313      -4.41671065       3.48721479
C       -0.85027368       2.22831204      -0.00657780
C        0.90643178       4.85458828      -3.28999961
C        1.56448897      -1.97642658       3.07366627
C        0.94449208       3.82410142      -4.19700275
C       -2.16219667      -4.49692332       6.35163543
C       -0.64598764      -2.43441698       3.90266603
C        1.49961891       1.82134814      -5.27622055
C       -7.80975943       2.65916556      -4.12497291
C       -4.55968404       3.14241760      -5.96171409
C       -5.42825560      -2.78316888       4.74250897
C       -1.87248777      -2.73230903       4.38582499
C       -4.32069923      -2.44278391       4.31502095
C        0.11532432      -1.71057828       3.04499553
C       -5.29454271       2.99645244      -4.78844766
C        7.31488879      -1.84173707       1.03555118
C        3.07386450      -3.64083757       4.34849562
C        1.92660927       2.06628162      -2.79768753
C       -2.09136596       4.00231691      -6.28898469
C       -1.27157397       2.23384057      -7.76375321
C       -3.08091491      -2.05449852       3.80580643
C       -1.70008463       2.92495952      -0.98805682
C        3.91495817      -0.31660960       0.72155774
C       -3.41060420       3.30755646      -6.50829243
C       -6.58233719      -3.16391222       5.27795116
C       -2.83723911      -1.12886365       2.85101816
C       -0.43121646      -0.72705934       2.13865529
C        1.47864583       0.32110875       0.63535497
C        7.96172911      -2.75372539       1.68015972
C        4.15438657      -4.30978268       4.66788474
C        1.89082804       1.57396529      -1.63243079
C        2.32415347      -1.27154851       2.22169474
C        6.58310827      -4.77289772       4.23273985
C       -6.68676262       2.85737018      -4.62718524
C       -1.04700942       4.37453790      -5.61723097
C        0.11119051       3.70007494      -5.36713529
C        0.15255606       0.18435870       1.19002056
C       -2.64834450       2.88985792      -1.87042310
C       -0.61096701       3.53553943      -0.24133045
C        1.61756410       2.51399169      -4.04269646
C        0.96054401       5.91746542      -2.62203873
C       -3.39849646       1.08699422       0.88089651
C       -2.28473349       2.99394052      -7.28487571
C        5.12111737      -0.63857891       0.65528414
C       -3.54817053       2.93264784      -2.80000538
C       -0.91702668       1.02754712       0.69534342
C       -2.09318848      -3.66573630       5.42445377
C       -2.16231685       0.57354688       1.19009091
60
Properties=species:S:1:pos:R:3 entry_id=27 rank=26 energy=-473.127197265625 pbc="F F F"
C        4.00998747      -3.07798225      -0.10074353
C        2.33639106       0.67627700      -4.97949761
C       -0.27058701       2.52073319       0.20962660
C        3.21855986      -1.27675987      -3.27653132
C       -6.68760456       5.26913232       0.50102131
C        1.74981536       0.83959636      -1.06615377
C       -7.34471436      -9.32984901      11.76784723
C        5.27801324      -5.41048201       2.69988067
C        0.09701846       3.41070379      -6.21479761
C        2.38593637      -0.34968220      -1.21841963
C        0.54261997      -1.59887136       3.37826831
C       -0.87744701       4.95247190      -0.77480989
C        3.62634333      -2.34121974      -1.02391355
C       -3.54619525       5.16067776      -1.47583048
C        1.22044748       3.05527760      -4.07155142
C        1.37018991      -0.50973705       1.22673921
C        1.62057146       2.10312251      -3.06191368
C       -5.60284091      -7.84362719      10.66115289
C       -1.72428053      -4.27835701       7.07566050
C        2.76260180      -0.24559240      -3.96184660
C        0.82068647       4.88477528      -2.49067411
C       -0.11730834       2.96971973     -10.12823507
C       -4.74673157      -7.10597458      10.07739664
C       -3.94380750      -6.43443223       9.32745092
C       -1.07191135      -3.57444285       6.22436313
C        0.98809404      -1.02264585       2.31029692
C       -0.85016514       4.17230902      -5.53727299
C        4.83854800      -4.60267821       1.79710359
C       -0.30233798       3.00742325     -11.37186331
C       -1.31919490       3.16918411       0.62094099
C        0.03842149       3.23111957      -7.59070791
C        1.91159773       0.54485729      -8.39395248
C       -0.47674672      -2.88732369       5.33207459
C       -3.10680028       5.18001200      -2.68099695
C        6.10828032      -7.03133906       4.48056608
C       -0.08810332       3.17926179      -8.82121483
C       -6.42942924      -8.51602654      11.41461086
C        0.06053633      -2.21978721       4.37230028
C       -3.57178529       3.55434054       3.23223350
C       -1.83581382       4.35469004       0.00956046
C        4.45151945      -3.89470885       0.82725450
C       -2.42571787      -4.99800846       7.85976994
C        0.49288362       2.94246471      -0.91362997
C        1.72834771      -0.04974881       0.04159157
C        3.12411690      -1.38034767      -1.88224996
C       -1.72617385       4.64529706      -4.77419926
C        1.69497650       1.48501943      -5.95679537
C        2.23757519       1.02787531      -3.65116889
C       -3.70092951       3.98120251       2.06184021
C       -2.51732601       5.03557246      -3.81140069
C        0.20691162       4.34555870      -1.33424480
C        1.34205229       2.05931544      -1.65486177
C        1.04950240       4.35869375      -3.60760475
C       -5.48788052       4.94790377       0.62452611
C        1.68202990       1.14034749      -7.31435670
C        5.65006165      -6.10400020       3.72937256
C        1.04685667       2.65878830      -5.43245599
C       -3.22791957       4.75481760      -0.19974263
C       -3.16528520      -5.70207470       8.63701256
C       -4.15831321       4.55433013       0.86292768
60
Properties=species:S:1:pos:R:3 entry_id=19 rank=27 energy=-472.56182861328125 pbc="F F F"
C        7.84583020       0.03921178       1.09564621
C        2.35444196      -2.30824615      -2.47319347
C        1.43554538       0.19193928       0.67925695
C        2.23355684      -2.20532881      -3.73652775
C       -5.57333740       1.67653174       0.26701017
C        2.10775445      -2.02623194      -0.00098337
C       -5.91524336      -4.82093034       7.22414622
C        6.39367228       1.98238213       0.43184104
C       -4.41035090       4.38977543      -4.51094276
C        2.92189400      -3.03660946       0.37606884
C       -2.85388461      -0.08604597       2.09111916
C        0.63982115       2.46778340       0.52319139
C        7.38452456      -2.40556318       1.38054439
C       -1.72614079       1.97942152      -0.73787652
C        0.68870415       1.91786720      -1.76214714
C        0.49727511      -1.66120051       1.93379499
C        1.28667954       0.75166978      -2.41220975
C       -2.17475967      -4.19327694       6.67562167
C       -1.19383660      -2.10667789       3.66915682
C        2.13623787      -1.51678144      -1.37523415
C       -6.48686819       6.07111592      -4.72079818
C       -4.57719672       3.79276808      -5.79498473
C       -5.00037364      -3.17961027       5.51814055
C       -1.60941517      -2.76312421       4.62072832
C       -4.68771104      -2.34956630       4.63638458
C       -0.66103077      -1.36039080       2.60418065
C       -5.19127803       5.56518540      -4.52087150
C        7.30224746       1.16122793       0.78116659
C        4.01066792      -3.57786662       0.72300833
C        2.37627875       0.60151828      -0.29280099
C        1.87078932      -1.65696912      -4.85855548
C        1.21653185      -0.48500527      -4.79844675
C       -4.25276862      -1.51576674       3.72851780
C       -1.98597999       2.56794019      -1.97874164
C        3.99331319       2.50972443      -0.18971831
C       -4.22644425       3.69658888      -7.14517352
C       -5.25080212      -4.06743610       6.45164674
C       -3.71132724      -0.77475795       2.88909113
C       -1.41930393      -0.25366022       2.05851120
C        0.44488024       1.16195829       0.98089525
C        7.87546827      -1.22431912       1.30956145
C        5.26363515      -3.69791429       1.05100802
C        2.76328731       1.99809643      -0.39705881
C        1.29488516      -1.21558161       0.94725258
C        6.44089087      -3.27614803       1.28212109
C       -5.41976756       6.77765299      -5.19515317
C        0.38940426       0.63335030      -4.98889043
C        0.94166291       0.45330713      -3.73395462
C       -0.89604806       0.75027901       1.22156353
C       -2.83857021       3.19492596      -2.82746903
C        1.40453731       2.44122610      -0.62040824
C        2.02165105      -0.07388186      -1.49469945
C       -0.69461245       2.12273132      -1.68073366
C       -4.45250125       1.28898389       0.67593893
C       -5.30942359       2.99010858      -6.67549382
C        5.22099188       2.41237660       0.08938032
C       -3.59735106       3.81694713      -3.56612668
C       -1.95881064       1.35792187       0.48642250
C       -2.08881314      -3.46952744       5.64940222
C       -3.19618809       0.90699621       1.07177575
60
Properties=species:S:1:pos:R:3 entry_id=28 rank=28 energy=-472.0691223144531 pbc="F F F"
C        6.01565986      -1.51804470      -0.31336601
C        0.65771648       1.60451171      -0.76864181
C        1.25737601       7.64612980      -0.58978041
C        3.48097445      -1.74923083      -0.00756635
C       -4.26591033       9.52365324      -2.37795798
C        1.57081924       3.99725271      -0.65649213
C      -10.61269359      -5.83923484       4.79536830
C        9.81012227      -1.71089333      -0.84693619
C       -3.08652865       0.08609658      -1.69957489
C        2.57801384      -4.48446053       1.51083602
C        1.67812097      -6.32097151       2.78790430
C        0.15830111       5.82204988      -1.41394835
C        4.77183692      -1.56606296      -0.13893465
C       -1.96866787       6.46278804      -2.06092148
C       -1.22325725       2.90627975      -2.79119578
C        3.40390310      -5.69089263       1.31461210
C       -0.91351113       1.57389277      -2.43305158
C       -8.15372625      -6.06705284       4.18199682
C       -3.19800477      -6.05963682       2.98997933
C        1.10614491       2.81419495      -0.76006549
C       -4.01438540       3.53206928      -2.60297161
C       -1.00305020      -3.72617391       0.48036945
C       -6.91603686      -6.14995500       3.88013771
C       -5.68364431      -6.11566745       3.54168761
C       -1.92707918      -5.94537791       2.72373367
C        2.81968188      -6.79466510       2.03851894
C       -3.75436228       1.06595550      -2.06780890
C        8.54342093      -1.61783420      -0.70874953
C        0.34089316      -3.53965339       0.73124264
C        2.02116388       6.58025560      -0.35783067
C       -2.54082199      -2.14194189      -0.79952282
C        0.91163100      -2.28104693       0.17205536
C       -0.73313895      -5.75882338       2.43168647
C       -3.20134421       5.99554171      -2.41774557
C       12.33151341      -1.94912558      -1.10876485
C       -1.88518085      -3.03595387      -0.16509228
C       -9.38211754      -6.11871298       4.60867675
C        0.59320735      -5.56399003       2.19905281
C       -0.49090643      11.16557081      -1.01705309
C        0.04821143       7.25257021      -1.22567945
C        7.29460383      -1.48920404      -0.46886931
C        1.15992173      -4.47152407       1.42430741
C        1.37005659       5.32616524      -0.81345097
C        2.85814196      -5.38549239       2.72668698
C        2.28109135      -2.04097080       0.14708454
C       -4.09663342       2.30024448      -2.41079735
C       -0.76759275      -0.48370324      -0.94775551
C       -0.34745014       0.87166762      -1.32761810
C       -0.96954291      10.03724650      -1.26606737
C       -3.10918785       4.57400253      -2.54813343
C       -1.01480577       5.33885666      -1.96916628
C       -1.06983004       1.90170667      -3.76676714
C       -1.67412830       4.16428188      -2.39177504
C       -3.12719737       9.11494145      -2.06006394
C        0.09759405      -1.32369383      -0.36925922
C       11.05696852      -1.92045580      -1.15619239
C       -2.20964594      -0.85949108      -1.21446284
C       -1.25451295       7.64801197      -1.63824116
C       -4.42738737      -6.11363015       3.26372171
C       -1.78669257       8.95205769      -1.64521113
60
Properties=species:S:1:pos:R:3 entry_id=5 rank=29 energy=-471.53887939453125 pbc="F F F"
C        5.50906566      -3.70748516       1.82383161
C        0.81281524      -0.02025215      -3.19889626
C        2.32965853       1.37097543       2.52190580
C        0.58843805      -1.36059631      -3.44545284
C       -4.61586977       2.21602268       2.26160727
C        2.10710212      -0.02437936      -1.05885769
C       -6.52746356      -2.92206166       6.40692154
C        3.91250812      -0.63857141       3.15556917
C       -4.18602916       2.98479346      -3.95047333
C        2.69458585      -1.23886074      -1.36463395
C       -1.46625085       0.33630150       2.59680028
C        2.25860289       2.84040248       0.70698394
C        5.48313920      -4.29143495       0.66430751
C       -1.44110338       3.01728154       0.24037545
C       -0.04600778       4.68396320      -4.49280221
C        1.52192967      -0.87271490       1.14294821
C        0.62740156       2.30869455      -3.61686515
C       -0.10755066      -5.25352247       4.24186134
C       -0.41851214      -1.74324090       2.73374014
C        1.52457074       0.67576684      -2.16632505
C       -6.94483121       3.60336676      -5.83860873
C       -3.97735933       1.28578919      -5.49871325
C       -4.32960849      -2.62110845       5.14603883
C       -0.85791878      -2.85989288       3.51575606
C       -3.27341066      -2.41330153       4.51056257
C        0.54034272      -0.85567558       2.09889572
C       -4.75660442       2.40572505      -5.08255431
C        4.58372998      -1.68897992       3.02937633
C        3.38293094      -2.28479059      -1.42491737
C        1.94534655       3.12668110      -1.72925894
C       -1.82610795      -0.11606254      -5.24073365
C       -0.35021303      -1.73595638      -4.29360247
C       -2.17695034      -2.07995651       3.81186952
C       -2.11775381       3.34215292      -0.78066187
C        2.54973866       1.62039698       3.83118790
C       -3.09069164       0.43620085      -5.55202787
C       -5.40263972      -2.94045130       5.82330571
C       -1.64774755      -1.00249770       3.00767082
C       -0.12190856       0.40337800       2.18450735
C        1.67969090       1.58658880       1.17789931
C        5.16412192      -2.77362295       2.61475281
C        4.15258584      -3.31241803      -1.18608025
C        2.38007316       3.48405547      -0.56886721
C        1.87622273       0.21851212       0.38436918
C        4.90449791      -4.04760494      -0.47592217
C       -5.93512941       2.89048346      -5.66230618
C       -0.92454024       0.82343396      -4.82490855
C        0.12084493       1.02380972      -4.02825241
C        0.21025754       1.56142632       1.53331094
C       -2.80452474       3.44489584      -1.85384964
C        2.90799698       4.02785634       0.68682940
C        1.43830806       2.10717117      -2.43550942
C        0.22597948       3.53533534      -4.06748928
C       -3.41371536       1.87297959       2.16206761
C       -1.35143830      -1.44751579      -5.05606887
C        3.17362501       0.46630631       3.18001852
C       -3.49696438       3.24501096      -2.93528396
C       -1.04632768       2.24951736       1.28315065
C       -0.46486347      -4.10415586       3.88251302
C       -2.08918236       1.52298349       2.10401241
60
Properties=species:S:1:pos:R:3 entry_id=21 rank=30 energy=-471.2746887207031 pbc="F F F"
C        3.84291096      -2.72248897      -0.37717686
C        1.88637739      -1.41058818      -0.89325358
C        1.81425068       1.96132816       1.65192789
C        2.82350152      -2.69048451      -2.72067443
C       -5.12363611       2.59801688       4.04274014
C        1.57334465      -0.41070975      -1.91028017
C       -2.73531862      -1.76329973       8.75316340
C        4.40021714      -0.37186813       2.57169345
C       -2.08863242       0.52119213      -4.94274206
C       -0.19382813      -2.27163331      -0.00507469
C        0.39551977      -0.84770767       2.68985998
C       -0.22012500       3.06326095       0.65415368
C        2.89843189      -2.38167031      -1.33772060
C       -0.70825435       3.43777816      -0.42455572
C       -0.35634290       2.44126167      -2.59655262
C        1.37111349      -1.37838451       1.65304835
C        1.01271593       2.22228584      -2.36603911
C       -1.29501296      -2.50393162      -2.04305654
C       -2.21741049      -3.42675284       0.17250155
C        2.27862930       1.81011147      -3.14514987
C       -3.29576834       2.66484412      -4.34371813
C       -3.10005560       0.14800349      -5.81264770
C       -2.25821656      -2.08030648       6.25482000
C       -2.28945179      -3.01722276       2.68715868
C       -2.03922631      -2.17513499       5.04398118
C        2.67883129      -1.05694895       1.97845672
C       -4.06927370       1.08021422      -5.85966156
C        4.03149681      -1.48866229       1.71501790
C       -0.94175393      -1.82234085      -3.01566737
C        2.36433451       1.95765983      -0.79795462
C       -0.82787717       0.29786780      -4.18757784
C        1.99710247      -2.10594529      -3.49527331
C       -1.70019200      -2.22222894       3.67877759
C       -3.32183519       4.81214044      -2.57125467
C        2.02741639       1.04721685       2.74659521
C       -0.17948354      -0.85490765      -3.69588905
C       -2.56030035      -2.09625746       7.55222938
C       -0.68891142      -1.43772578       3.18245321
C        0.71728646       0.55552883       3.01680164
C        0.41685202       2.40051775       1.68990621
C        4.33424965      -2.38150440       0.72447547
C       -1.27501253      -2.80457142      -0.65648783
C        3.07047829       2.93805574      -2.93599302
C        2.53584386       1.93499447       0.50279283
C        1.00671453      -1.72770046       0.29115477
C       -4.29101827       2.23882630      -5.26652277
C       -0.98308042       1.65422514      -3.57894871
C        1.85894997       0.99268573      -1.86730092
C       -0.23941202       1.59929786       2.70421671
C       -3.18027557       3.70095471      -3.39319810
C       -1.10876481       3.35683257      -1.76254555
C        2.17938496       3.05340418      -1.81113483
C       -2.26803852       3.91082260      -2.33124551
C       -3.99060458       2.14793187       3.71716703
C        1.19570487      -0.98707113      -3.21342794
C        3.06542920       0.09990630       2.71085390
C       -2.19549989       1.79399808      -4.28436250
C       -1.55537997       1.70976061       3.06023524
C       -2.35078912      -3.32580123       1.45317593
C       -2.73137349       1.97404510       3.37874304
60
Properties=species:S:1:pos:R:3 entry_id=29 rank=31 energy=-471.072998046875 pbc="F F F"
C        7.88440996       0.03960620       1.29972690
C        2.18280375      -2.22376576      -2.51634385
C        1.04439405      -0.07976418       0.84204378
C        2.18962579      -1.99204659      -3.77172589
C       -6.33798312       0.75235893       0.83789782
C        1.80052510      -2.14895888      -0.02286406
C       -4.55130302      -3.71422969       6.63664672
C        6.17223312       1.84425113       0.88372649
C       -4.43229840       4.30192351      -4.58997452
C        2.58161386      -3.26314004       0.18758491
C       -3.40111262      -0.03107375       2.02740487
C        0.30722599       2.23030014       0.79383132
C        7.88996039      -2.46925357       1.34520015
C       -1.91580916       1.86147248      -0.73399518
C        0.57283030       1.91963170      -1.53703387
C        6.05763129      -4.13911254       0.97756185
C        1.25314495       0.85514141      -2.27446572
C       -0.88667331      -4.33257923       7.07689093
C       -1.48810482      -1.82200323       4.26061809
C        1.92600301      -1.51804453      -1.37478057
C       -6.51244047       5.99767706      -4.70411661
C       -4.62836687       3.73300247      -5.88161898
C       -4.45799274      -2.14315830       4.61874301
C       -1.39135113      -2.66831436       5.22522449
C       -4.62164476      -1.38874145       3.66015519
C       -1.53409029      -1.00163504       3.30842815
C       -5.21486034       5.47863060      -4.56301593
C        7.17400957       1.09764273       1.12317812
C        3.60366943      -3.94049177       0.43673594
C        2.03182065       0.48343821      -0.06930257
C        1.99518097      -1.32163396      -4.86495470
C        1.43199571      -0.10529741      -4.77774234
C       -4.61214335      -0.53598621       2.58363855
C       -2.08611308       2.48966816      -1.97487198
C        3.74292061       2.30641490       0.31923479
C       -4.33485417       3.69401500      -7.24875619
C       -4.31091565      -2.96047714       5.65809831
C       -5.64650500       0.04216600       1.77169511
C       -2.01592007      -0.20669078       2.32654859
C        0.03902596       0.93346743       1.18235493
C        8.14178510      -1.21021172       1.37827929
C        4.83058891      -4.30116442       0.71180428
C        2.51956927       1.83805574       0.02096630
C        1.06019459      -1.43528602       0.92415592
C        7.15897357      -3.50757077       1.20542504
C       -5.45375566       6.71660674      -5.18195566
C        0.73893750       1.10289290      -4.94543855
C        1.08093035       0.73853239      -3.65508835
C       -1.34174144       0.63254808       1.34530199
C       -2.88847286       3.11126950      -2.87234898
C        1.17702087       2.26926176      -0.27489350
C        1.85484933      -0.07275773      -1.36342755
C       -0.80924476       2.09303911      -1.55607007
C       -4.97545060       0.92215094       0.68384171
C       -5.39558951       2.96520979      -6.76329343
C        4.96978552       2.22915445       0.60038373
C       -3.62532900       3.71833051      -3.64638353
C       -2.29257083       1.22103119       0.44259537
C       -1.30957896      -3.52100776       6.18735454
C       -3.60265023       0.81626951       0.91099144
60
Properties=species:S:1:pos:R:3 entry_id=9 rank=32 energy=-470.523193359375 pbc="F F F"
C        4.40286856      -2.93612019      -1.10532597
C        1.70912589       1.64165012      -2.26972652
C        1.16823071       2.90187416       1.10362505
C        2.60150221      -1.66028576      -2.20619637
C       -5.18953705       7.07527574       1.79709570
C        1.85616916       2.02865102       0.12797395
C       -5.63514060      -2.57160647       6.52505911
C        7.92647053      -4.34065569      -0.78966107
C       -0.61444330       0.02856559      -5.07593376
C        1.46897638      -1.62676272       0.78813700
C       -0.68502254       1.20158671       1.87715134
C       -0.21020010       3.15115017       0.67253575
C        3.13558497      -2.39155495      -1.20654486
C       -1.51685795       3.37269257      -1.54979895
C       -1.67394491       2.58154547      -2.73334095
C        1.29426907      -0.22158472       1.08342212
C       -0.64352486       1.89764093      -3.54001051
C       -1.51934572      -3.12302720       0.80806454
C       -2.27397206      -2.95310512       1.76799184
C        1.81968927       2.56563085      -1.22133975
C       -3.28896313      -0.48453038      -3.11405251
C       -0.81023679      -2.95640527      -1.56510613
C       -4.28914548      -1.26372484       4.70779318
C       -3.68463203      -2.09518711       3.73562450
C       -3.94185705       0.04046137       4.42041069
C        0.14203173       0.28597424       1.69914765
C       -1.75241907      -2.41534908      -2.49423815
C        6.76140642      -3.91996732      -0.93861348
C       -0.54396345      -3.12612963      -0.17054120
C        1.62566437       3.03225328       2.39978547
C        0.49966839      -1.66578341      -3.56374046
C        1.55466988       0.42702965      -2.94106109
C       -3.40664664       1.00324761       3.76952665
C       -2.59138939       4.00287771      -0.94249240
C       10.31946232      -5.11022987      -0.36960615
C       -0.30682495      -2.48139206      -2.74308266
C       -5.08081159      -1.75685470       5.76217190
C       -2.90367457       1.98377095       3.13593333
C       -2.40022891       2.92482600       2.24661059
C       -1.16479051       2.48667461       1.56735711
C        5.54247670      -3.39856120      -1.02413367
C        0.77501359      -2.68121243       0.18055598
C        2.16150429       3.24956613       3.52025539
C        1.98976102       0.70226044       0.33755003
C        2.10871906      -2.43178839      -0.15384419
C       -2.72444542      -1.58497826      -2.86755880
C       -0.08862220      -1.04527461      -4.62762434
C        0.62209508       1.44683087      -3.13033697
C       -3.06303938       4.10152602       2.06691259
C       -3.41077673       0.82909819      -3.14144794
C       -0.28902688       3.43074985      -0.77282904
C        0.92627860       3.61742181      -1.40992773
C       -2.92608760       1.98621421      -2.94144565
C       -4.41100048       6.13429516       1.58148351
C        1.70142411      -1.01180986      -2.94456432
C        9.12490024      -4.88863153      -0.73608369
C       -0.99078426       1.22641481      -4.71823230
C       -3.17900241       4.65313837      -0.06903811
C       -3.03014332      -2.54065239       2.79311858
C       -3.60055300       5.03335787       1.23714793
60
Properties=species:S:1:pos:R:3 entry_id=15 rank=33 energy=-470.2380065917969 pbc="F F F"
C        5.48180552      -3.46595601      -0.97250519
C        1.06274645       0.45606996      -2.21719031
C        1.56797680       2.89733075       1.03999010
C        3.32264943      -2.43557300      -1.86655242
C       -6.49952190       5.78871445       2.28035172
C        2.39279588       1.89000840      -0.54808418
C       -5.05629858      -3.91917581       6.33491340
C        8.48470506      -5.09384112       0.72611090
C       -2.18388738      -0.26524037      -3.77957491
C        1.42072717      -0.70202895       0.06296757
C       -2.50489411       2.60666418       3.50302748
C        0.03376926       4.14050773      -0.20768950
C        4.38957193      -2.92342526      -1.43836658
C       -3.33285481       4.49821008       0.39936945
C       -1.54017931       2.96871832      -2.77326552
C        1.75802967       0.14065988       1.21061883
C       -0.34716624       2.28889464      -2.71040623
C       -1.65475466      -2.22087278       0.40415539
C       -2.25645136      -2.38031063       1.46592676
C        1.61011061       1.63738707      -1.69370865
C       -4.25418122       0.38096759      -5.28689673
C       -1.22807241      -1.81867571      -2.10298052
C       -4.00140838      -1.98538120       4.96946957
C       -3.46383889      -2.40518462       3.73645535
C       -3.77057693      -0.59604014       5.05585241
C        1.95059740      -0.32949067       2.46049564
C       -2.20379898      -1.09680005      -2.68699108
C        7.54724702      -4.54688984       0.07479227
C       -0.84416708      -1.94410915      -0.67759205
C        2.14808553       3.28665675      -0.22679582
C        0.33825732      -1.66694628      -4.16873757
C        2.16211008      -1.85682043      -2.22701006
C       -3.38577548       0.51799309       4.69688539
C       -2.55234318       4.44448250      -0.70761014
C       10.31779750      -6.20813256       2.09595148
C       -0.18464610      -2.15826319      -2.97360493
C       -4.63135347      -2.83807656       5.87855834
C       -2.94933772       1.67416800       4.16839786
C       -2.03344784       3.44494686       2.47434297
C        0.23282894       3.53731572       1.11389649
C        6.48948313      -4.00116701      -0.44522538
C        0.42989985      -1.40796105      -0.52387643
C        1.08069972       3.77646944      -1.07746644
C        1.91820758       1.51898511       0.74324003
C        1.43554648      -0.77809164      -1.43806451
C       -3.25102448       0.06564973      -4.57042044
C       -0.04263418      -0.63578394      -4.94774811
C       -0.05100913       0.87286312      -3.04055317
C       -0.75488678       3.42430735       1.99934835
C       -5.25166582       0.70962293      -6.04031835
C       -1.17789100       4.41647008      -0.76238513
C        0.80510544       2.73314256      -1.97704853
C       -1.91694571       3.85769896      -1.85743297
C       -5.43515320       5.27980202       1.84693028
C        1.17676300      -2.26754611      -3.16397082
C        9.54857369      -5.63881522       1.25621050
C       -0.75311158       0.18113658      -4.06922554
C       -3.02965366       4.15895853       1.72151719
C       -2.90062091      -2.41033222       2.64015738
C       -4.26567728       4.76321506       1.45436078
60
Properties=species:S:1:pos:R:3 entry_id=18 rank=34 energy=-469.7259216308594 pbc="F F F"
C        7.58259745      -2.15565167       1.96861388
C        0.93792252      -2.14347931      -2.50267909
C        2.00547637       1.57945227      -0.71027713
C        0.56294041      -1.33194204      -3.51167340
C       -4.99239531       2.77698211       1.48664954
C        2.19612530      -0.72845777      -1.27918897
C       -7.23988617      -2.72596861       5.49374182
C        6.74767464       1.27987565       2.67153189
C       -5.37947098       2.86703663      -2.80193184
C        2.29639947      -2.95600757      -0.34215836
C       -2.14460679       0.65475572       1.66577170
C        2.45797689       2.11548621       0.51162634
C        6.88989923      -3.05933942       1.36382875
C       -1.42250411       3.65417471      -0.37690709
C       -0.72107416       5.69360487      -1.16459817
C        0.51279438      -2.04630439       1.29299505
C        1.51550059      -0.19007204      -4.02369825
C       -1.68295096      -4.79754912       3.85643532
C       -0.64769307      -1.88855261       2.13086536
C        1.88420710      -2.02785102      -1.50691601
C       -7.43211986       1.92544842      -4.12563635
C       -3.28149577       1.40402794      -3.24993223
C       -5.02295123      -2.22874193       4.31400107
C       -1.73839922      -2.35384253       2.85107225
C       -3.99655040      -1.91048723       3.70692848
C       -0.18025160      -0.75037455       1.54067515
C       -4.97178545       3.97566863      -2.00846014
C        7.49386641       0.23426603       2.69833973
C        3.54683071      -3.48137198      -0.16025483
C        2.18153693       0.55896545      -1.72540554
C       -0.82350811      -0.58440131      -5.43315684
C       -0.71136221      -1.30491984      -4.18076145
C       -2.89387380      -1.43809154       2.98069382
C       -2.47307042       4.19622784      -1.24804102
C        4.60381270       2.36199810       1.89178761
C       -2.60171673       0.53544060      -3.81167694
C       -6.09054988      -2.64745031       4.98558714
C       -2.84993495      -0.22632620       2.36784754
C       -0.72241991       0.48703143       1.31624918
C        1.05637232       1.92715948       0.22950975
C        7.78964129      -0.98594096       2.44275589
C        4.71417547      -3.68442633       0.24369746
C        3.50469573       2.38723718       1.27542494
C        1.41573243      -2.70967903       0.66538785
C        5.91257346      -3.59456961       0.76300995
C       -6.44705981       2.38302743      -3.49801005
C        0.29314375      -0.09410832      -6.07810807
C        1.37783482       0.11728653      -5.41516836
C       -0.25817162       1.67995797       0.65421086
C       -3.63887824       3.60016866      -1.78647594
C       -0.35603794       4.59684239      -0.44704958
C        2.12614811       0.56862190      -3.10488937
C       -1.96909395       5.48230116      -1.63662659
C       -3.82661314       2.45043597       1.14302792
C       -1.69183601      -0.29000279      -4.36940586
C        5.74187713       2.00893286       2.39360603
C       -3.95856029       2.42488684      -2.63557505
C       -1.43223124       2.48024576       0.40073765
C       -1.78555539      -3.62926858       3.41405604
C       -2.56623218       1.91869369       1.04893953
60
Properties=species:S:1:pos:R:3 entry_id=16 rank=35 energy=-468.57708740234375 pbc="F F F"
C        3.88434202      -2.03544821      -1.23629234
C        3.56017636       0.72834592      -7.10273483
C       -0.74465625       2.74065748       0.55206852
C        2.14574421      -0.66740291      -2.63252426
C       -4.65942820       3.34904404       5.30577354
C        1.53735433       0.37252307      -2.02142524
C       -4.54381973      -4.90396513      12.19495376
C        6.23197953      -4.00123463       1.10399456
C       -0.92791547       2.00261103      -5.61837508
C        0.93962905      -0.59718555       0.62003211
C       -1.60114333       0.50682782       3.01794075
C       -0.30145458       4.72157781      -1.02074735
C        3.09839311      -1.42487052      -1.98452111
C       -3.30403040       4.13838810       0.56631936
C        1.71944393       2.43396199      -4.81759099
C        0.55007598       0.65867267       0.17143655
C        1.47318604       1.47553741      -5.77331720
C       -2.80674884      -4.66618828       5.39721918
C       -2.81799434      -3.44518969       6.13205045
C        2.66132231      -0.32888872      -5.06002310
C       -2.90824610       4.00945990      -3.17050037
C       -2.78857713      -5.71498793       4.71954376
C       -3.88639533      -4.33393682       9.79652144
C       -3.53297413      -4.06259364       8.56232211
C       -2.47734243      -2.29038766       5.42401086
C       -0.30725219       1.44534433       0.93492649
C       -1.71199740       2.81397676      -5.06983710
C        5.42690545      -3.34106007       0.34742366
C       -0.64455161      -1.80421297      -4.66752958
C        0.61895005       2.62828625      -1.42863635
C       -2.54477144      -1.19773282      -6.43277493
C        0.52425364      -1.04799142      -4.64073735
C       -2.17047289      -1.40276791       4.62454467
C       -3.33978013       4.28804142      -0.67782285
C        7.80381876      -5.30838663       2.62651191
C       -1.42008587      -1.12090663      -5.73417297
C       -4.24071676      -4.74449989      10.95678341
C       -1.86296229      -0.39443286       3.82064176
C       -1.25587293       1.41447049       2.07907888
C       -0.21958792       3.40015590      -0.55243989
C        4.71195594      -2.69670334      -0.46957415
C        1.16665250      -1.64327006       1.27171334
C        0.98010903       3.45787897      -2.56263326
C        0.94916953       1.22905500      -1.15675968
C        1.85248799      -0.82524685      -4.11208945
C       -2.41070073       3.53694819      -4.24110874
C        4.40777697       0.79768282      -8.01090411
C        2.59360435       0.53908243      -6.10402737
C       -1.72850109       2.74554403       1.58764278
C       -3.26034682       4.29612209      -1.98306810
C        0.48572540       4.76577967      -2.28091967
C        1.51492159       3.03471888      -3.75807789
C       -0.03871582       5.89491017      -1.70601775
C       -4.09723776       3.39343164       4.13669800
C       -0.18665808      -0.29018005      -5.60363613
C        6.89191725      -4.68143185       1.98771516
C        0.07415477       1.09214349      -5.87310426
C       -2.91712811       3.52992469       1.76714047
C       -3.17944486      -3.58744827       7.45778021
C       -3.56965342       3.47854049       2.97616427
