60
Properties=species:S:1:pos:R:3 entry_id=3 rank=0 energy=-494.8916931152344 pbc="F F F"
C        2.46906222      -1.90979239      -2.36070927
C        1.63862382       0.97082917      -2.97718296
C        1.97049274       1.66368951       1.94697181
C        2.76733600      -1.07550809      -3.41884230
C       -2.88778752       0.52739367       2.19082137
C        2.67669238       0.69479873      -0.44459473
C        0.78660164      -3.90008894       0.93000037
C        3.05232908      -1.25302275       1.22528761
C       -2.28578083       2.50808411      -2.30617375
C        1.25472042      -3.54010047      -0.39020239
C       -1.24613306       1.47133222       3.69080060
C        0.87524723       3.74549971       0.36569402
C        1.04772843      -2.21752792      -2.35105556
C       -1.24515948       4.56374671       0.13524505
C       -0.22882145       3.87402146      -1.83327566
C       -0.64222987      -4.01688089       1.08375185
C        0.78136563       3.01816394      -2.35267645
C       -1.38740827      -3.17443948       0.16871064
C       -2.50574024      -2.71362728       0.84653314
C        2.28601846       1.30971253      -1.74011479
C       -2.87437751       2.01552348      -1.11565713
C       -1.55469972      -1.31544204      -1.45245767
C       -1.48418049      -4.31688717       2.16112855
C       -3.38100894      -0.78270191       1.90468372
C       -2.60820154      -3.47780891       2.08467473
C       -3.77327797      -1.67473663       2.92869943
C       -2.49835508      -0.63202212      -0.50955920
C        2.68421626      -2.65527398       1.16611328
C       -0.91366680      -2.52723724      -0.97219547
C        2.34231423       1.75351223       0.55844109
C       -1.26224111       0.40386703      -3.36677798
C        1.54161036      -0.34626821      -3.46229076
C       -3.50779991      -2.92602670       3.03193696
C       -2.26445374       4.24264905      -0.78020246
C        2.58587568       0.65631583       2.68495734
C       -0.90463329      -0.74182992      -2.63602736
C        1.73292063      -3.42009564       1.85516594
C       -2.39037880       0.91677463       3.42665764
C       -0.06500550       1.86670039       3.39499519
C        0.73247508       2.34080856       2.38246908
C        2.52091055      -2.94085588      -0.22340220
C        0.40312806      -2.93754215      -1.35041638
C        1.87267283       2.90926151      -0.13320101
C        2.98313911      -0.69694951      -0.13077364
C        2.92353707      -1.84561751      -1.01382027
C       -2.71497041       0.81439777      -0.31494804
C       -0.51706202       1.52462323      -3.85055523
C        0.71085549       1.99337501      -3.34882525
C        0.13457396       3.29399694       1.48812461
C       -2.92991396       3.13374434      -0.23370482
C        0.00063184       4.42768083      -0.52716246
C        1.84062129       2.63768298      -1.48994568
C       -1.64587393       3.74322571      -1.98175544
C       -2.61747974       1.32845419       1.05309176
C        0.41749411      -1.14702165      -2.97772082
C        3.05746408      -0.46982686       2.36324138
C       -1.80310225       1.67530092      -3.30195087
C       -1.25209640       3.62245959       1.23671615
C       -2.92856813      -1.38518831       0.66352765
C       -2.37332614       2.75382866       1.01473200
