60
Properties=species:S:1:pos:R:3 system=runs/20260728-safe-lbfgs-strict-quench-200-production/output-c60-seed42 state_id=intermediate_accepted pbc="F F F"
C       -2.58689349      -0.82104119      -2.19266375
C        2.09960530      -1.15129850      -2.94473180
C        0.79795310      -2.68261525       0.50996949
C       -0.66755354       2.85133847       2.30508947
C       -2.71982516       1.49980726       2.51795672
C        2.45057784      -2.58542509      -1.52004865
C       -3.10277335      -1.34891553      -0.96273133
C       -1.92399366      -3.05514328      -1.95669159
C        2.28042178       1.04775121       2.47175550
C        0.13969108       3.67608716       1.46925721
C       -0.97017117      -0.31690539       2.96412470
C        2.82046973      -0.94180815       1.57972488
C       -2.14073729       0.53452072      -2.45501940
C        1.56929004       2.24508899       2.52212885
C        3.04671801       0.76789811      -0.03415153
C       -1.66964652      -2.82498840       0.30908334
C        3.21992799      -0.55266919      -0.64803281
C       -1.43243836       3.44244028      -0.36035491
C       -2.30193486       2.71408536       0.50250603
C       -0.62317448      -1.78100899      -3.32685868
C        0.96409131       3.79034558      -0.63236774
C       -0.36129231       2.87867768      -2.47790882
C       -3.82408571       0.85010189       1.87138743
C       -3.46607925      -0.68652561       0.22347259
C       -3.11591417      -1.31050642       1.45837270
C       -1.89648314      -2.04827922       1.47333369
C        0.89478492       3.21580863      -1.88942087
C       -2.57508670      -2.66710714      -0.77568088
C       -1.49994495       2.83568055      -1.64988345
C        2.10091209      -2.56790582      -0.12248366
C        1.23342183       1.24928166      -2.97996089
C       -0.14693707      -0.49649741      -3.58153818
C       -3.42793367      -0.41251503       2.49801944
C        1.49941572       3.18945361       1.49282942
C       -0.37358316      -3.12394401      -0.21281586
C       -0.10486655       1.72885272      -3.23542798
C       -3.67129973       0.69393823       0.44607204
C       -2.27342988       0.23503106       3.04547894
C       -0.77011518      -1.53770686       2.19520497
C        0.57077699      -1.94449855       1.77235322
C       -1.94144917      -1.92759253      -2.83689227
C       -2.37641435       1.67796250      -1.59276143
C        2.94241316      -1.53123158       0.34874243
C        1.57335947      -2.46511912      -2.62412684
C        1.22144366      -0.13341486      -3.32638546
C        1.80804380       2.09522771      -1.96566327
C        1.42570324       0.01969188       3.01799624
C        3.04960250      -1.24745794      -1.87250533
C        1.65500609      -1.20283005       2.34563315
C       -0.22421749       3.98477397       0.13478564
C        3.00959075       0.48373732       1.40099918
C        0.21138734      -2.73420703      -2.66826027
C        1.94505819       3.07413599       0.14578973
C       -1.97911518       2.50567749       1.87101413
C       -0.99666410       0.63601634      -3.33265964
C       -0.54786011      -3.33990886      -1.62990407
C        2.45252982       1.95191320      -0.63513017
C        0.13314777       0.54401572       3.22990096
C       -2.98143387       1.70039015      -0.25916333
C        0.21852187       1.95950191       2.98752966
