60
Properties=species:S:1:pos:R:3 source_escape=runs/20260728-block-krylov-fixed-starter-escape/output/cases/intermediate_accepted-seed42-discrete/escape.xyz pbc="F F F"
C        0.29795537      -2.53651842      -1.97277649
C        3.67480667       0.15031999       0.03138462
C        0.79973596      -1.12692734       2.49603396
C       -3.13942624       2.29468357      -0.46919263
C       -4.05999412       0.00620914      -0.50628462
C        3.25342078      -0.37687248       1.96873488
C       -0.76150999      -3.01377205      -1.13177424
C        1.20455718      -3.67876508      -0.14052069
C       -0.99489114       2.95195847       2.16555693
C       -2.30262712       3.25724943      -1.10469060
C       -2.81384929      -0.07656292       1.73032599
C        0.61404448       1.68148185       3.08275519
C        0.32701327      -1.30972273      -2.74638013
C       -1.82020535       3.36572299       1.12167733
C        1.42416514       2.75092631       1.13958536
C       -0.42884277      -2.89191336       1.26084256
C        2.40143116       1.78090619       1.64498841
C       -1.75735304       1.68778479      -2.86895054
C       -2.68091649       0.76005964      -2.30566646
C        2.58846927      -2.17164723      -1.14439305
C       -0.27827446       3.46083398      -2.08938315
C        0.63450275       1.55801527      -3.32913039
C       -4.00505420      -1.32112490      -1.04930827
C       -2.07372544      -2.53387763      -0.96992553
C       -2.60616829      -2.51030837       0.35417420
C       -1.68128363      -2.24286018       1.40520298
C        0.81010016       2.74646079      -2.55847189
C       -0.18358237      -3.58863687       0.04592995
C       -0.63320741       0.94434695      -3.33664809
C        1.99223438      -0.31405786       2.66208637
C        2.44595565       1.32137841      -1.87524653
C        2.65138988      -0.97542396      -1.85634954
C       -3.85153938      -1.85333834       0.30578524
C       -1.38248454       3.80135589      -0.13305591
C        0.80682052      -2.36190593       1.74488723
C        1.71476237       0.73948151      -2.97651506
C       -2.79388027      -1.61981789      -1.77218643
C       -3.80151059      -0.51456951       0.81261996
C       -1.73516821      -0.98690710       2.09094921
C       -0.51444020      -0.48652391       2.72439876
C        1.50393874      -3.04599033      -1.38793301
C       -0.81829156      -0.46104769      -3.01814767
C        1.79698810       1.08650440       2.73122535
C        3.54220770      -1.08655255       0.77883499
C        3.13528211       0.23841877      -1.25463074
C        1.74737748       2.51743024      -1.47913625
C       -1.57688173       1.75224026       2.72009008
C        3.44491283       0.91897603       1.22162865
C       -0.55362563       0.87946917       3.15564936
C       -1.60362724       2.97511477      -2.30486604
C        0.41025875       2.80665404       2.19303933
C        2.87382267      -2.18568633       0.25461604
C       -0.07351977       3.74100535      -0.68928514
C       -3.46116520       1.09495616      -1.16594512
C        1.61694029      -0.66013468      -2.80323770
C        1.84238867      -2.91682984       0.90557677
C        1.16146383       3.10291545      -0.24681723
C       -2.64799874       1.32720183       1.90635889
C       -2.18018329      -0.57555486      -2.49208617
C       -2.86111029       2.36422757       0.93223354
