115
Lattice="13.75323 0.0 0.0 0.0 13.75323 0.0 0.0 0.0 23.89" Properties=species:S:1:pos:R:3 entry_id=8 rank=23 energy=-572.404052734375 pbc="T T F"
Pd       0.00000000       0.00000000      10.00000000
Pd       2.75064538       0.00000000      10.00000000
Pd       5.50129076       0.00000000      10.00000000
Pd       8.25193614       0.00000000      10.00000000
Pd      11.00258152       0.00000000      10.00000000
Pd       0.00000000       2.75064538      10.00000000
Pd       2.75064538       2.75064538      10.00000000
Pd       5.50129076       2.75064538      10.00000000
Pd       8.25193614       2.75064538      10.00000000
Pd      11.00258152       2.75064538      10.00000000
Pd       0.00000000       5.50129076      10.00000000
Pd       2.75064538       5.50129076      10.00000000
Pd       5.50129076       5.50129076      10.00000000
Pd       8.25193614       5.50129076      10.00000000
Pd      11.00258152       5.50129076      10.00000000
Pd       0.00000000       8.25193614      10.00000000
Pd       2.75064538       8.25193614      10.00000000
Pd       5.50129076       8.25193614      10.00000000
Pd       8.25193614       8.25193614      10.00000000
Pd      11.00258152       8.25193614      10.00000000
Pd       0.00000000      11.00258152      10.00000000
Pd       2.75064538      11.00258152      10.00000000
Pd       5.50129076      11.00258152      10.00000000
Pd       8.25193614      11.00258152      10.00000000
Pd      11.00258152      11.00258152      10.00000000
Pd       1.33305437       1.38035701      12.05221797
Pd       4.08925664       1.38750338      11.98771029
Pd       6.82888190       1.38154444      11.99332965
Pd       9.57512057       1.39592898      11.89594876
Pd      12.38684272       1.37174114      11.92044161
Pd       1.37065655       4.09970544      12.00656864
Pd       4.10125007       4.12393621      12.00820233
Pd       6.82444734       4.12497179      12.00908219
Pd       9.56728621       4.13975942      11.94281254
Pd      12.36578195       4.13265160      11.93417299
Pd       1.37110082       6.89256210      11.94010419
Pd       4.13935064       6.87026939      11.96482277
Pd       6.87097415       6.85831372      11.95140951
Pd       9.64205429       6.82915781      11.94515418
Pd      12.39111484       6.85622887      11.94896407
Pd       1.35216595       9.69735034      11.99083951
Pd       4.11777592       9.66324146      11.95099537
Pd       6.89476706       9.64088005      11.95142944
Pd       9.64982872       9.59779534      11.89439304
Pd      12.42487279       9.60955999      11.94161946
Pd       1.35802606      12.41462245      12.04582394
Pd       4.10624816      12.40887780      12.00662317
Pd       6.86816975      12.39901143      11.97280504
Pd       9.63028672      12.36702810      11.91406436
Pd      12.41879361      12.34804731      11.97632258
Pd      13.69060521       0.00182473      14.14332551
Pd       2.72522005      13.65486282      14.06541863
Pd       5.58274419      13.70711596      13.98581156
Pd       8.38185529       0.10120306      14.18969121
Pd      11.00944128      13.72889319      13.76531788
Pd      13.59089739       2.74715315      14.02987697
Pd       2.65358009       2.90451974      14.03703446
Pd       5.44066825       2.74794723      14.01983617
Pd       8.19518482       2.79566893      14.01057647
Pd      10.89265205       2.67210603      13.92858709
Pd      13.72424036       5.49971235      13.85010906
Pd       2.67367507       5.61947748      14.07966939
Pd       5.36349595       5.53942923      14.06840762
Pd       8.19086291       5.55300776      14.01185839
Pd      10.91050614       5.40387265      13.99559676
Pd       0.09381964       8.23927626      13.94697302
Pd       2.82243966       8.28415104      14.05787663
Pd       5.56905528       8.26192086      13.85418449
Pd       8.37835225       8.29481466      13.97938126
Pd      11.06046294       8.22596214      13.92405314
Pd       0.04794615      11.00422777      14.08384558
Pd       2.78557586      10.97271748      13.96690178
Pd       5.48203023      10.98661465      13.94734001
Pd       8.24173921      11.06099451      13.93253348
Pd      10.98550199      11.01235095      13.96589772
Pd      12.54623899       6.44100630      16.07407996
Pd       9.27507839      10.11506782      16.55815724
Pd       1.47779441      12.49891339      16.59304356
Pd       1.57595857       7.24635151      16.51341076
Pd      12.32110240       9.65893642      16.07801508
Pd       8.06823733       2.08563770      16.75386633
Pd       4.66141218       1.09023942      16.28755433
Pd       5.88828415      10.13842163      16.56366308
Pd       4.17364303      12.19530909      16.02209559
Pd      11.23687882       0.26398359      16.29044310
Pd       0.93487610       4.61981052      16.09955953
Pd       3.67243914       4.53875899      16.62985913
Pd      11.27497215       3.21908297      16.70678155
Pd       2.56446704       9.88320103      16.47811880
Pd       7.86882297       7.36855444      16.62407058
Pd       6.90217495      12.93817115      16.39356209
Pd      10.39316084       7.78927500      16.46339006
Pd       6.61281182       4.25533684      16.11781648
Pd       0.80509937       1.69659741      16.82256763
Pd       4.43497273       7.17969648      16.42198483
O        9.41543009       3.33612380      17.17238356
O       10.93352809      11.05336658      16.01732896
O       13.28240443       0.13271016      16.16286332
O       11.46450474       1.57920906      17.66017232
O        9.23223836       0.33192982      16.10998297
O        4.24846555       9.19080395      17.19121683
O        2.96607382       1.40530234      15.34038686
O        1.92351910       3.34610435      17.30176192
O        7.52235854      11.16342425      15.88709873
O        0.79686133      10.74080517      16.02916937
O        1.99300678       0.33606714      17.50717720
O        3.00542551       6.24868863      17.37610167
O        8.07364021       5.52648419      16.02621367
O        7.79794473       9.14780786      17.41776974
O        4.98141831       3.14488484      16.10513301
O       13.25327746       3.07004078      16.08770273
O       11.16365171       5.08416233      15.98152774
O       13.60919218       8.11443805      16.03316308
O        6.45715274       0.92798940      17.08989320
O        6.07709705       8.01168904      15.77505354
