115
Lattice="13.75323 0.0 0.0 0.0 13.75323 0.0 0.0 0.0 23.89" Properties=species:S:1:pos:R:3 entry_id=11 rank=19 energy=-572.7420654296875 pbc="T T F"
Pd       0.00000000       0.00000000      10.00000000
Pd       2.75064538       0.00000000      10.00000000
Pd       5.50129076       0.00000000      10.00000000
Pd       8.25193614       0.00000000      10.00000000
Pd      11.00258152       0.00000000      10.00000000
Pd       0.00000000       2.75064538      10.00000000
Pd       2.75064538       2.75064538      10.00000000
Pd       5.50129076       2.75064538      10.00000000
Pd       8.25193614       2.75064538      10.00000000
Pd      11.00258152       2.75064538      10.00000000
Pd       0.00000000       5.50129076      10.00000000
Pd       2.75064538       5.50129076      10.00000000
Pd       5.50129076       5.50129076      10.00000000
Pd       8.25193614       5.50129076      10.00000000
Pd      11.00258152       5.50129076      10.00000000
Pd       0.00000000       8.25193614      10.00000000
Pd       2.75064538       8.25193614      10.00000000
Pd       5.50129076       8.25193614      10.00000000
Pd       8.25193614       8.25193614      10.00000000
Pd      11.00258152       8.25193614      10.00000000
Pd       0.00000000      11.00258152      10.00000000
Pd       2.75064538      11.00258152      10.00000000
Pd       5.50129076      11.00258152      10.00000000
Pd       8.25193614      11.00258152      10.00000000
Pd      11.00258152      11.00258152      10.00000000
Pd       1.33305437       1.38035701      12.05221797
Pd       4.08925664       1.38750338      11.98771029
Pd       6.82888190       1.38154444      11.99332965
Pd       9.57512057       1.39592898      11.89594876
Pd      12.38684272       1.37174114      11.92044161
Pd       1.37065655       4.09970544      12.00656864
Pd       4.10125007       4.12393621      12.00820233
Pd       6.82444734       4.12497179      12.00908219
Pd       9.56728621       4.13975942      11.94281254
Pd      12.36578195       4.13265160      11.93417299
Pd       1.37110082       6.89256210      11.94010419
Pd       4.13935064       6.87026939      11.96482277
Pd       6.87097415       6.85831372      11.95140951
Pd       9.64205429       6.82915781      11.94515418
Pd      12.39111484       6.85622887      11.94896407
Pd       1.35216595       9.69735034      11.99083951
Pd       4.11777592       9.66324146      11.95099537
Pd       6.89476706       9.64088005      11.95142944
Pd       9.64982872       9.59779534      11.89439304
Pd      12.42487279       9.60955999      11.94161946
Pd       1.35802606      12.41462245      12.04582394
Pd       4.10624816      12.40887780      12.00662317
Pd       6.86816975      12.39901143      11.97280504
Pd       9.63028672      12.36702810      11.91406436
Pd      12.41879361      12.34804731      11.97632258
Pd      13.71526240      13.69982837      14.14217773
Pd       2.76528474      13.74981892      14.11394992
Pd       5.58826221      13.75015239      13.99212027
Pd       8.38659510       0.09342064      14.18555399
Pd      11.01675568      13.70720173      13.75980076
Pd      13.65350439       2.67238107      14.00637359
Pd       2.67338551       2.84778018      14.00084097
Pd       5.49412896       2.75749887      14.01323573
Pd       8.20758787       2.78588312      14.00353383
Pd      10.91174440       2.67168389      13.92626316
Pd      13.67926799       5.49061682      14.05672429
Pd       2.63778747       5.63806137      14.04667053
Pd       5.43932684       5.47180176      14.04089080
Pd       8.22883032       5.51903570      13.95934748
Pd      10.94415680       5.44718632      13.91896070
Pd       0.00995710       8.23146791      13.92880680
Pd       2.81243039       8.33302650      13.93684865
Pd       5.58243300       8.35571339      13.96690233
Pd       8.34795099       8.28556301      13.98818118
Pd      11.05928854       8.24775582      13.91155229
Pd      13.75202087      10.93050532      14.13665209
Pd       2.76885076      11.04852027      13.94749111
Pd       5.47208185      11.03664365      13.90536842
Pd       8.23655192      11.05631612      13.92970275
Pd      10.98293191      11.00116943      13.97571565
Pd      12.55425528       6.77510852      16.33049970
Pd       9.01395846       9.81074060      16.45338998
Pd       1.59567352      12.62594299      16.50124003
Pd       1.38870169       7.49893817      16.02986793
Pd      12.16012096       9.51666675      16.23582489
Pd       8.26071701       2.18141747      16.75985853
Pd       4.84765993       1.26137315      16.27614510
Pd       5.76845738       9.96358933      16.40995487
Pd       4.24230119      12.25962065      15.99626147
Pd      11.25893418       0.44707925      16.23377617
Pd       1.07403793       4.83234405      16.64310164
Pd       3.76682343       4.26905663      15.95700479
Pd      11.42273001       3.65929495      16.50975905
Pd       2.68873866       9.87633759      16.39046188
Pd       7.54287502       7.09890223      16.46465710
Pd       6.93747952      12.94509339      16.35198448
Pd      10.05641146       7.47820882      16.27382749
Pd       6.49993565       4.09501547      16.41130078
Pd       0.29890297       1.58351083      17.18723819
Pd       3.94039250       6.81034567      16.50624936
O        9.64097810       3.39475109      17.20570156
O       10.67133056      10.76418746      15.95991999
O       13.22563363      13.75149220      16.16447968
O       12.09075505       1.98945947      17.29197556
O        9.29813755       0.48814943      16.07836813
O        4.24096855       8.90202317      17.05116112
O        3.08098708       1.50239652      15.43465576
O        1.00500878       3.23971145      17.81724903
O        7.36487272      11.11014622      15.86076444
O        1.01148786      10.85129541      15.95545811
O        1.92017859       0.54481500      17.33805371
O        2.27386045       6.24915453      17.42695532
O        7.95490498       5.27369793      15.92423686
O        7.39965291       8.90070703      17.19783633
O        4.94489981       3.15385074      17.13015125
O       13.31357814       3.95584941      15.59307853
O       11.02041564       5.55230682      15.94934436
O       13.53870288       8.32125823      16.99152323
O        6.66155257       0.98166635      17.01549457
O        5.62035282       6.98384777      15.50079426
