115
Lattice="13.75323 0.0 0.0 0.0 13.75323 0.0 0.0 0.0 23.89" Properties=species:S:1:pos:R:3 entry_id=23 rank=5 energy=-574.0801391601562 pbc="T T F"
Pd       0.00000000       0.00000000      10.00000000
Pd       2.75064538       0.00000000      10.00000000
Pd       5.50129076       0.00000000      10.00000000
Pd       8.25193614       0.00000000      10.00000000
Pd      11.00258152       0.00000000      10.00000000
Pd       0.00000000       2.75064538      10.00000000
Pd       2.75064538       2.75064538      10.00000000
Pd       5.50129076       2.75064538      10.00000000
Pd       8.25193614       2.75064538      10.00000000
Pd      11.00258152       2.75064538      10.00000000
Pd       0.00000000       5.50129076      10.00000000
Pd       2.75064538       5.50129076      10.00000000
Pd       5.50129076       5.50129076      10.00000000
Pd       8.25193614       5.50129076      10.00000000
Pd      11.00258152       5.50129076      10.00000000
Pd       0.00000000       8.25193614      10.00000000
Pd       2.75064538       8.25193614      10.00000000
Pd       5.50129076       8.25193614      10.00000000
Pd       8.25193614       8.25193614      10.00000000
Pd      11.00258152       8.25193614      10.00000000
Pd       0.00000000      11.00258152      10.00000000
Pd       2.75064538      11.00258152      10.00000000
Pd       5.50129076      11.00258152      10.00000000
Pd       8.25193614      11.00258152      10.00000000
Pd      11.00258152      11.00258152      10.00000000
Pd       1.33305437       1.38035701      12.05221797
Pd       4.08925664       1.38750338      11.98771029
Pd       6.82888190       1.38154444      11.99332965
Pd       9.57512057       1.39592898      11.89594876
Pd      12.38684272       1.37174114      11.92044161
Pd       1.37065655       4.09970544      12.00656864
Pd       4.10125007       4.12393621      12.00820233
Pd       6.82444734       4.12497179      12.00908219
Pd       9.56728621       4.13975942      11.94281254
Pd      12.36578195       4.13265160      11.93417299
Pd       1.37110082       6.89256210      11.94010419
Pd       4.13935064       6.87026939      11.96482277
Pd       6.87097415       6.85831372      11.95140951
Pd       9.64205429       6.82915781      11.94515418
Pd      12.39111484       6.85622887      11.94896407
Pd       1.35216595       9.69735034      11.99083951
Pd       4.11777592       9.66324146      11.95099537
Pd       6.89476706       9.64088005      11.95142944
Pd       9.64982872       9.59779534      11.89439304
Pd      12.42487279       9.60955999      11.94161946
Pd       1.35802606      12.41462245      12.04582394
Pd       4.10624816      12.40887780      12.00662317
Pd       6.86816975      12.39901143      11.97280504
Pd       9.63028672      12.36702810      11.91406436
Pd      12.41879361      12.34804731      11.97632258
Pd      13.65130683       0.02663203      14.11889166
Pd       2.68063104      13.62687630      14.02625653
Pd       5.52056223       0.01403514      13.97853584
Pd       8.32196221      13.68131095      14.21262046
Pd      10.96759687       0.04614412      13.77183900
Pd      13.64403314       2.79005016      14.06344152
Pd       2.71628813       2.86517939      14.01621973
Pd       5.53358332       2.70021171      14.11424543
Pd       8.26380661       2.68146159      13.96174951
Pd      10.94907578       2.71698836      13.87186205
Pd       0.03600096       5.49242934      13.91953218
Pd       2.70270988       5.55114668      14.08906252
Pd       5.44936071       5.50544833      14.01176760
Pd       8.24464468       5.51179177      14.00607514
Pd      10.97209975       5.43681183      13.93897007
Pd      13.70359007       8.27748066      13.91134883
Pd       2.74693784       8.26896371      13.94265661
Pd       5.48495918       8.33540442      13.94883025
Pd       8.31903326       8.24777352      13.88722594
Pd      11.00112119       8.26077507      14.05226470
Pd       0.02335153      11.01548403      14.04310682
Pd       2.75952835      10.94676386      13.97199744
Pd       5.47898517      11.06864569      13.93918116
Pd       8.29617414      10.93324783      14.04857795
Pd      11.03750633      11.04260650      13.92455638
Pd      12.56466053       6.49156860      15.96071465
Pd       9.88422962      10.02773761      16.20691290
Pd       1.17907303      12.39949369      16.62905135
Pd       1.18778798       7.42149264      15.97783515
Pd      12.71599427       9.22411332      16.45109396
Pd       8.00745249       1.54721232      16.70438955
Pd       4.54165864       1.13297867      16.28893834
Pd       5.30444112       9.83997045      16.36421863
Pd       3.86485219      12.18810820      16.08335688
Pd      11.17675801      13.56955184      16.37982073
Pd       0.81405537       4.73370515      16.56322753
Pd       3.73934012       3.79549630      16.44515390
Pd      11.16836661       3.21486591      16.53901456
Pd       2.24007064       9.79308266      16.43771347
Pd       7.05971190       7.84657350      16.28887400
Pd       6.53986012      12.74227630      16.35534701
Pd       9.88417031       6.92456344      16.55965768
Pd       7.49717851       4.00679814      16.29979545
Pd       0.75817867       1.65658077      16.78835611
Pd       3.71387247       6.63055307      16.47674000
O        9.17387156       3.15024990      16.94258134
O       11.07847616      11.57493733      15.86518212
O       13.27130788      13.73982249      16.17378511
O       11.35634873       1.47996106      17.29729750
O        9.16365059      13.67147803      16.14524704
O        3.81730381       8.80236949      17.06493757
O        2.86111872       1.35902057      15.33003747
O        2.00933431       3.23977716      17.27843078
O        6.82385138      10.94244806      15.64597010
O        0.40725924      10.61795710      16.05373323
O        1.85741538       0.21541330      17.49059917
O        1.98182651       6.18731417      17.33613724
O        8.14559312       6.00437992      16.04693674
O        8.78758093       8.56076515      16.97016621
O        5.57340159       4.14556143      15.67366160
O       13.27826661       3.17874326      16.10005166
O       10.94889161       5.18139427      16.01933760
O       11.60891796       7.76901257      17.23215222
O        6.24916191       0.73653403      17.17162306
O        5.43728136       6.95984072      15.54977094
