115
Lattice="13.75323 0.0 0.0 0.0 13.75323 0.0 0.0 0.0 23.89" Properties=species:S:1:pos:R:3 entry_id=25 rank=9 energy=-573.9156494140625 pbc="T T F"
Pd       0.00000000       0.00000000      10.00000000
Pd       2.75064538       0.00000000      10.00000000
Pd       5.50129076       0.00000000      10.00000000
Pd       8.25193614       0.00000000      10.00000000
Pd      11.00258152       0.00000000      10.00000000
Pd       0.00000000       2.75064538      10.00000000
Pd       2.75064538       2.75064538      10.00000000
Pd       5.50129076       2.75064538      10.00000000
Pd       8.25193614       2.75064538      10.00000000
Pd      11.00258152       2.75064538      10.00000000
Pd       0.00000000       5.50129076      10.00000000
Pd       2.75064538       5.50129076      10.00000000
Pd       5.50129076       5.50129076      10.00000000
Pd       8.25193614       5.50129076      10.00000000
Pd      11.00258152       5.50129076      10.00000000
Pd       0.00000000       8.25193614      10.00000000
Pd       2.75064538       8.25193614      10.00000000
Pd       5.50129076       8.25193614      10.00000000
Pd       8.25193614       8.25193614      10.00000000
Pd      11.00258152       8.25193614      10.00000000
Pd       0.00000000      11.00258152      10.00000000
Pd       2.75064538      11.00258152      10.00000000
Pd       5.50129076      11.00258152      10.00000000
Pd       8.25193614      11.00258152      10.00000000
Pd      11.00258152      11.00258152      10.00000000
Pd       1.33305437       1.38035701      12.05221797
Pd       4.08925664       1.38750338      11.98771029
Pd       6.82888190       1.38154444      11.99332965
Pd       9.57512057       1.39592898      11.89594876
Pd      12.38684272       1.37174114      11.92044161
Pd       1.37065655       4.09970544      12.00656864
Pd       4.10125007       4.12393621      12.00820233
Pd       6.82444734       4.12497179      12.00908219
Pd       9.56728621       4.13975942      11.94281254
Pd      12.36578195       4.13265160      11.93417299
Pd       1.37110082       6.89256210      11.94010419
Pd       4.13935064       6.87026939      11.96482277
Pd       6.87097415       6.85831372      11.95140951
Pd       9.64205429       6.82915781      11.94515418
Pd      12.39111484       6.85622887      11.94896407
Pd       1.35216595       9.69735034      11.99083951
Pd       4.11777592       9.66324146      11.95099537
Pd       6.89476706       9.64088005      11.95142944
Pd       9.64982872       9.59779534      11.89439304
Pd      12.42487279       9.60955999      11.94161946
Pd       1.35802606      12.41462245      12.04582394
Pd       4.10624816      12.40887780      12.00662317
Pd       6.86816975      12.39901143      11.97280504
Pd       9.63028672      12.36702810      11.91406436
Pd      12.41879361      12.34804731      11.97632258
Pd      13.63102419       0.03628722      14.17318485
Pd       2.70076521      13.58671443      13.99866110
Pd       5.56765225      13.67719662      13.99188284
Pd       8.31010984      13.73732353      14.08175314
Pd      10.97927356       0.04172734      13.75748951
Pd      13.63919921       2.77768977      14.10901514
Pd       2.71282115       2.80573979      14.08786647
Pd       5.49677522       2.70774163      14.14489053
Pd       8.28850896       2.81243914      14.02347560
Pd      10.97003565       2.71331262      13.83324807
Pd       0.05813305       5.47028830      13.91600032
Pd       2.74628460       5.46997167      14.03247503
Pd       5.44210020       5.51688998      14.01454251
Pd       8.25403315       5.63427407      13.95309701
Pd      10.98924791       5.45514526      13.92710884
Pd       0.01222928       8.25728911      13.99748182
Pd       2.86053704       8.21382375      13.94347650
Pd       5.61716012       8.24406539      13.97142883
Pd       8.38334819       8.36050399      13.86953754
Pd      11.05777634       8.25807628      14.08605596
Pd      13.67941586      11.03787759      13.99268139
Pd       2.71577719      10.93064052      13.92616721
Pd       5.42871664      10.95841723      13.99926042
Pd       8.16480182      11.02824343      14.07760229
Pd      10.93350600      11.03104729      13.91053301
Pd      12.62815606       6.39860251      15.99382378
Pd       9.87338025      10.12183895      16.32064784
Pd       0.75331104      12.36174049      16.71602320
Pd       1.36302755       7.04124322      15.93433608
Pd      12.42509871       9.15744505      16.58052102
Pd       7.36977568       1.47016518      16.39153301
Pd       4.30304237       0.59048115      16.25718321
Pd       4.70809906       9.42545406      16.31777340
Pd       3.44667263      11.84598573      16.26210183
Pd      10.78589159      13.67518447      16.37073280
Pd       0.67764050       4.46229257      16.61176403
Pd       3.78066828       3.12085074      16.80181219
Pd      10.78024887       3.23302782      16.45301176
Pd       1.43133153       9.76849410      16.08730466
Pd       7.20929958       8.22365550      16.25123435
Pd       6.35518290      11.92117884      16.36855442
Pd       9.92326418       6.91054704      16.63388258
Pd       7.05351070       4.59501675      16.21555298
Pd       0.51202256       1.52330230      16.86248001
Pd       3.73584511       5.72719893      16.68305579
O        8.56627807       3.13901113      16.12835766
O       10.82901794      11.73685739      15.79090069
O       12.92619721       0.02348786      16.20925352
O       10.79531887       1.56359131      17.30426009
O        8.75435068       0.01132655      16.09063736
O        2.98288535       8.55494429      16.05293730
O        2.67068686       1.23449848      15.38087363
O        1.88030849       2.96784341      17.38966192
O        6.47910797       9.99742172      16.82390212
O       13.46875966      10.78562221      16.05340874
O        1.60066808       0.07477489      17.58593241
O        1.93325070       5.77089870      17.40289210
O        8.11476121       6.32702618      15.96189437
O        9.00360651       8.58892261      17.17111843
O        5.80734698       2.98674304      16.29663470
O       13.06008767       3.04140939      16.13544914
O       10.85111768       5.18226281      15.98797674
O       11.66531639       7.54046800      17.37983916
O        6.06681269       0.05896830      16.92714111
O        5.54433511       5.87525459      16.03084148
