13
Properties=species:S:1:pos:R:3:tags:I:1 pbc="F F F"
Al       0.00000000       0.00000000       0.00000000        1
Al       2.55607887      -0.08000000      -1.47557954        2
Al       2.43607887       0.00000000       1.50557954        2
Al      -2.43607887       0.00000000      -1.50557954        2
Al      -2.43607887       0.00000000       1.50557954        2
Al      -1.50557954       2.43607887       0.00000000        2
Al       1.50557954       2.43607887       0.00000000        2
Al      -1.50557954      -2.43607887       0.00000000        2
Al       1.50557954      -2.43607887       0.00000000        2
Al       0.00000000      -1.50557954       2.43607887        2
Al       0.00000000       1.50557954       2.43607887        2
Al       0.00000000      -1.50557954      -2.43607887        2
Al       0.00000000       1.50557954      -2.43607887        2
13
Properties=species:S:1:pos:R:3 pbc="F F F"
Al      -2.02500000      -2.02500000       0.00000000
Al      -2.02500000       0.00000000      -2.02500000
Al      -2.02500000       0.00000000       2.02500000
Al      -2.02500000       2.02500000       0.00000000
Al       0.00000000      -2.02500000      -2.02500000
Al       0.00000000      -2.02500000       2.02500000
Al       2.02500000      -2.02500000       0.00000000
Al       0.00000000       2.02500000      -2.02500000
Al       2.02500000       0.00000000      -2.02500000
Al       0.00000000       0.00000000       0.00000000
Al       0.00000000       2.02500000       2.02500000
Al       2.02500000       0.00000000       2.02500000
Al       2.02500000       2.02500000       0.00000000
