60
Properties=species:S:1:pos:R:3 trial_index=10 seed_entry_id=7 discovered_entry_id=8 energy=-487.2735290527344 status=accepted pbc="F F F"
C       -0.42576098      -3.00080168       2.23634914
C        2.15749592      -1.92263670       0.13018446
C        1.51340096       2.06017977       1.87011605
C        0.98573081      -2.61301703       2.05278501
C       -1.35084725       3.88547196       0.40546115
C        2.51462094      -0.02799029       1.93045131
C       -2.98924544      -3.08829412       1.91039827
C       -1.94403848       0.46622063       2.33889999
C        0.20887855      -0.22847646      -3.52093892
C        0.26750847      -0.60380877       0.81451536
C       -2.59769468       3.48451136       0.83212773
C        2.83661141       2.38963240      -0.62379541
C       -0.90444274      -3.41668848       0.98306486
C        1.60225475       2.98627795      -2.46935957
C        2.28791519       0.74499696      -2.37939771
C        0.16620978       0.48307872       0.20193962
C        2.63093332      -0.31484472      -1.48436470
C       -3.68946748      -1.53652484      -0.06811785
C       -3.67201505      -0.16068418      -0.35935355
C        2.82756016      -0.84819322       0.79405287
C       -1.47934875       1.41921746      -3.37151420
C       -1.58297501      -1.89107268      -1.30815393
C       -4.01151884      -1.23137034       1.29408283
C       -2.01216511       1.44865867      -0.33658861
C       -3.94088831       0.15930492       1.00364686
C       -0.63243537       1.60697392       0.00654170
C       -1.80707718      -0.56195699      -1.90789252
C       -2.01165625      -0.98320467       2.52600105
C       -2.55960206      -2.32850792      -0.34704818
C        2.64606895       1.32350094       1.52942191
C        0.87637284      -2.08882465      -1.95651355
C        1.29857436      -2.86713265       0.68280625
C       -3.08008121       1.05136726       1.65699823
C        0.71144848       2.21766111      -3.26970845
C        0.60426182       1.19913535       2.61505114
C       -0.26217889      -2.50489076      -1.19271658
C       -3.16774745      -1.76900853       2.28705152
C       -2.79178143       2.14427049       0.74722042
C       -0.31710417       2.86548638       0.59901119
C        1.06533271       3.03710786       0.93260595
C       -0.81552529      -1.68937393       2.63718680
C       -2.25692621      -3.18793750       0.73111131
C        3.19134799       1.36713986       0.23854389
C        1.31139986      -0.10258018       2.66169728
C        0.49553764      -1.17930576       2.14296295
C       -1.14414237       0.10579034      -2.98165047
C        0.68776196      -1.66808519      -3.27371350
C        1.97891750      -1.57259372      -1.24490398
C        1.87003218       3.34095721      -0.20926337
C       -0.65692831       2.38990520      -3.55063293
C        2.59201405       2.08715852      -1.97720885
C        3.21283190       0.05012977      -0.24137338
C        1.15219245       0.84950677      -3.21681775
C       -0.82683001       4.83802376      -0.48540500
C        0.07779906      -3.14416665       0.02056569
C       -0.76419892       1.18703268       2.52450834
C        0.47370650      -1.35723687      -4.52465382
C        1.26561897       3.90209002      -1.41245860
C       -2.55860048       0.35627125      -1.03796657
C        0.17581654       4.74181274      -1.25185889
