60
Properties=species:S:1:pos:R:3 input=/mnt/d/download/trae-research-code/ssw/runs/20260428-c60-mace-production/prerelaxed_c60.xyz system=c60 pbc="F F F"
C        1.29000862      -3.61899222      -1.33212128
C        3.16678408      -0.34681721      -0.29209343
C        0.31972409       1.29315416       2.93253833
C        2.37683786      -2.92902573      -0.67732685
C       -2.22763837       1.37998571       1.35582730
C        2.08448831       0.02977892       2.06774697
C       -1.35685634      -3.55254957      -0.03651260
C        1.00405733      -2.15272423       1.91682408
C       -1.84636746       2.02632550      -4.10352823
C       -0.20958895      -1.63758144      -0.65781636
C       -2.31055996       1.74007535       3.83926399
C        1.41663036       3.42887107       1.51080567
C        0.28130519      -3.06127480      -2.24844984
C       -0.10002841       4.04594482      -0.09507562
C        1.77930393       2.97633262      -0.93019161
C       -0.73102933      -0.87964302       0.33751239
C        2.75608739       1.92264019      -0.61176684
C       -3.58033627      -2.41105937      -1.82345006
C       -3.15161900      -1.38364886      -1.09369065
C        2.97829033       0.26735537       0.99794048
C       -1.86532457       2.98195625      -3.05009615
C       -1.59733506      -0.90602214      -2.72963290
C       -1.34110662      -2.89002319       2.46703600
C       -2.59515801       0.26660398       0.48456885
C       -1.57073009      -1.92315845       3.22908278
C       -1.83934775      -0.74589084       1.13765162
C       -2.20134935       0.32930755      -2.21554564
C        0.60556438      -3.20749500       1.21142390
C       -2.08125600      -2.06415639      -1.94089683
C        1.63633107       1.29584123       2.49410169
C       -0.52069075      -0.17179164      -4.71102352
C        2.35585313      -1.49125278      -0.59766409
C       -1.55018774      -0.45549526       2.62404452
C       -0.34533475       3.86025642      -1.52058785
C       -0.13958626      -0.02672606       2.75812290
C       -0.51669295      -1.14945752      -3.65505611
C       -0.85159577      -3.43487726       1.21594040
C       -2.31602560       0.90084414       2.73450195
C       -1.38074469       2.60484215       3.97041353
C       -0.23161711       2.59297194       3.18296229
C        1.34561658      -3.62073924       0.05133124
C       -0.89793841      -2.78536975      -1.24311209
C        2.20445079       2.32549610       1.76620952
C        0.40455032       0.11488434       0.13556571
C        1.05643133      -0.99798055      -0.57697613
C       -2.26793346       1.57350330      -2.85307952
C       -0.31730220       0.60642004      -5.83876331
C        3.11617392       0.71169006      -1.23468492
C        0.13205336       3.51796239       2.14681034
C       -1.50370545       4.04742521      -2.33283769
C        1.24255949       3.70309880       0.16092291
C        2.94353634       1.67325565       0.76850216
C        0.81076787       3.16275844      -1.92322732
C       -1.04286090       2.04199110       0.81431465
C        0.32065237      -2.25911601      -3.34472111
C        0.99004397      -0.89030794       2.32712533
C       -1.13797107       1.11104175      -4.84688959
C       -0.80210109       3.49043287       1.02746934
C       -2.83118046      -0.02064916      -0.90276350
C        0.03787420       1.35192633       0.38802038
