60
Properties=species:S:1:pos:R:3 input=/mnt/d/download/trae-research-code/ssw/runs/20260428-c60-mace-production/prerelaxed_c60.xyz system=c60 pbc="F F F"
C        1.36608541      -3.47358485      -1.50986081
C        3.03861716      -0.06234184      -0.43794301
C        0.36675946       1.24660770       3.00832771
C        2.34347413      -2.60580932      -0.91810527
C       -2.37738026       1.49857754       1.21495534
C        2.07376325       0.04616885       2.01773919
C       -1.14436470      -3.85751543      -0.12554218
C        1.03904645      -2.10983630       1.75395885
C       -1.49393589       1.62873297      -3.87547404
C       -0.29511976      -1.67346728      -0.68702182
C       -2.51722886       1.75609216       3.72533187
C        1.50928105       3.49030442       1.77023797
C        0.19343174      -3.15928790      -2.29036682
C        0.13604033       4.11553465       0.05700492
C        2.21296115       3.41224165      -0.65260396
C       -0.88095734      -0.81784311       0.19503789
C        3.03638748       2.26354443      -0.40698731
C       -3.37771234      -2.37424611      -1.18425401
C       -3.94407802      -1.29579355      -0.82825099
C        2.89974730       0.38455562       0.92681651
C       -1.53961854       2.57928383      -2.80705823
C       -1.91047877      -1.20275749      -2.62797181
C       -1.30878206      -2.85593418       2.15493796
C       -2.78537327       0.35783971       0.39308795
C       -1.74844296      -1.87245381       2.77812562
C       -1.94560194      -0.59745839       1.01122063
C       -2.48033622       0.03467427      -2.13291167
C        0.77629453      -3.20013490       1.05797659
C       -2.14836884      -2.36510083      -1.82952159
C        1.70342863       1.26561805       2.61371568
C       -0.74651174      -0.49653637      -4.72882635
C        2.21557097      -1.18690832      -0.82425157
C       -1.59289086      -0.35189188       2.44911106
C        0.07599360       3.91662352      -1.38544959
C       -0.16015008      -0.02503342       2.68303006
C       -0.83721130      -1.36733254      -3.61445747
C       -0.64830674      -3.56855073       1.09911989
C       -2.40240451       0.95476609       2.58413676
C       -1.47142357       2.47050438       3.82576217
C       -0.22626293       2.51980381       3.24844918
C        1.52200732      -3.46741881      -0.13800557
C       -0.88496781      -2.92492733      -1.24663093
C        2.28573611       2.36230675       1.97533731
C        0.12938142       0.21470035      -0.04640627
C        0.86520267      -0.85775588      -0.73510796
C       -2.10261968       1.22794158      -2.72952386
C       -0.53540874       0.10670479      -5.95402416
C        3.23369657       1.11957528      -1.20432090
C        0.16995369       3.48400147       2.26944723
C       -1.02181601       3.55194508      -2.12586363
C        1.47046782       3.94027849       0.44646713
C        3.02351751       1.80290126       0.92181507
C        1.41114423       3.60740205      -1.77359588
C       -1.15112851       2.18228260       0.79184003
C        0.05534574      -2.40684652      -3.38608949
C        0.96460378      -0.87481926       2.21878483
C       -0.99800730       0.88416693      -4.88974651
C       -0.68511243       3.55384279       1.09765662
C       -3.28529834      -0.04443898      -0.90106992
C       -0.07376936       1.47764884       0.34281279
