115
Lattice="13.75323 0.0 0.0 0.0 13.75323 0.0 0.0 0.0 23.89" Properties=species:S:1:pos:R:3 input=/mnt/d/download/trae-research-code/ssw/PdO.xyz system=pdo pbc_mode=slab fixed_bottom_fraction=0.35 pbc="T T F"
Pd       0.00000000       0.00000000      10.00000000
Pd       2.75064538       0.00000000      10.00000000
Pd       5.50129076       0.00000000      10.00000000
Pd       8.25193614       0.00000000      10.00000000
Pd      11.00258152       0.00000000      10.00000000
Pd       0.00000000       2.75064538      10.00000000
Pd       2.75064538       2.75064538      10.00000000
Pd       5.50129076       2.75064538      10.00000000
Pd       8.25193614       2.75064538      10.00000000
Pd      11.00258152       2.75064538      10.00000000
Pd       0.00000000       5.50129076      10.00000000
Pd       2.75064538       5.50129076      10.00000000
Pd       5.50129076       5.50129076      10.00000000
Pd       8.25193614       5.50129076      10.00000000
Pd      11.00258152       5.50129076      10.00000000
Pd       0.00000000       8.25193614      10.00000000
Pd       2.75064538       8.25193614      10.00000000
Pd       5.50129076       8.25193614      10.00000000
Pd       8.25193614       8.25193614      10.00000000
Pd      11.00258152       8.25193614      10.00000000
Pd       0.00000000      11.00258152      10.00000000
Pd       2.75064538      11.00258152      10.00000000
Pd       5.50129076      11.00258152      10.00000000
Pd       8.25193614      11.00258152      10.00000000
Pd      11.00258152      11.00258152      10.00000000
Pd       1.39212146       1.33597468      11.96958997
Pd       4.11544738       1.36524172      11.98984453
Pd       6.84816543       1.40617682      11.99440733
Pd       9.57512057       1.39592898      11.89594876
Pd      12.38684272       1.37174114      11.92044161
Pd       1.37698364       4.13605237      11.95840381
Pd       4.14136907       4.09998232      11.95071719
Pd       6.89350946       4.09441451      11.99881354
Pd       9.56728621       4.13975942      11.94281254
Pd      12.36578195       4.13265160      11.93417299
Pd       1.37110082       6.89256210      11.94010419
Pd       4.13935064       6.87026939      11.96482277
Pd       6.87097415       6.85831372      11.95140951
Pd       9.64205429       6.82915781      11.94515418
Pd      12.39111484       6.85622887      11.94896407
Pd       1.39097235       9.62747733      11.99983578
Pd       4.11777592       9.66324146      11.95099537
Pd       6.89476706       9.64088005      11.95142944
Pd       9.64982872       9.59779534      11.89439304
Pd      12.42487279       9.60955999      11.94161946
Pd       1.36560546      12.35489262      11.99194665
Pd       4.10470240      12.39812433      11.95883345
Pd       6.86816975      12.39901143      11.97280504
Pd       9.63028672      12.36702810      11.91406436
Pd      12.38905846      12.34730747      11.97462847
Pd       2.69063761       2.70248026      13.95256860
Pd       5.50623740       0.01303772      13.98161058
Pd       9.60158338       0.95263997      15.99038185
Pd       8.22888896      13.72805817      13.88650377
Pd      11.00522784      13.74865167      13.90008041
Pd      10.99989251       2.71774471      13.96629264
Pd      13.72046097      13.74900570      13.97545134
Pd       5.45251472       2.74002937      14.02725753
Pd       6.03999328       1.11793134      16.44852802
Pd       8.25876482       2.74274301      14.13687104
Pd       0.01182394       2.71654659      13.86490918
Pd       2.82557214       5.42634560      13.96078699
Pd       5.59534252       5.50329350      13.87455765
Pd       8.33380523       5.55860619      14.00900222
Pd      11.08135208       5.48790517      13.98486695
Pd       0.06350484       5.48647386      14.03942612
Pd       2.72708834       8.20626615      14.00460916
Pd       5.45959305       8.28168959      14.05790403
Pd       8.21214295       8.37509670      13.87906857
Pd      11.03335475       8.25565172      13.92448214
Pd      13.71665086       8.18039477      13.99691871
Pd       2.77378173      10.93010514      14.01976878
Pd       5.55699834      11.05442327      13.86190356
Pd      10.88388489      10.98268674      13.85355434
Pd      13.68454297      10.94061840      14.01489181
Pd      12.57630192       6.38703303      16.67247873
Pd      10.74896005       9.62119163      16.37319935
Pd       0.89378355      12.70894077      16.41592336
Pd       1.83378666       6.47896330      16.22482740
Pd       0.23860027       8.97024634      16.71119706
Pd       8.17534070       2.08707494      17.91618776
Pd       4.65004303      12.41106270      16.19012810
Pd       6.35252229      10.11952921      16.07608908
Pd       2.73864494       0.01577771      14.04506491
Pd      11.29923194      12.25442889      16.24430821
Pd      13.74290054       3.90935171      16.29255389
Pd       3.44492718       3.72371400      16.30621340
Pd      10.05317066       3.61667525      16.49414324
Pd       4.05166556       8.78607050      16.66402168
Pd       6.95097563       7.20840094      16.52527041
Pd       7.98662250      12.15835281      16.12226653
Pd       9.58806729       7.13445275      15.97298369
Pd       6.93205133       4.38551118      15.93665271
Pd      12.33926067       1.14184869      16.33747308
Pd       4.39336951       6.22108205      16.06334707
O        8.30979394       3.94150875      17.36956169
O       12.09819878       8.60083445      17.23636073
O       12.82171850      13.13474354      17.07928924
O        9.13111965      13.33658299      17.61868052
O        8.41384800       0.26106471      18.56779958
O        2.18950847       8.53788054      16.02097257
O        2.73773298      12.32273979      15.59929280
O        0.43153399       1.68729468      17.23660294
O        9.71284157      11.18633136      15.62712440
O        0.25037789      10.83025358      15.98332016
O        1.44196532       0.86690146      16.88569026
O        1.74767003       4.57482546      16.81970893
O        5.93543640       5.69059583      17.20552776
O        5.83296705       8.75594246      17.45229590
O        5.26129113       2.90846117      16.09382250
O       11.92714126       3.06220501      15.90897782
O       10.84817527       5.61811701      16.08516215
O        0.41416487       7.15104715      17.51009451
O        6.38527956      12.99748617      16.88898147
O        8.23878233       8.60709401      15.91736679
