115
Lattice="13.75323 0.0 0.0 0.0 13.75323 0.0 0.0 0.0 23.89" Properties=species:S:1:pos:R:3 input=/mnt/d/download/trae-research-code/ssw/PdO.xyz system=pdo pbc_mode=slab fixed_bottom_fraction=0.35 pbc="T T F"
Pd       0.00000000       0.00000000      10.00000000
Pd       2.75064538       0.00000000      10.00000000
Pd       5.50129076       0.00000000      10.00000000
Pd       8.25193614       0.00000000      10.00000000
Pd      11.00258152       0.00000000      10.00000000
Pd       0.00000000       2.75064538      10.00000000
Pd       2.75064538       2.75064538      10.00000000
Pd       5.50129076       2.75064538      10.00000000
Pd       8.25193614       2.75064538      10.00000000
Pd      11.00258152       2.75064538      10.00000000
Pd       0.00000000       5.50129076      10.00000000
Pd       2.75064538       5.50129076      10.00000000
Pd       5.50129076       5.50129076      10.00000000
Pd       8.25193614       5.50129076      10.00000000
Pd      11.00258152       5.50129076      10.00000000
Pd       0.00000000       8.25193614      10.00000000
Pd       2.75064538       8.25193614      10.00000000
Pd       5.50129076       8.25193614      10.00000000
Pd       8.25193614       8.25193614      10.00000000
Pd      11.00258152       8.25193614      10.00000000
Pd       0.00000000      11.00258152      10.00000000
Pd       2.75064538      11.00258152      10.00000000
Pd       5.50129076      11.00258152      10.00000000
Pd       8.25193614      11.00258152      10.00000000
Pd      11.00258152      11.00258152      10.00000000
Pd       1.38097789       1.30634691      11.94505229
Pd       4.11898004       1.34276880      11.97002705
Pd       6.84466288       1.41872398      12.01656753
Pd       9.57512057       1.39592898      11.89594876
Pd      12.38684272       1.37174114      11.92044161
Pd       1.40852337       4.10009649      11.94792044
Pd       4.14588465       4.07461548      11.97728588
Pd       6.89601429       4.11673639      12.01576358
Pd       9.56728621       4.13975942      11.94281254
Pd      12.36578195       4.13265160      11.93417299
Pd       1.37110082       6.89256210      11.94010419
Pd       4.13935064       6.87026939      11.96482277
Pd       6.87097415       6.85831372      11.95140951
Pd       9.64205429       6.82915781      11.94515418
Pd      12.39111484       6.85622887      11.94896407
Pd       1.38736762       9.64654545      12.01175954
Pd       4.11777592       9.66324146      11.95099537
Pd       6.89476706       9.64088005      11.95142944
Pd       9.64982872       9.59779534      11.89439304
Pd      12.42487279       9.60955999      11.94161946
Pd       1.38707166      12.36273673      12.02142323
Pd       4.08665712      12.41193436      11.97993362
Pd       6.86816975      12.39901143      11.97280504
Pd       9.63028672      12.36702810      11.91406436
Pd      12.41059533      12.34215730      11.98434208
Pd       2.69518277       2.50176617      13.95165357
Pd       8.27275608       0.02125724      13.90662832
Pd       9.75099010       1.27055806      15.96257348
Pd      10.98959007      13.75293566      13.86871482
Pd       0.04252275      13.73265467      13.96967226
Pd      10.97872815       2.70361986      13.92151285
Pd       0.03565221       2.77476565      13.86041807
Pd       5.45662221       2.72211679      14.05390865
Pd       6.92898164       1.21665156      15.94500425
Pd       8.24450046       2.82225376      14.15398975
Pd       0.05618887       5.54168570      13.90254890
Pd       2.80167962       5.39631582      13.93167505
Pd       5.59513910       5.47752864      13.92870885
Pd       8.26692641       5.54238495      14.24307150
Pd      11.02288151       5.60754821      13.97714037
Pd      13.72735160       8.21646785      14.01111556
Pd       2.74524172       8.19938976      13.97602830
Pd       5.50175388       8.24332526      14.02859477
Pd       8.30422293       8.25278961      13.85594713
Pd      11.05685120       8.27678771      14.02545465
Pd      13.70850804      10.92607137      14.07589749
Pd       2.79323439      10.99379668      14.00611119
Pd       5.47600413      11.00415263      13.87479940
Pd       8.19192515      11.02306692      13.91645723
Pd      10.91667167      10.96988279      13.91408301
Pd      12.43218931       6.54472343      17.32321175
Pd      11.06272119       9.72219129      16.58084388
Pd       1.60003765      12.51354698      16.09449181
Pd       1.65372835       6.44070547      16.14039203
Pd       0.33611206       9.00352639      16.81306468
Pd       8.45633444       2.24818517      18.09445005
Pd       5.06775486      12.24869615      16.26265431
Pd       6.74547840      10.15246020      16.02762340
Pd       5.46947935      13.73140185      13.96698385
Pd      11.95625896      12.43243429      16.05604723
Pd      13.26000024       4.24808146      16.16329010
Pd       3.06677145       3.81208782      16.27462385
Pd       9.75766733       4.16551975      16.46502262
Pd       4.09267231       8.84639192      16.51045885
Pd       6.90249520       7.07959622      16.38931006
Pd       8.42844789      12.27328692      16.31424137
Pd       9.67529259       7.24758595      16.28572313
Pd       6.55562599       3.82606181      16.59875799
Pd      12.49387556       1.52956362      15.84500548
Pd       4.26491368       6.23298968      16.06485189
O        8.19492213       4.13044025      17.65589780
O       12.27304445       8.68857345      17.62851128
O       13.59102323      13.56664543      16.15982313
O        9.60671536      13.59755931      17.56905709
O        8.94753529       0.43117430      18.62684654
O        2.19754790       8.49452656      15.97594808
O        3.28418098      11.43126136      15.96733542
O        2.23819786       1.57269141      15.79718507
O       10.21787275      11.38471887      15.90640583
O        0.30510567      10.90224915      16.10412809
O        2.80236600       0.38293074      16.08242631
O        1.32909688       4.57048450      16.79979878
O        5.80217821       5.66084918      17.18228859
O        5.88340114       8.79384266      17.24815125
O        4.84736228       3.07315686      15.95333589
O       11.42451874       4.11739996      15.39961617
O       10.60447251       5.89351050      17.31849188
O        0.50417692       7.18897769      17.62400537
O        6.72370207      13.14570624      16.80233898
O        8.19260303       8.52072621      15.85827909
