115
Lattice="13.75323 0.0 0.0 0.0 13.75323 0.0 0.0 0.0 23.89" Properties=species:S:1:pos:R:3 input=/mnt/d/download/trae-research-code/ssw/PdO.xyz system=pdo pbc_mode=slab fixed_bottom_fraction=0.35 pbc="T T F"
Pd       0.00000000       0.00000000      10.00000000
Pd       2.75064538       0.00000000      10.00000000
Pd       5.50129076       0.00000000      10.00000000
Pd       8.25193614       0.00000000      10.00000000
Pd      11.00258152       0.00000000      10.00000000
Pd       0.00000000       2.75064538      10.00000000
Pd       2.75064538       2.75064538      10.00000000
Pd       5.50129076       2.75064538      10.00000000
Pd       8.25193614       2.75064538      10.00000000
Pd      11.00258152       2.75064538      10.00000000
Pd       0.00000000       5.50129076      10.00000000
Pd       2.75064538       5.50129076      10.00000000
Pd       5.50129076       5.50129076      10.00000000
Pd       8.25193614       5.50129076      10.00000000
Pd      11.00258152       5.50129076      10.00000000
Pd       0.00000000       8.25193614      10.00000000
Pd       2.75064538       8.25193614      10.00000000
Pd       5.50129076       8.25193614      10.00000000
Pd       8.25193614       8.25193614      10.00000000
Pd      11.00258152       8.25193614      10.00000000
Pd       0.00000000      11.00258152      10.00000000
Pd       2.75064538      11.00258152      10.00000000
Pd       5.50129076      11.00258152      10.00000000
Pd       8.25193614      11.00258152      10.00000000
Pd      11.00258152      11.00258152      10.00000000
Pd       1.42604720       1.42384166      11.92920443
Pd       4.15934049       1.40836679      12.00215333
Pd       6.88944218       1.36373422      12.03016164
Pd       9.57512057       1.39592898      11.89594876
Pd      12.38684272       1.37174114      11.92044161
Pd       1.35577168       4.14144367      11.96583451
Pd       4.13532045       4.12906053      11.95383827
Pd       6.84529594       4.10183512      11.98328879
Pd       9.56728621       4.13975942      11.94281254
Pd      12.36578195       4.13265160      11.93417299
Pd       1.37110082       6.89256210      11.94010419
Pd       4.13935064       6.87026939      11.96482277
Pd       6.87097415       6.85831372      11.95140951
Pd       9.64205429       6.82915781      11.94515418
Pd      12.39111484       6.85622887      11.94896407
Pd       1.36175902       9.65321412      12.04398401
Pd       4.11777592       9.66324146      11.95099537
Pd       6.89476706       9.64088005      11.95142944
Pd       9.64982872       9.59779534      11.89439304
Pd      12.42487279       9.60955999      11.94161946
Pd       1.40015637      12.35471877      11.97497143
Pd       4.11317784      12.40920201      11.98174760
Pd       6.86816975      12.39901143      11.97280504
Pd       9.63028672      12.36702810      11.91406436
Pd      12.42589046      12.33402518      11.94346749
Pd       2.75171919       0.06934709      14.01890381
Pd       8.29399815      13.72874341      14.16280318
Pd      10.08520928       1.12552261      15.98640535
Pd      11.08586902      13.65946538      13.88734489
Pd       0.09901837       0.10246472      13.76683356
Pd      13.65756408       2.81287252      13.94917438
Pd       2.65981027       2.80875618      14.00371252
Pd       5.52007313       2.84918342      13.99142385
Pd       8.30265256       2.66432623      14.10682125
Pd      10.95488975       2.67328857      13.89383647
Pd       0.08389406       5.51598246      14.04085534
Pd       2.84918861       5.46806318      13.89699550
Pd       5.56418285       5.70365153      14.10277639
Pd       8.28232763       5.40749935      13.89617075
Pd      11.09655656       5.38887629      13.98228428
Pd      13.74844512       8.24228258      14.04808440
Pd       2.74601640       8.23010810      14.00705523
Pd       5.46911071       8.35526372      13.90747098
Pd       8.17778299       8.24815694      13.93287171
Pd      10.90394285       8.13035128      13.90884945
Pd      13.71625566      11.36238417      14.39502326
Pd       2.71342426      11.07019792      14.02617152
Pd       5.49365064      10.98745063      13.89788786
Pd       8.32290177      11.00664865      14.24551815
Pd      11.01800572      10.88162186      13.79640141
Pd      12.91612949       6.62451180      16.52539613
Pd      11.93683625       9.18327741      16.07235454
Pd       3.38643995       1.68341384      16.33238633
Pd       1.85569416       6.43851591      16.02829730
Pd       1.70638222       9.15746139      16.60362854
Pd       8.66375128       2.28585848      18.01121692
Pd       6.58496260       1.02762665      16.78099313
Pd       6.42612585      12.22900693      15.99247886
Pd       5.48055727      13.71107742      14.01307236
Pd      11.19090713      11.94286579      16.16243102
Pd       0.89579921       3.77832721      16.40460587
Pd       4.11297838       4.46826912      16.28909625
Pd      11.26245368       3.58695900      16.66766776
Pd       4.46024056      10.46670877      16.51582139
Pd       6.87881393       8.97677318      16.30974477
Pd       8.67991027      12.88155993      17.09591053
Pd       9.43409787       6.49054369      16.10612426
Pd       7.79978462       4.20031334      16.35342764
Pd      13.01607030       0.65407956      16.14284975
Pd       4.42452303       7.33762350      16.13181503
O        9.44259410       4.03076627      17.47249860
O        0.02690829       9.71282427      15.66945534
O       13.07572383      12.43542369      16.16381601
O       11.32318170       1.82517083      17.73519426
O       10.50424712       1.77615656      18.82486738
O        3.54686301       8.73230284      17.31327106
O        5.15471928       1.41987797      15.49865607
O        0.93335441       0.82858845      17.39805343
O        9.33573947      11.33828415      16.10310607
O        2.60851842      10.84407730      16.01414385
O        1.68030806       1.96067437      17.32321983
O        2.39683648       4.80264413      17.13312171
O        7.67872519       7.30025558      15.74178881
O        6.28983793      10.60222551      17.20046100
O        5.95984291       4.25703510      15.56509768
O       13.02289594       2.71140695      15.95882850
O       11.26397103       5.58208038      16.07393796
O        0.73679237       7.52033810      17.29634447
O        7.83537368       0.52585152      18.22278437
O       10.18889249       8.41061874      15.89108877
