115
Lattice="13.75323 0.0 0.0 0.0 13.75323 0.0 0.0 0.0 23.89" Properties=species:S:1:pos:R:3 input=/mnt/d/download/trae-research-code/ssw/PdO.xyz system=pdo pbc_mode=slab fixed_bottom_fraction=0.35 pbc="T T F"
Pd       0.00000000       0.00000000      10.00000000
Pd       2.75064538       0.00000000      10.00000000
Pd       5.50129076       0.00000000      10.00000000
Pd       8.25193614       0.00000000      10.00000000
Pd      11.00258152       0.00000000      10.00000000
Pd       0.00000000       2.75064538      10.00000000
Pd       2.75064538       2.75064538      10.00000000
Pd       5.50129076       2.75064538      10.00000000
Pd       8.25193614       2.75064538      10.00000000
Pd      11.00258152       2.75064538      10.00000000
Pd       0.00000000       5.50129076      10.00000000
Pd       2.75064538       5.50129076      10.00000000
Pd       5.50129076       5.50129076      10.00000000
Pd       8.25193614       5.50129076      10.00000000
Pd      11.00258152       5.50129076      10.00000000
Pd       0.00000000       8.25193614      10.00000000
Pd       2.75064538       8.25193614      10.00000000
Pd       5.50129076       8.25193614      10.00000000
Pd       8.25193614       8.25193614      10.00000000
Pd      11.00258152       8.25193614      10.00000000
Pd       0.00000000      11.00258152      10.00000000
Pd       2.75064538      11.00258152      10.00000000
Pd       5.50129076      11.00258152      10.00000000
Pd       8.25193614      11.00258152      10.00000000
Pd      11.00258152      11.00258152      10.00000000
Pd       1.36437310       1.34840573      11.98240270
Pd       4.12563503       1.35243359      12.00191817
Pd       6.82299229       1.36053668      12.01345574
Pd       9.57512057       1.39592898      11.89594876
Pd      12.38684272       1.37174114      11.92044161
Pd       1.35140038       4.12231521      11.99708814
Pd       4.11171799       4.12009813      11.98208495
Pd       6.84638065       4.11901898      11.98717875
Pd       9.56728621       4.13975942      11.94281254
Pd      12.36578195       4.13265160      11.93417299
Pd       1.37110082       6.89256210      11.94010419
Pd       4.13935064       6.87026939      11.96482277
Pd       6.87097415       6.85831372      11.95140951
Pd       9.64205429       6.82915781      11.94515418
Pd      12.39111484       6.85622887      11.94896407
Pd       1.38799728       9.66295706      11.93859478
Pd       4.11777592       9.66324146      11.95099537
Pd       6.89476706       9.64088005      11.95142944
Pd       9.64982872       9.59779534      11.89439304
Pd      12.42487279       9.60955999      11.94161946
Pd       1.39428995      12.40266925      11.97435106
Pd       4.14072595      12.39988769      11.88943759
Pd       6.86816975      12.39901143      11.97280504
Pd       9.63028672      12.36702810      11.91406436
Pd      12.42745658      12.35640746      12.01225322
Pd       0.17040708      13.72841804      14.01680099
Pd       8.41628264       0.04496047      13.86660898
Pd       8.27073927       0.78260212      16.83334666
Pd      11.11737056       0.03948393      13.95845943
Pd      10.08795292       2.87135051      16.51163945
Pd      13.65658471       2.73578946      14.01222777
Pd       2.62886354       2.74645654      13.91697906
Pd       5.59687383       2.83701508      14.02042436
Pd       8.28176236       2.74540397      13.97723304
Pd      10.99345783       2.75234049      13.95064044
Pd       0.06274868       5.49619759      14.03180763
Pd       2.74768459       5.54976665      13.97976348
Pd       5.41127067       5.60351107      14.01580844
Pd       8.11723942       5.47325781      14.03962210
Pd      11.02429863       5.49475792      14.03139575
Pd      13.66898138       8.20307300      13.82916691
Pd       2.66307487       8.35563595      13.93238958
Pd       5.45155306       8.29886937      13.95169115
Pd       8.26557252       8.15186406      13.81839671
Pd      10.97601900       8.26620328      13.97823799
Pd       0.07838169      10.87635563      14.05330584
Pd       2.78361632      11.14486656      13.90126692
Pd       5.46966751      10.99448534      13.93263639
Pd       8.24638310      11.03524646      14.01692624
Pd      11.03870758      11.00601033      13.96375570
Pd      11.66963326       7.71845341      16.56365333
Pd       9.78326939      12.42731050      15.91065141
Pd      12.59578568       0.87598717      16.40502636
Pd       0.50395225       7.92992710      16.30734820
Pd      12.62009988      11.26600862      16.54309219
Pd       6.66849622      12.85779274      15.44736842
Pd       4.26426467      13.42316227      14.31710129
Pd       6.74169212       8.10664299      16.48235068
Pd       1.97398167      12.88768976      16.07701195
Pd       7.52182396      11.26189657      17.41395666
Pd      13.01778839       4.36632655      16.58093916
Pd       2.30907494       5.10726302      16.74947049
Pd       9.48709362       5.79680260      16.29358814
Pd       2.46004665      10.23214334      16.33959961
Pd       5.69476070       5.14103852      16.76236326
Pd       4.86971992      11.21345669      16.64007492
Pd       9.82481585       9.64125691      16.26287198
Pd       3.86317822       2.77975885      16.47041738
Pd       1.32675489       1.85084440      16.17237977
Pd       3.84261828       7.17908393      15.94554685
O        8.20731979       2.60031559      15.95440466
O       11.44426313      12.81505226      16.95633403
O        8.69062951      12.78212897      17.64023958
O        9.33225183       1.92539631      18.05975622
O        5.79227472       3.30227537      16.05235149
O        2.49275548       8.29306137      16.94176793
O        4.07519474       1.60292184      14.89259433
O        0.96365359       3.51394424      17.18702883
O        6.13397148       9.85646810      17.30930246
O       13.74412146      12.93112630      15.98679265
O       11.96775839       2.70654803      17.01725650
O        0.56322493       5.90756432      16.11105338
O        7.50749814       6.08752477      16.07525578
O        5.34865663       6.99780513      17.33131527
O        3.94239359       4.37990781      17.61816763
O       11.47666229       5.74982094      16.14826637
O       11.56554323       9.63800723      17.14137879
O        0.38021753       9.95631223      16.09943033
O        3.90950024      12.90168160      16.29199082
O        8.07783736       9.23948904      15.48932509
