115
Lattice="13.75323 0.0 0.0 0.0 13.75323 0.0 0.0 0.0 23.89" Properties=species:S:1:pos:R:3 input=/mnt/d/download/trae-research-code/ssw/PdO.xyz system=pdo pbc_mode=slab fixed_bottom_fraction=0.35 pbc="T T F"
Pd       0.00000000       0.00000000      10.00000000
Pd       2.75064538       0.00000000      10.00000000
Pd       5.50129076       0.00000000      10.00000000
Pd       8.25193614       0.00000000      10.00000000
Pd      11.00258152       0.00000000      10.00000000
Pd       0.00000000       2.75064538      10.00000000
Pd       2.75064538       2.75064538      10.00000000
Pd       5.50129076       2.75064538      10.00000000
Pd       8.25193614       2.75064538      10.00000000
Pd      11.00258152       2.75064538      10.00000000
Pd       0.00000000       5.50129076      10.00000000
Pd       2.75064538       5.50129076      10.00000000
Pd       5.50129076       5.50129076      10.00000000
Pd       8.25193614       5.50129076      10.00000000
Pd      11.00258152       5.50129076      10.00000000
Pd       0.00000000       8.25193614      10.00000000
Pd       2.75064538       8.25193614      10.00000000
Pd       5.50129076       8.25193614      10.00000000
Pd       8.25193614       8.25193614      10.00000000
Pd      11.00258152       8.25193614      10.00000000
Pd       0.00000000      11.00258152      10.00000000
Pd       2.75064538      11.00258152      10.00000000
Pd       5.50129076      11.00258152      10.00000000
Pd       8.25193614      11.00258152      10.00000000
Pd      11.00258152      11.00258152      10.00000000
Pd       1.38399792       1.40536939      11.99589314
Pd       4.13417397       1.39487510      11.99305902
Pd       6.83668286       1.33434377      11.96840322
Pd       9.57512057       1.39592898      11.89594876
Pd      12.38684272       1.37174114      11.92044161
Pd       1.37905842       4.15727545      12.00093115
Pd       4.09570129       4.14925284      11.98606163
Pd       6.83812335       4.11689000      11.93359459
Pd       9.56728621       4.13975942      11.94281254
Pd      12.36578195       4.13265160      11.93417299
Pd       1.37110082       6.89256210      11.94010419
Pd       4.13935064       6.87026939      11.96482277
Pd       6.87097415       6.85831372      11.95140951
Pd       9.64205429       6.82915781      11.94515418
Pd      12.39111484       6.85622887      11.94896407
Pd       1.39106881       9.63706083      11.96146656
Pd       4.11777592       9.66324146      11.95099537
Pd       6.89476706       9.64088005      11.95142944
Pd       9.64982872       9.59779534      11.89439304
Pd      12.42487279       9.60955999      11.94161946
Pd       1.38256006      12.39208281      11.95472387
Pd       4.15278894      12.43531716      11.99378088
Pd       6.86816975      12.39901143      11.97280504
Pd       9.63028672      12.36702810      11.91406436
Pd      12.38077148      12.36277410      11.97952558
Pd       2.77626252       0.05435245      13.97724902
Pd       8.28827916      13.74969381      13.97184842
Pd      12.43878004       1.38635147      16.09994056
Pd      11.00560799      13.74480516      14.03344816
Pd       0.04002453      13.70645942      13.94355397
Pd       0.02590464       2.69429031      13.97184339
Pd       2.79856176       2.82622066      14.05184061
Pd       5.51733001       2.76493808      13.89464198
Pd       8.27807197       2.71228942      13.88562403
Pd      11.00475946       2.69815905      13.84905685
Pd      13.71307869       5.59256315      14.00314882
Pd       2.74172914       5.53042216      14.13650391
Pd       5.51972214       5.58207214      13.99900267
Pd       8.22229868       5.45774543      13.93505218
Pd      10.93165366       5.50036833      13.94423861
Pd      11.04540786       8.20642616      13.88843422
Pd      13.72570350       8.23986153      13.96038130
Pd       2.69124482       8.26914153      14.01072902
Pd       5.44990017       8.28471357      13.96693225
Pd       8.27060452       8.16717321      13.96725476
Pd       0.02904445      10.93386675      13.99216887
Pd       2.73043348      11.09168665      13.95091428
Pd       5.45332706      11.03811559      13.92477342
Pd       8.27986318      11.01973906      13.97298154
Pd      10.99169068      10.94484828      13.91970651
Pd      12.52357926       6.57265475      16.53361085
Pd      10.25699267       9.01530487      16.31849540
Pd       1.62347652      12.19583900      16.63225807
Pd       2.52882693       6.75346318      16.72896328
Pd       0.23535181       8.91324462      16.64687823
Pd       9.80445532       1.61483778      15.96329011
Pd       7.18995662       1.15983422      16.36582198
Pd       6.77269183      12.44893383      15.75705736
Pd       4.12251117       0.64793139      16.21911281
Pd      12.21866580      12.24182377      16.06905406
Pd       1.20916460       4.35081655      16.40997674
Pd       4.28858566       4.38558104      16.36099694
Pd      11.43006526       3.84757071      16.27379260
Pd       3.89245817       9.79948412      16.13030998
Pd       6.62036867       9.08718376      16.40935085
Pd       9.48548208      12.67756718      16.47539863
Pd       8.86840571       6.59225271      16.34673591
Pd       7.89020481       3.91131015      16.25972609
Pd       1.59952251       1.60161824      16.05417109
Pd       5.15625681       6.90136397      16.37144518
O        9.64331989       3.40545785      16.99480069
O       11.99891054       8.49415608      17.08406181
O        0.04471329      13.40952146      16.03959499
O        0.20953431       3.28252619      17.93910960
O        0.14529020       1.99559183      17.57536337
O        2.26392058       8.62384838      16.06000797
O        5.61952416       1.33262595      15.28229725
O        2.56063843       0.10082119      17.20104801
O       10.62454392      11.08916218      16.01324318
O        0.19396273      10.81036527      16.08234724
O        2.93683150      11.00978739      17.33680740
O        2.76709108       4.91464673      17.45782246
O        7.12031564       7.26717008      16.92566901
O        5.65449036      10.79062761      16.06389500
O        6.04364468       4.11877120      15.48445417
O       13.26894495       4.11737184      15.42383266
O       10.71564877       5.91080622      15.97421452
O        0.49528216       7.10190807      17.35875386
O        8.74422013       0.52341380      17.35992979
O        8.49144446       9.54374074      15.52635834
