115
Lattice="13.75323 0.0 0.0 0.0 13.75323 0.0 0.0 0.0 23.89" Properties=species:S:1:pos:R:3 input=/mnt/d/download/trae-research-code/ssw/PdO.xyz system=pdo pbc_mode=slab fixed_bottom_fraction=0.35 pbc="T T F"
Pd       0.00000000       0.00000000      10.00000000
Pd       2.75064538       0.00000000      10.00000000
Pd       5.50129076       0.00000000      10.00000000
Pd       8.25193614       0.00000000      10.00000000
Pd      11.00258152       0.00000000      10.00000000
Pd       0.00000000       2.75064538      10.00000000
Pd       2.75064538       2.75064538      10.00000000
Pd       5.50129076       2.75064538      10.00000000
Pd       8.25193614       2.75064538      10.00000000
Pd      11.00258152       2.75064538      10.00000000
Pd       0.00000000       5.50129076      10.00000000
Pd       2.75064538       5.50129076      10.00000000
Pd       5.50129076       5.50129076      10.00000000
Pd       8.25193614       5.50129076      10.00000000
Pd      11.00258152       5.50129076      10.00000000
Pd       0.00000000       8.25193614      10.00000000
Pd       2.75064538       8.25193614      10.00000000
Pd       5.50129076       8.25193614      10.00000000
Pd       8.25193614       8.25193614      10.00000000
Pd      11.00258152       8.25193614      10.00000000
Pd       0.00000000      11.00258152      10.00000000
Pd       2.75064538      11.00258152      10.00000000
Pd       5.50129076      11.00258152      10.00000000
Pd       8.25193614      11.00258152      10.00000000
Pd      11.00258152      11.00258152      10.00000000
Pd       1.35775555       1.35598827      11.97302225
Pd       4.10519199       1.35449392      11.97993931
Pd       6.83437641       1.37294194      11.99619005
Pd       9.57512057       1.39592898      11.89594876
Pd      12.38684272       1.37174114      11.92044161
Pd       1.36762010       4.10250348      11.95949358
Pd       4.12083015       4.09954849      11.95063964
Pd       6.84978896       4.10524226      11.97107028
Pd       9.56728621       4.13975942      11.94281254
Pd      12.36578195       4.13265160      11.93417299
Pd       1.37110082       6.89256210      11.94010419
Pd       4.13935064       6.87026939      11.96482277
Pd       6.87097415       6.85831372      11.95140951
Pd       9.64205429       6.82915781      11.94515418
Pd      12.39111484       6.85622887      11.94896407
Pd       1.38713293       9.62091283      11.98567225
Pd       4.11777592       9.66324146      11.95099537
Pd       6.89476706       9.64088005      11.95142944
Pd       9.64982872       9.59779534      11.89439304
Pd      12.42487279       9.60955999      11.94161946
Pd       1.37491429      12.38529656      11.97614197
Pd       4.14425010      12.37922054      12.00717535
Pd       6.86816975      12.39901143      11.97280504
Pd       9.63028672      12.36702810      11.91406436
Pd      12.40084863      12.37754257      11.97913029
Pd      13.71233528      13.68317888      14.12250827
Pd       8.26197541       0.05374079      14.04883551
Pd       9.52762872       1.58528279      15.93080022
Pd      11.01394117       0.03226540      13.91413885
Pd      12.18691183       1.11887993      16.39266162
Pd      13.74305849       2.66929854      13.96892168
Pd       2.69718254       2.76487433      13.99542119
Pd       5.43357911       2.74478482      14.00544913
Pd       8.26550246       2.81253261      13.93202819
Pd      11.00206138       2.75518517      13.89017223
Pd       0.05567287       5.45594201      13.92667744
Pd       2.79794822       5.46686463      13.91527260
Pd       5.53613049       5.49381760      13.88614398
Pd       8.33347214       5.50599805      13.98910883
Pd      11.05107707       5.51871864      13.96789021
Pd      13.57246993       8.18344090      13.96337001
Pd       2.94855043       8.29101437      13.93241651
Pd       6.21187267       9.31872219      16.71900576
Pd       7.95129900       8.20565674      14.03628589
Pd      10.87533147       8.28706535      13.96902219
Pd       0.00777269      10.96018164      13.97511948
Pd       2.82399132      11.07551746      13.93992252
Pd       5.53632964      10.83817796      14.10303679
Pd       8.26722048      11.04689461      13.86236108
Pd      11.05702083      10.98611928      13.94593906
Pd      12.30290170       6.57356182      16.26696830
Pd      12.67882445      12.18184349      16.20336947
Pd       1.63419054      12.79590095      16.33394684
Pd       1.49971823       6.28278237      16.20143675
Pd       0.61121358       9.44451161      16.48669580
Pd       7.02348662       2.18231688      16.25767444
Pd       5.37709994      13.67306221      14.03795921
Pd       9.34925826       9.73115474      15.78422504
Pd       2.69515385       0.05138777      14.01390878
Pd       9.83352824      12.40636299      15.96386903
Pd      13.51859477       4.21629298      16.44629744
Pd       3.51088975       4.05284992      16.47981736
Pd       9.57202771       4.30309512      16.27648980
Pd       3.51169864       9.74811494      16.32713056
Pd       9.59078705       6.99023485      16.03770024
Pd       7.12499207      12.15978789      16.15602196
Pd      11.67820609       9.68031542      17.38678995
Pd       7.02606497       5.75146779      16.29081987
Pd       3.31158839       1.44616485      16.35879415
Pd       4.16107927       6.81320317      15.80754500
O        7.67850617       3.96616811      16.87704522
O       13.38584244      10.77765824      17.54822903
O       10.51927413       0.24652181      17.00403506
O       11.58033183       2.62321229      17.80184684
O       10.27378110       2.83884106      17.68655448
O        4.58273412       8.34735707      17.09762936
O        4.91769753       2.61700864      16.02516013
O       13.69421018       2.26504888      15.92661835
O        7.75345627      10.45744831      16.87886009
O        1.95972761      10.89454950      15.83972300
O        1.75045995       0.73121876      17.12773713
O        1.64879716       4.54541357      17.07136584
O        6.72524557       7.62314040      15.60057157
O       10.02237387       8.53960875      17.28253016
O        5.03099254       5.40378109      16.91518468
O       11.55552321       4.70351830      15.84859706
O       12.96496890       8.14318143      17.24104381
O        1.38534452       8.03959607      15.30964196
O        6.66090077       0.26649319      15.61031074
O       10.95371641      11.51119918      17.37737468
