115
Lattice="13.75323 0.0 0.0 0.0 13.75323 0.0 0.0 0.0 23.89" Properties=species:S:1:pos:R:3 input=/mnt/d/download/trae-research-code/ssw/PdO.xyz system=pdo pbc_mode=slab fixed_bottom_fraction=0.35 pbc="T T F"
Pd       0.00000000       0.00000000      10.00000000
Pd       2.75064538       0.00000000      10.00000000
Pd       5.50129076       0.00000000      10.00000000
Pd       8.25193614       0.00000000      10.00000000
Pd      11.00258152       0.00000000      10.00000000
Pd       0.00000000       2.75064538      10.00000000
Pd       2.75064538       2.75064538      10.00000000
Pd       5.50129076       2.75064538      10.00000000
Pd       8.25193614       2.75064538      10.00000000
Pd      11.00258152       2.75064538      10.00000000
Pd       0.00000000       5.50129076      10.00000000
Pd       2.75064538       5.50129076      10.00000000
Pd       5.50129076       5.50129076      10.00000000
Pd       8.25193614       5.50129076      10.00000000
Pd      11.00258152       5.50129076      10.00000000
Pd       0.00000000       8.25193614      10.00000000
Pd       2.75064538       8.25193614      10.00000000
Pd       5.50129076       8.25193614      10.00000000
Pd       8.25193614       8.25193614      10.00000000
Pd      11.00258152       8.25193614      10.00000000
Pd       0.00000000      11.00258152      10.00000000
Pd       2.75064538      11.00258152      10.00000000
Pd       5.50129076      11.00258152      10.00000000
Pd       8.25193614      11.00258152      10.00000000
Pd      11.00258152      11.00258152      10.00000000
Pd       1.34585478       1.35075853      12.05423148
Pd       4.10823719       1.37492339      11.96178110
Pd       6.84883770       1.36216622      11.95473149
Pd       9.57512057       1.39592898      11.89594876
Pd      12.38684272       1.37174114      11.92044161
Pd       1.37832256       4.08969862      11.97128285
Pd       4.16050834       4.12412321      12.04409846
Pd       6.85130846       4.13727163      12.02644447
Pd       9.56728621       4.13975942      11.94281254
Pd      12.36578195       4.13265160      11.93417299
Pd       1.37110082       6.89256210      11.94010419
Pd       4.13935064       6.87026939      11.96482277
Pd       6.87097415       6.85831372      11.95140951
Pd       9.64205429       6.82915781      11.94515418
Pd      12.39111484       6.85622887      11.94896407
Pd       1.36521552       9.66698202      12.02057996
Pd       4.11777592       9.66324146      11.95099537
Pd       6.89476706       9.64088005      11.95142944
Pd       9.64982872       9.59779534      11.89439304
Pd      12.42487279       9.60955999      11.94161946
Pd       1.37808504      12.36437319      12.02822850
Pd       4.14469320      12.40002492      11.99787615
Pd       6.86816975      12.39901143      11.97280504
Pd       9.63028672      12.36702810      11.91406436
Pd      12.42136242      12.36056233      11.97697810
Pd       2.84898521       0.01211861      13.95202805
Pd       7.94591007      13.72026847      14.13075685
Pd       9.69425846       1.20398114      15.87157271
Pd      10.85187610      13.72155088      13.84450799
Pd      13.67174733       0.00328546      14.07944660
Pd      13.64504868       2.69630800      14.02324718
Pd       2.71030298       2.79925897      14.05269479
Pd       5.47194380       2.55169225      13.95072607
Pd       8.28086219       2.74587633      13.97582556
Pd      10.94504816       2.68908294      13.88517781
Pd       0.00908573       5.44949670      13.93503665
Pd       2.76122212       5.51045694      13.93193560
Pd       5.47896939       5.67960470      14.22291490
Pd       8.30343268       5.58202360      14.05241546
Pd      11.05096546       5.40957777      13.98762589
Pd       0.06432898       8.20621318      13.96797055
Pd       2.73893613       8.25249813      13.94361592
Pd       5.46999634       8.36499303      13.89327284
Pd       8.30823590       8.35972164      13.98211737
Pd      11.07185909       8.20473943      13.91501337
Pd      13.57296603      10.94933575      14.31005716
Pd       2.86623311      10.98206111      14.03376708
Pd       5.64947059      11.10538611      13.91731022
Pd       8.35113794      11.03496417      13.85503081
Pd      10.98144664      10.93525140      13.82852508
Pd      12.46085749       7.48186552      16.24824856
Pd      10.64342344       9.59867177      16.28898203
Pd       2.52972084      12.43262152      16.45013374
Pd       1.44604125       6.50160224      15.96004637
Pd       1.17109863       9.23324322      16.60717078
Pd       8.86250417       2.54688416      18.10346816
Pd       7.07361846       0.98658566      16.81368818
Pd       7.28844156      11.57086191      16.18851606
Pd       4.99367028      13.05491374      15.57757424
Pd      11.08989653      12.27827905      16.13563679
Pd       0.74852432       3.83055303      16.35274779
Pd       3.85482965       4.41811519      16.22637214
Pd      11.06187254       3.54542979      16.45936288
Pd       4.46412119      10.23367221      16.09447180
Pd       6.67184157       8.06684472      16.29880651
Pd       8.93322174      13.06495430      17.77566909
Pd       9.88556534       6.92492019      16.04263781
Pd       7.49095263       4.03174554      16.29243356
Pd       1.52745388       1.23005224      15.91884017
Pd       4.06568625       7.32627406      16.09006054
O        9.27518446       4.21146110      17.15090572
O       12.82076779       9.47417791      16.19334753
O       12.92699218      12.54657659      15.52258113
O       11.59120050       3.33160325      18.54936312
O       10.59346318       2.91859671      19.27789436
O        3.16040560       8.92745930      16.99722941
O        6.19953874       0.89219749      15.05576912
O        3.08871534       1.28355301      17.17614509
O        9.43989029      11.38890074      16.86530999
O        1.50080449      10.95113242      15.63782481
O        3.68677163       0.04942214      17.28541157
O        2.18404196       4.91450481      17.08041687
O        7.00240975       6.16903245      15.64601025
O        6.29760966       9.91552373      16.88419023
O        5.63220259       3.88896917      15.52059812
O       12.87188393       2.83079802      15.94193962
O       11.44575938       5.68209814      16.03533973
O        0.49842294       7.54755012      17.38974995
O        7.99999655       0.84812392      18.60042820
O        8.76548833       8.53390332      16.06470191
