115
Lattice="13.75323 0.0 0.0 0.0 13.75323 0.0 0.0 0.0 23.89" Properties=species:S:1:pos:R:3 input=/mnt/d/download/trae-research-code/ssw/PdO.xyz system=pdo pbc_mode=slab fixed_bottom_fraction=0.35 pbc="T T F"
Pd       0.00000000       0.00000000      10.00000000
Pd       2.75064538       0.00000000      10.00000000
Pd       5.50129076       0.00000000      10.00000000
Pd       8.25193614       0.00000000      10.00000000
Pd      11.00258152       0.00000000      10.00000000
Pd       0.00000000       2.75064538      10.00000000
Pd       2.75064538       2.75064538      10.00000000
Pd       5.50129076       2.75064538      10.00000000
Pd       8.25193614       2.75064538      10.00000000
Pd      11.00258152       2.75064538      10.00000000
Pd       0.00000000       5.50129076      10.00000000
Pd       2.75064538       5.50129076      10.00000000
Pd       5.50129076       5.50129076      10.00000000
Pd       8.25193614       5.50129076      10.00000000
Pd      11.00258152       5.50129076      10.00000000
Pd       0.00000000       8.25193614      10.00000000
Pd       2.75064538       8.25193614      10.00000000
Pd       5.50129076       8.25193614      10.00000000
Pd       8.25193614       8.25193614      10.00000000
Pd      11.00258152       8.25193614      10.00000000
Pd       0.00000000      11.00258152      10.00000000
Pd       2.75064538      11.00258152      10.00000000
Pd       5.50129076      11.00258152      10.00000000
Pd       8.25193614      11.00258152      10.00000000
Pd      11.00258152      11.00258152      10.00000000
Pd       1.40101686       1.41824973      11.98038009
Pd       4.11250575       1.39441416      12.05266441
Pd       6.85252755       1.37622747      11.96745810
Pd       9.57512057       1.39592898      11.89594876
Pd      12.38684272       1.37174114      11.92044161
Pd       1.36625519       4.14906436      12.00566581
Pd       4.07731692       4.12820516      11.99729497
Pd       6.83912917       4.11493579      11.94337963
Pd       9.56728621       4.13975942      11.94281254
Pd      12.36578195       4.13265160      11.93417299
Pd       1.37110082       6.89256210      11.94010419
Pd       4.13935064       6.87026939      11.96482277
Pd       6.87097415       6.85831372      11.95140951
Pd       9.64205429       6.82915781      11.94515418
Pd      12.39111484       6.85622887      11.94896407
Pd       1.42498668       9.62734117      11.99536993
Pd       4.11777592       9.66324146      11.95099537
Pd       6.89476706       9.64088005      11.95142944
Pd       9.64982872       9.59779534      11.89439304
Pd      12.42487279       9.60955999      11.94161946
Pd       1.40248886      12.41377807      11.94851210
Pd       4.16409996      12.44786763      11.95873016
Pd       6.86816975      12.39901143      11.97280504
Pd       9.63028672      12.36702810      11.91406436
Pd      12.40116312      12.32767279      11.92751423
Pd      13.75059377       0.02155042      13.85825544
Pd       8.34627932      13.73467104      13.95076958
Pd      10.95708257       0.35147737      16.38303544
Pd      10.98325871      13.69444345      13.78976210
Pd      10.12924975       2.93075044      16.58556151
Pd      13.71746589       2.78884508      13.98158600
Pd       2.69890569       2.87564501      14.12383020
Pd       5.45631670       2.71427957      14.00554178
Pd       8.29837122       2.69441184      14.00388595
Pd      11.00124395       2.62584387      13.99088531
Pd      13.71060982       5.46278516      14.04855391
Pd       2.67505237       5.67629593      13.98367042
Pd       5.44917629       5.50382792      13.98349554
Pd       8.23093582       5.53222256      14.00482687
Pd      10.97814464       5.36881989      14.01447206
Pd       0.00703585       8.21587470      13.87383975
Pd       2.63517191       8.61075294      14.49019171
Pd       5.36492221       8.27910170      13.95591929
Pd       8.18890396       8.26382372      13.91507642
Pd      10.88281049       8.24901537      13.86069577
Pd       0.12256397      11.03923381      13.98272249
Pd       2.90123570      11.15502826      13.86625570
Pd       5.60286598      10.97747202      14.01069244
Pd       8.35826201      11.02094837      14.03688672
Pd      11.11888661      11.00941583      14.00579805
Pd      12.08635791       7.11900239      15.92068252
Pd      12.88332255      12.10788081      16.54480639
Pd      13.35551202       1.82987856      16.47208789
Pd       1.15485775       6.97512609      15.98976718
Pd       1.82838434      11.55007963      16.24919430
Pd       7.61009287       4.08845584      16.79051939
Pd       5.60005275      13.73028749      14.00444066
Pd       8.36103618       9.29434067      16.46444676
Pd       2.68394450       0.12166267      14.07719091
Pd      10.44342542      11.02317689      16.75763417
Pd      12.87748462       4.90801961      16.79601400
Pd       2.01042364       4.21142498      16.92330170
Pd       9.54828557       6.11548713      16.45691572
Pd       4.21349647      13.49028787      16.32492324
Pd       6.80103185       6.95391746      15.90692893
Pd       7.65958029       0.65122175      16.46238302
Pd      13.40181890       9.44069783      16.19653271
Pd       3.97111919       6.72923698      16.01199194
Pd       4.72957189       2.36630406      16.59647232
Pd       4.74147941       9.74742263      16.32972425
O        6.87527672       4.02185322      14.91568727
O       12.87550223       0.11229088      15.70316061
O       12.23457577      10.61625131      17.57118071
O        9.71240218       3.67235339      18.52355531
O        8.48835488       4.17289907      18.55739186
O        6.11165686      13.34299602      15.95484751
O        6.58053760       2.27468772      17.16439632
O        0.26700813       3.32555577      17.42397457
O        8.61440794      11.17917394      16.04373162
O        2.25625388      13.48662555      16.09479858
O        2.86798634       2.62345283      16.12888090
O        0.83142517       5.72853249      17.51204763
O        5.31479548       7.96629097      16.88183958
O        8.31412891       7.47065487      17.13612083
O        3.75599725       5.06216068      16.98584704
O       10.93730545       4.68729995      16.08404929
O        1.61207425       9.59499570      16.29654388
O        3.87903211      11.43751551      16.72403488
O        9.38245886       1.20139819      17.16520179
O       11.48338996       9.05739474      15.67148369
