115
Lattice="13.75323 0.0 0.0 0.0 13.75323 0.0 0.0 0.0 23.89" Properties=species:S:1:pos:R:3 input=/mnt/d/download/trae-research-code/ssw/PdO.xyz system=pdo pbc_mode=slab fixed_bottom_fraction=0.35 pbc="T T F"
Pd       0.00000000       0.00000000      10.00000000
Pd       2.75064538       0.00000000      10.00000000
Pd       5.50129076       0.00000000      10.00000000
Pd       8.25193614       0.00000000      10.00000000
Pd      11.00258152       0.00000000      10.00000000
Pd       0.00000000       2.75064538      10.00000000
Pd       2.75064538       2.75064538      10.00000000
Pd       5.50129076       2.75064538      10.00000000
Pd       8.25193614       2.75064538      10.00000000
Pd      11.00258152       2.75064538      10.00000000
Pd       0.00000000       5.50129076      10.00000000
Pd       2.75064538       5.50129076      10.00000000
Pd       5.50129076       5.50129076      10.00000000
Pd       8.25193614       5.50129076      10.00000000
Pd      11.00258152       5.50129076      10.00000000
Pd       0.00000000       8.25193614      10.00000000
Pd       2.75064538       8.25193614      10.00000000
Pd       5.50129076       8.25193614      10.00000000
Pd       8.25193614       8.25193614      10.00000000
Pd      11.00258152       8.25193614      10.00000000
Pd       0.00000000      11.00258152      10.00000000
Pd       2.75064538      11.00258152      10.00000000
Pd       5.50129076      11.00258152      10.00000000
Pd       8.25193614      11.00258152      10.00000000
Pd      11.00258152      11.00258152      10.00000000
Pd       1.40111609       1.33013658      11.99189047
Pd       4.12971200       1.34810550      11.98086253
Pd       6.87921513       1.36264428      11.99820828
Pd       9.57512057       1.39592898      11.89594876
Pd      12.38684272       1.37174114      11.92044161
Pd       1.38628865       4.14191864      11.93915847
Pd       4.14870642       4.10376529      11.94823509
Pd       6.88771648       4.09428196      11.99194231
Pd       9.56728621       4.13975942      11.94281254
Pd      12.36578195       4.13265160      11.93417299
Pd       1.37110082       6.89256210      11.94010419
Pd       4.13935064       6.87026939      11.96482277
Pd       6.87097415       6.85831372      11.95140951
Pd       9.64205429       6.82915781      11.94515418
Pd      12.39111484       6.85622887      11.94896407
Pd       1.37013540       9.61796404      11.98228890
Pd       4.11777592       9.66324146      11.95099537
Pd       6.89476706       9.64088005      11.95142944
Pd       9.64982872       9.59779534      11.89439304
Pd      12.42487279       9.60955999      11.94161946
Pd       1.36925909      12.36332934      12.00243975
Pd       4.10857997      12.39106616      11.96825268
Pd       6.86816975      12.39901143      11.97280504
Pd       9.63028672      12.36702810      11.91406436
Pd      12.40026733      12.35019246      11.97799848
Pd       2.76786469      13.73188620      14.08355607
Pd       8.23116473      13.71089908      14.06932654
Pd       9.78670540       1.35515697      15.78762923
Pd      10.97365398       0.04272859      13.84586476
Pd      13.71784332      13.71733760      14.00360562
Pd       0.02625295       2.75804046      13.84283268
Pd       2.74202711       2.78651122      13.94819254
Pd       5.52289060       2.65802804      13.96848572
Pd       8.27979695       2.80098318      14.09606601
Pd      11.07849395       2.82905120      13.98091446
Pd       0.06537291       5.51241477      14.00994470
Pd       2.80356006       5.52151249      13.92786915
Pd       5.59039527       5.51045831      13.92724451
Pd       8.33136665       5.53079431      14.05745214
Pd      11.07405988       5.56588902      13.99467025
Pd      13.70544430       8.17710471      14.04038980
Pd       2.69876402       8.24679561      14.02473549
Pd       5.47016788       8.23969735      13.93122676
Pd       8.20625400       8.30347606      13.93970437
Pd      11.02367099       8.30454500      13.94374377
Pd      13.70043872      10.88924702      14.04534946
Pd       2.75793576      10.97435347      13.95748799
Pd       5.45244178      10.90919748      13.92205132
Pd       8.24253446      11.00315199      13.90115403
Pd      10.93160816      11.02312427      13.93529085
Pd      12.70093041       6.41722539      16.78475964
Pd      11.06583216       9.65793266      16.47886225
Pd       1.67417148      11.96499118      16.18069720
Pd       1.92012790       6.51709346      16.28882527
Pd       0.30185726       8.88635169      16.82447230
Pd       8.49455373       2.35084106      17.92056470
Pd       6.84072729       0.80141292      16.50918385
Pd       6.77385960      11.93582540      15.94097168
Pd       5.48706468      13.58797753      14.01505364
Pd      12.08122190      12.60189844      16.02474874
Pd       0.04947347       3.97252072      16.27985371
Pd       3.54443914       4.16742716      16.17114442
Pd      10.43642269       3.82976642      16.67070441
Pd       3.99260081       9.67466848      16.16759883
Pd       6.40853410       8.41329875      16.62770983
Pd       9.18084818      12.80892469      16.85139250
Pd       9.60533625       7.27034251      16.03862183
Pd       7.15850777       4.40875702      16.40919573
Pd       1.29371872       1.61410834      15.85862970
Pd       4.48723207       6.73290825      16.03837658
O        8.72410859       4.30001475      17.57136693
O       12.18270044       8.42762994      17.41102299
O        0.09479549      13.55385117      16.10034353
O       11.09931218       3.19168256      18.67169022
O       10.14303950       2.50466390      19.22487816
O        2.25170218       8.61338667      16.06870252
O        5.32208095       1.24141120      15.41931031
O        2.72769666       0.68963399      16.95762646
O       10.39660657      11.47074661      15.98507926
O        0.14986801      10.73579254      16.10165303
O        3.11962918      13.34284598      16.25064609
O        1.78683168       4.62372782      16.91888754
O        6.28999348       6.44572618      16.85340015
O        5.81436471      10.32660889      16.66289739
O        5.41893655       4.06228747      15.47624796
O       12.07374419       3.14047322      15.82131751
O       10.95464948       5.82736241      16.08246508
O        0.56689540       7.09604758      17.66883310
O        8.15548181       0.37054140      17.93468687
O        8.28187596       8.67635593      15.95433400
