115
Lattice="13.75323 0.0 0.0 0.0 13.75323 0.0 0.0 0.0 23.89" Properties=species:S:1:pos:R:3 input=/mnt/d/download/trae-research-code/ssw/PdO.xyz system=pdo pbc_mode=slab fixed_bottom_fraction=0.35 pbc="T T F"
Pd       0.00000000       0.00000000      10.00000000
Pd       2.75064538       0.00000000      10.00000000
Pd       5.50129076       0.00000000      10.00000000
Pd       8.25193614       0.00000000      10.00000000
Pd      11.00258152       0.00000000      10.00000000
Pd       0.00000000       2.75064538      10.00000000
Pd       2.75064538       2.75064538      10.00000000
Pd       5.50129076       2.75064538      10.00000000
Pd       8.25193614       2.75064538      10.00000000
Pd      11.00258152       2.75064538      10.00000000
Pd       0.00000000       5.50129076      10.00000000
Pd       2.75064538       5.50129076      10.00000000
Pd       5.50129076       5.50129076      10.00000000
Pd       8.25193614       5.50129076      10.00000000
Pd      11.00258152       5.50129076      10.00000000
Pd       0.00000000       8.25193614      10.00000000
Pd       2.75064538       8.25193614      10.00000000
Pd       5.50129076       8.25193614      10.00000000
Pd       8.25193614       8.25193614      10.00000000
Pd      11.00258152       8.25193614      10.00000000
Pd       0.00000000      11.00258152      10.00000000
Pd       2.75064538      11.00258152      10.00000000
Pd       5.50129076      11.00258152      10.00000000
Pd       8.25193614      11.00258152      10.00000000
Pd      11.00258152      11.00258152      10.00000000
Pd       1.40477614       1.37860016      12.03063540
Pd       4.16950097       1.36548367      12.07190795
Pd       6.88898471       1.33822128      11.98940458
Pd       9.57512057       1.39592898      11.89594876
Pd      12.38684272       1.37174114      11.92044161
Pd       1.36762517       4.11102212      12.00020932
Pd       4.03599933       4.11006947      11.99184342
Pd       6.92057195       4.10572382      11.93145428
Pd       9.56728621       4.13975942      11.94281254
Pd      12.36578195       4.13265160      11.93417299
Pd       1.37110082       6.89256210      11.94010419
Pd       4.13935064       6.87026939      11.96482277
Pd       6.87097415       6.85831372      11.95140951
Pd       9.64205429       6.82915781      11.94515418
Pd      12.39111484       6.85622887      11.94896407
Pd       1.38165994       9.65999735      11.99564617
Pd       4.11777592       9.66324146      11.95099537
Pd       6.89476706       9.64088005      11.95142944
Pd       9.64982872       9.59779534      11.89439304
Pd      12.42487279       9.60955999      11.94161946
Pd       1.41344596      12.38921701      12.02271778
Pd       4.16363357      12.38588468      12.07682956
Pd       6.86816975      12.39901143      11.97280504
Pd       9.63028672      12.36702810      11.91406436
Pd      12.39780409      12.35722272      11.96645175
Pd      13.71516951       0.03693867      14.00945376
Pd       2.77367903       0.01789402      14.08081511
Pd       4.21866461       4.16556497      16.01243798
Pd       8.44365001      13.30105054      14.91913662
Pd      10.93121806       0.08510916      13.82011115
Pd       2.81127139       2.73499616      14.09777740
Pd       6.13216865       2.53793574      14.35085511
Pd       5.89487315       5.80079492      14.47312629
Pd      10.89356209       2.74651652      13.91957228
Pd      13.62668418       2.75298766      14.00971851
Pd       0.13807806       5.56504771      13.93735227
Pd       2.88188709       5.59078292      14.08156319
Pd       5.21874724       8.39436931      13.90495979
Pd       8.52595235       5.53902035      13.95095570
Pd      11.23399869       5.46985239      13.99830951
Pd      13.60459541       8.23927176      14.01689533
Pd       2.55796716       8.22872259      13.99007160
Pd       5.50653724      13.64761733      14.14345179
Pd       8.24533536       8.22328115      13.93092769
Pd      10.90175510       8.16188725      13.96641807
Pd      13.64053947      11.00746571      13.99367445
Pd       2.94004276      10.96471983      14.10599796
Pd       4.55479179       2.58569600      18.18026992
Pd       5.75398906      10.98992994      13.97944743
Pd      10.83949542      10.88529841      13.85222248
Pd      12.90324292       6.65648668      16.31953283
Pd       9.19381913      10.76311057      16.97896288
Pd       1.52948679      12.90009838      16.46409906
Pd       2.33186683       6.45387950      17.05489881
Pd      12.14314830       9.45853070      15.94120264
Pd       6.81384095       1.94365680      16.97576387
Pd       4.74139716      13.63959838      17.58969329
Pd       6.39594016       9.31641555      19.03033679
Pd       4.53038111      11.10203361      16.44218988
Pd      11.75960162      12.42793118      15.91416075
Pd       1.32129836       4.30543919      15.92189539
Pd       4.66672093       7.04568157      18.43706726
Pd       7.99010490       3.98493555      15.98130442
Pd       1.12118480       9.23379463      16.26781276
Pd       7.29799779       8.58998304      16.68887905
Pd       6.91863628      12.12283314      16.84832888
Pd       9.52758549       6.26492291      16.49979505
Pd       6.81839262       5.28158664      17.82944862
Pd       1.87128834       1.75781107      16.76207532
Pd       3.82420276       8.56173311      16.29555472
O        6.33452138       3.42284509      18.31111477
O       11.26696094      10.76706632      17.15192312
O       13.45134037      13.41089472      15.98204312
O        9.10979865       3.55344360      14.41723712
O        7.01530475       0.95165341      15.18417992
O        4.83236565       8.49620024      19.66691986
O        5.51465916       4.15972661      13.45502475
O        3.21571553       1.20300734      18.03450867
O        9.80226488      11.89691546      15.41600659
O        1.37091935      11.00742561      15.46972498
O        3.23790875      12.33413429      17.25015647
O        3.91521145       5.43061515      17.56000936
O        6.60599813       7.58673925      15.10407756
O        8.15690680       9.62032279      18.20626339
O        7.93016146       6.85707881      17.44285560
O        0.29131355       2.58860116      15.97767197
O       11.28073492       5.61612210      15.98937142
O        0.71200394       7.53551920      17.11071505
O        6.73478827       0.05024561      17.82331464
O        6.43444845      10.39836057      15.91604758
