115
Lattice="13.75323 0.0 0.0 0.0 13.75323 0.0 0.0 0.0 23.89" Properties=species:S:1:pos:R:3 input=/mnt/d/download/trae-research-code/ssw/PdO.xyz system=pdo pbc_mode=slab fixed_bottom_fraction=0.35 pbc="T T F"
Pd       0.00000000       0.00000000      10.00000000
Pd       2.75064538       0.00000000      10.00000000
Pd       5.50129076       0.00000000      10.00000000
Pd       8.25193614       0.00000000      10.00000000
Pd      11.00258152       0.00000000      10.00000000
Pd       0.00000000       2.75064538      10.00000000
Pd       2.75064538       2.75064538      10.00000000
Pd       5.50129076       2.75064538      10.00000000
Pd       8.25193614       2.75064538      10.00000000
Pd      11.00258152       2.75064538      10.00000000
Pd       0.00000000       5.50129076      10.00000000
Pd       2.75064538       5.50129076      10.00000000
Pd       5.50129076       5.50129076      10.00000000
Pd       8.25193614       5.50129076      10.00000000
Pd      11.00258152       5.50129076      10.00000000
Pd       0.00000000       8.25193614      10.00000000
Pd       2.75064538       8.25193614      10.00000000
Pd       5.50129076       8.25193614      10.00000000
Pd       8.25193614       8.25193614      10.00000000
Pd      11.00258152       8.25193614      10.00000000
Pd       0.00000000      11.00258152      10.00000000
Pd       2.75064538      11.00258152      10.00000000
Pd       5.50129076      11.00258152      10.00000000
Pd       8.25193614      11.00258152      10.00000000
Pd      11.00258152      11.00258152      10.00000000
Pd       1.37011970       1.36070137      11.98884294
Pd       4.13754718       1.40102175      11.96435552
Pd       6.85892839       1.36607127      11.99207029
Pd       9.57512057       1.39592898      11.89594876
Pd      12.38684272       1.37174114      11.92044161
Pd       1.37860036       4.11784889      11.94013868
Pd       4.13256236       4.13717694      11.99520185
Pd       6.83909486       4.12413468      11.98158741
Pd       9.56728621       4.13975942      11.94281254
Pd      12.36578195       4.13265160      11.93417299
Pd       1.37110082       6.89256210      11.94010419
Pd       4.13935064       6.87026939      11.96482277
Pd       6.87097415       6.85831372      11.95140951
Pd       9.64205429       6.82915781      11.94515418
Pd      12.39111484       6.85622887      11.94896407
Pd       1.40586656       9.63999659      11.94174858
Pd       4.11777592       9.66324146      11.95099537
Pd       6.89476706       9.64088005      11.95142944
Pd       9.64982872       9.59779534      11.89439304
Pd      12.42487279       9.60955999      11.94161946
Pd       1.37416921      12.39448775      11.99020496
Pd       4.13246006      12.40155971      11.93742054
Pd       6.86816975      12.39901143      11.97280504
Pd       9.63028672      12.36702810      11.91406436
Pd      12.38653510      12.38965905      12.01099798
Pd      13.73995972      13.71144442      14.10494740
Pd       8.35304083      13.63331725      13.89183271
Pd       6.93455579       0.51895837      16.27208714
Pd      13.46869622      11.77807392      16.53115082
Pd      10.12067635       1.70972780      16.25021900
Pd      13.64461372       2.69301782      13.89121792
Pd       2.78038876       2.82937021      13.93231468
Pd       5.55345673       2.73487005      14.02826729
Pd       8.34054638       2.89354269      13.90341248
Pd      11.06105403       0.13277374      14.00147674
Pd      13.73641625       5.42378781      13.92898479
Pd       2.71325298       5.51146604      13.94396840
Pd       5.41025248       5.50549729      14.04804516
Pd       8.09937010       5.57441455      14.01107543
Pd      10.98543683       5.46251041      13.91134331
Pd      13.70689313       8.19070943      13.97204163
Pd       2.71102681       8.43759530      14.01040587
Pd       5.45651602       8.22156274      14.05402754
Pd       8.26298237       8.26860202      13.86738934
Pd      10.97955918       8.22634662      14.03896053
Pd       0.14962565      10.92065275      13.92641368
Pd       2.86026361      11.12982520      13.94373467
Pd       5.58088847      10.94182912      14.01266831
Pd       8.26541237      10.96997591      13.91940233
Pd      10.89589029      11.08613350      13.99565444
Pd      11.55784500       6.15459349      16.76187574
Pd      10.02206204      12.73667715      16.45109890
Pd      13.02617370       0.58547950      17.50547258
Pd       0.38231743       6.73034528      16.43172327
Pd      12.16232579       9.06314402      16.48052069
Pd       5.50375074      13.65281194      13.99317355
Pd       2.70790628       0.10499443      13.97462474
Pd       6.84090466       7.32608597      16.56637487
Pd       2.37774729      13.10623486      16.63167482
Pd       7.20027082      10.74468457      16.44611745
Pd      12.91954275       3.41426467      16.62451864
Pd       2.42054258       4.21532123      16.43842863
Pd       9.43493239       4.50177724      16.07098488
Pd       1.60000512       9.81814892      16.38083408
Pd       5.83919971       4.30433494      16.67098265
Pd       4.54705591       9.85399509      16.33646278
Pd       9.75358206       8.15278540      16.81572638
Pd       4.03907335       1.74634985      16.40729484
Pd       1.41180720       1.67059122      15.87860722
Pd       3.95043083       6.63081046      16.32701095
O        8.48659212       1.42917577      15.27915087
O       12.40746987      10.65073760      15.31748694
O        8.02392996      12.56378143      16.28308942
O       11.79057891      12.77359204      17.27467910
O        6.02907818       2.31811870      16.04323864
O        2.28977098       6.99522065      15.38983387
O        4.05504906      13.68004599      15.62565186
O        0.47949130       2.20264928      17.57897686
O        6.15807643       9.14463842      17.14942616
O        0.74956910      12.92434308      17.75196396
O       11.66229199       2.04566756      17.36005110
O        0.54845844       4.79869624      15.93675629
O        7.58171099       5.28496027      16.10740048
O        5.49468112       6.12746417      17.40318377
O        4.06578974       3.52823275      17.25905066
O       11.40941359       4.46744196      15.76134323
O       11.41915714       7.78379564      17.80860504
O        0.31834341       8.56402978      17.09547481
O        3.03046168      11.09242037      16.00561383
O        8.17013647       8.60746597      15.84376954
