115
Lattice="13.75323 0.0 0.0 0.0 13.75323 0.0 0.0 0.0 23.89" Properties=species:S:1:pos:R:3 input=/mnt/d/download/trae-research-code/ssw/PdO.xyz system=pdo pbc_mode=slab fixed_bottom_fraction=0.35 pbc="T T F"
Pd       0.00000000       0.00000000      10.00000000
Pd       2.75064538       0.00000000      10.00000000
Pd       5.50129076       0.00000000      10.00000000
Pd       8.25193614       0.00000000      10.00000000
Pd      11.00258152       0.00000000      10.00000000
Pd       0.00000000       2.75064538      10.00000000
Pd       2.75064538       2.75064538      10.00000000
Pd       5.50129076       2.75064538      10.00000000
Pd       8.25193614       2.75064538      10.00000000
Pd      11.00258152       2.75064538      10.00000000
Pd       0.00000000       5.50129076      10.00000000
Pd       2.75064538       5.50129076      10.00000000
Pd       5.50129076       5.50129076      10.00000000
Pd       8.25193614       5.50129076      10.00000000
Pd      11.00258152       5.50129076      10.00000000
Pd       0.00000000       8.25193614      10.00000000
Pd       2.75064538       8.25193614      10.00000000
Pd       5.50129076       8.25193614      10.00000000
Pd       8.25193614       8.25193614      10.00000000
Pd      11.00258152       8.25193614      10.00000000
Pd       0.00000000      11.00258152      10.00000000
Pd       2.75064538      11.00258152      10.00000000
Pd       5.50129076      11.00258152      10.00000000
Pd       8.25193614      11.00258152      10.00000000
Pd      11.00258152      11.00258152      10.00000000
Pd       1.43120763       1.41193534      12.00234083
Pd       4.12880897       1.38125879      11.97974112
Pd       6.88533168       1.36460370      11.91484181
Pd       9.57512057       1.39592898      11.89594876
Pd      12.38684272       1.37174114      11.92044161
Pd       1.38910142       4.14068577      11.97386581
Pd       4.13044189       4.12289229      12.03785218
Pd       6.80230280       4.12285584      12.14336637
Pd       9.56728621       4.13975942      11.94281254
Pd      12.36578195       4.13265160      11.93417299
Pd       1.37110082       6.89256210      11.94010419
Pd       4.13935064       6.87026939      11.96482277
Pd       6.87097415       6.85831372      11.95140951
Pd       9.64205429       6.82915781      11.94515418
Pd      12.39111484       6.85622887      11.94896407
Pd       1.39808767       9.64683515      11.97168421
Pd       4.11777592       9.66324146      11.95099537
Pd       6.89476706       9.64088005      11.95142944
Pd       9.64982872       9.59779534      11.89439304
Pd      12.42487279       9.60955999      11.94161946
Pd       1.42152087      12.40419045      11.95904003
Pd       4.18006065      12.42095425      12.01006222
Pd       6.86816975      12.39901143      11.97280504
Pd       9.63028672      12.36702810      11.91406436
Pd      12.40083369      12.35953300      11.93579706
Pd       2.81702633      13.73679163      14.00927512
Pd       6.13714907      13.19275046      15.52055554
Pd       9.75702018       1.24059926      15.93976036
Pd      11.00955420      13.67923720      13.87617091
Pd      13.74792149       0.06225405      13.87838810
Pd       0.00271055       2.80838487      13.94115671
Pd       2.80692016       2.77379060      14.10435982
Pd       8.22315651       2.82406609      14.26070363
Pd       9.98897201       4.14384347      15.99702377
Pd      10.96430521       2.68848552      13.87882188
Pd      13.72192159       5.54020685      13.98152453
Pd       2.67656651       5.62105634      13.97297044
Pd       8.44686559       5.73874798      14.20819435
Pd       8.21572656       8.36497323      13.88299856
Pd      11.03617340       5.41137101      13.88546702
Pd      13.71401814       8.31182633      13.90827264
Pd       2.76263228       8.29876649      14.02309006
Pd       5.52269122       8.14980224      13.82715514
Pd       8.23129230      11.05890856      13.99471772
Pd      10.92146489       8.13432832      13.99651244
Pd       0.05609447      11.09682059      13.95482800
Pd       2.80874376      11.02471712      13.95945165
Pd       5.51856870      10.99258297      14.02694105
Pd       8.20990652       0.09379574      13.98411797
Pd      11.04818873      10.87301503      13.89855725
Pd      12.28621107       9.58293220      16.04581189
Pd      12.61650373      12.87620013      16.15306820
Pd       1.13965816       1.31205613      15.92957718
Pd       0.87587309       7.04681995      16.05002800
Pd       1.63176744       9.93949727      16.13348949
Pd       9.20397308       2.70087099      18.29490119
Pd       6.86755720       1.89667328      16.84953506
Pd       6.87225429      10.87727659      16.78088398
Pd       4.03629791       1.27545589      16.16111772
Pd       9.88750863      12.19435891      15.77846272
Pd       1.11642448       4.33921498      16.25092786
Pd       5.64866652       1.86172926      14.09562902
Pd      12.21764806       3.96515113      18.60122950
Pd       3.80059311      11.86894471      16.35358307
Pd       5.07942853       8.53518239      16.39313990
Pd       8.20972301      13.29585621      17.62945301
Pd       8.93368391       8.33487647      16.36947155
Pd      11.98683137       6.23576791      16.26007492
Pd      12.39383450       2.55819839      16.28143539
Pd       5.05816704       4.77491862      15.18516153
O       10.31160988       4.27212608      17.98186631
O       13.60888556      11.11473526      16.02890563
O       11.65968441       0.76855193      16.61691358
O       11.40135571       3.15481700      20.26311191
O       10.25175225       2.51865069      20.12062305
O        3.05163431       8.49601469      16.06650997
O        5.33577243       2.78566312      15.92732705
O        0.38123012       3.79275107      19.18257093
O        8.71445823      11.45540688      17.20105726
O        2.73769197      13.55433933      16.14503376
O        1.36524414       3.75348072      18.31116160
O        3.02598382       4.37510097      15.57550865
O        5.39404978       6.84408795      15.36421780
O        4.94796057      10.42534038      17.02801509
O        6.87059278       4.51765541      14.28889729
O       12.93653203       4.51052747      16.74512121
O       10.95825068       8.01067535      16.09839680
O        0.20385438       8.66479339      16.99682690
O        7.86391294       1.27969152      18.44229048
O        7.09125839       8.81023774      16.91003953
