115
Lattice="13.75323 0.0 0.0 0.0 13.75323 0.0 0.0 0.0 23.89" Properties=species:S:1:pos:R:3 input=/mnt/d/download/trae-research-code/ssw/PdO.xyz system=pdo pbc_mode=slab fixed_bottom_fraction=0.35 pbc="T T F"
Pd       0.00000000       0.00000000      10.00000000
Pd       2.75064538       0.00000000      10.00000000
Pd       5.50129076       0.00000000      10.00000000
Pd       8.25193614       0.00000000      10.00000000
Pd      11.00258152       0.00000000      10.00000000
Pd       0.00000000       2.75064538      10.00000000
Pd       2.75064538       2.75064538      10.00000000
Pd       5.50129076       2.75064538      10.00000000
Pd       8.25193614       2.75064538      10.00000000
Pd      11.00258152       2.75064538      10.00000000
Pd       0.00000000       5.50129076      10.00000000
Pd       2.75064538       5.50129076      10.00000000
Pd       5.50129076       5.50129076      10.00000000
Pd       8.25193614       5.50129076      10.00000000
Pd      11.00258152       5.50129076      10.00000000
Pd       0.00000000       8.25193614      10.00000000
Pd       2.75064538       8.25193614      10.00000000
Pd       5.50129076       8.25193614      10.00000000
Pd       8.25193614       8.25193614      10.00000000
Pd      11.00258152       8.25193614      10.00000000
Pd       0.00000000      11.00258152      10.00000000
Pd       2.75064538      11.00258152      10.00000000
Pd       5.50129076      11.00258152      10.00000000
Pd       8.25193614      11.00258152      10.00000000
Pd      11.00258152      11.00258152      10.00000000
Pd       1.41284798       1.37987444      11.96466539
Pd       4.14996523       1.38830559      11.94845893
Pd       6.87382043       1.34498083      11.97979147
Pd       9.57512057       1.39592898      11.89594876
Pd      12.38684272       1.37174114      11.92044161
Pd       1.33752861       4.13072242      11.94444662
Pd       4.10898427       4.11377531      11.97772586
Pd       6.83742754       4.09605968      12.00918726
Pd       9.56728621       4.13975942      11.94281254
Pd      12.36578195       4.13265160      11.93417299
Pd       1.37110082       6.89256210      11.94010419
Pd       4.13935064       6.87026939      11.96482277
Pd       6.87097415       6.85831372      11.95140951
Pd       9.64205429       6.82915781      11.94515418
Pd      12.39111484       6.85622887      11.94896407
Pd       1.38828340       9.67195137      12.00085678
Pd       4.11777592       9.66324146      11.95099537
Pd       6.89476706       9.64088005      11.95142944
Pd       9.64982872       9.59779534      11.89439304
Pd      12.42487279       9.60955999      11.94161946
Pd       1.42790686      12.39586031      11.98391218
Pd       4.16411328      12.41677294      11.95993806
Pd       6.86816975      12.39901143      11.97280504
Pd       9.63028672      12.36702810      11.91406436
Pd      12.39646963      12.37731901      11.96709017
Pd       0.09655994       0.03494852      13.89895432
Pd       8.25754463      13.66561555      13.98595399
Pd       7.88545489       0.09963129      17.36278979
Pd       9.93532329      12.46159444      15.76322292
Pd      10.01107656       1.71390881      16.13964183
Pd      13.64207222       2.72770952      13.92808444
Pd       2.65026177       2.83057588      13.96223940
Pd       5.54037067       2.63379869      13.95531671
Pd       8.35056190       2.79026058      14.01442362
Pd      11.05652251       0.18041045      13.88119159
Pd      13.70392603       5.50143628      13.98746879
Pd       2.65023866       5.49932483      13.91174533
Pd       5.33878941       5.49729068      14.02531460
Pd       8.04238601       5.50804983      14.01033955
Pd      10.92751464       5.39393962      13.97077882
Pd      13.69066337       8.34553087      13.97297478
Pd       2.72010987       8.23292385      13.92462714
Pd       5.43356024       8.24589026      13.99792151
Pd       8.23078646       8.20213813      13.89900165
Pd      10.96919851       8.20458580      14.02823293
Pd       0.00883100      11.08083509      14.01105132
Pd       2.85917106      10.99251411      13.97541929
Pd       5.58782088      10.97691949      13.85479403
Pd       8.37802851      10.92591711      13.90352180
Pd      11.06499208      10.92731851      13.91878046
Pd      11.36745298       6.88427201      16.52264235
Pd       9.14761531      11.55221799      18.11834396
Pd      12.55048074       0.16512725      16.29390334
Pd       0.21159754       7.12985157      16.34988566
Pd      12.28344817      10.33408367      16.65550137
Pd       6.94673677      12.04866218      15.79335210
Pd       2.95076362       0.08192830      14.02277020
Pd       6.48716727       7.65993240      16.61480366
Pd       1.51215330      12.23761931      16.03617410
Pd       6.54396739      10.83436628      18.11255319
Pd      12.88422156       3.63279305      16.47103604
Pd       2.22163141       4.39824338      16.53122578
Pd       9.27865371       5.02876528      16.24815984
Pd       2.07524624       9.60769152      16.21798138
Pd       5.60968135       4.65059331      16.69769046
Pd       4.52754313      10.62551516      16.33673433
Pd       9.58160036       9.03025628      16.45371780
Pd       4.08718129       2.05348778      16.21265546
Pd       1.37207800       1.32796768      15.92094623
Pd       3.68167104       6.75130105      15.96994524
O        8.17090978       1.28638356      15.50062684
O       10.94158326      11.62726488      17.34332303
O        7.48401863      12.42426607      18.76310047
O        9.09061575       1.54726117      17.87181766
O        6.00402533       2.89156124      15.95062167
O        2.18642231       7.69178163      16.90112257
O        4.64954633       0.80794918      14.83312688
O        0.86723801       2.84274114      17.09532144
O        5.56778850       9.30773521      17.38512864
O       13.30274935      12.04382911      16.11705928
O       11.84724675       1.95367855      16.78220490
O        0.40341115       5.17901631      16.07571410
O        7.36661602       5.67975267      16.12941135
O        5.12751875       6.44570617      17.37326740
O        3.88029433       3.68435384      17.32454965
O       11.26895893       4.92453097      16.01357591
O       11.30543842       8.70702023      17.29404723
O        0.03348040       9.09918713      16.08326289
O        3.44619381      12.16651345      15.70104277
O        7.79486282       8.85247191      15.74712461
