115
Lattice="13.75323 0.0 0.0 0.0 13.75323 0.0 0.0 0.0 23.89" Properties=species:S:1:pos:R:3 input=/mnt/d/download/trae-research-code/ssw/PdO.xyz system=pdo pbc_mode=slab fixed_bottom_fraction=0.35 pbc="T T F"
Pd       0.00000000       0.00000000      10.00000000
Pd       2.75064538       0.00000000      10.00000000
Pd       5.50129076       0.00000000      10.00000000
Pd       8.25193614       0.00000000      10.00000000
Pd      11.00258152       0.00000000      10.00000000
Pd       0.00000000       2.75064538      10.00000000
Pd       2.75064538       2.75064538      10.00000000
Pd       5.50129076       2.75064538      10.00000000
Pd       8.25193614       2.75064538      10.00000000
Pd      11.00258152       2.75064538      10.00000000
Pd       0.00000000       5.50129076      10.00000000
Pd       2.75064538       5.50129076      10.00000000
Pd       5.50129076       5.50129076      10.00000000
Pd       8.25193614       5.50129076      10.00000000
Pd      11.00258152       5.50129076      10.00000000
Pd       0.00000000       8.25193614      10.00000000
Pd       2.75064538       8.25193614      10.00000000
Pd       5.50129076       8.25193614      10.00000000
Pd       8.25193614       8.25193614      10.00000000
Pd      11.00258152       8.25193614      10.00000000
Pd       0.00000000      11.00258152      10.00000000
Pd       2.75064538      11.00258152      10.00000000
Pd       5.50129076      11.00258152      10.00000000
Pd       8.25193614      11.00258152      10.00000000
Pd      11.00258152      11.00258152      10.00000000
Pd       1.36493936       1.37304880      11.98501161
Pd       4.10179541       1.35587537      11.93881126
Pd       6.83943451       1.36469139      11.96532942
Pd       9.57512057       1.39592898      11.89594876
Pd      12.38684272       1.37174114      11.92044161
Pd       1.37399565       4.12071199      11.98325997
Pd       4.10346378       4.11882349      11.97485869
Pd       6.83448391       4.09584047      11.99784500
Pd       9.56728621       4.13975942      11.94281254
Pd      12.36578195       4.13265160      11.93417299
Pd       1.37110082       6.89256210      11.94010419
Pd       4.13935064       6.87026939      11.96482277
Pd       6.87097415       6.85831372      11.95140951
Pd       9.64205429       6.82915781      11.94515418
Pd      12.39111484       6.85622887      11.94896407
Pd       1.41201902       9.64608018      11.99925612
Pd       4.11777592       9.66324146      11.95099537
Pd       6.89476706       9.64088005      11.95142944
Pd       9.64982872       9.59779534      11.89439304
Pd      12.42487279       9.60955999      11.94161946
Pd       1.41715759      12.40041890      12.01870000
Pd       4.14012331      12.38007881      12.01148167
Pd       6.86816975      12.39901143      11.97280504
Pd       9.63028672      12.36702810      11.91406436
Pd      12.40135928      12.36736112      11.98887220
Pd      13.70241069       0.04268626      14.03477983
Pd       8.20370482      13.74662708      13.97631216
Pd       9.48380731       1.34181322      15.90998994
Pd      10.94532403      13.69078436      13.97801274
Pd      12.31396646       1.31394973      15.99459850
Pd      13.69518993       2.76905210      13.95893400
Pd       2.70100296       2.80096816      14.03795924
Pd       5.47510290       2.71320722      14.02567429
Pd       8.19167073       2.71245691      13.99237975
Pd      10.94818656       2.70535160      13.95051647
Pd      13.74050410       5.49691761      13.94614340
Pd       2.69901303       5.48088991      14.00644526
Pd       5.39290596       5.50745894      13.95167111
Pd       8.30551864       5.48322754      13.96706630
Pd      11.00470092       5.56110558      13.99004400
Pd      13.66813430       8.26883372      13.93594098
Pd       2.87960618       8.26053724      14.05633252
Pd       5.57797911       8.23895671      13.89673394
Pd       8.27392325       8.27626798      13.99573929
Pd      10.95031127       8.22644667      13.92148593
Pd       0.02712346      11.05832980      13.98254372
Pd       2.99350107      10.99045900      14.09399332
Pd       5.65015223      10.97264367      14.05185452
Pd       8.29150125      11.04822969      13.87074718
Pd      11.02434986      10.96303096      13.88243435
Pd      12.30634852       6.90990147      15.96338764
Pd      12.23823034      12.24640313      15.98610027
Pd       1.23573545      12.79576320      16.64901011
Pd       1.20388441       6.43846744      16.24692309
Pd       0.41204844       9.76492354      16.49936369
Pd       6.81682619       1.75576534      16.40426714
Pd       5.42494103      13.67283764      14.06137851
Pd       8.12101667       9.89137689      16.28675247
Pd       2.64621867      13.75014541      14.13301914
Pd       9.95669143      12.87515447      17.34681557
Pd      12.85222781       4.21321873      16.23781722
Pd       2.64450459       3.95775567      16.67903107
Pd       9.14704180       3.96123246      16.34406600
Pd       4.62262478       9.48970082      16.03362645
Pd       6.76038466       7.37101346      16.25370087
Pd       7.35761642      12.59135198      16.50358364
Pd      11.33048270       9.47689252      16.32632258
Pd       5.62343670       4.31810536      16.41730043
Pd       1.21250542       1.71163764      16.02919813
Pd       3.97464358       6.60324955      16.12424289
O        7.42076237       3.46870859      17.12672681
O       13.51794493      11.46186442      17.35430570
O       10.87674531       0.83962265      17.32579416
O        9.25265385       5.95342908      17.09491884
O        8.21332000       6.53700286      17.61444759
O        3.73425913       8.19629221      17.18569377
O        4.00297790       1.39169685      14.80268266
O        1.22906417       1.45940072      18.02265475
O        8.57983597      11.49447039      17.56281773
O        1.54518287      11.13628798      15.50493663
O        1.21148368       0.16488893      18.29551266
O        0.84677879       4.68552014      17.03100659
O        6.85637061       5.58570185      15.45124745
O        6.44084095       9.16466518      16.98744362
O        4.30188678       3.19986818      17.18477408
O       10.97652822       4.15377641      15.52840570
O       12.76671521       8.46888910      17.20040088
O        1.30742649       8.25567816      15.47572659
O        5.94365054       0.04925926      16.01898452
O        9.87194727      10.53426576      15.58069042
