115
Lattice="13.75323 0.0 0.0 0.0 13.75323 0.0 0.0 0.0 23.89" Properties=species:S:1:pos:R:3 input=/mnt/d/download/trae-research-code/ssw/PdO.xyz system=pdo pbc_mode=slab fixed_bottom_fraction=0.35 pbc="T T F"
Pd       0.00000000       0.00000000      10.00000000
Pd       2.75064538       0.00000000      10.00000000
Pd       5.50129076       0.00000000      10.00000000
Pd       8.25193614       0.00000000      10.00000000
Pd      11.00258152       0.00000000      10.00000000
Pd       0.00000000       2.75064538      10.00000000
Pd       2.75064538       2.75064538      10.00000000
Pd       5.50129076       2.75064538      10.00000000
Pd       8.25193614       2.75064538      10.00000000
Pd      11.00258152       2.75064538      10.00000000
Pd       0.00000000       5.50129076      10.00000000
Pd       2.75064538       5.50129076      10.00000000
Pd       5.50129076       5.50129076      10.00000000
Pd       8.25193614       5.50129076      10.00000000
Pd      11.00258152       5.50129076      10.00000000
Pd       0.00000000       8.25193614      10.00000000
Pd       2.75064538       8.25193614      10.00000000
Pd       5.50129076       8.25193614      10.00000000
Pd       8.25193614       8.25193614      10.00000000
Pd      11.00258152       8.25193614      10.00000000
Pd       0.00000000      11.00258152      10.00000000
Pd       2.75064538      11.00258152      10.00000000
Pd       5.50129076      11.00258152      10.00000000
Pd       8.25193614      11.00258152      10.00000000
Pd      11.00258152      11.00258152      10.00000000
Pd       1.32259057       1.37899940      12.06904556
Pd       4.06413464       1.41404037      12.01450929
Pd       6.80321546       1.39047576      11.95152676
Pd       9.57512057       1.39592898      11.89594876
Pd      12.38684272       1.37174114      11.92044161
Pd       1.35557773       4.10806697      12.01373522
Pd       4.09677496       4.13267418      12.00158098
Pd       6.84455230       4.13581257      11.97875357
Pd       9.56728621       4.13975942      11.94281254
Pd      12.36578195       4.13265160      11.93417299
Pd       1.37110082       6.89256210      11.94010419
Pd       4.13935064       6.87026939      11.96482277
Pd       6.87097415       6.85831372      11.95140951
Pd       9.64205429       6.82915781      11.94515418
Pd      12.39111484       6.85622887      11.94896407
Pd       1.40164317       9.64221824      11.95332767
Pd       4.11777592       9.66324146      11.95099537
Pd       6.89476706       9.64088005      11.95142944
Pd       9.64982872       9.59779534      11.89439304
Pd      12.42487279       9.60955999      11.94161946
Pd       1.36332850      12.42387802      11.98387864
Pd       4.09267826      12.38968299      11.97208818
Pd       6.86816975      12.39901143      11.97280504
Pd       9.63028672      12.36702810      11.91406436
Pd      12.36845585      12.38799310      11.97740086
Pd       2.71516135       0.03982328      14.03527295
Pd       8.22665226       0.02443997      13.88618159
Pd       6.80373585       1.21624189      15.92631922
Pd      11.08627518       0.03188780      13.94122428
Pd       0.04362200      13.60593441      14.32566804
Pd      13.63387417       2.63674712      14.04894081
Pd       2.64033241       2.79347409      14.14461456
Pd       5.46137308       2.72610917      14.02243154
Pd       8.22140605       2.71730666      13.91773328
Pd      10.91974979       2.71467115      13.86136676
Pd       0.03035275       5.51789344      14.01310816
Pd       2.72654423       5.51771921      13.99968760
Pd       5.56580516       5.57096076      14.01784987
Pd       8.32218247       5.49256379      14.02822018
Pd      11.04462983       5.44575900      13.97880846
Pd       0.08848283       8.29950280      14.00992700
Pd       2.80139721       8.27889138      13.91604152
Pd       5.59065754       8.35535922      13.94568763
Pd       8.36679844       8.24548410      13.92103048
Pd      11.07510693       8.19209478      14.01649038
Pd      13.70085840      10.98985949      13.85442231
Pd       2.70122671      11.07871895      14.01387905
Pd       5.45410926      11.05356254      14.03308135
Pd       8.15762134      11.04098748      13.83983341
Pd      10.98983635      10.90418845      13.93358428
Pd      12.63856557       7.03231760      16.13466101
Pd      10.99530113       9.35872077      17.22118208
Pd       5.30529404      12.48801640      16.35854368
Pd       1.61985337       6.89008805      16.56011090
Pd       0.48786644      10.56559411      16.40632366
Pd       9.57658503       1.30982837      15.96865913
Pd       8.22995073      13.28403365      17.72032836
Pd       7.97975689       9.74871759      16.14248324
Pd       5.42979608      13.71666759      13.93771955
Pd      11.98053639      12.66861345      16.84356212
Pd       0.96572675       4.12613610      16.26341278
Pd       3.95628001       4.32385492      16.30633556
Pd      11.28703928       3.34489691      16.43190322
Pd       4.15154534       9.79273104      16.12868370
Pd       6.93576760       7.18102240      16.07268533
Pd       9.59444881      12.43018438      15.68034537
Pd       9.93980254       6.92018150      16.53127671
Pd       7.65764299       3.66690663      16.36158337
Pd       4.08292491       1.33248137      15.92559754
Pd       4.23648587       6.92018848      15.84720175
O        9.42431324       3.06887209      17.00647392
O       12.45022312      10.65186040      17.25936891
O        0.08039786      12.61134108      16.15340526
O       10.37961874       4.34246511      19.99908001
O        9.97771994       5.51182198      20.11868201
O        3.24494647       8.11475674      17.07209066
O        6.36525283       0.10836224      17.53332773
O        7.32189277      11.18406475      17.83951557
O        9.88520745      10.40728107      15.77575509
O        2.43827203      10.78763120      15.97146925
O        5.99520804      11.25949311      17.86059016
O        2.36860959       5.11921516      17.16724251
O        8.19661412       5.66069472      16.14243408
O        6.08436007       8.99029493      16.16398455
O        5.80577117       4.07848144      15.58885343
O       13.15948709       3.01511593      15.96951271
O       11.27951630       5.52275012      16.04483229
O        0.38430907       8.43106605      16.11476514
O       10.15022403      12.72858849      17.65462098
O        9.21967812       8.50445135      17.41996238
