115
Lattice="13.75323 0.0 0.0 0.0 13.75323 0.0 0.0 0.0 23.89" Properties=species:S:1:pos:R:3 input=/mnt/d/download/trae-research-code/ssw/PdO.xyz system=pdo pbc_mode=slab fixed_bottom_fraction=0.35 pbc="T T F"
Pd       0.00000000       0.00000000      10.00000000
Pd       2.75064538       0.00000000      10.00000000
Pd       5.50129076       0.00000000      10.00000000
Pd       8.25193614       0.00000000      10.00000000
Pd      11.00258152       0.00000000      10.00000000
Pd       0.00000000       2.75064538      10.00000000
Pd       2.75064538       2.75064538      10.00000000
Pd       5.50129076       2.75064538      10.00000000
Pd       8.25193614       2.75064538      10.00000000
Pd      11.00258152       2.75064538      10.00000000
Pd       0.00000000       5.50129076      10.00000000
Pd       2.75064538       5.50129076      10.00000000
Pd       5.50129076       5.50129076      10.00000000
Pd       8.25193614       5.50129076      10.00000000
Pd      11.00258152       5.50129076      10.00000000
Pd       0.00000000       8.25193614      10.00000000
Pd       2.75064538       8.25193614      10.00000000
Pd       5.50129076       8.25193614      10.00000000
Pd       8.25193614       8.25193614      10.00000000
Pd      11.00258152       8.25193614      10.00000000
Pd       0.00000000      11.00258152      10.00000000
Pd       2.75064538      11.00258152      10.00000000
Pd       5.50129076      11.00258152      10.00000000
Pd       8.25193614      11.00258152      10.00000000
Pd      11.00258152      11.00258152      10.00000000
Pd       1.37370490       1.34063984      12.00271007
Pd       4.10706124       1.36363594      11.98773649
Pd       6.82940804       1.38463726      11.96091725
Pd       9.57512057       1.39592898      11.89594876
Pd      12.38684272       1.37174114      11.92044161
Pd       1.36087310       4.14532374      11.94317585
Pd       4.10553747       4.14488949      11.95888046
Pd       6.83746564       4.14473261      11.97151509
Pd       9.56728621       4.13975942      11.94281254
Pd      12.36578195       4.13265160      11.93417299
Pd       1.37110082       6.89256210      11.94010419
Pd       4.13935064       6.87026939      11.96482277
Pd       6.87097415       6.85831372      11.95140951
Pd       9.64205429       6.82915781      11.94515418
Pd      12.39111484       6.85622887      11.94896407
Pd       1.39573348       9.64277527      11.96726074
Pd       4.11777592       9.66324146      11.95099537
Pd       6.89476706       9.64088005      11.95142944
Pd       9.64982872       9.59779534      11.89439304
Pd      12.42487279       9.60955999      11.94161946
Pd       1.39689677      12.38657195      12.00735275
Pd       4.12612304      12.39904113      12.01967720
Pd       6.86816975      12.39901143      11.97280504
Pd       9.63028672      12.36702810      11.91406436
Pd      12.39231013      12.34922641      11.97538159
Pd      13.72578575      13.74178459      14.00146359
Pd       8.30796210       0.08514702      13.87084125
Pd       7.30832464       1.26933275      16.19593949
Pd      11.00816245      13.74230573      13.92030004
Pd       9.42955501       3.79521055      16.50225249
Pd      13.70090378       2.75292524      13.89844484
Pd       2.69557906       2.83570341      13.91396813
Pd       5.36356820       2.77107200      13.94875837
Pd       8.29363395       2.81156955      13.94977908
Pd      10.98230472       2.67880509      14.00783769
Pd      13.74811476       5.49789630      13.99180742
Pd       2.74914518       5.58116107      13.99032087
Pd       5.45368430       5.51803536      14.05110381
Pd       8.20334204       5.50336271      14.03240868
Pd      10.98765519       5.48322228      13.92814977
Pd       0.07030210       8.21518988      14.00842097
Pd       2.77394593       8.30679189      13.96009041
Pd       5.54816513       8.21269736      13.96604697
Pd       8.32976168       8.16439663      13.86353335
Pd      11.08022292       8.24037392      13.98857782
Pd      13.72738233      10.94478923      13.96205249
Pd       2.71586538      11.01544619      14.08267358
Pd       5.42133162      10.95425314      13.93099140
Pd       8.18340555      11.15683742      13.92468140
Pd      10.97394672      11.00165697      14.02013369
Pd      12.55676474       8.17776977      16.33845860
Pd       9.49916579      12.51093824      15.86014693
Pd      11.98262466       0.82248995      16.55572987
Pd       1.23207334       6.73841263      16.34741306
Pd      12.40926878      11.51470928      16.60305045
Pd       5.67141572      13.71824151      14.13722303
Pd       2.72156429       0.00792072      14.11516038
Pd       6.93739795       8.81856451      16.50494374
Pd       1.43176848      12.83725988      16.65415757
Pd       6.70215086      11.96818440      16.27913514
Pd      12.49639203       3.82028263      16.30272648
Pd       2.26206238       4.23292733      16.33875010
Pd       9.98116607       6.88400648      16.46373219
Pd       1.67849932       9.41584973      16.36852056
Pd       6.57621817       6.20702943      16.50316417
Pd       3.95283254      11.23966344      16.66678953
Pd      10.02708717       9.68360250      16.27963216
Pd       4.11356845       1.88155175      16.21586617
Pd       1.44128199       1.66922389      15.94987472
Pd       4.05851923       6.99658176      15.95940403
O        6.77926117       2.92554249      15.29852730
O       10.97839998      12.86293113      17.12636411
O        7.92726141      13.31911583      16.95166957
O        8.29174250       2.52125875      17.34755564
O        8.30787350       5.39499300      16.13920978
O        2.62569430       7.90539058      17.09266682
O        4.20808642       0.07158029      15.51407238
O       13.49781357       2.19014729      16.85333174
O        5.56662298      10.33924962      15.90337823
O       13.31291459      13.21495491      16.02709460
O       10.96246518       2.55483077      16.35358905
O        0.37826181       4.96092474      16.00644655
O        8.83484836       8.24959890      17.28590118
O        5.49741467       7.64004211      17.26859865
O        3.96251925       3.62914261      16.92889263
O       10.94960940       5.18194392      15.95613461
O       11.72260758       9.75962110      17.25650231
O        0.49465317      10.89065711      15.96795924
O        2.89867201      12.36477011      17.72993689
O        8.30836843       9.64523024      15.28919314
