115
Lattice="13.75323 0.0 0.0 0.0 13.75323 0.0 0.0 0.0 23.89" Properties=species:S:1:pos:R:3 input=/mnt/d/download/trae-research-code/ssw/PdO.xyz system=pdo pbc_mode=slab fixed_bottom_fraction=0.35 pbc="T T F"
Pd       0.00000000       0.00000000      10.00000000
Pd       2.75064538       0.00000000      10.00000000
Pd       5.50129076       0.00000000      10.00000000
Pd       8.25193614       0.00000000      10.00000000
Pd      11.00258152       0.00000000      10.00000000
Pd       0.00000000       2.75064538      10.00000000
Pd       2.75064538       2.75064538      10.00000000
Pd       5.50129076       2.75064538      10.00000000
Pd       8.25193614       2.75064538      10.00000000
Pd      11.00258152       2.75064538      10.00000000
Pd       0.00000000       5.50129076      10.00000000
Pd       2.75064538       5.50129076      10.00000000
Pd       5.50129076       5.50129076      10.00000000
Pd       8.25193614       5.50129076      10.00000000
Pd      11.00258152       5.50129076      10.00000000
Pd       0.00000000       8.25193614      10.00000000
Pd       2.75064538       8.25193614      10.00000000
Pd       5.50129076       8.25193614      10.00000000
Pd       8.25193614       8.25193614      10.00000000
Pd      11.00258152       8.25193614      10.00000000
Pd       0.00000000      11.00258152      10.00000000
Pd       2.75064538      11.00258152      10.00000000
Pd       5.50129076      11.00258152      10.00000000
Pd       8.25193614      11.00258152      10.00000000
Pd      11.00258152      11.00258152      10.00000000
Pd       1.34646568       1.36593497      12.01389841
Pd       4.08281531       1.40748702      12.02965014
Pd       6.82000421       1.38243046      11.97095407
Pd       9.57512057       1.39592898      11.89594876
Pd      12.38684272       1.37174114      11.92044161
Pd       1.37636592       4.10115264      11.97268447
Pd       4.08581164       4.12804806      12.02998837
Pd       6.84291823       4.12497608      11.97811437
Pd       9.56728621       4.13975942      11.94281254
Pd      12.36578195       4.13265160      11.93417299
Pd       1.37110082       6.89256210      11.94010419
Pd       4.13935064       6.87026939      11.96482277
Pd       6.87097415       6.85831372      11.95140951
Pd       9.64205429       6.82915781      11.94515418
Pd      12.39111484       6.85622887      11.94896407
Pd       1.36999249       9.63609406      11.92756452
Pd       4.11777592       9.66324146      11.95099537
Pd       6.89476706       9.64088005      11.95142944
Pd       9.64982872       9.59779534      11.89439304
Pd      12.42487279       9.60955999      11.94161946
Pd       1.35981689      12.39064977      11.98240246
Pd       4.08927062      12.43274569      11.99171269
Pd       6.86816975      12.39901143      11.97280504
Pd       9.63028672      12.36702810      11.91406436
Pd      12.37826999      12.37449925      12.02020782
Pd       0.14468785      12.69045583      14.35409101
Pd       2.69267463      13.73668268      14.06800078
Pd       5.51004381      13.73440703      14.10177799
Pd       8.22609400      13.64362884      13.77138341
Pd      10.94127395       0.26360225      14.03333535
Pd      13.68642015       1.63713577      14.31063595
Pd       2.53910910       2.85446373      14.16930394
Pd       5.58533542       2.68584751      13.98283934
Pd       8.38750955       2.71670912      13.97789500
Pd      11.22248917       2.92211936      14.09995046
Pd       0.02886382       4.43217778      14.24974186
Pd       2.60417429       5.58674192      14.02977129
Pd       5.44321957       5.65789516      13.98909446
Pd       8.22746280       5.52121933      13.97491736
Pd      11.06905848       5.57154795      13.91348065
Pd      13.74512025       7.18602814      14.23582417
Pd       2.65037393       8.28935685      13.92884782
Pd       5.54803546       8.34052521      13.95806204
Pd       8.30906668       8.25493475      13.98947791
Pd      11.06802087       8.28010354      13.84916998
Pd       0.03773598       9.93931038      14.23358717
Pd       2.61285544      11.01216443      13.98368045
Pd       5.39117865      11.06216244      13.92418276
Pd       8.20759809      10.95826465      13.98876506
Pd      11.05996731      10.95484450      14.03160231
Pd      12.26840128       5.29266647      16.33490699
Pd       9.08919237       9.58405804      16.52078098
Pd       0.39466321      11.11735374      17.58394392
Pd       1.29312318       6.16640723      16.46430252
Pd      12.11479909       8.75161974      16.30418120
Pd       8.36246722       2.44657988      17.85134668
Pd       4.81977414       1.61126912      16.35339145
Pd       5.93200588       9.98855396      16.28056016
Pd       4.04607316      12.17788075      15.96040266
Pd      11.63118550      12.10616747      17.06388646
Pd       0.97300332       3.34410272      16.66953745
Pd       3.84986203       4.38862496      16.26343657
Pd      11.65383733       1.83538821      17.21030372
Pd       2.48184382       9.47514741      16.39476882
Pd       7.34240152       7.02211100      16.37940465
Pd       7.56476393       0.93748898      15.99644986
Pd      10.01610818       7.03784253      15.98397691
Pd       9.40451162       4.30347036      16.15934973
Pd       0.41291217       0.12019727      17.69337071
Pd       4.11292011       7.13741571      15.93367061
O       10.13435609       2.17254346      18.36153412
O       10.93738069      10.38968059      16.19245303
O        0.58105434      12.41168690      18.92987859
O       12.17784139       0.05256602      17.93185603
O       11.97783275      12.56937433      15.06253924
O        4.32064788       8.95423756      16.82091105
O        3.09790884       1.39508249      15.45534221
O        2.43071973       0.23262676      17.59160299
O        9.29054908       0.10275637      15.42861233
O        0.51255217       9.75800674      16.22152780
O        3.09419732      12.83096859      17.61825286
O        2.25352029       4.67823142      17.33078147
O        7.68049205       5.16592344      15.94112977
O        7.39210748       8.78621607      17.19068985
O        5.49314214       4.16287171      15.30971193
O       13.59752372       1.71615098      16.39272295
O       11.24948010       3.54590800      16.19650929
O       13.20472169       7.06633229      16.29599319
O        6.51485848       1.94377784      17.33192970
O        7.64434285      10.97424182      15.92082303
