60
Properties=species:S:1:pos:R:3 entry_id=9 rank=18 energy=-494.2086486816406 pbc="F F F"
C        2.58440072      -3.07277983       0.48431216
C        2.31726241       0.18575178      -2.40026006
C        1.85713235       1.18166681       1.19860067
C        3.56370289      -2.06811358       0.30634548
C       -3.87918558       1.12136596       1.37998937
C        3.61782157       1.12682696      -0.58845037
C       -1.28252300      -3.44039370       2.01418477
C        4.84415954      -1.54874571      -0.46913742
C       -3.25662746       1.56770995      -3.73936209
C        0.49961427      -2.39721509       0.97635570
C       -1.73473469       1.48797276       2.22025955
C        0.95620614       3.50327245      -0.17768407
C        1.41098451      -2.56670897      -0.16731572
C       -1.30934310       3.78582492      -0.54055100
C       -0.08149740       2.95675473      -2.31457634
C        0.79928085      -1.03378839       1.65767832
C        1.04280145       2.13941300      -2.59963513
C       -2.78021627      -1.28480945       0.79951380
C       -3.78343810      -0.56852370       0.05852485
C        3.09565604       1.26174968      -1.90016315
C       -3.92918816       1.26472937      -1.54527632
C       -1.35148117      -1.43240952      -1.19512589
C       -1.09503128      -2.53773952       3.07764730
C       -4.70992055       0.21923402       0.77369489
C       -1.33197397      -1.17792664       2.84712680
C       -0.22187830      -0.40397265       2.39669882
C       -2.21046855      -0.46853542      -1.82872449
C        1.03072751      -3.32598719       2.06924991
C       -1.75050507      -1.96935871       0.06746851
C        2.70729253       1.85220157       0.25528340
C       -0.08140029      -0.12999950      -2.61591995
C        2.43086372      -1.12444233      -1.85823253
C       -2.52244195      -0.78617174       2.12361924
C       -2.21386516       3.03482317      -1.36488966
C        1.97351091      -0.26587923       1.31965281
C       -0.02490097      -1.26976806      -1.74342415
C       -0.08042632      -3.53101859       2.93474414
C       -2.83162006       0.59585029       2.23215088
C       -0.38966296       1.02552860       2.23688795
C        0.63250029       1.81119592       1.60653630
C        2.28485477      -3.70275622       1.72809109
C       -0.90116748      -2.79190058       0.80035769
C        2.13644429       2.87582721      -0.57123510
C        3.98601612      -0.16095066      -0.16968454
C        3.60397135      -1.32691066      -1.12270674
C       -4.20039509       1.49305759      -2.90615785
C       -1.45392635       0.27315238      -2.78000526
C        1.03693381       0.71107794      -2.77664672
C        0.26310079       3.04721302       0.98562161
C       -3.29667102       2.30532026      -0.75815042
C       -0.02430913       3.79219622      -1.16478916
C        2.27150175       2.44534091      -1.92379032
C       -1.46289491       2.60555495      -2.51850532
C       -3.27652861       2.21571237       0.67079277
C        1.27128209      -1.76945032      -1.31932223
C        3.18220835      -0.78063694       0.82827446
C       -1.90577811       1.51050566      -3.32589909
C       -1.11938129       3.37683305       0.80151061
C       -3.41169583      -0.05485255      -1.21361623
C       -2.09821320       2.57921376       1.38306462
