60
Properties=species:S:1:pos:R:3 entry_id=11 rank=17 energy=-494.5177001953125 pbc="F F F"
C        2.54113629      -3.11443068       0.64251456
C        2.30665436       0.08245595      -2.16421774
C        1.78964637       1.38587428       1.23418046
C        3.33968146      -1.99088703       0.37914393
C       -4.59572998       2.02808333       0.99715497
C        3.58051653       1.26709249      -0.42647461
C       -0.54763004      -4.79979431       2.18408620
C        4.71001369      -0.76741660      -0.87305646
C       -3.22230457       1.34862503      -3.80225016
C        0.46354915      -2.05902927       1.23725157
C       -1.93062217       1.67877386       2.03695764
C        0.88955228       3.60501214      -0.33239949
C        1.29829046      -2.54126618       0.16053954
C       -1.34217025       3.87927526      -0.80787826
C       -0.06571908       2.89839294      -2.45872718
C        0.80525332      -0.79936714       1.80831853
C        1.04781685       2.03208542      -2.60695654
C       -2.80668422      -1.09575982       1.01639248
C       -3.62624395      -0.15835089       0.34621856
C        3.05142913       1.21284269      -1.73820514
C       -3.95146360       1.35957741      -1.61539683
C       -1.39287817      -1.35323374      -0.91947270
C       -1.22368907      -3.80750818       1.76276849
C       -4.03683595       0.82923834       1.31002961
C       -1.34054637      -0.93362145       2.93104700
C       -0.29949595      -0.13594321       2.46807680
C       -2.24352031      -0.41199801      -1.62624483
C        1.78021623      -5.00799178       1.93529618
C       -1.79062347      -1.80167136       0.35568702
C        2.65195645       2.05840867       0.32309865
C       -0.10071374      -0.20804496      -2.44910816
C        2.39380276      -1.22606098      -1.60942352
C       -2.54459683      -0.62737652       2.35062658
C       -2.22628313       3.12940440      -1.64169260
C        1.96957772      -0.05029255       1.39440851
C       -0.07055497      -1.27276713      -1.49091634
C        0.60686590      -5.39285724       2.34108753
C       -2.96572841       0.74992720       2.29669384
C       -0.55256593       1.24720621       2.14021465
C        0.50644588       1.99315673       1.51851513
C        2.64543097      -4.26602526       1.37533094
C       -0.91638067      -2.58329837       1.21022082
C        2.09252825       2.97516256      -0.62603252
C        4.08450301       0.08099296       0.07426981
C        3.63332056      -1.64576399      -1.01272340
C       -4.19570626       1.34279544      -3.00245560
C       -1.46250609       0.20578188      -2.64576948
C        1.03650014       0.59193415      -2.65139563
C        0.14435421       3.16734394       0.79984461
C       -3.35973589       2.53521054      -1.03167450
C       -0.03766418       3.83887999      -1.38382291
C        2.24712519       2.39578287      -1.91928733
C       -1.44299603       2.55700766      -2.70054559
C       -3.50316683       2.65659438       0.41077253
C        1.19491576      -1.79096400      -1.05842987
C        3.15195510      -0.65337142       0.88916919
C       -1.88128690       1.36931395      -3.36307013
C       -1.22300632       3.46987739       0.54222366
C       -3.40968012       0.14892068      -1.01598563
C       -2.25737456       2.73519970       1.13647616
