60
Properties=species:S:1:pos:R:3 entry_id=25 rank=1 energy=-498.7334899902344 pbc="F F F"
C        1.79708388      -3.89526128      -0.13008498
C        2.56358052       0.34352488      -2.24287608
C        1.84655189       1.26720294       1.58245006
C        2.75235126      -2.36187886       0.83629719
C       -4.20555999       0.62704902       2.11270352
C        3.47605103       1.06454696      -0.25955871
C        1.74230648      -1.54316413       4.16323688
C        2.83574119      -0.79556843      -1.43870562
C       -2.91746404       1.79079625      -3.95394649
C       -0.53685132      -3.90275420      -0.38372394
C       -1.86273898       1.38261839       2.23050500
C        0.94568597       3.53295802       0.07911787
C        0.64654749      -3.59512518      -0.94994537
C       -1.27997868       3.80068537      -0.47088731
C        0.09016153       3.04069790      -2.15609425
C        1.23766483      -0.68909487       2.98472579
C        1.20805858       2.20590110      -2.37469605
C       -2.71452770      -1.11848793       0.50866540
C       -3.53105632      -0.16597557      -0.11955670
C        3.24753391       1.44064281      -1.62542462
C       -3.80470671       1.44709066      -1.89305220
C       -1.44142416      -1.47023750      -1.54566897
C       -0.53583227      -2.52304335       1.68993163
C       -3.99079547       0.88305901       0.76059159
C       -1.04039839      -1.31551432       2.27655909
C       -0.16700035      -0.30620826       2.77034923
C       -2.15518089      -0.36421339      -2.12799198
C        0.73322715      -2.99814191       2.11407052
C       -1.87173593      -1.96059926      -0.28775900
C        2.64889463       1.86449964       0.56026796
C        0.10286598      -0.10694714      -2.67936681
C        2.30781009      -2.08771985      -1.49925931
C       -2.32952608      -0.87801060       1.84265793
C       -2.10723431       3.15088887      -1.44130807
C        2.08873097      -0.11371366       1.93149847
C       -0.06813155      -1.42696756      -2.03265783
C        1.28924170      -2.26521178       3.18258103
C       -2.86512128       0.35279871       2.36842493
C       -0.48484407       1.05582331       2.46459948
C        0.56472099       1.87075751       1.89679130
C        1.75058325      -3.30253263       1.18209553
C       -1.09986454      -2.94565079       0.42760363
C        2.14678986       2.91305548      -0.25837434
C        3.29507244      -0.32451580      -0.17559949
C        2.84095629      -2.95256257      -0.49076248
C       -3.97171003       1.71719296      -3.26215534
C       -1.24126922       0.39331754      -2.91953045
C        1.25029946       0.76888586      -2.63161677
C        0.16569982       3.03385922       1.16977902
C       -3.23429476       2.41798112      -0.99718643
C        0.05129909       3.84438817      -0.97901858
C        2.37946099       2.55372000      -1.62418968
C       -1.25813743       2.73786362      -2.52364576
C       -3.30224546       2.10179767       0.40474004
C        0.93567024      -2.36506988      -1.65123460
C        2.82570782      -0.94788932       1.01977438
C       -1.61517634       1.68460291      -3.41922858
C       -1.20913661       3.26726012       0.83959034
C       -3.31386624       0.15335476      -1.49424011
C       -2.21360480       2.37436384       1.27474239
