60
Properties=species:S:1:pos:R:3 entry_id=20 rank=2 energy=-497.9552001953125 pbc="F F F"
C        2.40017160      -3.60949757      -0.01686089
C        2.59651745       0.53249031      -2.41630667
C        1.91103227       1.29541740       1.23531435
C        3.49794363      -2.03628750       0.65073110
C       -4.17148787       0.81695887       2.27087476
C        3.63250293       1.38766215      -0.56468399
C       -1.41527526      -4.76617803       4.03798120
C        3.05248500      -0.55914046      -1.63458713
C       -3.01241616       1.49021302      -3.87689656
C        0.38562014      -2.97078397       0.74417752
C       -1.76364854       1.38998700       2.17122861
C        0.88229997       3.60406540      -0.12024354
C        1.07205754      -3.25976156      -0.45722558
C       -1.37275585       3.80416232      -0.57788839
C       -0.03803951       3.06556771      -2.29610030
C        1.20759028      -0.98709436       2.00980264
C        1.11754685       2.29202050      -2.53653459
C       -2.68430144      -1.09283282       0.79852249
C       -3.50586082      -0.19005405       0.10482953
C        3.25606803       1.70145261      -1.91523537
C       -3.83519383       1.27417438      -1.78479074
C       -1.25961298      -1.42392893      -1.18133906
C       -1.21505589      -2.71373312       2.40807230
C       -3.99738927       0.91524730       0.89398405
C       -1.18642013      -1.29997761       2.67738037
C       -0.07269767      -0.43573327       2.42778146
C       -2.06955908      -0.43348476      -1.85392675
C        1.34158563      -2.36252571       1.62206792
C       -1.70015246      -1.88203449       0.10172447
C        2.69654490       2.03255823       0.28326883
C        0.13747232      -0.08792406      -2.52169276
C        2.55279251      -1.86664628      -1.52229646
C       -2.41918142      -0.80514369       2.15864097
C       -2.20845709       3.08734959      -1.49612134
C        2.22438788      -0.09688636       1.48025738
C        0.08758946      -1.32560915      -1.72927641
C       -1.29813790      -3.79406079       3.25650645
C       -2.83974308       0.50802863       2.52552496
C       -0.38587618       0.95169265       2.18472834
C        0.61063805       1.80901018       1.58728149
C        2.59086212      -2.91749934       1.24328170
C       -0.97114075      -2.73979501       0.96410649
C        2.10818050       3.06730554      -0.49725397
C        3.65383474      -0.01098793      -0.46673089
C        3.30681779      -2.67966101      -0.62436753
C       -4.05299196       1.41432284      -3.16544761
C       -1.23995752       0.30262409      -2.75012427
C        1.22931159       0.84778866      -2.67578786
C        0.16566826       3.01109390       0.95790082
C       -3.29495174       2.33763150      -0.98188173
C       -0.06380646       3.89899704      -1.14117882
C        2.30905417       2.74724131      -1.87513973
C       -1.37757963       2.66011408      -2.58299252
C       -3.32155069       2.10572851       0.43907359
C        1.18925280      -2.18400298      -1.37992541
C        3.31959264      -0.65248787       0.74918910
C       -1.69746358       1.51211653      -3.37463208
C       -1.21435397       3.25938926       0.71850565
C       -3.27345047       0.04457281      -1.28120683
C       -2.17997560       2.37789648       1.23093929
