60
Properties=species:S:1:pos:R:3 entry_id=8 rank=16 energy=-494.938720703125 pbc="F F F"
C        2.40254033      -3.11897862       0.39670130
C        2.26497340       0.16587692      -2.49731144
C        1.96222727       1.05401856       1.14071562
C        3.30290469      -2.05046478       0.27313051
C       -3.81584134       1.12137962       1.42325875
C        3.64940397       1.08339963      -0.79228197
C       -1.15991675      -3.44083712       1.92256860
C        4.53539038      -0.25876688       0.94446226
C       -3.34123515       1.65705530      -3.69861887
C        0.40919005      -2.10559705       0.76660077
C       -1.64966349       1.45460377       2.22762839
C        1.00214231       3.41558757      -0.23377380
C        1.26616304      -2.55477171      -0.26889401
C       -1.25551301       3.76682487      -0.52424779
C       -0.09854409       2.95120995      -2.35456560
C        0.86285736      -1.09767769       1.68315198
C        1.00377603       2.12362903      -2.69446917
C       -2.76414576      -1.28072799       0.76718306
C       -3.77895668      -0.54205986       0.06554419
C        3.08762581       1.24548249      -2.09553287
C       -3.94811001       1.31516016      -1.49995231
C       -1.42142529      -1.44550824      -1.30025807
C       -1.04413319      -2.60436379       3.06171681
C       -4.67337569       0.24210019       0.82177960
C       -1.28672633      -1.22402792       2.82743805
C       -0.16929995      -0.43908347       2.43461807
C       -2.27780920      -0.45241971      -1.88847009
C        1.23472001      -3.88756398       2.51229579
C       -1.77850603      -1.96901596      -0.01545918
C        2.73293373       1.70806213       0.10343296
C       -0.15842523      -0.12885153      -2.73106974
C        2.37388231      -1.06088068      -1.77897217
C       -2.46244835      -0.81086670       2.09849794
C       -2.19802452       3.04902600      -1.33526013
C        2.10680012      -0.34733910       1.47512126
C       -0.10353071      -1.29286353      -1.89328125
C       -0.03781278      -3.55889575       2.85025072
C       -2.75410552       0.57220760       2.24067263
C       -0.30779855       0.97205712       2.22709595
C        0.72256010       1.71634124       1.55186197
C        2.10032267      -3.76027347       1.60843881
C       -0.86026839      -2.72919987       0.73085386
C        2.14615366       2.76762570      -0.67353538
C        4.22822763      -0.12593336      -0.42376822
C        3.46925952      -1.25378770      -0.90424586
C       -4.26682057       1.58182887      -2.84463672
C       -1.53018586       0.29920872      -2.84615205
C        0.98226409       0.69297514      -2.87106051
C        0.34380233       2.95265565       0.93860493
C       -3.27633416       2.33014076      -0.70993755
C        0.00856697       3.76245515      -1.18758689
C        2.25568075       2.41234739      -2.04816964
C       -1.49027509       2.62630291      -2.51836426
C       -3.21802151       2.21985010       0.71691882
C        1.17847353      -1.78903757      -1.46487938
C        3.36110090      -0.99109486       1.26223635
C       -1.97876007       1.56012600      -3.33739842
C       -1.03341838       3.32794712       0.80369547
C       -3.44193041      -0.01882158      -1.21407511
C       -2.01564266       2.55335516       1.40475346
