60
Properties=species:S:1:pos:R:3 entry_id=27 rank=3 energy=-497.873779296875 pbc="F F F"
C        1.53939287      -3.62881597       0.32050495
C        2.47430160       0.32033025      -2.31737062
C        1.90991017       1.27379495       1.48968334
C        2.93434445      -2.27270722       0.87283775
C       -4.16818658       0.60852276       2.14881953
C        3.51533968       1.08459788      -0.41134035
C        0.72999479      -2.93734723       5.10500182
C        2.75796000      -0.81329104      -1.49111168
C       -3.05322859       1.80592837      -3.92157156
C        0.22112318      -3.60137012      -0.22565368
C       -1.80155081       1.39290811       2.25058174
C        0.95469311       3.52371261      -0.00726184
C        0.25687066      -3.61548129      -1.61098894
C       -1.28442460       3.78380333      -0.49489691
C        0.03997075       3.04895536      -2.23168236
C        1.19879257      -0.84307435       2.53080407
C        1.16063745       2.22359025      -2.48604557
C       -2.57158109      -1.13663060       0.52564613
C       -3.44626102      -0.21621307      -0.08959202
C        3.19813111       1.42497726      -1.76246848
C       -3.83630262       1.41020458      -1.84131855
C       -1.36596172      -1.43272931      -1.58079844
C       -0.38307038      -2.38904888       1.82134081
C       -3.92442618       0.83086149       0.79490635
C       -1.05590336      -1.28403033       2.39827371
C       -0.09716936      -0.28241104       2.74091673
C       -2.15976470      -0.35916400      -2.13900099
C        0.98853425      -2.37485787       2.46470857
C       -1.61634826      -1.91201512      -0.25213173
C        2.68912687       1.87037404       0.44112716
C        0.04337540      -0.05865083      -2.85524411
C        2.17736890      -2.10011661      -1.48117735
C       -2.29792779      -0.88399553       1.88943025
C       -2.13835485       3.13867219      -1.44370358
C        2.16275954      -0.12760457       1.79220875
C       -0.07928093      -1.37704942      -2.24249658
C        0.87343278      -2.73322300       3.88083657
C       -2.82104229       0.36375221       2.38829383
C       -0.40873933       1.08367374       2.46276298
C        0.63197680       1.87802180       1.84166667
C        1.92782558      -3.00669044       1.54058052
C       -0.66337822      -2.73096509       0.48219842
C        2.14868464       2.90700214      -0.37380111
C        3.38238118      -0.30863291      -0.30025150
C        2.54685224      -2.89359680      -0.36619443
C       -4.08189901       1.69169532      -3.19697480
C       -1.31761959       0.42147156      -2.99554380
C        1.19317130       0.79171141      -2.76080549
C        0.20787770       3.03147832       1.10987177
C       -3.24192344       2.38929657      -0.96833024
C        0.03058738       3.83429292      -1.04028046
C        2.34600490       2.55021288      -1.74605671
C       -1.32427058       2.75061713      -2.56265191
C       -3.26755836       2.06804101       0.43034798
C        0.88243207      -2.40841601      -2.00953975
C        3.05560441      -0.86973012       0.94737206
C       -1.72534534       1.71365033      -3.45895516
C       -1.17714743       3.25494184       0.81460506
C       -3.30364179       0.12370265      -1.46586897
C       -2.17021398       2.36419983       1.28078825
