60
Properties=species:S:1:pos:R:3 entry_id=26 rank=6 energy=-497.316162109375 pbc="F F F"
C        1.87979835      -3.87790229      -0.05727751
C        2.37863793       0.34341382      -2.27685188
C        1.84466605       1.38564377       1.55423410
C        2.73119529      -2.26027976       0.87488294
C       -4.16303944       0.54018864       2.16413972
C        3.37790891       1.14242703      -0.35959181
C        1.31812368      -2.84432379       3.51482356
C        2.73268412      -0.76514068      -1.45738413
C       -2.42420271       2.98510366      -5.06928177
C       -0.43844872      -3.97871680      -0.25317554
C       -1.85487370       1.35329870       2.24324840
C        0.82552472       3.56546493       0.03372946
C        0.70984408      -3.66228271      -0.87952840
C       -1.41172542       3.87201538      -0.41876854
C       -0.13192262       3.05510671      -2.17572992
C        1.32321869      -0.51028962       3.00186892
C        0.97016547       2.18140954      -2.41068481
C       -2.68342010      -1.23301671       0.60673945
C       -3.52653666      -0.29156842      -0.04398620
C        3.06384515       1.46874946      -1.72207382
C       -3.22865852       1.29992352      -1.88843485
C       -1.46775432      -1.71548405      -1.48406465
C       -0.45862741      -2.58523707       1.81228292
C       -3.99456440       0.78169487       0.80171481
C       -0.95220322      -1.34155541       2.35916364
C       -0.08848890      -0.26942771       2.79086972
C       -2.24543167      -0.71347533      -2.08185526
C        0.77585908      -3.16063154       2.22752499
C       -1.84816685      -2.11605967      -0.16952461
C        2.58993682       1.96172010       0.48071097
C       -0.05552818      -0.21536263      -2.67993481
C        2.28763934      -2.08626071      -1.47755429
C       -2.25745036      -0.93452517       1.92148313
C       -2.28953785       3.33409890      -1.37228124
C        2.14360523       0.02940629       1.95185367
C       -0.11276086      -1.56890642      -2.02020520
C        1.63695807      -1.64972561       3.74793257
C       -2.81418166       0.29573032       2.42594374
C       -0.46777809       1.07885145       2.45542780
C        0.54596744       1.93282161       1.88443951
C        1.79500211      -3.26820433       1.24669855
C       -1.02591319      -3.03502605       0.55915105
C        2.01761107       2.96459144      -0.34930282
C        3.22417441      -0.24621330      -0.22237084
C        2.86004426      -2.88164067      -0.43709842
C       -2.11306184       2.56206507      -3.86429222
C       -1.44096895       0.17673862      -2.83576775
C        1.04672990       0.72677053      -2.64819411
C        0.09084176       3.07493594       1.15642306
C       -3.23308337       2.36357889      -0.96081388
C       -0.10331870       3.85959874      -0.99125742
C        2.16827499       2.55766284      -1.71193683
C       -1.51967512       2.91817968      -2.53860472
C       -3.34791228       2.02372895       0.43016201
C        0.93834389      -2.44670789      -1.63297907
C        2.82692531      -0.84224951       1.01089767
C       -2.17111633       1.42171317      -2.90165288
C       -1.29902792       3.28902151       0.87723947
C       -3.27465923      -0.02871256      -1.40957374
C       -2.26256120       2.34439055       1.30345377
