54
Lattice="21.66 0.0 0.0 0.0 5.10531 0.0 0.0 0.0 22.55266" Properties=species:S:1:pos:R:3 trial_index=7 seed_entry_id=6 discovered_entry_id=7 energy=-201.69415283203125 status=accepted pbc="T T F"
Cu       0.00000000       0.00000000      10.00000000
Cu       3.61000000       0.00000000      10.00000000
Cu       7.22000000       0.00000000      10.00000000
Cu      10.83000000       0.00000000      10.00000000
Cu      14.44000000       0.00000000      10.00000000
Cu      18.05000000       0.00000000      10.00000000
Cu       0.00000000       2.55265548      10.00000000
Cu       3.61000000       2.55265548      10.00000000
Cu       7.22000000       2.55265548      10.00000000
Cu      10.83000000       2.55265548      10.00000000
Cu      14.44000000       2.55265548      10.00000000
Cu      18.05000000       2.55265548      10.00000000
Cu       1.80500000       1.27632774      11.27632774
Cu       5.41500000       1.27632774      11.27632774
Cu       9.02500000       1.27632774      11.27632774
Cu      12.63500000       1.27632774      11.27632774
Cu      16.24500000       1.27632774      11.27632774
Cu      19.85500000       1.27632774      11.27632774
Cu       1.80500000       3.82898322      11.27632774
Cu       5.41500000       3.82898322      11.27632774
Cu       9.02500000       3.82898322      11.27632774
Cu      12.63500000       3.82898322      11.27632774
Cu      16.24500000       3.82898322      11.27632774
Cu      19.85500000       3.82898322      11.27632774
Cu      21.61662909       5.08948092      12.48925168
Cu       3.41782360       5.10400380      12.59053288
Cu       7.29965804       5.08954116      12.59663518
Cu      10.83242976       5.05032705      12.57920426
Cu      13.65654487       5.07867156      13.37964599
Cu      18.05000019       0.05938863      12.42053404
Cu      21.57737936       2.52709276      12.56155372
Cu       3.64589172       2.54701793      12.60078253
Cu       7.17363923       2.53578898      12.66813343
Cu      10.90306823       2.55297163      12.60205249
Cu      14.48338077       2.57550741      12.56899215
Cu      18.01269194       2.57713652      12.52015100
Cu       5.60955425       1.27963490      14.49609029
Cu       9.06747180       1.19264980      13.84421922
Cu      19.74654261       1.25238577      13.84214808
Cu       9.10351637       3.83132477      13.83972327
Cu       7.67265902       2.53539332      15.52880526
Cu       1.53256530       1.26551527      14.15390309
Cu       1.51549218       3.82558785      14.14665697
Cu       5.59884159       3.74737355      14.50717385
Cu      19.79407938       3.70843188      13.82628665
Cu      16.64223259       4.30624662      14.13042645
O        5.87071743       2.51080192      15.84133749
O        0.18737187       0.00115288      14.46276778
O       18.41025799       4.94420228      14.42541826
O       12.24331723       1.18132174      13.25805091
O        9.45701695       2.51549296      15.14912116
O        5.28282897       5.06146329      13.24695523
O       14.88627399       3.82524275      13.94720861
O        2.82984029       2.55381270      14.34327327
