54
Lattice="21.66 0.0 0.0 0.0 5.10531 0.0 0.0 0.0 22.55266" Properties=species:S:1:pos:R:3 trial_index=28 seed_entry_id=27 discovered_entry_id=28 energy=-201.32968139648438 status=accepted pbc="T T F"
Cu       0.00000000       0.00000000      10.00000000
Cu       3.61000000       0.00000000      10.00000000
Cu       7.22000000       0.00000000      10.00000000
Cu      10.83000000       0.00000000      10.00000000
Cu      14.44000000       0.00000000      10.00000000
Cu      18.05000000       0.00000000      10.00000000
Cu       0.00000000       2.55265548      10.00000000
Cu       3.61000000       2.55265548      10.00000000
Cu       7.22000000       2.55265548      10.00000000
Cu      10.83000000       2.55265548      10.00000000
Cu      14.44000000       2.55265548      10.00000000
Cu      18.05000000       2.55265548      10.00000000
Cu       1.80500000       1.27632774      11.27632774
Cu       5.41500000       1.27632774      11.27632774
Cu       9.02500000       1.27632774      11.27632774
Cu      12.63500000       1.27632774      11.27632774
Cu      16.24500000       1.27632774      11.27632774
Cu      19.85500000       1.27632774      11.27632774
Cu       1.80500000       3.82898322      11.27632774
Cu       5.41500000       3.82898322      11.27632774
Cu       9.02500000       3.82898322      11.27632774
Cu      12.63500000       3.82898322      11.27632774
Cu      16.24500000       3.82898322      11.27632774
Cu      19.85500000       3.82898322      11.27632774
Cu      21.65354945       0.00137722      12.52749943
Cu       2.19987797       5.01300753      13.82101603
Cu       7.23141861       5.10308733      12.58367908
Cu      10.85435890       5.06051004      12.54754990
Cu      14.38101716       0.06359506      12.56554624
Cu      18.02898650       0.03948368      12.57133551
Cu      21.64828591       2.56331351      12.52428040
Cu       2.15730859       2.53049604      13.84878312
Cu       7.18365944       2.51724280      12.54425205
Cu      10.94029654       2.59893444      12.58390514
Cu      14.37605397       2.51744858      12.56951575
Cu      18.03151464       2.52025167      12.56729987
Cu       4.83446962       0.03313996      13.43592996
Cu       9.08870957       1.33045661      13.96082470
Cu      19.85575657       1.28063102      13.82383419
Cu       9.06610343       3.93461983      13.81009076
Cu       6.80999330       3.30876107      14.88994144
Cu       0.02274005       2.56353362      15.24155313
Cu       0.04437116       5.06605230      15.22045907
Cu       4.71027306       2.53561685      13.42488312
Cu      19.91982620       3.83343215      13.83035339
Cu      16.17515450       3.83646030      13.94623851
O        5.08641420       3.82926391      14.75354790
O       20.46649084       1.25118463      15.63390074
O       17.99306811       3.82783378      14.10586347
O       11.03774984       1.23444751      13.88427658
O        8.49334722       2.72084857      15.14314134
O        3.23467456       1.24353564      12.96930076
O       14.35997682       3.84709893      13.91397525
O        1.46563074       3.80048768      15.13116117
