54
Lattice="21.66 0.0 0.0 0.0 5.10531 0.0 0.0 0.0 22.55266" Properties=species:S:1:pos:R:3 trial_index=14 seed_entry_id=13 discovered_entry_id=14 energy=-201.5982666015625 status=accepted pbc="T T F"
Cu       0.00000000       0.00000000      10.00000000
Cu       3.61000000       0.00000000      10.00000000
Cu       7.22000000       0.00000000      10.00000000
Cu      10.83000000       0.00000000      10.00000000
Cu      14.44000000       0.00000000      10.00000000
Cu      18.05000000       0.00000000      10.00000000
Cu       0.00000000       2.55265548      10.00000000
Cu       3.61000000       2.55265548      10.00000000
Cu       7.22000000       2.55265548      10.00000000
Cu      10.83000000       2.55265548      10.00000000
Cu      14.44000000       2.55265548      10.00000000
Cu      18.05000000       2.55265548      10.00000000
Cu       1.80500000       1.27632774      11.27632774
Cu       5.41500000       1.27632774      11.27632774
Cu       9.02500000       1.27632774      11.27632774
Cu      12.63500000       1.27632774      11.27632774
Cu      16.24500000       1.27632774      11.27632774
Cu      19.85500000       1.27632774      11.27632774
Cu       1.80500000       3.82898322      11.27632774
Cu       5.41500000       3.82898322      11.27632774
Cu       9.02500000       3.82898322      11.27632774
Cu      12.63500000       3.82898322      11.27632774
Cu      16.24500000       3.82898322      11.27632774
Cu      19.85500000       3.82898322      11.27632774
Cu      21.61640982       5.06951915      12.49764456
Cu       3.46087639       5.10065848      12.58834191
Cu       7.29760833       0.03638707      12.61056865
Cu      10.84193529       5.10432025      12.54750940
Cu      13.69956798       5.06100106      13.38430882
Cu      18.04987657       0.05683571      12.42068251
Cu      21.57833437       2.51131155      12.57352324
Cu       3.64691762       2.57507084      12.57550278
Cu       7.18133358       2.60977237      12.67555258
Cu      10.88290438       2.59400703      12.56608959
Cu      13.74977946       2.53441131      13.32833265
Cu      18.02425306       2.57263766      12.50575298
Cu       5.62307492       1.54616406      14.57874114
Cu       9.08224686       1.27162623      13.84281744
Cu      19.74009206       1.23585783      13.83883962
Cu       9.12815030       3.91524268      13.83895153
Cu       7.75696125       2.68273823      15.56176794
Cu       1.57948787       1.22211132      14.12616542
Cu       1.58897774       3.78023218      14.12637004
Cu       5.71869736       4.01643001      14.52513988
Cu      19.78884833       3.68435741      13.83543858
Cu      16.68720358       4.23740139      14.12206167
O        5.96199055       2.79965732      15.88443303
O        0.25882239       5.05018362      14.44613354
O       18.42443912       4.92952176      14.44193652
O       12.34672722       1.26162237      13.34647356
O        9.53032268       2.58684653      15.13419139
O        5.30037213       0.24256820      13.30580853
O       14.92093467       3.80738976      13.95976342
O        2.89087226       2.49474153      14.33812556
