54
Lattice="21.66 0.0 0.0 0.0 5.10531 0.0 0.0 0.0 22.55266" Properties=species:S:1:pos:R:3 trial_index=5 seed_entry_id=4 discovered_entry_id=5 energy=-201.69302368164062 status=accepted pbc="T T F"
Cu       0.00000000       0.00000000      10.00000000
Cu       3.61000000       0.00000000      10.00000000
Cu       7.22000000       0.00000000      10.00000000
Cu      10.83000000       0.00000000      10.00000000
Cu      14.44000000       0.00000000      10.00000000
Cu      18.05000000       0.00000000      10.00000000
Cu       0.00000000       2.55265548      10.00000000
Cu       3.61000000       2.55265548      10.00000000
Cu       7.22000000       2.55265548      10.00000000
Cu      10.83000000       2.55265548      10.00000000
Cu      14.44000000       2.55265548      10.00000000
Cu      18.05000000       2.55265548      10.00000000
Cu       1.80500000       1.27632774      11.27632774
Cu       5.41500000       1.27632774      11.27632774
Cu       9.02500000       1.27632774      11.27632774
Cu      12.63500000       1.27632774      11.27632774
Cu      16.24500000       1.27632774      11.27632774
Cu      19.85500000       1.27632774      11.27632774
Cu       1.80500000       3.82898322      11.27632774
Cu       5.41500000       3.82898322      11.27632774
Cu       9.02500000       3.82898322      11.27632774
Cu      12.63500000       3.82898322      11.27632774
Cu      16.24500000       3.82898322      11.27632774
Cu      19.85500000       3.82898322      11.27632774
Cu      21.61946395       5.06709244      12.50021501
Cu       3.42762222       5.09127624      12.59785123
Cu       7.29171257       0.00014828      12.60081856
Cu      10.83518033       5.06990622      12.57426761
Cu      13.63424915       5.07889679      13.38194963
Cu      18.04258293       0.04762078      12.42171506
Cu      21.57607760       2.50301605      12.57427318
Cu       3.64281168       2.56159847      12.59898006
Cu       7.17671860       2.56293204      12.66512522
Cu      10.89724100       2.57086174      12.60050485
Cu      14.47772183       2.58142559      12.56711516
Cu      18.00861350       2.56776769      12.51806725
Cu       5.60446294       1.43991187      14.54449429
Cu       9.05967264       1.22352895      13.84326860
Cu      19.73177101       1.22573559      13.84155836
Cu       9.10467120       3.86869435      13.83091454
Cu       7.70624869       2.62356654      15.53635240
Cu       1.54322026       1.19818980      14.15849110
Cu       1.55261159       3.75664620      14.14934712
Cu       5.64705209       3.90904942      14.50240768
Cu      19.78616634       3.68165331      13.83218799
Cu      16.62641699       4.29045678      14.12858569
O        5.90758527       2.69259121      15.85861975
O        0.21432246       5.02504617      14.46573461
O       18.39865935       4.91786214      14.42489254
O       12.23848897       1.20163416      13.26041086
O        9.48567180       2.54830342      15.13211515
O        5.28327913       0.13722647      13.27281339
O       14.86239053       3.82557309      13.95350535
O        2.85440074       2.46932158      14.35222107
