54
Lattice="21.66 0.0 0.0 0.0 5.10531 0.0 0.0 0.0 22.55266" Properties=species:S:1:pos:R:3 trial_index=22 seed_entry_id=21 discovered_entry_id=22 energy=-201.61773681640625 status=accepted pbc="T T F"
Cu       0.00000000       0.00000000      10.00000000
Cu       3.61000000       0.00000000      10.00000000
Cu       7.22000000       0.00000000      10.00000000
Cu      10.83000000       0.00000000      10.00000000
Cu      14.44000000       0.00000000      10.00000000
Cu      18.05000000       0.00000000      10.00000000
Cu       0.00000000       2.55265548      10.00000000
Cu       3.61000000       2.55265548      10.00000000
Cu       7.22000000       2.55265548      10.00000000
Cu      10.83000000       2.55265548      10.00000000
Cu      14.44000000       2.55265548      10.00000000
Cu      18.05000000       2.55265548      10.00000000
Cu       1.80500000       1.27632774      11.27632774
Cu       5.41500000       1.27632774      11.27632774
Cu       9.02500000       1.27632774      11.27632774
Cu      12.63500000       1.27632774      11.27632774
Cu      16.24500000       1.27632774      11.27632774
Cu      19.85500000       1.27632774      11.27632774
Cu       1.80500000       3.82898322      11.27632774
Cu       5.41500000       3.82898322      11.27632774
Cu       9.02500000       3.82898322      11.27632774
Cu      12.63500000       3.82898322      11.27632774
Cu      16.24500000       3.82898322      11.27632774
Cu      19.85500000       3.82898322      11.27632774
Cu       0.13653412       5.08655361      12.54265783
Cu       3.43628497       5.06819906      12.56232605
Cu       7.18822228       5.10466948      12.55115790
Cu      10.73958198       0.04232422      12.58941040
Cu      13.09483489       2.48678084      13.65801442
Cu      18.07565020       0.04780562      12.61702087
Cu       0.07642755       2.53384675      12.57390310
Cu       3.59264818       2.60078363      12.51950335
Cu       7.14273931       2.56941828      12.56375853
Cu      10.77303851       2.52518635      12.54844247
Cu      13.20948808       5.06250102      13.51815242
Cu      18.18561761       2.50367452      12.64995162
Cu       5.19478171       4.84921543      14.31679755
Cu       8.92382523       1.25315495      13.86018491
Cu      19.94149092       1.24603968      13.82225023
Cu       8.95985433       3.90414491      13.83728302
Cu       7.03512662       2.85920862      15.15169044
Cu       0.63404246       1.24399885      14.88973899
Cu       0.65308300       3.79649277      14.89997445
Cu       3.68632598       2.68489002      15.12811785
Cu      19.96491844       3.76743624      13.81640420
Cu      15.69161809       2.38821847      13.45076963
O        5.35652644       3.40979718      15.46657083
O       20.90634277       5.06921884      15.01035132
O       16.82715541       3.80724797      13.22271698
O       11.81109229       3.83018155      13.72167333
O        8.82820080       2.56581432      15.18179731
O        4.22656620       1.25514107      13.78716239
O       14.41111155       1.23818947      14.00719036
O        1.86551643       2.50498268      15.36280890
