54
Lattice="21.66 0.0 0.0 0.0 5.10531 0.0 0.0 0.0 22.55266" Properties=species:S:1:pos:R:3 trial_index=17 seed_entry_id=6 discovered_entry_id=17 energy=-201.60092163085938 status=accepted pbc="T T F"
Cu       0.00000000       0.00000000      10.00000000
Cu       3.61000000       0.00000000      10.00000000
Cu       7.22000000       0.00000000      10.00000000
Cu      10.83000000       0.00000000      10.00000000
Cu      14.44000000       0.00000000      10.00000000
Cu      18.05000000       0.00000000      10.00000000
Cu       0.00000000       2.55265548      10.00000000
Cu       3.61000000       2.55265548      10.00000000
Cu       7.22000000       2.55265548      10.00000000
Cu      10.83000000       2.55265548      10.00000000
Cu      14.44000000       2.55265548      10.00000000
Cu      18.05000000       2.55265548      10.00000000
Cu       1.80500000       1.27632774      11.27632774
Cu       5.41500000       1.27632774      11.27632774
Cu       9.02500000       1.27632774      11.27632774
Cu      12.63500000       1.27632774      11.27632774
Cu      16.24500000       1.27632774      11.27632774
Cu      19.85500000       1.27632774      11.27632774
Cu       1.80500000       3.82898322      11.27632774
Cu       5.41500000       3.82898322      11.27632774
Cu       9.02500000       3.82898322      11.27632774
Cu      12.63500000       3.82898322      11.27632774
Cu      16.24500000       3.82898322      11.27632774
Cu      19.85500000       3.82898322      11.27632774
Cu      21.62496444       5.07636743      12.48699744
Cu       3.43266083       5.09926972      12.59619442
Cu       7.30279551       0.02462915      12.60374100
Cu      10.84633678       5.10118590      12.55572577
Cu      13.72565637       5.06440796      13.37766641
Cu      18.05306107       0.06341127      12.42076527
Cu      21.58659631       2.51551543      12.56173186
Cu       3.63542154       2.56841022      12.59764212
Cu       7.18286376       2.59115075      12.66701145
Cu      10.88806584       2.59103991      12.57397792
Cu      13.76609180       2.53617094      13.31790218
Cu      18.03138039       2.57462949      12.51209835
Cu       5.61479681       1.48798576      14.53743865
Cu       9.08344368       1.26336060      13.84013866
Cu      19.76351322       1.23865003      13.83906280
Cu       9.12727831       3.90430033      13.83835521
Cu       7.72257267       2.66292962      15.53931391
Cu       1.54891510       1.24813554      14.14377054
Cu       1.54614819       3.80850830      14.14706783
Cu       5.67746489       3.95563922      14.49805175
Cu      19.81381129       3.69486515      13.82742221
Cu      16.70278509       4.23722815      14.12184764
O        5.92479236       2.73659892      15.85549578
O        0.21135583       5.08323595      14.45584540
O       18.43872375       4.93046064      14.43588520
O       12.36446608       1.25843470      13.34456225
O        9.50263663       2.57746977      15.13957424
O        5.28793910       0.18021066      13.27194644
O       14.93938091       3.80233295      13.95284752
O        2.85365086       2.52526634      14.35503066
