60
Properties=species:S:1:pos:R:3 pbc="F F F"
C        0.53365069       0.12898818      -7.94081530
C       -2.37641274       2.31123429      -0.28956040
C       -0.81274578      -0.17869586       3.38385787
C       -1.73797319       4.57048082       0.60117451
C        2.11654410      -2.55943714      -0.00356785
C       -1.65067536       1.70395924       2.03236086
C        2.62404397       3.61000533      -1.06708676
C       -0.37975284       3.04299339       4.67829822
C       -1.80191161      -1.74582185      -2.71144868
C        0.97746726       2.21784905       0.01526732
C        1.78746752      -2.30847743       2.16966520
C       -2.52965070      -1.59434647       1.66819257
C        0.47147821       0.49131961      -6.68848537
C       -2.39780388      -3.31239230       0.18970399
C       -3.22220614      -1.33605524      -0.66304473
C        0.94206362       1.34483093       1.27006084
C       -3.17084066       0.07611523      -0.44790177
C        2.99228894       0.61227736      -1.34523081
C        3.55859420       3.12715614      -0.28687390
C       -2.65246719       1.79209267       1.00423393
C       -0.60772566      -2.50624065      -2.47736735
C        1.31405494       0.42872969      -2.93294728
C        4.01985578       2.09196982       0.36039796
C        2.71436026      -1.31066333      -0.20412885
C        3.45009393       0.89051109      -0.00504236
C        1.65557890       0.08342182       1.58495061
C        1.52146784      -0.89183755      -2.34573294
C       -1.16503406       4.76348170       3.03910391
C        2.06644957       1.37357331      -2.06379217
C       -1.90057836       0.48580019       2.73458990
C       -0.96496912       0.63528996      -3.45902145
C       -1.43132980       3.44530930      -0.16204894
C        2.81145506      -0.20444424       0.74054277
C       -2.35085629      -3.41972532      -1.21523210
C       -0.13942595       0.56851637       4.33790240
C        0.36068677       0.71618036      -4.02436336
C       -0.75193140       4.07785720       4.03324625
C        2.22176489      -3.13282318       1.31492773
C        1.11513081      -1.09795827       2.26713910
C       -0.29125472      -1.25116697       2.56284930
C       -1.53613472       4.94188331       1.80717753
C        1.72481661       2.51178658      -1.21606292
C       -2.82822205      -0.26899575       1.97473084
C       -0.34028852       2.03722462       1.60357074
C       -0.23999961       2.84951479       0.42612508
C        0.70453646      -2.03952524      -2.06415959
C       -1.97690761       0.83317378      -2.46423520
C       -2.58679668       1.15935208      -1.21508198
C       -1.18191953      -2.06441723       1.76027009
C       -0.99350978      -3.54430378      -1.56333020
C       -3.14395866      -2.15960445       0.51790713
C       -3.26273110       0.52328748       0.89937020
C       -2.76330834      -2.15028476      -1.74444911
C        1.01071036      -2.77507880      -0.84035075
C        0.46740711       0.67346309      -5.40278677
C       -0.15290489       1.76806800       4.76960204
C       -1.80070903      -0.42002514      -3.11344473
C       -1.05971015      -3.11441648       0.71301511
C        2.62909881      -0.73735042      -1.47431355
C       -0.19156158      -3.40232738      -0.39325516
