60
Properties=species:S:1:pos:R:3 system=runs/20260728-safe-lbfgs-strict-quench-200-production/output-c60-seed42 state_id=plateau_accepted pbc="F F F"
C       -0.32557679       0.24371290       2.96201849
C       -1.25024530       0.32507986      -0.84724927
C       -0.15673748      -2.55898251      -0.92370095
C        1.35492236       1.95981536      -2.59665709
C        3.00828225       1.47927927      -0.81652865
C       -1.25720662       0.41548308      -3.37007254
C        0.78551529      -0.45391857       2.45129603
C       -0.05066450      -1.75542855       4.02306500
C        0.50961619      -0.65700409      -4.51081705
C        0.04827459       2.38044347      -3.00764298
C        2.89693984      -0.93853776      -1.74263006
C       -0.62039673      -1.99146446      -3.10974526
C       -1.04378629       1.27637904       2.32853695
C        0.81610978       0.69275897      -4.39232935
C       -3.50112517      -0.97949022      -2.42771959
C        0.95647431      -2.48272106       1.26496771
C       -2.50160043      -1.39616715      -1.57892254
C       -0.44172185       2.94824050      -0.75888365
C        0.89459026       2.60247442      -0.37573791
C       -1.85547845       0.34063997       4.68856236
C       -2.30366592       2.24064138      -2.16721201
C       -2.59680649       2.31138202       0.22387919
C        3.24762409       1.37442725       0.59235076
C        1.85469466       0.04058699       1.73353397
C        2.70731421      -0.84203797       1.05205785
C        2.21666589      -2.02423638       0.48537467
C       -3.15248242       2.18467018      -1.06567274
C        0.64950102      -1.83310576       2.64986194
C       -1.26170025       2.71443147       0.36994039
C       -0.64994789       0.30741461      -1.99707125
C       -3.54704508       0.35901783      -0.00358121
C       -2.88375141       0.68023991       3.72331772
C        3.67285217      -0.01471164       0.42395601
C       -0.33374944       1.44493221      -4.01825364
C       -0.10293584      -2.69620872       0.44009023
C       -3.15705071       1.31471836       1.06181970
C        2.04080723       1.37014116       1.36659265
C        3.47557900       0.10972996      -0.97022959
C        2.43546356      -2.20192440      -0.98805461
C        1.12118125      -2.56102776      -1.62001688
C       -0.92698652      -0.55351627       3.93773113
C       -0.45440531       2.13989804       1.40602024
C       -1.27628478      -2.17097468      -1.88848047
C        0.73942031      -0.34831670       5.85127400
C        0.11717892       0.80784788       6.18832877
C       -4.14486220       1.11463570      -1.16591469
C        1.49747005      -1.39176099      -3.75012370
C       -2.38434815      -0.34920935      -0.51811603
C        0.77553894      -2.30081531      -2.96224135
C       -0.94141706       2.76370030      -2.05296695
C       -0.79591159      -0.88596919      -3.99108504
C       -1.09539267       0.99526923       5.69564809
C       -2.55280044       1.07365418      -2.92071024
C        1.84017375       2.13549517      -1.28824228
C       -2.51725511       1.08343837       2.42725189
C        0.75592364      -1.42925596       5.16295045
C       -3.70478209       0.41253021      -2.41573743
C        2.26357021      -0.47445692      -2.98635208
C        0.92810152       2.16041670       0.97580481
C        1.78372996       0.84114643      -3.37253205
