60
Properties=species:S:1:pos:R:3 source_escape=runs/20260728-block-krylov-fixed-starter-escape/output/cases/intermediate_accepted-seed43-variational_breadth/escape.xyz pbc="F F F"
C       -1.90536420      -1.54566685      -2.38588820
C        2.69157883      -0.34794235      -2.64886013
C        1.58819270      -2.20859459       0.70936175
C       -1.75624746       2.55897988       2.14531483
C       -3.27714272       0.61788711       2.20074837
C        3.32992498      -1.58906298      -1.14515108
C       -2.35358427      -2.20859311      -1.19535272
C       -0.59114283      -3.44529279      -2.00314239
C        1.57890511       1.80385859       2.67324286
C       -1.17198466       3.59829565       1.36516858
C       -1.09587851      -0.53579188       2.88575429
C        2.82040281       0.09315818       1.91352701
C       -1.89141406      -0.11960122      -2.65076685
C        0.52025112       2.70774759       2.60777775
C        2.65783413       1.78082968       0.26925094
C       -0.66761569      -3.14056794       0.26690521
C        3.31013405       0.58547330      -0.27517748
C       -2.38101422       2.86503310      -0.60279337
C       -3.05771165       1.89702919       0.19456632
C        0.37189511      -1.82296857      -3.28165581
C       -0.20805646       3.96789119      -0.64556680
C       -0.96562808       2.67294155      -2.57968431
C       -4.03949419      -0.35462591       1.47098072
C       -3.03433269      -1.69693270      -0.07610538
C       -2.63639748      -2.17181686       1.20944044
C       -1.25412376      -2.47651702       1.37370637
C        0.04574033       3.39887053      -1.88112191
C       -1.45464375      -3.28576617      -0.90839904
C       -2.11176128       2.26586963      -1.86907476
C        2.84629709      -1.68186763       0.20861627
C        1.11165424       1.64481374      -2.85998010
C        0.43567297      -0.45401834      -3.53321366
C       -3.32839303      -1.42041839       2.17927079
C        0.26132751       3.57685131       1.54302607
C        0.70373000      -3.00547974      -0.11105603
C       -0.27457766       1.66650104      -3.26597716
C       -3.69398014      -0.45646314       0.07490123
C       -2.50786864      -0.43401779       2.81577994
C       -0.43468588      -1.62820943       2.18568026
C        1.00271488      -1.58077666       1.91424414
C       -0.87451809      -2.38600095      -2.92175904
C       -2.57159587       0.88747093      -1.85783825
C        3.25609261      -0.42812382       0.72367975
C        2.58291170      -1.76015919      -2.33505263
C        1.58012729       0.33129351      -3.15495874
C        1.27316171       2.63310946      -1.82441863
C        1.04518270       0.55614569       3.16725878
C        3.50258809      -0.12997512      -1.48429425
C        1.72434198      -0.52806236       2.56592290
C       -1.47096088       3.76987117      -0.00941901
C        2.56067419       1.50311907       1.70273841
C        1.39245799      -2.45458790      -2.50794767
C        0.86200094       3.60904974       0.25283639
C       -2.83328893       1.80730216       1.59501721
C       -0.75364070       0.34429942      -3.41253600
C        0.76020504      -3.26956069      -1.52950181
C        1.78357111       2.70886774      -0.43140315
C       -0.36193816       0.63572673       3.22952485
C       -3.29104665       0.71662938      -0.59359685
C       -0.70919725       2.00254113       2.94531846
