60
Properties=species:S:1:pos:R:3 system=runs/20260728-safe-lbfgs-strict-quench-200-production/output-c60-seed42 state_id=plateau_accepted pbc="F F F"
C       -0.45405630       2.52581015       2.02645355
C       -1.46886566      -1.08326076       2.29564277
C        1.25733521      -1.93061127       1.06545661
C        0.16488929       0.71359583      -3.84497487
C        1.68516425       2.31428188      -2.77813224
C        1.03748765      -1.29660379       2.30153128
C        0.90756937       2.77852766       1.67442086
C        0.93478900       1.67172331       3.68909593
C        0.56660136      -2.60729471      -2.82981316
C       -1.17555974       0.27845497      -4.04907080
C        2.59299621       0.13147388      -1.76143795
C        0.87317151      -3.33757942      -0.69770056
C       -1.52338697       2.22880708       1.10302328
C        0.06818073      -1.61485037      -3.69159295
C       -1.32240410      -2.78327409      -1.14499516
C        2.33073970       0.84783020       2.00605373
C       -1.08021094      -2.58161266       0.27678981
C       -1.98758056       1.96136919      -2.50520025
C       -0.68006572       2.53777010      -2.46136176
C       -1.24801961       0.83507393       3.66306889
C       -3.10279416      -0.17499994      -2.92077749
C       -3.37909642       0.96717634      -0.75768956
C        1.89807211       3.33506982      -1.79487082
C        1.47174561       2.97754312       0.40725046
C        2.63098953       2.21780730       0.08925190
C        2.70509303       0.88928196       0.61552866
C       -3.65479890      -0.12557974      -1.63519654
C        1.73299780       2.02901435       2.56657052
C       -2.52236072       2.00090250      -1.18200211
C       -0.22317083      -1.28612434       2.98562309
C       -2.94188015      -1.01776712       0.37943897
C       -1.92688723       0.25194538       2.56808671
C        2.99160012       2.53571669      -1.23418363
C       -1.24642963      -1.15275638      -3.86911500
C        1.81058628      -0.22019860       2.79312404
C       -3.10167473       0.40044181       0.52222086
C        0.86740235       3.42166860      -0.78965757
C        2.69348512       1.48910498      -2.15707108
C        2.64722341      -0.21142793      -0.33932392
C        2.19558681      -1.55426048       0.01394872
C       -0.41395113       1.91714981       3.32441668
C       -1.55670640       2.61767703      -0.29325279
C        0.30992330      -2.85123863       0.50713664
C       -0.07785523      -0.39985659       4.10484944
C       -1.76270422      -0.01723699       6.14888426
C       -3.27259567      -1.33314946      -0.95869065
C        1.83889383      -2.12795017      -2.34065804
C       -1.89616483      -1.70447438       1.06823302
C        2.00549855      -2.52905318      -1.01437836
C       -2.26933285       0.88903747      -3.37868939
C       -0.10043012      -3.23574445      -1.74501466
C       -1.16662220       0.09368185       4.97151836
C       -2.37461946      -1.42697217      -3.06258186
C        0.39197099       1.96364779      -3.20251642
C       -2.33718207       1.08829747       1.48180203
C        1.14366988       0.30006052       3.94123344
C       -2.39343153      -2.09276853      -1.78464473
C        2.00910270      -0.76932573      -2.70599562
C       -0.44997256       3.07216059      -1.14426632
C        0.95345803      -0.46252780      -3.63074297
