60
Properties=species:S:1:pos:R:3 source_escape=runs/20260728-block-krylov-fixed-starter-escape/output/cases/intermediate_accepted-seed43-deep_refinement/escape.xyz pbc="F F F"
C       -2.05584255      -0.69306679      -2.72396655
C       -1.48637577      -3.17751650       1.29361767
C       -2.58677593       0.63389096       1.76978034
C        2.72800856       2.34649136      -0.42495368
C        1.02430037       3.46506965      -1.81377205
C       -2.51403827      -1.87837417       2.50436637
C       -2.44208106       0.68321657      -2.60567027
C       -4.00464135      -0.53227877      -1.43457326
C        1.67968096       1.51410371       2.76540909
C        3.53787650       1.19133769      -0.22507986
C       -0.24711594       3.35638878       0.40672735
C       -0.27470659       0.66768823       3.47914166
C       -0.70971822      -1.23005026      -2.78862006
C        2.67951965       1.72869210       1.81855204
C        1.10722408      -1.05522124       2.64181149
C       -3.30160192       1.42374138      -0.46970042
C       -0.23474281      -1.56483209       2.94261064
C        2.62376758       0.14930679      -2.21285339
C        1.89794706       1.34506885      -2.48499284
C       -2.75804094      -2.41069083      -1.10432200
C        3.43230084      -1.06634557      -0.26151378
C        1.92078263      -2.15759879      -1.84819187
C        0.03813267       3.36251255      -2.85119045
C       -1.66466158       1.85202807      -2.69271850
C       -1.95289292       2.90362528      -1.77189531
C       -2.38866267       2.50854205      -0.47385229
C        2.62992251      -2.13891949      -0.60929777
C       -3.55312971       0.76838540      -1.70609339
C        1.78521469      -0.95081767      -2.56208356
C       -2.31024213      -0.46315183       2.68092576
C        0.61575307      -3.09031106      -0.15209697
C       -1.47137315      -2.94526567      -1.12030386
C       -0.96583977       3.89644319      -1.92908845
C        3.37515871       0.72728401       1.13307233
C       -3.40207477       0.46762727       0.58731370
C        0.73353581      -2.84725236      -1.57112612
C       -0.34630432       2.01131128      -3.17568933
C        0.01073550       3.88902516      -0.88125113
C       -1.51663781       2.68431817       0.64831506
C       -1.69174499       1.81146829       1.80973351
C       -3.09520357      -1.43490476      -2.07084153
C        0.49514781      -0.45131923      -3.00720730
C       -1.04435307      -0.45402857       3.31538356
C       -2.79923676      -2.55935335       1.29683370
C       -0.77587761      -3.27721851       0.09424813
C        1.74314850      -2.46279266       0.48826871
C        0.61091634       2.44172685       2.47613313
C       -1.16829184      -2.55665149       2.54824214
C       -0.63592297       1.84725911       2.77848736
C        3.50211444       0.08231131      -1.10692665
C        1.09758845       0.30001264       3.19377816
C       -3.36420413      -2.04599749       0.13631226
C        3.10869563      -0.67038822       1.08739679
C        2.02754093       2.49191161      -1.65599024
C       -0.52670630      -2.48986550      -2.10369654
C       -3.91448608      -0.74329952      -0.01009324
C        1.99815195      -1.48170225       1.57369645
C        0.86927255       3.09187400       1.25097869
C        0.63506705       1.00451352      -3.08311580
C        2.19720624       2.70747854       0.85318216
