60
Properties=species:S:1:pos:R:3 entry_id=13 rank=28 energy=-472.0519714355469 pbc="F F F"
C        5.23619892      -3.20148975       3.80324645
C        0.46749116      -0.38862217      -2.52683487
C        4.41138676       0.36161399       1.95071157
C       -0.31603264      -1.28237558      -3.23171989
C       -4.22543934       2.99405969       3.64483371
C        1.28860209      -1.93336622      -0.80141789
C       -5.15755700      -4.40644519       4.78699458
C        5.81814504       0.04054178       2.40450812
C       -5.90132022       4.48609696      -4.80039083
C        1.44997263      -3.06845498      -0.07536944
C       -1.51402550       1.27374003       2.09743283
C        3.00197531       2.41710216       0.09000965
C        4.26562624      -3.93963966       3.48329181
C       -2.46035568       4.16627624      -0.08292432
C       -1.52659846       4.12938354      -2.16476872
C        1.85536232       0.23046381       1.91897804
C       -0.73738752       3.27727523      -2.58283809
C        1.18390574      -3.23168056       1.42854840
C        2.50910553      -5.22963472      -1.22977185
C        1.32727271      -0.73110306      -1.40012724
C       -5.85422491       1.15599950      -6.38299268
C       -5.19764571       0.05571808      -6.34610723
C       -2.43375492      -2.14149355       3.42474880
C       -0.25626640      -1.37046433       2.50708111
C       -3.29689943      -2.90131778       3.87561542
C        0.48676583      -0.17316500       2.23844552
C       -6.23279158       3.51734774      -5.58256273
C        6.20525096      -0.95842950       3.22152966
C        2.04387804      -4.22134043      -0.65815493
C        3.57180290       0.39552908      -0.94636957
C       -3.30744149      -1.40864418      -5.51059499
C       -1.23632905      -1.54679626      -4.04514445
C       -1.66058195      -1.08654030       2.94701425
C       -3.59205917       5.31700692      -2.02878479
C        4.99286305       1.15335160       0.83950531
C       -4.32662274      -0.82879754      -6.04449791
C       -4.13915857      -3.81376149       4.33921240
C       -2.07972832       0.20459086       2.75770869
C       -0.13502086       0.97325278       1.71308632
C        1.80575070       1.57020577      -0.13122901
C        5.91663965      -2.09343625       3.69433898
C        2.15141017      -3.96878102       2.10749715
C        4.09436672       1.44471269      -0.21638317
C        3.13954897       0.03794872       2.19546162
C        3.14804364      -4.17380299       2.83712089
C       -6.20964461       2.35917307      -6.12111552
C       -0.10259436       2.13436669      -2.84380369
C        0.28378283       0.96185663      -2.78547542
C        1.12582067       1.28558628       1.06797978
C       -4.45553538       5.39129776      -2.93261531
C        3.18004841       3.59994327       0.69584963
C        2.20527246       0.40264089      -0.93786117
C       -2.53646991       4.70497332      -1.38461901
C       -3.31514915       2.68471145       2.84415576
C       -2.26874877      -1.67294154      -4.83673882
C        6.26948141       0.92341888       1.35678704
C       -5.30729592       5.14851437      -3.89989507
C       -2.20863841       3.38574320       0.83873048
C        0.23206474      -2.55484457       2.13384239
C       -2.27958385       2.50407859       1.92182440
