60
Properties=species:S:1:pos:R:3 entry_id=28 rank=33 energy=-470.3837585449219 pbc="F F F"
C        6.18143271      -1.40347804       3.54317884
C        1.49999601      -1.35176447      -3.85280708
C        2.27506238       0.13262470       0.42359172
C        1.73230235      -2.58305969      -4.43223497
C       -5.53830916       4.26152889       1.83794006
C        2.51257848      -1.66810097      -1.44809651
C       -4.50003346      -4.73378275       5.21118018
C        4.54138269       0.97270402       1.27755316
C       -5.78980456       6.91539800      -1.86657015
C        2.89381643      -2.98675261      -1.55768135
C       -3.03204098       0.40086014       2.84114190
C       -0.23475297       0.65804146       0.90380223
C        5.72383130      -2.38854436       4.23039321
C       -2.52251672       3.16893862      -0.43180083
C        0.30961160       1.98096717      -2.76977010
C       -0.08926607      -1.42431659       2.56712622
C        0.78411410       0.86255795      -3.57081021
C        2.21536442      -3.32996573       4.33179147
C        3.71388895      -5.40705266      -1.27232105
C        1.96726135      -0.89857420      -2.55298722
C       -8.37591672       9.39583782      -3.22573162
C        0.80904162      -3.24249657      -6.79640488
C       -2.48815223      -3.27829942       4.24114598
C       -0.10571546      -2.48396352       3.44957098
C       -3.72623578      -3.69801406       4.64060142
C       -0.61710380      -0.39809261       1.95000724
C       -6.64331872       7.76811762      -2.30767957
C        5.40829353       0.36936598       1.94495796
C        3.30528921      -4.18888800      -1.42719617
C        1.32273361       1.65076636      -1.74794547
C       -0.09054608      -1.09788162      -6.69601663
C        2.22761318      -3.86318834      -4.57580614
C       -1.38634461      -2.92190393       3.85946008
C       -3.45487379       4.15891691      -0.64066583
C        2.81185617       2.39762488       0.10273279
C        0.11037456      -2.27744998      -7.29485456
C       -5.00317002      -3.46039209       5.17912152
C       -3.80750894       1.41360593       2.61088216
C       -1.89064406       0.33650272       2.06296261
C        1.00637349       0.91481097       0.37088546
C        6.06599865      -0.42962821       2.73516690
C        3.49320311      -3.43185533       4.62265298
C        1.55329784       2.03099308      -0.41368652
C        2.58916404      -0.95653755      -0.24876241
C        4.71372848      -3.10254242       4.59489922
C       -7.43636628       8.72568836      -2.67756793
C        0.12623196      -0.36553693      -5.69738074
C        0.71488313      -0.24364353      -4.47359493
C       -1.57744265       1.29357687       1.03377363
C       -4.17494010       5.08115712      -1.08208351
C       -1.61104812       2.94103538      -1.46281025
C        1.63194338       0.46193730      -2.47459948
C       -0.84624922       2.60265008      -2.36874769
C       -4.59293649       3.48462982       1.55645836
C        1.47152783      -3.37156499      -5.64147505
C        3.34609819       1.25838517       0.67908252
C       -4.99542311       6.01169324      -1.47697216
C       -2.52397375       2.31802558       0.72816161
C        1.06302335      -3.05013523       3.95159575
C       -3.66959694       2.42973218       1.63830332
