60
Properties=species:S:1:pos:R:3 entry_id=15 rank=25 energy=-473.8780212402344 pbc="F F F"
C        3.62140750      -1.39381021       1.64857280
C        2.59191279      -1.81845332      -4.00496652
C        1.12333174       2.02736981       2.98743226
C        1.43690351      -0.39999018      -5.62619912
C       -7.12361245      -0.42347561       2.71339523
C        2.55905332      -3.08290072      -1.76709481
C       -0.96642054      -3.63121848       5.85549165
C        6.37927021       2.21338941      -1.64425214
C       -5.41951654       3.61903468      -4.47280363
C        1.46412390      -4.43983802       1.48687761
C       -4.43404238      -0.63507756       3.45244409
C        5.64126725       4.13516981       1.71236745
C        2.91246680      -2.40661849       1.44583816
C       -5.73352693       2.20961079       0.38618911
C        5.53611829       1.44775842      -3.88011627
C        0.03118012       1.46032344       3.18687353
C        4.66848867       0.71672285      -4.54337262
C        0.21781458      -3.06262974       3.26822454
C        1.02120564      -6.77064076       0.31762741
C        2.60900394      -2.49834537      -2.97629604
C       -5.79341668       4.99154400      -7.95656781
C       -2.90944157       2.20185224      -6.15253983
C       -3.09207273      -2.47168579       4.71561813
C       -0.78059050      -0.73543244       3.62032465
C       -1.83117113      -4.66002056       5.64911941
C       -1.04938158       0.60636979       3.36116025
C       -5.04242002       3.70898753      -5.80771097
C        6.22523575       2.06946222      -0.38273903
C        1.19802658      -5.65225067       0.84722503
C        4.49613080       3.62833447       2.07345413
C       -1.80960135       1.45877403      -6.23418608
C        0.37484968       0.15160349      -5.94403754
C       -3.82465089      -1.65333927       4.18287051
C       -5.72314918       2.68374127      -0.77542921
C        5.09846319       0.64996006       1.37166611
C       -3.91588682       2.91786334      -6.06913107
C       -2.22701018      -3.35518788       5.26748938
C       -3.68066765       0.45648955       2.96702153
C       -2.34897862       1.04706786       2.98783994
C        2.25968540       2.61575553       2.73107100
C        4.37201562      -0.32539173       1.71211603
C        0.80159591      -3.91968378       2.58721523
C        6.62865916       4.92239951       1.56607804
C        2.43631132      -3.47056410      -0.60082629
C        2.31585943      -3.46948548       0.79116994
C       -5.63134626       4.47389722      -6.83263384
C        3.73570426       0.00065052      -4.96467454
C        2.60291905      -0.81289767      -4.99147940
C       -4.17153041       1.49463662       2.11039653
C       -5.70957775       3.10607007      -1.99114559
C       -2.87765437       2.10137893       2.17560466
C        3.37038557       3.13037755       2.41412096
C        6.11048227       1.96784436      -2.88091229
C       -5.77572741      -0.50883411       3.04159739
C       -0.76954320       0.79285494      -6.17521157
C        5.75745397       1.50179018       0.66710708
C       -5.52572248       3.34752727      -3.25216120
C       -5.46772869       1.49447543       1.51830602
C       -0.31489739      -1.88090126       3.60150913
C       -6.25115232       0.48873869       2.14008781
