60
Properties=species:S:1:pos:R:3 source_escape=runs/20260728-block-krylov-fixed-starter-escape/output/cases/plateau_accepted-seed42-discrete/escape.xyz pbc="F F F"
C       -0.22442319       1.03711160       2.46573859
C       -1.27851225       1.04954100      -0.17453641
C        0.59645619      -3.52370108       1.82311854
C        1.91137223       0.88943192      -2.72169599
C        3.50916619       0.95282515      -0.84844796
C       -2.10486984       0.24678237      -2.51397775
C        1.08960019       0.54584864       2.76132407
C       -0.41248182      -1.12793181       3.30033183
C       -0.47686944      -1.56909355      -2.57781446
C        0.83989888       1.53735602      -3.38548188
C        2.58452824      -1.38862303      -0.50575606
C       -2.63950325      -1.89676062      -1.49704241
C       -0.56052134       2.16193255       1.65010577
C        0.32648381      -0.68758624      -3.34556864
C       -4.41123877       0.00258632      -1.79166486
C        1.75871643      -1.84677118       3.04002800
C       -3.98923484      -0.23243747      -0.48146783
C        0.57599007       3.07142462      -1.54020424
C        1.77040336       2.55686868      -0.96907696
C       -2.27010726      -0.36930965       1.79107619
C       -1.24788138       2.41549527      -3.01110204
C       -1.68805483       3.41137049      -0.82221792
C        3.79774361       1.40698354       0.47972879
C        2.31770305       0.80083056       2.10940219
C        3.20575658      -0.29241707       1.92911200
C        2.64510760      -1.60774571       1.95613693
C       -2.15548748       2.87683525      -2.04808136
C        0.93225366      -0.75777328       3.30703838
C       -0.31413374       3.40434431      -0.50464471
C       -1.47602975       0.59939897      -1.28926179
C       -3.57780304       2.14212546      -0.42326169
C       -2.83576180       0.85781716       1.33403504
C        4.07946317       0.03113847       0.87677803
C       -0.10136566       0.56725372      -3.82874872
C        0.91837965      -2.99067162       3.08617615
C       -2.53339069       2.89333191       0.19142266
C        2.61058247       1.82744131       1.18555380
C        3.59910379      -0.40707619      -0.41329618
C        2.25684907      -2.12690936       0.68241097
C        1.09516505      -2.93085644       0.64797845
C       -1.14698823      -0.11381171       2.65268138
C        0.27826711       2.94725471       0.77108940
C       -3.10080968      -1.33900448      -0.32006516
C       -0.77277173      -3.09460746       1.94678706
C       -1.17719423      -2.40894364       0.76411036
C       -3.33689326       2.11903577      -1.79142219
C        0.32216324      -1.98310724      -1.44598157
C       -3.76116910       0.91956071       0.27448072
C       -0.02644438      -2.51774635      -0.15803462
C        0.14143389       2.61849169      -2.78638628
C       -1.89481301      -1.28838170      -2.45755284
C       -2.26853096      -1.45294751       0.83806021
C       -1.38898763       1.06509322      -3.51859155
C        2.52838838       1.56595072      -1.63450019
C       -1.81949146       1.86844291       0.94922107
C       -0.49096022      -2.52748105       3.21447492
C       -3.48258941       0.81902115      -2.36658793
C        1.64361163      -1.39685454      -1.57777015
C        1.65591547       2.57363529       0.45436985
C        1.59055314      -0.50131177      -2.68831381
