60
Properties=species:S:1:pos:R:3 trial_index=10 seed_entry_id=5 discovered_entry_id=6 energy=-483.5290832519531 status=accepted pbc="F F F"
C        2.38182009      -2.53887826      -1.37640819
C        1.15201048      -0.01177993      -3.50687204
C        2.07827413       1.77008484       1.16694916
C        2.69107160      -1.32966912      -2.08442321
C       -2.78386975       0.89289663       2.24230411
C        3.16351800       0.84641967      -0.84123500
C        1.10010407      -4.12947110       3.48106938
C        3.07992234      -1.80923596       2.38050447
C       -2.44672927       2.40440499      -2.57710366
C        2.50137313      -4.11654659       3.30653689
C       -0.88314403       1.88114675       3.36419785
C        0.75965063       3.61938033      -0.47342384
C        1.27503750      -3.18110355      -2.11167938
C       -1.28903974       4.64595935      -0.37307358
C       -0.52648031       3.98877028      -2.44952267
C       -0.11659233      -4.29383254       2.90900181
C        0.37527097       3.23299086      -3.24555985
C       -2.00188871      -2.62387737      -0.46023991
C       -2.49573320      -2.45203672       0.90867071
C        1.64065977       1.18152365      -3.04097950
C       -3.02226556       2.01976947      -1.28434114
C       -2.45576556      -1.46944151      -1.18090142
C       -1.21157863      -4.01405682       2.39430826
C       -3.20096424      -0.47823488       2.20934154
C       -2.29239639      -3.18803862       2.13462966
C       -3.33894852      -1.35342114       3.31823934
C       -2.93188918      -0.48766077      -0.31173056
C        2.86879597      -2.72074386       3.45345434
C       -0.95236491      -3.44780000      -0.88268971
C        2.38986549       1.85381282      -0.24958382
C       -0.23236320      -0.06670840      -3.80494849
C        1.79819594      -1.28047901      -3.22465577
C       -2.99149685      -2.58634453       3.24496548
C       -2.41206550       4.29439671      -1.15874487
C        2.60504045       0.68993111       1.90269214
C       -1.34630593       0.48961860      -3.75372263
C        1.77940933      -3.08969213       4.26067208
C       -2.09287132       1.41071564       3.33038912
C        0.26639465       2.13430365       2.86197513
C        0.90419712       2.45770869       1.68809750
C        3.00263895      -2.41645098       1.12663568
C        0.14386589      -3.64340264      -1.43210875
C        1.62661425       2.71803249      -1.10687115
C        3.25844130      -0.21073394      -1.49252404
C        2.72823530      -2.68428777      -0.05160435
C       -2.97478898       0.94772800      -0.29401034
C       -1.31370443       2.48846935      -4.76137696
C       -0.15829668       2.95932709      -4.51944699
C        0.19776800       3.32265530       0.79793858
C       -3.00376916       3.21400151      -0.50646241
C       -0.13924313       4.43784020      -1.17394440
C        1.36283783       2.41726276      -2.53619408
C       -1.92038502       3.72942384      -2.37967370
C       -2.70223012       1.57202184       0.98396140
C        1.12872301      -2.49796667      -3.34755339
C        2.93929675      -0.41348333       2.35798860
C       -2.00962415       1.70550575      -3.74078342
C       -1.18467753       3.75495591       0.76597740
C       -3.01244133      -1.14098575       0.97537750
C       -2.37701404       2.95269313       0.74485337
