60
Properties=species:S:1:pos:R:3 trial_index=31 seed_entry_id=17 discovered_entry_id=19 energy=-490.00390625 status=accepted pbc="F F F"
C        1.87744920      -0.95084954      -2.53937062
C        2.42712229       1.35870057      -2.75648070
C        2.73883758       1.43397661       2.22069836
C        1.16025617       0.16047737      -4.53663122
C       -3.15082352       0.66750310       1.86080640
C        2.87961803       1.05070540      -0.31164423
C        1.43245130      -3.71204037       0.56092197
C        3.78923087      -1.12889991       0.66106801
C       -3.59977471       0.21885531      -3.02091131
C        1.52226696      -3.17959714      -0.78593169
C       -1.73007727       2.71306989       2.51063658
C        0.19856601       3.23704688       1.03639377
C        0.69497235      -1.74718282      -2.60024825
C       -2.11947650       4.21816143       0.70429833
C       -0.98497080       4.44513246      -1.00127140
C        0.11468684      -3.84548331       1.11096366
C       -0.03626802       4.48956456      -1.99330373
C       -0.93393563      -3.21010437       0.33420027
C       -1.86974295      -2.71429130       1.23298598
C        2.47843187       1.80257848      -1.48421354
C       -3.66394973       0.96407534      -1.84010742
C       -1.84836419      -1.74948679      -1.42101188
C       -0.34455384      -3.96349816       2.43364154
C       -2.90468841      -0.72865948       2.10689562
C       -1.51561862      -3.18863058       2.56579165
C       -2.73452835      -1.36353658       3.35556978
C       -2.67474779      -1.08174503      -0.43257033
C        3.34691331      -2.48425969       0.44285029
C       -0.84214392      -2.67638128      -0.95698689
C        2.37528858       1.74100331       0.86032724
C       -0.05821497      -0.57297203      -4.51908332
C        1.97510144       0.24368639      -3.37253229
C       -2.16506616      -2.48717005       3.61160922
C       -3.30437839       3.47709250      -1.36465864
C        3.78514451       0.52269897       2.41599817
C       -1.72251489      -1.35947159      -2.81000130
C        2.63295410      -3.38644761       1.23678453
C       -2.93387166       1.85208036       2.68924394
C       -0.30769992       2.72481667       2.32429499
C        1.85192256       1.90466051       3.19418676
C        2.72376649      -2.47611153      -0.85336217
C        0.43917793      -2.69806845      -1.55624278
C        1.42137997       2.75863202       0.40628440
C        3.27331830      -0.31487749      -0.41912362
C        2.75860432      -1.19756445      -1.44199109
C       -3.30489222       0.25354521      -0.60477286
C        0.39482304       0.06701059      -5.68152707
C        1.02984344       3.79639759      -1.84773635
C        0.66925727       2.30659172       3.22004663
C       -3.70327426       2.35500379      -1.72912785
C       -0.74693342       4.03454783       0.35696525
C        1.67683576       2.93542827      -1.01021984
C       -2.45612487       4.36962326      -0.72955770
C       -3.40383963       0.95066935       0.56596148
C       -0.41577930      -1.33635314      -3.39988349
C        4.20213125      -0.51394781       1.83511989
C       -2.79351590      -0.66940822      -3.39445582
C       -2.61772392       3.64624865       1.86930721
C       -2.59239163      -1.54517088       0.94691593
C       -3.75599946       3.02959082       2.42329850
