60
Properties=species:S:1:pos:R:3 trial_index=14 seed_entry_id=7 discovered_entry_id=8 energy=-491.73480224609375 status=accepted pbc="F F F"
C        1.69137777      -1.42149574      -2.39737129
C        2.27204384       1.05835573      -2.92665117
C        1.94503877       1.78175805       1.90443689
C        2.30330030      -1.47321795      -3.82585856
C       -3.35226350       0.07921930       1.85210526
C        2.86860129       0.86276709      -0.37331157
C        0.74972210      -3.92204792       0.86533346
C        2.97524989      -1.21893583       1.12932965
C       -1.79926143       2.50548249      -2.24617676
C        0.94352152      -3.34991279      -0.45460338
C       -1.51080745       1.49534562       2.93958348
C        1.23884761       4.01423822       0.26230495
C        0.26667526      -1.77204810      -2.21913564
C       -0.78254650       4.99230055      -0.15827583
C        0.26616842       3.97588546      -1.97720398
C       -0.58909648      -4.22454927       1.26886700
C        1.32005512       3.13796795      -2.43645523
C       -1.60418421      -3.59533160       0.45349000
C       -2.67436084      -3.30577250       1.31159756
C        2.77121922       1.48273232      -1.67115152
C       -2.65874325       2.26579844      -1.05773198
C       -2.37582748      -1.84265232      -1.10426407
C       -1.14151358      -4.50579610       2.52998847
C       -3.62498112      -1.29325003       2.26660524
C       -2.38259744      -3.84280227       2.62880759
C       -3.55377914      -1.96706020       3.49783974
C       -3.19888230      -1.34273968      -0.03857320
C        2.59975859      -2.60661894       0.96056198
C       -1.39822844      -2.85857013      -0.72717554
C        2.49457810       1.91391562       0.58917592
C       -0.66498602       0.32742868      -3.38102699
C        2.17100890      -0.26616219      -3.33218842
C       -3.05865124      -3.14799106       3.66971153
C       -1.77091157       4.44774934      -1.00041220
C        2.40174026       0.66367230       2.59770740
C       -2.07300315      -1.14385232      -2.23056185
C        1.82942878      -3.51725633       1.68375289
C       -2.60579824       0.89737648       2.61617225
C       -0.33027069       1.98661978       2.87721885
C        0.71732685       2.56451484       2.20563452
C        2.17613294      -2.69896020      -0.40632223
C       -0.07858601      -2.77058805      -1.25510304
C        2.21098332       3.10043035      -0.14027811
C        2.87680181      -0.55520749      -0.16833844
C        2.42985789      -1.53316922      -1.12723145
C       -3.03463385       1.08379469      -0.53257794
C        0.06505145       1.46744014      -3.69439613
C        1.29929733       2.03753258      -3.36466653
C        0.41868348       3.71006543       1.37153497
C       -2.53142242       3.49082023      -0.26372126
C        0.47530187       4.68470447      -0.73592628
C        2.33069029       2.82223003      -1.49844730
C       -1.14052253       3.75402126      -2.06845970
C       -3.29378780       0.06988789       0.30590037
C       -0.80873296      -0.96125152      -2.75722007
C        2.88550643      -0.46498286       2.28662794
C       -1.23127763       1.59724446      -3.13725467
C       -0.87812857       4.25477935       1.09198894
C       -3.36752387      -2.11201132       1.12943704
C       -2.08173708       3.54928426       1.04734689
