60
Properties=species:S:1:pos:R:3 trial_index=6 seed_entry_id=3 discovered_entry_id=4 energy=-492.2068786621094 status=accepted pbc="F F F"
C        1.38517462      -1.17205659      -2.21407351
C        2.56158854       1.06794344      -2.99325021
C        2.00100544       1.65161498       1.94966802
C        4.00329845      -0.41847237      -4.62252572
C       -2.99067804       0.67014068       2.36269428
C        2.97085889       0.85293430      -0.35759547
C        0.59333762      -3.84297274       0.81739651
C        3.02772735      -1.27795615       1.04489465
C       -1.89420610       1.99466379      -2.38048440
C        0.79848793      -3.30638805      -0.52062025
C       -1.23964997       1.69825064       3.71356596
C        0.92850537       3.70683796       0.29629271
C        0.15637215      -1.77600122      -2.34636567
C       -1.20036502       4.38283785      -0.12901515
C        0.00652494       3.60747148      -1.96417542
C       -0.76417392      -3.99921034       1.25933076
C        1.15065032       2.87166801      -2.38512291
C       -1.71890764      -3.26546623       0.46150072
C       -2.67397232      -2.74081454       1.33368369
C        2.87568334       1.49563631      -1.65616677
C       -2.74167357       1.65213567      -1.21994232
C       -2.42634092      -1.62290227      -1.21592266
C       -1.34072695      -4.19548227       2.52523608
C       -3.40488868      -0.69887302       2.35017577
C       -2.47726463      -3.36786796       2.63005777
C       -3.50776415      -1.48771119       3.51869612
C       -2.98873509      -0.81194572      -0.14539701
C        2.52022181      -2.62468928       0.85160532
C       -1.51153752      -2.67858161      -0.78869674
C        2.49051376       1.83864221       0.61855991
C       -0.68595423       0.07008645      -3.74673002
C        3.30257258       0.25272136      -3.82838074
C       -3.16045522      -2.71372300       3.68838281
C       -2.12151773       3.92720553      -1.09156894
C        2.55192684       0.55180100       2.61669949
C       -2.19494624      -1.20728730      -2.49431548
C        1.72219472      -3.50072284       1.59671962
C       -2.42097482       1.22201112       3.50204347
C       -0.02469377       1.96737003       3.40207725
C        0.75432609       2.34271200       2.33971531
C        2.03276438      -2.65634760      -0.49534929
C       -0.21714474      -2.76254622      -1.34314911
C        2.04385074       2.97814314      -0.09760137
C        2.92588381      -0.56124548      -0.21059236
C        2.28040048      -1.43423827      -1.18967392
C       -2.92498060       0.61832257      -0.17297810
C        0.14940940       1.19040126      -3.79788245
C        1.31028954       1.79292310      -3.32075739
C        0.13920380       3.23393474       1.37556811
C       -2.82843049       2.88098204      -0.49320571
C        0.09597624       4.28303303      -0.69456893
C        2.20347060       2.72700060      -1.45770298
C       -1.37727616       3.31024449      -2.14451505
C       -2.78883538       1.30510374       1.10169825
C       -0.95050822      -1.15340735      -3.06870713
C        3.02390272      -0.56137662       2.23440354
C       -1.21308327       1.30736869      -3.39234390
C       -1.24877752       3.51694397       1.03891517
C       -3.17139412      -1.43732352       1.13708816
C       -2.39934122       2.66765410       0.84769510
