60
Properties=species:S:1:pos:R:3 trial_index=27 seed_entry_id=14 discovered_entry_id=16 energy=-491.4974060058594 status=accepted pbc="F F F"
C        1.55274353      -0.88150034      -2.54784414
C        2.29242723       1.37732935      -2.83306684
C        2.87536385       1.33750376       2.11941976
C        0.66041575       0.34034467      -4.40646104
C       -2.98875942       0.40870982       2.11847660
C        2.93424425       1.02106139      -0.45081859
C        1.35915936      -3.77436568       0.46581176
C        3.76871207      -1.22184957       0.43613515
C       -3.92047190       0.23411008      -1.57146132
C        1.32869226      -3.17963519      -0.86032126
C       -1.48544136       2.32794166       2.14267429
C        0.44885568       3.27888049       0.94947391
C        0.33509446      -1.63530531      -2.50259318
C       -1.76842093       3.84169057       0.15815735
C       -0.47854916       5.85017027      -1.64951969
C        0.09588898      -3.96489806       1.11914164
C        0.16929335       4.73183531      -1.09607651
C       -1.04032188      -3.36773024       0.44367343
C       -1.94038080      -2.97385634       1.43376058
C        2.52187596       1.82883657      -1.58854826
C       -4.30799407       0.43070784      -2.89226860
C       -2.11560403      -1.84110276      -1.14635237
C       -0.24606101      -4.13100673       2.47390069
C       -2.99106048      -1.02291868       2.39857292
C       -1.44949781      -3.43364503       2.71966444
C       -2.67967796      -1.64289868       3.62594660
C       -2.92895424      -1.33688375      -0.07984302
C        3.26800631      -2.55758491       0.22058155
C       -1.05302054      -2.75310662      -0.82085633
C        2.53177087       1.70011626       0.76718452
C       -0.58621520      -0.32148941      -4.25845315
C        1.63223479       0.32022308      -3.36818450
C       -2.04490972      -2.74795306       3.80926265
C       -2.84394931       3.99363476      -0.79902640
C        3.87602577       0.36661632       2.26728782
C       -2.08541303      -1.18646314      -2.42332633
C        2.61836732      -3.48176119       1.04453871
C       -2.07599468       1.22592150       2.74487949
C       -0.09361395       2.73888152       2.17775299
C        2.01026799       1.84383087       3.10006308
C        2.52940336      -2.49036186      -1.01062475
C        0.18362057      -2.66290401      -1.50715411
C        1.65216798       2.77665768       0.37313754
C        3.21850335      -0.36709910      -0.59623840
C        2.54806809      -1.19978288      -1.56938614
C       -3.63173357      -0.09248022      -0.23730904
C       -0.26370205       0.36409135      -5.43632992
C        1.23349981       4.05736697      -1.63566441
C        0.83624177       2.29438039       3.11203871
C       -3.76094543       3.05253597      -0.60690396
C       -0.38995233       4.06167039       0.07822691
C        1.86067482       3.02491003      -1.03997546
C       -0.83604028       6.93867136      -2.14226987
C       -3.54334537       0.84475106       0.83110446
C       -0.84980804      -1.13288099      -3.14618361
C        4.22975739      -0.65020251       1.61338765
C       -3.17475966      -0.33766033      -2.66619450
C       -2.23298656       2.84750715       1.06379465
C       -2.75238576      -1.84273079       1.24890719
C       -3.37693326       2.21813575       0.51140627
