60
Properties=species:S:1:pos:R:3 trial_index=35 seed_entry_id=18 discovered_entry_id=21 energy=-493.0382995605469 status=accepted pbc="F F F"
C        1.17178124      -0.97838137      -2.33803596
C        2.05689071       1.18791240      -2.93419039
C        3.16845335       1.37902238       1.88897002
C        0.45684654      -0.03494955      -4.42133182
C       -2.85111190       0.77355534       2.31075622
C        2.96510553       0.99268061      -0.64291915
C        2.43808471      -4.63034400       0.82370808
C        3.85822115      -1.25798998       0.21584223
C       -4.38565833       1.00208713      -1.20036740
C        0.94038815      -3.20204483      -0.48509614
C       -1.19291075       2.55946543       2.29288847
C        0.69716941       3.37404512       0.88957106
C       -0.04174355      -1.71560769      -2.21599660
C       -1.53803688       4.12288726       0.40881859
C       -0.93587174       5.34704185      -1.90602013
C       -0.01438562      -4.79711172       1.10076649
C        0.14440450       4.62221937      -1.27309596
C        1.09642438      -4.34953011       0.40485472
C       -1.96813574      -2.45335946       0.95707995
C        2.44367352       1.74263624      -1.77325718
C       -4.20696898       0.47086890      -2.37805307
C       -2.45890271      -1.43722607      -1.05687500
C       -0.98917159      -4.45854005       1.79268053
C       -2.89735795      -0.68807544       2.43624897
C       -1.72554795      -3.31172079       2.07806666
C       -2.62786611      -1.57291074       3.50271443
C       -3.13059638      -0.71884274      -0.03728457
C        3.28161135      -2.57815664       0.14104387
C       -1.54051608      -2.39063581      -0.43208672
C        2.71029196       1.73651893       0.56872688
C       -0.78202083      -0.70669429      -4.26844192
C        1.33798237       0.10450198      -3.31519418
C       -2.17054095      -2.76683889       3.32378395
C       -2.61736040       4.45115237      -0.50784336
C        4.17710881       0.40271820       1.94851418
C       -2.40425296      -1.10383330      -2.44688729
C        3.43117630      -3.80980018       0.78762739
C       -1.80573640       1.46824070       2.88084294
C        0.23444396       2.86361211       2.17144263
C        2.38498452       1.89658821       2.92906144
C        2.11390288      -2.45085381      -0.66488940
C       -0.25767096      -2.58528194      -1.05220893
C        1.82574340       2.82084211       0.21550753
C        3.13537389      -0.41621913      -0.72030093
C        2.15659448      -1.23578311      -1.37104689
C       -3.79505391       0.55837538      -0.01907500
C       -0.37287017      -0.20745492      -5.51287945
C        1.21181736       3.98739417      -1.84863683
C        1.22375374       2.37468466       3.01472588
C       -3.68393287       3.58702409      -0.19758930
C       -0.18869969       4.16646554       0.08011439
C        1.89155620       2.99839696      -1.23033982
C       -2.17338616       5.25916281      -1.59011831
C       -3.50783231       1.36315316       1.13796810
C       -1.13364713      -1.31424572      -3.05731824
C        4.47130075      -0.63703687       1.29674160
C       -3.41810713      -0.33376008      -3.02393828
C       -2.01797653       3.21609749       1.35234471
C       -2.76632332      -1.30491580       1.17955668
C       -3.28645486       2.74642762       0.87688542
