60
Properties=species:S:1:pos:R:3 trial_index=1 seed_entry_id=0 discovered_entry_id=1 energy=-482.3556213378906 status=accepted pbc="F F F"
C        2.37204742      -2.26015913      -1.30530819
C        1.98188876       0.56527266      -2.93331889
C        1.96737795       2.06829137       1.72218574
C        2.94058467      -1.58553302      -2.38601837
C       -2.84136884       1.08916721       2.05449102
C        2.78514266       0.74995364      -0.37252538
C        0.25626998      -4.16263545       1.69991054
C        2.18675834      -1.37852329       3.14003404
C       -2.93090026       0.87446269      -2.98306674
C        0.73898520      -3.45990582       0.56141789
C       -1.11788345       2.11545941       3.45756492
C        1.16335530       3.94538996      -0.29384394
C        0.97689374      -2.47546266      -1.57380179
C       -0.98417004       4.37379635      -0.97710100
C        0.41845378       3.78293911      -2.71078712
C       -0.75947823      -4.67386983       2.47388624
C        1.43486942       2.79340580      -2.92677119
C       -2.32965588      -3.18251585       0.03751866
C       -3.17517241      -2.38380578       0.56412189
C        2.59664500       1.15878991      -1.77291450
C       -3.16636094       1.92733018      -2.06106616
C       -1.61780386      -1.46873043      -1.49546601
C       -0.50623493      -3.67599707       3.58481003
C       -3.11455673      -0.30322697       1.75981045
C       -1.42599473      -2.82660593       4.07661415
C       -2.82808037      -1.13376788       2.82062149
C       -2.62554788      -0.57619629      -0.89145268
C        1.70059554      -2.46016069       2.48103431
C       -1.27991209      -2.69188150      -0.77309722
C        2.51108218       2.00832219       0.39677214
C       -1.27400981      -0.59284070      -3.83423003
C        1.85035909      -0.86508604      -2.91322971
C       -2.25378617      -1.94240005       3.61750439
C       -1.80208169       3.95353066      -2.09421417
C        2.24916469       1.08669304       2.62733866
C       -0.77977967      -1.15910623      -2.65778493
C        0.74350662      -3.47391181       2.89398438
C       -2.18920411       1.39713298       3.26495152
C       -0.06440470       2.66211181       2.98200129
C        0.77083539       2.94228375       1.93143682
C        1.78549566      -2.60659335       1.02693742
C        0.09622466      -3.07261894      -0.66656450
C        2.20043532       3.04072060      -0.52711279
C        2.81009911      -0.48953874       0.16588987
C        2.51391566      -1.80250377       0.08475848
C       -3.00208866       0.54434212      -1.64825895
C       -1.64167129      -0.25237450      -5.13151947
C        1.36607502       1.60308193      -3.67309231
C        0.32341919       3.75431319       0.83770103
C       -2.96494111       3.22272883      -1.90681239
C        0.36078911       4.33739969      -1.38749563
C        2.30881165       2.53368229      -1.82570439
C       -0.89395518       3.76923686      -3.19719458
C       -2.75856090       2.16617233       1.16862852
C        0.59815814      -1.53966601      -2.53639800
C        2.35864260      -0.10887148       3.04866865
C       -2.32739596       0.33629826      -4.06768504
C       -1.05914218       3.94776734       0.38672295
C       -3.13375854      -0.97029916       0.45809837
C       -2.12205631       3.18584314       0.83341727
