60
Properties=species:S:1:pos:R:3 trial_index=18 seed_entry_id=0 discovered_entry_id=11 energy=-474.8607482910156 status=accepted pbc="F F F"
C        1.75413285      -3.36263396      -0.91772405
C        2.05770030       0.15139784      -2.28073336
C        1.87647542       1.84504630       2.14682942
C        2.51159748      -2.17711926      -1.15208737
C       -2.96372503       1.03279345       2.33481146
C        2.44962135       0.63039310       0.16682041
C        0.01536471      -3.79803648       0.98294059
C        2.55215760      -1.60082748       2.34809019
C       -2.90843804       0.95845110      -2.94797649
C       -0.08859448      -1.55446490       0.07886111
C       -1.26782552       1.63792022       3.74821698
C        1.19637330       3.55164120       0.02599551
C        0.43366939      -3.28980060      -1.40662127
C       -0.85716933       4.02990438      -0.91456519
C        0.83778619       3.56385090      -2.45297439
C        0.10638762      -0.49608997       1.07016854
C        1.76127197       2.45792342      -2.51501634
C       -2.88027079      -3.18401619       0.25463442
C       -3.22813059      -2.07981957       0.79716327
C        2.74230766       0.85045765      -1.21889359
C       -3.16517075       2.35602025      -3.01292510
C       -1.91290110      -1.88113226      -1.56894499
C       -0.04450986      -2.57100473       2.94486977
C       -2.33837054       0.14524748       1.40099294
C       -0.88239630      -1.79049678       3.50176314
C       -0.84827251       0.16301870       1.93851560
C       -2.61871302      -0.72160843      -1.03177398
C        2.07461004      -2.58098204       1.55133044
C       -1.81678456      -2.96585087      -0.65085762
C        2.57504108       1.85715907       0.88683725
C       -1.38747225      -0.96286256      -3.73384924
C        1.53136195      -1.23292998      -1.89749588
C       -1.40078144      -0.56058336       3.17798297
C       -1.42733672       3.99307789      -2.25785883
C        2.21874166       0.78868446       2.95752773
C       -0.96174333      -1.74178672      -2.64236365
C        0.75857228      -3.15891531       1.94324892
C       -2.23796287       0.63332252       3.58959133
C       -0.46681032       1.50757982       2.63595137
C        0.52610257       2.35889785       2.05162438
C        2.35945004      -2.76123096       0.16531864
C       -0.41043782      -3.02245147      -0.19800234
C        2.39987008       2.86442480      -0.10477774
C        1.24560737      -0.05526625       0.30635046
C        0.80175765      -0.88143464      -0.71498559
C       -2.95903832       0.33819423      -1.75585779
C       -1.69200390      -0.47466793      -5.01578233
C        1.56382047       1.17603714      -3.09161694
C        0.20522376       3.23520970       0.99120922
C       -2.65338870       3.42282477      -2.62585735
C        0.53369162       3.97141795      -1.12307627
C        2.59898928       2.25161401      -1.37884892
C       -0.33083684       3.84010728      -3.16887369
C       -2.95017940       2.32295157       1.78897413
C        0.36426113      -2.22505961      -2.37420883
C        2.55156613      -0.45484567       2.91784837
C       -2.23587462       0.13597529      -3.89281858
C       -1.12377188       3.54351595       0.44240657
C       -2.85835422      -0.78118372       0.46141915
C       -2.28932373       3.11318028       1.07407793
