60
Properties=species:S:1:pos:R:3 trial_index=12 seed_entry_id=4 discovered_entry_id=7 energy=-493.66485595703125 status=accepted pbc="F F F"
C        1.76748571      -1.26818501      -2.30762896
C        2.31927838       0.99612983      -2.84231962
C        1.98108963       1.66883609       2.02182173
C        2.23571767      -0.74675339      -4.65294819
C       -3.02177178       0.63339686       2.27327566
C        2.93168266       0.84125739      -0.27318008
C        0.66755557      -3.83037510       0.83046444
C        3.06050649      -1.26920018       1.17887541
C       -1.82829507       2.07052922      -2.40272898
C        0.94776735      -3.29131101      -0.49293783
C       -1.31434037       1.64879163       3.68210166
C        0.94019552       3.72963796       0.35296622
C        0.42997788      -1.77006881      -2.36272778
C       -1.18489045       4.41342912      -0.09407860
C        0.06304330       3.70906561      -1.93270089
C       -0.71009483      -3.99920631       1.19911642
C        1.22119475       3.00183482      -2.36604886
C       -1.61228032      -3.24020356       0.36465025
C       -2.62621594      -2.74871224       1.18925791
C        2.76780292       1.44651304      -1.57522831
C       -2.68893396       1.70276676      -1.27071449
C       -2.23511112      -1.57170232      -1.30803247
C       -1.36074661      -4.23152687       2.42140752
C       -3.43266003      -0.73635142       2.21015562
C       -2.50490081      -3.40856947       2.47841990
C       -3.59819113      -1.55349899       3.35137959
C       -2.89621358      -0.79361798      -0.26437889
C        2.59807986      -2.62888422       0.97339366
C       -1.33248722      -2.62315351      -0.85574575
C        2.48667127       1.85101565       0.69475038
C       -0.49498495       0.18827282      -3.73347230
C        2.27893388      -0.36595718      -3.36293688
C       -3.25410325      -2.78247900       3.50905269
C       -2.08523888       3.97514079      -1.08269890
C        2.52664115       0.57844446       2.70721338
C       -1.91741906      -1.15393503      -2.55793860
C        1.75167860      -3.49424187       1.67194849
C       -2.48632256       1.16152115       3.44007348
C       -0.09565243       1.93659345       3.40715971
C        0.71658947       2.34068068       2.38005868
C        2.19434651      -2.68115023      -0.40249315
C       -0.00847947      -2.70043723      -1.35703046
C        2.06084736       2.99952395      -0.03484721
C        2.98018206      -0.56974043      -0.09187304
C        2.49084790      -1.49532930      -1.08818856
C       -2.87756539       0.64005545      -0.25707436
C        0.18549508       1.38663309      -3.88214627
C        1.35205920       1.94175426      -3.33036808
C        0.12711155       3.24039140       1.41068215
C       -2.80062692       2.91428680      -0.52036472
C        0.12340988       4.33391332      -0.63618347
C        2.22002477       2.74451519      -1.39696695
C       -1.31714355       3.38636608      -2.13575526
C       -2.78426456       1.30026561       1.03529790
C       -0.63393337      -1.07245235      -3.07770474
C        3.01425452      -0.53750251       2.35625171
C       -1.15677825       1.39412568      -3.42664095
C       -1.25408243       3.52386368       1.05285044
C       -3.13025943      -1.44717644       0.99417161
C       -2.39956138       2.67330263       0.82427666
