115
Lattice="13.75323 0.0 0.0 0.0 13.75323 0.0 0.0 0.0 23.89" Properties=species:S:1:pos:R:3 entry_id=27 rank=0 energy=-574.8510131835938 pbc="T T F"
Pd       0.00000000       0.00000000      10.00000000
Pd       2.75064538       0.00000000      10.00000000
Pd       5.50129076       0.00000000      10.00000000
Pd       8.25193614       0.00000000      10.00000000
Pd      11.00258152       0.00000000      10.00000000
Pd       0.00000000       2.75064538      10.00000000
Pd       2.75064538       2.75064538      10.00000000
Pd       5.50129076       2.75064538      10.00000000
Pd       8.25193614       2.75064538      10.00000000
Pd      11.00258152       2.75064538      10.00000000
Pd       0.00000000       5.50129076      10.00000000
Pd       2.75064538       5.50129076      10.00000000
Pd       5.50129076       5.50129076      10.00000000
Pd       8.25193614       5.50129076      10.00000000
Pd      11.00258152       5.50129076      10.00000000
Pd       0.00000000       8.25193614      10.00000000
Pd       2.75064538       8.25193614      10.00000000
Pd       5.50129076       8.25193614      10.00000000
Pd       8.25193614       8.25193614      10.00000000
Pd      11.00258152       8.25193614      10.00000000
Pd       0.00000000      11.00258152      10.00000000
Pd       2.75064538      11.00258152      10.00000000
Pd       5.50129076      11.00258152      10.00000000
Pd       8.25193614      11.00258152      10.00000000
Pd      11.00258152      11.00258152      10.00000000
Pd       1.33305437       1.38035701      12.05221797
Pd       4.08925664       1.38750338      11.98771029
Pd       6.82888190       1.38154444      11.99332965
Pd       9.57512057       1.39592898      11.89594876
Pd      12.38684272       1.37174114      11.92044161
Pd       1.37065655       4.09970544      12.00656864
Pd       4.10125007       4.12393621      12.00820233
Pd       6.82444734       4.12497179      12.00908219
Pd       9.56728621       4.13975942      11.94281254
Pd      12.36578195       4.13265160      11.93417299
Pd       1.37110082       6.89256210      11.94010419
Pd       4.13935064       6.87026939      11.96482277
Pd       6.87097415       6.85831372      11.95140951
Pd       9.64205429       6.82915781      11.94515418
Pd      12.39111484       6.85622887      11.94896407
Pd       1.35216595       9.69735034      11.99083951
Pd       4.11777592       9.66324146      11.95099537
Pd       6.89476706       9.64088005      11.95142944
Pd       9.64982872       9.59779534      11.89439304
Pd      12.42487279       9.60955999      11.94161946
Pd       1.35802606      12.41462245      12.04582394
Pd       4.10624816      12.40887780      12.00662317
Pd       6.86816975      12.39901143      11.97280504
Pd       9.63028672      12.36702810      11.91406436
Pd      12.41879361      12.34804731      11.97632258
Pd      13.70436665       0.09925562      14.04974064
Pd       2.74318429       0.08311534      14.00885019
Pd       5.41961591      13.64338036      13.96864790
Pd       8.22501938       0.05552196      13.87620748
Pd      11.01053093      13.71574820      13.87218071
Pd      13.66280068       2.78591908      14.05908392
Pd       2.65666984       2.84214049      14.14871015
Pd       5.41262605       2.55537814      14.06786075
Pd       8.24058485       2.76210244      13.95849952
Pd      10.93222123       2.66825560      13.87167864
Pd       0.01257783       5.50273473      13.99538634
Pd       2.69230523       5.59918881      13.96511781
Pd       5.50227106       5.68386263      13.98034417
Pd       8.26480100       5.53307043      14.02401221
Pd      11.03750559       5.37348366      13.96840618
Pd       0.01340590       8.20690712      13.96828710
Pd       2.82182912       8.31477137      13.95941677
Pd       5.57607757       8.33167683      13.91360404
Pd       8.28126915       8.30205434      13.98586921
Pd      10.99437088       8.12031424      14.05490478
Pd      13.73518247      11.17599971      14.00563023
Pd       2.80284196      11.06170977      13.96580857
Pd       5.54216994      10.95438831      13.96383595
Pd       8.26898587      11.07103982      14.06715806
Pd      11.00026556      10.89819893      13.96039380
Pd      12.58159529       6.12219843      16.46620148
Pd       9.59355102       9.41329778      16.23144788
Pd       1.49331120      12.50590665      15.94657618
Pd       1.48733086       7.17471939      16.00482936
Pd      12.26686367       9.10007680      16.53488472
Pd       9.20403857       1.32994565      16.25331188
Pd       3.87575247       1.18715042      16.36310265
Pd       6.87439490      10.38902191      16.39980934
Pd       4.32547591      12.10400936      16.04540419
Pd      11.70773265      12.82905325      16.49667635
Pd       0.98334270       4.36482379      16.55449863
Pd       3.91240827       4.92578374      16.33580833
Pd      11.41143340       2.80516948      16.51279083
Pd       1.86874067       9.92569168      16.23032659
Pd       6.95830916       7.14324078      16.54493117
Pd       6.80411144      13.70591941      16.19932085
Pd       9.90965931       6.30319738      16.38587502
Pd       7.07155062       3.51773863      16.36689171
Pd       0.10958722       0.93111059      16.86384437
Pd       4.24455102       8.54693750      16.33721822
O        8.61895350       2.83047114      17.25871935
O       11.16753425      10.77295231      16.03203471
O       13.60175742      12.70897257      17.23626279
O       11.91600356       1.01196083      17.21918336
O       10.02985857      13.41289604      15.63213007
O        3.63513507      10.34555354      16.93699544
O        2.09788044       0.49112037      16.84019473
O        2.91235868       3.17064729      16.21676318
O        7.77390342      12.02274880      15.91471102
O        0.08878763       9.72709044      15.42170272
O        5.01121207       6.66473939      16.07591391
O        2.28414962       5.70985913      17.17055984
O        7.91341454       5.38386103      16.08743300
O        8.79178872       7.78976148      17.02107947
O        5.47787027       4.15672256      15.38132934
O       13.57130061       2.83586417      16.15496017
O       11.18136419       4.76435688      15.99730087
O       13.52123995       7.66322398      17.15419329
O        5.85530338       1.69219140      16.33267963
O        6.09563739       8.79906439      17.20910572
