60
Properties=species:S:1:pos:R:3 system=runs/20260728-safe-lbfgs-strict-quench-200-production/output-c60-seed42 state_id=intermediate_accepted pbc="F F F"
C        0.29773329      -2.53586036      -1.97161059
C        3.67717138       0.14957307       0.03147144
C        0.79999849      -1.12707030       2.49483593
C       -3.14030624       2.29476679      -0.46898610
C       -4.06063570       0.00650528      -0.50643513
C        3.25566867      -0.37714122       1.96876020
C       -0.76169362      -3.01387818      -1.13113390
C        1.20420625      -3.67832776      -0.14002453
C       -0.99522871       2.95206208       2.16576145
C       -2.30355426       3.25763728      -1.10423796
C       -2.81362265      -0.07615940       1.72906666
C        0.61419901       1.68030498       3.08160379
C        0.32720205      -1.30929640      -2.74540815
C       -1.82063755       3.36617485       1.12187136
C        1.42352094       2.75063223       1.13876481
C       -0.42962801      -2.89226983       1.26125445
C        2.40165667       1.78026685       1.64336776
C       -1.75761005       1.68774205      -2.86775284
C       -2.68107355       0.75982905      -2.30498724
C        2.58894574      -2.17187265      -1.14373989
C       -0.27903537       3.46145624      -2.09032281
C        0.63471097       1.55818320      -3.32904148
C       -4.00509257      -1.32072708      -1.04967817
C       -2.07378757      -2.53383455      -0.96956740
C       -2.60667812      -2.51073138       0.35399251
C       -1.68218779      -2.24326258       1.40506431
C        0.80992665       2.74685997      -2.55885355
C       -0.18399563      -3.58881109       0.04648464
C       -0.63317523       0.94466317      -3.33543697
C        1.99338873      -0.31476132       2.66093589
C        2.44591829       1.32144545      -1.87414177
C        2.65182761      -0.97541727      -1.85564517
C       -3.85150591      -1.85310756       0.30514668
C       -1.38309917       3.80209953      -0.13313965
C        0.80629922      -2.36257692       1.74532150
C        1.71537420       0.73982947      -2.97626559
C       -2.79336645      -1.61938327      -1.77140227
C       -3.80111685      -0.51448345       0.81182383
C       -1.73548089      -0.98675399       2.08935793
C       -0.51446608      -0.48657925       2.72220421
C        1.50373840      -3.04542283      -1.38713030
C       -0.81798060      -0.46069657      -3.01709705
C        1.79728802       1.08562622       2.72938987
C        3.54430005      -1.08745109       0.77902847
C        3.13595743       0.23829498      -1.25397203
C        1.74664278       2.51746778      -1.47889441
C       -1.57734200       1.75225805       2.72029173
C        3.44677806       0.91878649       1.22141119
C       -0.55383294       0.87883765       3.15466165
C       -1.60462107       2.97528249      -2.30441776
C        0.41009101       2.80617661       2.19289608
C        2.87473794      -2.18646066       0.25546713
C       -0.07425562       3.74204772      -0.69026775
C       -3.46196392       1.09511259      -1.16598604
C        1.61743166      -0.65994429      -2.80282908
C        1.84218485      -2.91703787       0.90621172
C        1.16037065       3.10317118      -0.24739472
C       -2.64836996       1.32746337       1.90614621
C       -2.17957573      -0.57535738      -2.49088223
C       -2.86174233       2.36455824       0.93232563
