60
Properties=species:S:1:pos:R:3 system=runs/20260728-safe-lbfgs-strict-quench-200-production/output-c60-seed42 state_id=intermediate_accepted pbc="F F F"
C       -2.20257008      -1.81749929      -1.17680703
C        2.02747052      -4.08497741       0.38409184
C       -0.24117755      -1.56738426       2.21469505
C       -0.53237304       4.02339673      -0.68847341
C       -2.84680937       3.22898144      -0.04401000
C        1.40603990      -3.45956726       2.17868332
C       -3.34186288      -1.35165346      -0.46537518
C       -2.66509941      -3.37817567       0.49851692
C        1.95200001       2.45146974       1.08549842
C        0.52000793       4.11520843      -1.65252464
C       -1.57050722       2.03881272       1.73474233
C        2.16614689       0.09786231       1.64398624
C       -1.17439424      -1.03280663      -1.84178478
C        1.57665026       3.60827518       0.33465436
C        3.54212800       1.46047241      -0.23767767
C       -2.67843002      -1.53244534       1.80460059
C        3.31139246      -2.30402502       1.62596866
C       -0.64592295       2.46252090      -2.93214153
C       -1.86433690       2.62054953      -2.17769154
C       -0.55943310      -3.49285554      -0.50672760
C        1.83862290       2.88204088      -3.08170874
C        0.89802964       0.58896943      -3.03152755
C       -3.92456617       2.30013504      -0.31111570
C       -3.72271212       0.00216850      -0.27630909
C       -3.80072438       0.44812395       1.07986450
C       -2.78634375      -0.12640509       1.91472226
C        1.97925448       1.47718130      -3.23771985
C       -3.37243100      -2.16827981       0.73736091
C       -0.37708742       1.07712715      -2.87884164
C        1.08792622      -2.08336167       2.16052498
C        2.63987572      -0.38025375      -2.07327471
C        0.54901899      -2.82155451      -1.11746157
C       -3.95277803       1.84761842       1.06998997
C        1.81938480       3.91304705      -1.02898405
C       -1.49424083      -2.27537145       2.09192464
C        1.31056846      -0.67477980      -2.40350215
C       -3.53767527       1.15198339      -1.09924221
C       -2.77910096       2.64275816       1.28737494
C       -1.59168005       0.63117843       2.10181331
C       -0.33648956      -0.12583708       2.22428999
C       -1.88520212      -3.07211370      -0.66281971
C       -1.41847568       0.33356977      -2.25931951
C        2.29767928      -1.33752984       1.80715974
C        0.79875593      -4.30926972       1.25258142
C        1.77259087      -3.26142208      -0.68950050
C        3.02542670       0.93500467      -2.41653594
C        0.82099388       1.96140009       1.76113084
C        2.75401013      -3.54172646       1.59684547
C        0.88212842       0.57791926       2.00462566
C        0.47778845       3.34338862      -2.84916343
C        2.86368894       1.31525060       0.92245142
C       -0.49407934      -4.05674036       0.77797776
C        2.66545608       3.21033124      -1.92846889
C       -1.84550953       3.50427350      -1.04084345
C        0.24272021      -1.55335037      -1.86852854
C       -1.63881069      -3.56972481       1.50964092
C        3.39971652       1.99491405      -1.48600069
C       -0.34176817       2.71452273       1.48888790
C       -2.45622564       1.31637125      -1.97525672
C        0.09391202       3.74256363       0.55293509
