60
Properties=species:S:1:pos:R:3 system=runs/20260728-safe-lbfgs-strict-quench-200-production/output-c60-seed42 state_id=intermediate_accepted pbc="F F F"
C       -2.53564236      -2.15158548       0.73525250
C        2.13393825      -2.85385698      -0.00333639
C        1.11184403      -0.03657169       2.52615462
C       -0.96158235       3.55606915      -2.21476008
C       -2.99497843       3.20994759      -0.46620264
C        2.71694478      -1.83860750       1.69561276
C       -3.02814516      -1.15156201       1.66046570
C       -1.52898241      -2.53179642       2.78222057
C        2.17563878       2.99040358      -0.69819854
C       -0.24699892       2.82327350      -3.25779469
C       -1.01333451       2.59499886       0.80203322
C        2.93604305       1.62387505       0.96345007
C       -2.16134500      -1.99109219      -0.64263318
C        1.38465434       3.39280572      -1.78619458
C        2.83555706       0.53690438      -1.11753938
C       -1.30966918      -0.28668685       3.08600239
C        3.16732092      -0.39731700      -0.06239261
C       -1.18017893       0.91517229      -2.45081760
C       -1.69545974       1.56264005      -1.34247994
C       -0.46770136      -3.42549479       0.94513000
C        0.46608166       0.69940945      -3.96906795
C       -0.84471200      -1.31081008      -3.28046995
C       -3.88355489       2.21881685       0.21215706
C       -3.53571389       0.15981785       1.41919231
C       -3.02522493       1.22359999       2.22693488
C       -1.65854131       0.96982277       2.51788262
C        0.39456341      -0.68012943      -3.70875113
C       -2.24351130      -1.31374577       2.84908500
C       -1.45395926      -0.43014356      -2.38935046
C        2.42921900      -0.51265130       2.16037737
C        0.89010908      -2.25978412      -2.13944465
C       -0.19544764      -3.38773323      -0.43316733
C       -3.34193728       2.43918091       1.55098783
C        1.14344486       2.62573511      -2.91722956
C        0.01833698      -0.83568590       3.02234276
C       -0.48610445      -2.43725247      -2.49672658
C       -3.50237666       0.81692775       0.14798705
C       -2.33197076       3.07738898       0.79689113
C       -0.66705421       1.58385055       1.73411068
C        0.72843476       1.24290053       1.97374375
C       -1.72969711      -3.05241933       1.47163849
C       -2.06612350      -0.70600897      -1.15932304
C        3.12214935       0.27634322       1.18557148
C        1.82000804      -2.89866804       1.43275274
C        1.08700087      -2.98850775      -0.93447564
C        1.38124835      -1.02290309      -2.72952414
C        1.31718606       3.06618823       0.45774696
C        3.07026855      -1.77417286       0.24666895
C        1.69735093       2.12201045       1.43602383
C       -0.66631588       1.51094071      -3.59393034
C        2.97185809       1.84339341      -0.49072906
C        0.51210029      -3.02786219       1.88516835
C        1.52645998       1.26681824      -3.17699361
C       -2.07387541       2.89547932      -1.51761242
C       -1.22174150      -2.89927245      -1.32561691
C       -0.12522549      -2.24720886       2.89292508
C        2.06101647       0.23895641      -2.32046498
C       -0.01139818       3.26455155       0.04495707
C       -2.33767045       0.57631096      -0.55008735
C        0.06796728       3.76528290      -1.27794301
