60
Properties=species:S:1:pos:R:3 trial_index=7 seed_entry_id=6 discovered_entry_id=7 energy=-481.3744812011719 status=accepted pbc="F F F"
C       -0.72734801      -4.33178647      -0.67011680
C       -2.24471543      -0.97608607       0.07569149
C       -0.47014725       1.62844664      -2.73185694
C       -1.77417769      -3.41431842      -1.00932060
C       -0.07959517       1.36920632       2.11159325
C       -2.07686171      -0.22394674      -2.18920087
C        1.80374190      -3.01837672      -1.05248165
C       -0.43327057      -1.77618943      -3.41208351
C       -0.89027180       1.43456470       3.24697531
C        0.51976949      -0.59247762      -0.59726011
C        2.57673216       2.24592096      -2.69475830
C       -2.14413182       3.14277197      -1.09850814
C        0.02876688      -3.81406722       0.43689525
C       -1.82832336       4.59463786       0.64394294
C       -2.79318443       2.58956838       1.14351234
C        0.97297807       0.41365252      -1.41475328
C       -2.76505382       1.23756483       0.71262242
C        2.90869699      -1.68976187       0.46851779
C        3.12297978      -0.38919848       0.85942571
C       -2.85256464      -0.29824981      -1.00811403
C       -1.38634960       2.75758225       3.16686877
C        0.84935773      -1.64600975       1.67664792
C        2.92067356      -2.05682119      -0.91738967
C        1.67619459       1.71452623       0.56404750
C        3.40349057      -1.14006299      -1.84366005
C        1.47253648       1.62733432      -0.82699813
C        0.70984746      -0.42963977       0.85406368
C        0.05316650      -3.11396365      -2.94454633
C        1.86264707      -2.42903415       1.11490150
C       -1.76875601       1.16205493      -2.43212190
C       -1.04910734      -1.25055199       3.20473777
C       -1.39884456      -2.17785914      -0.12856980
C        3.60336517      -0.04992328      -2.44967753
C       -1.90454848       4.50438422       2.05442726
C        0.47444969       0.49325526      -2.84069696
C       -0.37369038      -2.08945190       2.24337078
C        0.66906243      -2.64814290      -1.76108517
C        3.32871994       1.21347915      -2.78045952
C        1.50688389       2.63624910      -1.89318871
C        0.06476755       2.82508012      -2.10751421
C       -0.79812566      -3.79720511      -1.99137150
C        1.34318879      -3.39676971       0.23468083
C       -2.60870372       1.92346368      -1.58302350
C       -1.16682779      -1.27253433      -2.31509201
C       -0.29375463      -1.64972019      -1.10522393
C       -0.48408052       0.32426641       1.27219429
C       -1.86514580      -0.95808208       4.30654848
C       -1.83869147       0.09890999       0.93003208
C       -0.77088582       3.46627300      -1.12028243
C       -0.70754359       3.87173762       2.51639205
C       -2.67759028       3.58061145       0.14481584
C       -3.17980924       1.03688206      -0.63465133
C       -2.48669749       3.20753408       2.38129843
C        0.72416732       2.34653601       1.44437063
C       -0.76631345      -2.80451383       1.05996468
C        0.22396278      -0.60093516      -3.63505846
C       -1.24991929       0.11227581       3.69234685
C       -0.53530452       4.13194336       0.19086898
C        2.02924242       0.36333076       0.99930934
C        0.08616935       3.59730688       1.34796221
