60
Properties=species:S:1:pos:R:3 trial_index=8 seed_entry_id=7 discovered_entry_id=8 energy=-482.955810546875 status=accepted pbc="F F F"
C       -4.12676923      -1.85408498      -1.59699268
C       -2.17624711       2.46846887      -0.43849726
C        1.26138519       1.68865582      -2.35466992
C       -4.10967227      -0.44682237      -2.01778967
C       -0.04995095       0.48261324       1.89695435
C       -0.90717242       2.88599468      -2.25075639
C       -1.65581913      -3.30506468      -1.36509241
C       -1.61725293      -0.38301939      -3.64747104
C       -0.30446961       0.81450322       3.23672110
C       -0.50464333      -1.29654753      -1.31746615
C        3.34346145      -1.18852561      -2.13377392
C        1.94209782       3.38726895      -0.23906343
C       -3.36792346      -1.94010349      -0.39825510
C        2.95445246       3.04657342       1.78765276
C        0.68041637       3.37607792       1.80619212
C        0.53809828      -0.47282216      -1.84438652
C       -0.46803983       3.22585327       0.96665916
C       -0.38006941      -3.74019177       0.50488343
C        0.86203413      -3.38641110       1.05415741
C       -1.46423268       3.49855374      -1.10309584
C        0.77995617       1.63046672       3.61463542
C       -1.19595376      -1.59366420       1.05685453
C       -0.39062230      -3.89982187      -0.90301437
C        1.17368974      -1.01109435       0.37868556
C        0.80483230      -3.74069224      -1.58627509
C        1.60939145      -0.51568070      -0.93296545
C       -0.25453577      -1.30390090       0.05114191
C       -2.15118163      -1.47279485      -3.09237113
C       -1.54304410      -2.95383283       0.85808617
C        0.50415065       2.85995237      -2.11557888
C       -2.48744841      -0.21235948       2.67614957
C       -3.26918654       0.27014100      -1.08274045
C        1.89480070      -3.26951680      -2.01810087
C        2.50115532       2.78327332       3.10104501
C        0.44929552       0.57361415      -2.76279508
C       -2.16424569      -0.40209760       1.20622707
C       -1.42275593      -2.07929637      -2.04844215
C        2.86291866      -2.37907485      -2.23656590
C        2.82361394      -0.04982653      -1.51228782
C        2.45844577       1.37358025      -1.54911535
C       -3.57290798      -1.47396223      -2.83160569
C       -2.46300287      -2.99963066      -0.23346546
C        0.81331819       3.67132122      -1.00254002
C       -1.63058862       1.70528046      -2.50172374
C       -2.52526319       1.45209019      -1.39504173
C       -1.21337264       0.79761024       1.07863404
C       -2.87686827      -0.09966333       3.99631713
C       -1.42619809       2.14129094       0.72081202
C        2.63658664       2.16584274      -0.36182517
C        2.13846497       1.40233218       3.16684394
C        1.88276922       3.71005336       1.14431150
C       -0.38881575       3.90981530      -0.28602594
C        1.04640339       2.94870615       3.11498020
C        1.21141660       0.11429791       1.42202115
C       -3.05950248      -0.62835684       0.00488189
C       -0.93284720       0.70382099      -3.27830581
C       -1.59626022       0.36802479       3.60994705
C        2.99754109       1.81615133       1.02813982
C        1.60189005      -2.37335621       0.99077088
C        2.31430278       0.86581829       1.83767465
