60
Properties=species:S:1:pos:R:3 trial_index=10 seed_entry_id=9 discovered_entry_id=10 energy=-482.045654296875 status=accepted pbc="F F F"
C       -4.36349737       1.92973276       1.21034265
C       -0.97856767       2.14942690      -2.50363775
C       -0.35132071      -1.67873012      -2.37501281
C       -4.38907220       1.94684846      -0.24110705
C        1.31709754       1.02171993       0.17459035
C       -1.31750320       0.21999751      -3.66913812
C       -3.05004228      -0.26788606       2.73009573
C       -3.25033330       0.08450717      -0.74649128
C        2.23196235       2.02995285       0.52385121
C       -1.62375038      -0.69074492       0.96232607
C        0.15181399      -3.70809023       0.35746473
C        2.05694510      -0.78002555      -3.32370561
C       -3.03526449       1.89355739       1.68267122
C        4.06747429      -0.53545046      -2.24914756
C        2.70020898       1.32687785      -2.38599084
C       -0.88372197      -1.17574235      -0.12563290
C        1.33124837       1.72138120      -2.57174792
C       -1.08466034      -0.14848691       3.94624630
C        0.20025073      -0.68768562       4.06591505
C       -0.64918463       1.47416219      -3.73111321
C        3.47305537       1.68016619      -0.04317362
C       -0.52041950       1.19299455       2.05913682
C       -2.11563266      -1.04909646       3.54118362
C        0.47947177      -1.07778945       1.80494042
C       -1.78857663      -2.33339454       3.16240987
C        0.58918647      -1.38966269       0.28541549
C       -0.57064254      -0.15025651       1.69168037
C       -3.92211489      -0.30114023       0.39691571
C       -1.32815983       1.09943037       3.22590087
C       -0.34386211      -0.80309726      -3.49950823
C        0.19181705       3.30482889       1.13416336
C       -2.89777841       1.59237840      -0.70600864
C       -1.27206181      -3.22081283       2.42882213
C        4.59494696       0.45565511      -1.38704711
C       -1.35997270      -1.36383461      -1.41778335
C       -0.73280009       2.12834347       0.83102672
C       -2.99704288      -0.65636374       1.35569389
C       -0.56411518      -3.70991984       1.41292805
C        0.74395005      -2.73532530      -0.42301136
C        0.84904496      -2.33137127      -1.84860406
C       -4.82355124       0.77740309       0.57977111
C       -2.69588748       1.10563359       2.79733515
C        0.89249815      -0.23015011      -3.85231550
C       -2.30329697       0.38254628      -2.70180097
C       -2.22347500       1.64053232      -2.05631065
C        0.10226333       1.60927134      -0.33462943
C        0.97878939       4.39370814       1.46595376
C        0.18335150       2.01553002      -1.69195815
C        2.06767649      -1.77018283      -2.31819502
C        3.94356243       0.31988411      -0.11450099
C        3.08948719       0.13818275      -3.01906391
C        0.73365912       1.18158591      -3.74797006
C        3.72844422       1.63407237      -1.45416633
C        1.63960471      -0.33199320      -0.03251613
C       -2.21559806       2.03180871       0.58215676
C       -2.55560211      -0.62366363      -1.74888489
C        1.58789203       3.19283863       1.02711993
C        3.21334671      -1.41608719      -1.49144331
C        0.92430679      -1.19381749       3.12624707
C        2.95209120      -0.69830793      -0.31091625
