60
Properties=species:S:1:pos:R:3 trial_index=5 seed_entry_id=4 discovered_entry_id=5 energy=-480.135498046875 status=accepted pbc="F F F"
C        3.89268749      -1.93522488      -0.11436997
C        0.41411770      -1.68724630       1.35654207
C       -2.05589466      -1.13386746      -1.98004398
C        2.71479799      -2.67125609       0.26102435
C       -1.79596887       3.61146866      -0.90910414
C       -0.62689441      -2.63362098      -0.56879858
C        3.15015122       0.19182067      -1.93917069
C        1.06017449      -2.50561491      -2.49078206
C       -0.62375609       1.68620065       2.53248907
C        0.59568807       0.15323504      -0.72336950
C       -1.95509140       1.40900252      -3.81848212
C       -3.65663165      -1.02742884       0.30179725
C        3.76641710      -0.56488358       0.29224582
C       -4.58318549       0.69871034       1.48593404
C       -2.87333532      -0.43190820       2.49152045
C       -0.30603653       0.31593909      -1.74126760
C       -1.70130884      -1.12652857       2.15971876
C        2.83699316       2.92271424      -0.67157690
C        1.60155594       3.26409003      -0.70828119
C       -0.55143424      -2.59073653       0.84338491
C       -2.04693796       1.88431829       2.73741588
C        2.11286595       1.27701801       0.90228283
C        2.60412980       0.99481814      -2.93704196
C       -0.77601291       2.64773882      -1.09856148
C        1.69203452       1.32378136      -3.76331772
C       -1.15470847       1.43918166      -1.71144493
C        0.71039187       1.22499411       0.35035469
C        2.52303198      -2.27147884      -2.38276686
C        3.09683089       1.67766603      -0.06501255
C       -1.90411123      -2.10488092      -0.96345494
C        1.73707426       0.96456769       3.25135354
C        1.75807394      -1.53204079       0.72500354
C        0.51740193       1.54399134      -4.29627343
C       -4.11224926       1.50181743       2.56090219
C       -0.74841000      -0.83891147      -2.60387775
C        2.40093624       0.58070572       2.08144088
C        2.42599651      -1.00401661      -1.76866659
C       -0.77188556       1.57347933      -4.33614894
C       -2.35831613       1.14777477      -2.52426019
C       -2.95606473      -0.01221084      -1.82787898
C        3.13204025      -2.61126416      -1.11058784
C        3.67743136       0.50915261      -0.62747661
C       -2.70429439      -2.04144245       0.20130566
C        0.57754941      -2.30964457      -1.17846019
C        1.34113081      -1.07741610      -0.68481221
C       -0.24557515       0.78476404       1.46563178
C        1.35380287       1.47622618       4.48853717
C       -0.39921307      -0.58578113       1.79293371
C       -3.66693677       0.08682788      -0.58107736
C       -3.18758256       2.45914361       1.99367889
C       -3.96375277      -0.56002768       1.60858320
C       -1.85280705      -2.25916592       1.32131472
C       -2.94835707       0.83471172       3.10708269
C       -2.85873689       3.39995752      -0.27637720
C        2.72916555      -0.54177381       1.27379111
C        0.08017603      -1.79843048      -3.12512718
C        0.47109139       1.63185679       3.42708172
C       -4.08080606       1.22568599       0.25073842
C        0.46525608       2.57252429      -0.39209036
C       -3.42740806       2.45669277       0.56590801
