60
Properties=species:S:1:pos:R:3 system=runs/20260728-safe-lbfgs-strict-quench-200-production/output-c60-seed42 state_id=plateau_accepted pbc="F F F"
C       -0.65569772       2.66274649       1.85552184
C       -1.35678546      -0.89992353       2.43579283
C        1.42057107      -1.74873456       1.20108148
C        0.13039572       0.47123335      -3.86477232
C        1.54177474       2.24030719      -2.91348215
C        1.17297267      -1.06030614       2.38767298
C        0.69607320       2.91353288       1.49162447
C        0.72067899       1.86036946       3.55336737
C        0.74430029      -2.73558093      -2.61762419
C       -1.17878538      -0.06490384      -4.03174055
C        2.59757488       0.19551819      -1.76051640
C        1.10483112      -3.29236642      -0.44287248
C       -1.69128245       2.24743282       0.95388450
C        0.18503559      -1.84135284      -3.54594612
C       -1.11808664      -2.88822304      -0.89847825
C        2.28219943       1.12561242       1.95655328
C       -0.87810705      -2.55128068       0.50387704
C       -2.10485579       1.67303556      -2.62040901
C       -0.83501588       2.33222489      -2.61627919
C       -1.66236354       1.27849086       3.67349159
C       -3.07371488      -0.56239718      -2.86658632
C       -3.43665692       0.72443190      -0.80304557
C        1.68400643       3.33676054      -2.00030319
C        1.26733406       3.08812898       0.22219455
C        2.48343641       2.39740037      -0.04450332
C        2.66219226       1.11438722       0.56524400
C       -3.62502200      -0.45353632      -1.58414773
C        1.52106835       2.23720314       2.42576535
C       -2.65210972       1.78079641      -1.30668397
C       -0.09132187      -1.06554340       3.11588747
C       -2.83033720      -1.11968388       0.49103378
C       -1.99242471       0.39955035       2.60188025
C        2.82522440       2.65066802      -1.38743662
C       -1.15637634      -1.48052895      -3.74838327
C        1.90256179       0.06159017       2.82273642
C       -3.11629690       0.27794057       0.51206871
C        0.64547691       3.42224988      -1.00326533
C        2.60321775       1.52889654      -2.24159195
C        2.68206489      -0.04590856      -0.31980670
C        2.32634034      -1.38923132       0.12210810
C       -0.62852790       2.12170067       3.20491693
C       -1.73561312       2.52632522      -0.46750073
C        0.52208977      -2.75307602       0.72902188
C        0.17958517      -0.37780126       4.34609858
C       -0.80336653      -0.05929050       5.27497635
C       -3.15047583      -1.56848317      -0.81333169
C        1.98846062      -2.14572933      -2.17822002
C       -1.72993525      -1.64653595       1.23414279
C        2.18798387      -2.44505837      -0.83029750
C       -2.31221954       0.51883221      -3.40617005
C        0.11973207      -3.31760261      -1.48072320
C       -1.70499779       0.79418922       4.99897200
C       -2.26192883      -1.76970416      -2.91571079
C        0.27579897       1.77580033      -3.31225743
C       -2.42188020       1.09122860       1.41140415
C        1.14930510       0.57927324       3.95394465
C       -2.23023437      -2.32855969      -1.58667334
C        2.07077882      -0.80590851      -2.63660540
C       -0.64761665       2.97623024      -1.34198867
C        0.99437519      -0.63321727      -3.57283848
