60
Properties=species:S:1:pos:R:3 system=runs/20260728-safe-lbfgs-strict-quench-200-production/output-c60-seed42 state_id=plateau_accepted pbc="F F F"
C       -0.66775294       2.78026689       1.96105404
C       -1.87334012      -0.67279959       3.27813310
C        1.52369593      -1.32063878       1.19581561
C        0.48464271       0.61812516      -3.87492198
C        1.87649472       2.34842563      -2.75585887
C       -2.65424617      -2.89710671       2.21425291
C        0.76136473       2.87178396       1.68847737
C        0.40942768       1.35995386       3.35654975
C        1.05705179      -2.56695059      -2.59958672
C       -0.80675939       0.07878861      -4.10493023
C        3.05147090       0.30391835      -1.72049554
C        1.23111793      -2.95622470      -0.38130678
C       -1.60679079       2.24028853       1.01351195
C        0.59902191      -1.72031559      -3.61867248
C       -0.99238557      -2.81363588      -1.00299322
C        2.16108433       0.87544151       1.92146452
C       -0.85166016      -2.48146236       0.42023514
C       -1.82381395       1.74689934      -2.65816800
C       -0.55919580       2.35839692      -2.54292815
C       -1.89678769       1.63550911       3.86439038
C       -2.75707239      -0.45177479      -3.02890597
C       -3.15353750       0.69784173      -0.90804093
C        1.91184095       3.36405017      -1.76368869
C        1.38790341       3.06192402       0.45222792
C        2.65391599       2.42452108       0.19393361
C        2.85719683       1.12161787       0.69137118
C       -3.37058339      -0.40084848      -1.76009370
C        1.40599225       1.91375216       2.51967675
C       -2.40620024       1.80344069      -1.33705268
C       -2.27459918      -1.87313602       2.62489915
C       -2.92786791      -1.28352323       0.30787518
C       -2.27949045       0.61805856       2.84314327
C        3.04055594       2.72872809      -1.13047089
C       -0.74330004      -1.32040371      -3.80107987
C        1.45806278      -0.34840655       2.22098704
C       -2.93130297       0.16751572       0.42193679
C        0.83683557       3.36782242      -0.80632910
C        3.03261118       1.68937230      -2.09966904
C        3.05457955       0.05264069      -0.25670213
C        2.55390331      -1.22016752       0.17274864
C       -0.73328029       2.22320228       3.29792389
C       -1.54053246       2.48150111      -0.41096542
C        0.58034302      -2.35778943       0.71826103
C       -0.64815825      -0.60717004       4.05245671
C       -0.92594040       0.38726024       5.08616658
C       -3.16990317      -1.64351520      -1.06354057
C        2.37521608      -2.03701716      -2.14750906
C       -2.10981946      -2.17947032       1.14370280
C        2.42686660      -2.28814367      -0.74201394
C       -1.99330551       0.64303739      -3.53132288
C        0.35054953      -3.02089894      -1.48561397
C       -1.76162246       1.34881940       5.28579648
C       -1.88575471      -1.61696452      -3.00054494
C        0.61026696       1.83837462      -3.16121462
C       -2.36615362       1.02475269       1.45344840
C        0.47270604      -0.04246862       3.31366143
C       -2.09678563      -2.31045728      -1.78765874
C        2.42314749      -0.67247169      -2.60567235
C       -0.43319444       2.94622932      -1.22316202
C        1.39625316      -0.49668314      -3.61450027
