115
Lattice="13.75323 0.0 0.0 0.0 13.75323 0.0 0.0 0.0 23.89" Properties=species:S:1:pos:R:3 entry_id=35 rank=0 energy=-573.10009765625 pbc="T T F"
Pd       0.00000000       0.00000000      10.00000000
Pd       2.75064538       0.00000000      10.00000000
Pd       5.50129076       0.00000000      10.00000000
Pd       8.25193614       0.00000000      10.00000000
Pd      11.00258152       0.00000000      10.00000000
Pd       0.00000000       2.75064538      10.00000000
Pd       2.75064538       2.75064538      10.00000000
Pd       5.50129076       2.75064538      10.00000000
Pd       8.25193614       2.75064538      10.00000000
Pd      11.00258152       2.75064538      10.00000000
Pd       0.00000000       5.50129076      10.00000000
Pd       2.75064538       5.50129076      10.00000000
Pd       5.50129076       5.50129076      10.00000000
Pd       8.25193614       5.50129076      10.00000000
Pd      11.00258152       5.50129076      10.00000000
Pd       0.00000000       8.25193614      10.00000000
Pd       2.75064538       8.25193614      10.00000000
Pd       5.50129076       8.25193614      10.00000000
Pd       8.25193614       8.25193614      10.00000000
Pd      11.00258152       8.25193614      10.00000000
Pd       0.00000000      11.00258152      10.00000000
Pd       2.75064538      11.00258152      10.00000000
Pd       5.50129076      11.00258152      10.00000000
Pd       8.25193614      11.00258152      10.00000000
Pd      11.00258152      11.00258152      10.00000000
Pd       1.33305437       1.38035701      12.05221797
Pd       4.08925664       1.38750338      11.98771029
Pd       6.82888190       1.38154444      11.99332965
Pd       9.57512057       1.39592898      11.89594876
Pd      12.38684272       1.37174114      11.92044161
Pd       1.37065655       4.09970544      12.00656864
Pd       4.10125007       4.12393621      12.00820233
Pd       6.82444734       4.12497179      12.00908219
Pd       9.56728621       4.13975942      11.94281254
Pd      12.36578195       4.13265160      11.93417299
Pd       1.37110082       6.89256210      11.94010419
Pd       4.13935064       6.87026939      11.96482277
Pd       6.87097415       6.85831372      11.95140951
Pd       9.64205429       6.82915781      11.94515418
Pd      12.39111484       6.85622887      11.94896407
Pd       1.35216595       9.69735034      11.99083951
Pd       4.11777592       9.66324146      11.95099537
Pd       6.89476706       9.64088005      11.95142944
Pd       9.64982872       9.59779534      11.89439304
Pd      12.42487279       9.60955999      11.94161946
Pd       1.35802606      12.41462245      12.04582394
Pd       4.10624816      12.40887780      12.00662317
Pd       6.86816975      12.39901143      11.97280504
Pd       9.63028672      12.36702810      11.91406436
Pd      12.41879361      12.34804731      11.97632258
Pd       0.05455756       0.03343298      14.06506787
Pd       2.85596668       0.12162270      14.08089718
Pd       5.59455760      13.72422202      14.04627199
Pd       8.32658405      13.69781467      13.98461117
Pd      11.07580765       0.11589711      14.03487636
Pd      13.59082991       2.82401391      13.97675502
Pd       2.59986812       2.84495744      14.07116691
Pd       5.34042154       2.68639091      14.04618992
Pd       8.24677464       2.65372730      14.07848133
Pd      10.91674111       2.74199637      13.70461284
Pd      13.71148964       5.54900361      14.03076123
Pd       2.61727984       5.59647504      13.98587991
Pd       5.50973132       5.47315607      13.95226463
Pd       8.29441734       5.43585070      13.99103271
Pd      11.00045645       5.42346904      13.98905595
Pd      13.73948326       8.27184223      13.98365445
Pd       2.75206968       8.35029654      13.95761081
Pd       5.52108475       8.27078903      13.98400451
Pd       8.24697431       8.22094378      13.95923367
Pd      11.00880222       8.16786490      13.91163402
Pd       0.03711344      10.96851295      14.15193920
Pd       2.78265486      11.05302425      13.97421585
Pd       5.55453490      10.99190552      13.91795261
Pd       8.29066355      10.94588982      13.93075888
Pd      11.03349222      10.89734908      13.91259820
Pd      12.30745236       6.37074202      16.41423550
Pd       8.68216893       9.45432745      16.41060655
Pd       1.56187538      12.56066102      16.14786978
Pd       1.38956191       7.21829308      16.01697345
Pd      12.04647751       9.08446640      16.28750583
Pd       8.40816590       0.83769809      16.83162918
Pd       4.66727158       0.93554765      16.48759169
Pd       5.68097315       9.91032106      16.37428399
Pd       4.26774835      12.09526508      15.98839471
Pd      10.15112753      12.23694366      16.40326548
Pd       0.48870674       4.46101236      16.60077407
Pd       3.33800336       4.35256145      16.76878372
Pd      10.93389860       3.06859210      16.25740268
Pd       2.35223373       9.90194669      16.48455944
Pd       6.92812270       7.00431218      16.31368016
Pd       6.99745558      12.19522004      15.91758636
Pd       9.63548887       6.93807554      15.95791375
Pd       6.76777612       3.31959554      16.36292985
Pd       0.91709370       1.63202655      16.14186603
Pd       4.11540917       7.46144254      16.27736796
O        8.83015448       2.73981966      16.19669816
O       10.43534178      10.24469485      15.95684503
O       11.75181563      12.34956508      15.23060665
O       11.23653743       1.11741291      16.13408497
O       10.38442285       0.39804519      17.01303287
O        4.01078528       9.15076605      17.22442043
O        2.61025938       0.53862371      16.20655040
O        1.32773543       2.81467467      17.89051791
O        8.35649236      12.62754698      17.34117035
O        0.63597477      10.83270185      16.13164663
O        2.64824035       3.02105394      18.10072897
O        1.87679835       5.65375721      17.29879428
O        6.89627380       5.17596002      15.54864482
O        7.07459039       8.71499067      17.22231618
O        4.75716202       3.08733464      16.15295529
O       13.04000553       2.99385923      16.00829722
O       10.84110036       5.08355486      16.07994202
O       13.43539403       7.86017392      16.95929253
O        6.52397152       1.49093394      17.09828597
O        4.06294583       5.68388783      15.45820640
115
Lattice="13.75323 0.0 0.0 0.0 13.75323 0.0 0.0 0.0 23.89" Properties=species:S:1:pos:R:3 entry_id=17 rank=1 energy=-573.0985107421875 pbc="T T F"
Pd       0.00000000       0.00000000      10.00000000
Pd       2.75064538       0.00000000      10.00000000
Pd       5.50129076       0.00000000      10.00000000
Pd       8.25193614       0.00000000      10.00000000
Pd      11.00258152       0.00000000      10.00000000
Pd       0.00000000       2.75064538      10.00000000
Pd       2.75064538       2.75064538      10.00000000
Pd       5.50129076       2.75064538      10.00000000
Pd       8.25193614       2.75064538      10.00000000
Pd      11.00258152       2.75064538      10.00000000
Pd       0.00000000       5.50129076      10.00000000
Pd       2.75064538       5.50129076      10.00000000
Pd       5.50129076       5.50129076      10.00000000
Pd       8.25193614       5.50129076      10.00000000
Pd      11.00258152       5.50129076      10.00000000
Pd       0.00000000       8.25193614      10.00000000
Pd       2.75064538       8.25193614      10.00000000
Pd       5.50129076       8.25193614      10.00000000
Pd       8.25193614       8.25193614      10.00000000
Pd      11.00258152       8.25193614      10.00000000
Pd       0.00000000      11.00258152      10.00000000
Pd       2.75064538      11.00258152      10.00000000
Pd       5.50129076      11.00258152      10.00000000
Pd       8.25193614      11.00258152      10.00000000
Pd      11.00258152      11.00258152      10.00000000
Pd       1.33305437       1.38035701      12.05221797
Pd       4.08925664       1.38750338      11.98771029
Pd       6.82888190       1.38154444      11.99332965
Pd       9.57512057       1.39592898      11.89594876
Pd      12.38684272       1.37174114      11.92044161
Pd       1.37065655       4.09970544      12.00656864
Pd       4.10125007       4.12393621      12.00820233
Pd       6.82444734       4.12497179      12.00908219
Pd       9.56728621       4.13975942      11.94281254
Pd      12.36578195       4.13265160      11.93417299
Pd       1.37110082       6.89256210      11.94010419
Pd       4.13935064       6.87026939      11.96482277
Pd       6.87097415       6.85831372      11.95140951
Pd       9.64205429       6.82915781      11.94515418
Pd      12.39111484       6.85622887      11.94896407
Pd       1.35216595       9.69735034      11.99083951
Pd       4.11777592       9.66324146      11.95099537
Pd       6.89476706       9.64088005      11.95142944
Pd       9.64982872       9.59779534      11.89439304
Pd      12.42487279       9.60955999      11.94161946
Pd       1.35802606      12.41462245      12.04582394
Pd       4.10624816      12.40887780      12.00662317
Pd       6.86816975      12.39901143      11.97280504
Pd       9.63028672      12.36702810      11.91406436
Pd      12.41879361      12.34804731      11.97632258
Pd       0.05990989       0.03468746      14.06668621
Pd       2.85766296       0.11890747      14.08003783
Pd       5.59715421      13.72338244      14.04482673
Pd       8.33139265      13.69568698      13.98284738
Pd      11.08110844       0.11871925      14.03496847
Pd      13.59233589       2.82597430      13.97913472
Pd       2.60364091       2.84419616      14.07014384
Pd       5.34591213       2.68740108      14.04500553
Pd       8.25323778       2.65110833      14.07737069
Pd      10.91894950       2.74291003      13.70522272
Pd      13.71768411       5.54881931      14.02712831
Pd       2.62363160       5.59696264      13.98455803
Pd       5.51497856       5.47373720      13.95205087
Pd       8.29909174       5.43313485      13.99347541
Pd      11.00584742       5.42560243      13.98538187
Pd      13.74571197       8.26999982      13.98201384
Pd       2.75850628       8.35175280      13.95623389
Pd       5.52657549       8.26966854      13.98167298
Pd       8.25145827       8.21681130      13.95917363
Pd      11.01325073       8.16928643      13.91472477
Pd       0.03427607      10.96868223      14.15735104
Pd       2.78197379      11.05299924      13.97465456
Pd       5.55556495      10.99076673      13.91709717
Pd       8.28914047      10.94194977      13.93155101
Pd      11.02743321      10.90018127      13.90596613
Pd      12.32405055       6.37413598      16.41121477
Pd       8.70460372       9.45023780      16.40934127
Pd       1.56970905      12.55649283      16.14968186
Pd       1.40334606       7.21356548      16.01292476
Pd      12.07122531       9.08659683      16.28487627
Pd       8.42774340       0.83138775      16.82871542
Pd       4.67811027       0.92993454      16.48523853
Pd       5.70118288       9.90848051      16.37139475
Pd       4.27714550      12.09089482      15.98828347
Pd      10.17248103      12.23307011      16.39761693
Pd       0.50371091       4.46401254      16.60370823
Pd       3.35329248       4.35053778      16.76538432
Pd      10.94829385       3.06753550      16.25821600
Pd       2.36196733       9.90070965      16.48481678
Pd       6.94086813       7.00119148      16.31650219
Pd       7.00683732      12.19976266      15.91705493
Pd       9.64644659       6.93175895      15.95836764
Pd       6.78217093       3.31290873      16.35931380
Pd       0.93004175       1.63311046      16.14051986
Pd       4.12806783       7.46510913      16.27603679
O        8.84468565       2.73363557      16.19637375
O       10.45617818      10.24167934      15.95215260
O       11.77485697      12.34817066      15.21950249
O       11.25706296       1.11566010      16.13636822
O       10.40584496       0.39343188      17.01294689
O        4.02646239       9.15583785      17.21976302
O        2.61969932       0.53401335      16.20586003
O        1.34541299       2.81441406      17.88806528
O        8.37837711      12.61949075      17.33423478
O        0.64170680      10.82862057      16.13696174
O        2.66577268       3.01805363      18.09692058
O        1.89513001       5.65328439      17.29957876
O        6.90288911       5.17384897      15.55054097
O        7.09530084       8.71397147      17.22165221
O        4.77028486       3.08343450      16.14698769
O       13.05313923       2.99711296      16.01249893
O       10.85783360       5.08569769      16.07659608
O       13.45599804       7.86148099      16.95968636
O        6.53977025       1.48180113      17.08689187
O        4.07153063       5.68606681      15.45703296
115
Lattice="13.75323 0.0 0.0 0.0 13.75323 0.0 0.0 0.0 23.89" Properties=species:S:1:pos:R:3 entry_id=11 rank=2 energy=-573.0966796875 pbc="T T F"
Pd       0.00000000       0.00000000      10.00000000
Pd       2.75064538       0.00000000      10.00000000
Pd       5.50129076       0.00000000      10.00000000
Pd       8.25193614       0.00000000      10.00000000
Pd      11.00258152       0.00000000      10.00000000
Pd       0.00000000       2.75064538      10.00000000
Pd       2.75064538       2.75064538      10.00000000
Pd       5.50129076       2.75064538      10.00000000
Pd       8.25193614       2.75064538      10.00000000
Pd      11.00258152       2.75064538      10.00000000
Pd       0.00000000       5.50129076      10.00000000
Pd       2.75064538       5.50129076      10.00000000
Pd       5.50129076       5.50129076      10.00000000
Pd       8.25193614       5.50129076      10.00000000
Pd      11.00258152       5.50129076      10.00000000
Pd       0.00000000       8.25193614      10.00000000
Pd       2.75064538       8.25193614      10.00000000
Pd       5.50129076       8.25193614      10.00000000
Pd       8.25193614       8.25193614      10.00000000
Pd      11.00258152       8.25193614      10.00000000
Pd       0.00000000      11.00258152      10.00000000
Pd       2.75064538      11.00258152      10.00000000
Pd       5.50129076      11.00258152      10.00000000
Pd       8.25193614      11.00258152      10.00000000
Pd      11.00258152      11.00258152      10.00000000
Pd       1.33305437       1.38035701      12.05221797
Pd       4.08925664       1.38750338      11.98771029
Pd       6.82888190       1.38154444      11.99332965
Pd       9.57512057       1.39592898      11.89594876
Pd      12.38684272       1.37174114      11.92044161
Pd       1.37065655       4.09970544      12.00656864
Pd       4.10125007       4.12393621      12.00820233
Pd       6.82444734       4.12497179      12.00908219
Pd       9.56728621       4.13975942      11.94281254
Pd      12.36578195       4.13265160      11.93417299
Pd       1.37110082       6.89256210      11.94010419
Pd       4.13935064       6.87026939      11.96482277
Pd       6.87097415       6.85831372      11.95140951
Pd       9.64205429       6.82915781      11.94515418
Pd      12.39111484       6.85622887      11.94896407
Pd       1.35216595       9.69735034      11.99083951
Pd       4.11777592       9.66324146      11.95099537
Pd       6.89476706       9.64088005      11.95142944
Pd       9.64982872       9.59779534      11.89439304
Pd      12.42487279       9.60955999      11.94161946
Pd       1.35802606      12.41462245      12.04582394
Pd       4.10624816      12.40887780      12.00662317
Pd       6.86816975      12.39901143      11.97280504
Pd       9.63028672      12.36702810      11.91406436
Pd      12.41879361      12.34804731      11.97632258
Pd       0.05942148       0.03423469      14.06398990
Pd       2.85955536       0.11862834      14.08192073
Pd       5.59986379      13.72394986      14.05094567
Pd       8.32853377      13.69678441      13.99062901
Pd      11.07966310       0.11909163      14.04043957
Pd      13.59689114       2.82401623      13.97834525
Pd       2.60936481       2.84235445      14.06802661
Pd       5.35353094       2.68661308      14.04746774
Pd       8.25946981       2.65300164      14.08213174
Pd      10.92275216       2.74448471      13.70462063
Pd      13.71319381       5.55217700      14.02511788
Pd       2.61968071       5.59245199      13.98528760
Pd       5.51417562       5.47382824      13.95114884
Pd       8.29868224       5.43715089      13.99124480
Pd      11.00178418       5.42558440      13.99057684
Pd      13.73830593       8.27732025      13.98363579
Pd       2.75243645       8.34973000      13.95462058
Pd       5.52121948       8.27236208      13.98290810
Pd       8.24926082       8.22333438      13.95626046
Pd      11.00945983       8.16669344      13.91073225
Pd       0.03246785      10.97195504      14.14775212
Pd       2.78324193      11.05304493      13.97822525
Pd       5.55471781      10.99301458      13.92132199
Pd       8.28758331      10.94860352      13.92675842
Pd      11.02746212      10.89564863      13.91232560
Pd      12.31376372       6.37672706      16.40962409
Pd       8.65658630       9.46179514      16.41139635
Pd       1.56152001      12.56638137      16.15132011
Pd       1.38296110       7.22102876      16.01228413
Pd      12.02234748       9.08772971      16.28661826
Pd       8.42960945       0.84322026      16.83708748
Pd       4.69025444       0.94039133      16.49566996
Pd       5.64905794       9.91267437      16.38333646
Pd       4.26970280      12.10643711      15.98933950
Pd      10.15658443      12.23965661      16.40755222
Pd       0.50723286       4.46990193      16.59487512
Pd       3.35636653       4.35892713      16.77368013
Pd      10.95528011       3.06717634      16.25807278
Pd       2.32261008       9.90554127      16.48320527
Pd       6.92264755       7.01200586      16.31279271
Pd       7.00467427      12.17946314      15.93039910
Pd       9.63549378       6.94393477      15.95914629
Pd       6.78571849       3.32648034      16.36448344
Pd       0.93612913       1.63719684      16.13984136
Pd       4.10576320       7.46127308      16.27427177
O        8.85376503       2.74270360      16.19911722
O       10.41134904      10.24889325      15.95945841
O       11.75357912      12.34356311      15.22816990
O       11.25918797       1.11403685      16.13653663
O       10.40574502       0.39788054      17.01896878
O        3.97598758       9.14748208      17.22309418
O        2.62865764       0.53920882      16.20573101
O        1.34423581       2.82290895      17.89060709
O        8.36542073      12.63585535      17.34786410
O        0.61375626      10.84840653      16.13087733
O        2.66255548       3.03570389      18.10882090
O        1.89311888       5.66454839      17.29745375
O        6.90322178       5.18284421      15.54810356
O        7.04984490       8.72207616      17.22376272
O        4.77395756       3.08754689      16.15882752
O       13.05927340       2.99758752      16.01168178
O       10.85405048       5.08341968      16.07903856
O       13.42884027       7.87869844      16.95004040
O        6.54749178       1.50063138      17.10611941
O        4.07016889       5.68436499      15.45375366
115
Lattice="13.75323 0.0 0.0 0.0 13.75323 0.0 0.0 0.0 23.89" Properties=species:S:1:pos:R:3 entry_id=34 rank=3 energy=-573.0635986328125 pbc="T T F"
Pd       0.00000000       0.00000000      10.00000000
Pd       2.75064538       0.00000000      10.00000000
Pd       5.50129076       0.00000000      10.00000000
Pd       8.25193614       0.00000000      10.00000000
Pd      11.00258152       0.00000000      10.00000000
Pd       0.00000000       2.75064538      10.00000000
Pd       2.75064538       2.75064538      10.00000000
Pd       5.50129076       2.75064538      10.00000000
Pd       8.25193614       2.75064538      10.00000000
Pd      11.00258152       2.75064538      10.00000000
Pd       0.00000000       5.50129076      10.00000000
Pd       2.75064538       5.50129076      10.00000000
Pd       5.50129076       5.50129076      10.00000000
Pd       8.25193614       5.50129076      10.00000000
Pd      11.00258152       5.50129076      10.00000000
Pd       0.00000000       8.25193614      10.00000000
Pd       2.75064538       8.25193614      10.00000000
Pd       5.50129076       8.25193614      10.00000000
Pd       8.25193614       8.25193614      10.00000000
Pd      11.00258152       8.25193614      10.00000000
Pd       0.00000000      11.00258152      10.00000000
Pd       2.75064538      11.00258152      10.00000000
Pd       5.50129076      11.00258152      10.00000000
Pd       8.25193614      11.00258152      10.00000000
Pd      11.00258152      11.00258152      10.00000000
Pd       1.33305437       1.38035701      12.05221797
Pd       4.08925664       1.38750338      11.98771029
Pd       6.82888190       1.38154444      11.99332965
Pd       9.57512057       1.39592898      11.89594876
Pd      12.38684272       1.37174114      11.92044161
Pd       1.37065655       4.09970544      12.00656864
Pd       4.10125007       4.12393621      12.00820233
Pd       6.82444734       4.12497179      12.00908219
Pd       9.56728621       4.13975942      11.94281254
Pd      12.36578195       4.13265160      11.93417299
Pd       1.37110082       6.89256210      11.94010419
Pd       4.13935064       6.87026939      11.96482277
Pd       6.87097415       6.85831372      11.95140951
Pd       9.64205429       6.82915781      11.94515418
Pd      12.39111484       6.85622887      11.94896407
Pd       1.35216595       9.69735034      11.99083951
Pd       4.11777592       9.66324146      11.95099537
Pd       6.89476706       9.64088005      11.95142944
Pd       9.64982872       9.59779534      11.89439304
Pd      12.42487279       9.60955999      11.94161946
Pd       1.35802606      12.41462245      12.04582394
Pd       4.10624816      12.40887780      12.00662317
Pd       6.86816975      12.39901143      11.97280504
Pd       9.63028672      12.36702810      11.91406436
Pd      12.41879361      12.34804731      11.97632258
Pd       0.00910722       0.03925179      14.04799724
Pd       2.82988675       0.10908757      14.08340101
Pd       5.56958095      13.72813833      14.03522117
Pd       8.30340354      13.67292307      13.96977711
Pd      11.02095920       0.05045824      13.99923857
Pd      13.59333686       2.82747975      13.97917796
Pd       2.59526592       2.83500973      14.07498982
Pd       5.33155561       2.68322457      14.04748476
Pd       8.24619059       2.62963464      14.07197236
Pd      10.92207495       2.72903040      13.69084447
Pd      13.70911309       5.54935276      14.02294406
Pd       2.60544574       5.58895000      13.98284570
Pd       5.48924650       5.46699295      13.95290776
Pd       8.27500079       5.40954002      13.96971193
Pd      10.99809397       5.42845805      13.97147828
Pd      13.73825411       8.26758968      13.96091278
Pd       2.74893802       8.33205967      13.96932532
Pd       5.52872392       8.26473999      13.98394660
Pd       8.27282063       8.21470251      14.00708308
Pd      11.01329864       8.24029511      14.03371673
Pd       0.07192265      11.00679560      14.02306046
Pd       2.80805190      11.03390388      13.96355893
Pd       5.57259430      10.99305602      13.90337937
Pd       8.33807699      10.90960470      14.01408986
Pd      11.02634831      11.01491685      13.92546379
Pd      12.26650623       6.49344170      16.29251320
Pd       8.76753834       9.21977446      16.63745947
Pd       1.51187640      12.49201541      16.10753192
Pd       1.31746874       7.22949593      16.06120234
Pd      12.45365576       9.80699536      16.32868182
Pd       8.38367879       0.74883541      16.80684491
Pd       4.64258253       0.90476125      16.48641326
Pd       5.67210207       9.90682329      16.33436831
Pd       4.23641919      12.07861543      15.98053329
Pd      10.02490679      11.87383714      16.64223168
Pd       0.42522813       4.44045953      16.57915404
Pd       3.29548271       4.31921304      16.75829840
Pd      10.92786650       2.94121106      16.22681997
Pd       2.38649864       9.83135260      16.47294782
Pd       6.88033122       6.93945574      16.28966758
Pd       6.94773587      12.20735719      15.89475658
Pd       9.57894415       6.75770672      15.95954941
Pd       6.75854898       3.26610476      16.35817594
Pd       0.88063306       1.57725616      16.14040555
Pd       4.08871304       7.42747849      16.28359086
O        8.83546668       2.64663678      16.17340572
O       10.51115337       9.90738645      17.08937328
O       11.75666435      11.58672997      15.75919461
O       11.18189245       0.90410607      15.99346635
O       10.32601144       0.19847219      16.87488453
O        4.04355040       9.11887385      17.23565774
O        2.56462219       0.47319095      16.21694135
O        1.26995055       2.79760051      17.86763353
O        8.25279619      12.56304535      17.37321301
O        0.62097349      10.68098559      16.04862120
O        2.58917244       2.99806242      18.08866903
O        1.82056508       5.62527279      17.27058195
O        6.87613297       5.11200127      15.53145772
O        6.99052016       8.64916167      17.18735798
O        4.73340757       3.05249054      16.16353944
O       13.00413888       2.92283111      16.00840357
O       10.89098087       5.03705360      16.05423651
O       13.29331414       8.05270768      16.84684801
O        6.51458421       1.44552335      17.09948242
O        4.03353746       5.65197581      15.46459276
115
Lattice="13.75323 0.0 0.0 0.0 13.75323 0.0 0.0 0.0 23.89" Properties=species:S:1:pos:R:3 entry_id=33 rank=4 energy=-573.0587768554688 pbc="T T F"
Pd       0.00000000       0.00000000      10.00000000
Pd       2.75064538       0.00000000      10.00000000
Pd       5.50129076       0.00000000      10.00000000
Pd       8.25193614       0.00000000      10.00000000
Pd      11.00258152       0.00000000      10.00000000
Pd       0.00000000       2.75064538      10.00000000
Pd       2.75064538       2.75064538      10.00000000
Pd       5.50129076       2.75064538      10.00000000
Pd       8.25193614       2.75064538      10.00000000
Pd      11.00258152       2.75064538      10.00000000
Pd       0.00000000       5.50129076      10.00000000
Pd       2.75064538       5.50129076      10.00000000
Pd       5.50129076       5.50129076      10.00000000
Pd       8.25193614       5.50129076      10.00000000
Pd      11.00258152       5.50129076      10.00000000
Pd       0.00000000       8.25193614      10.00000000
Pd       2.75064538       8.25193614      10.00000000
Pd       5.50129076       8.25193614      10.00000000
Pd       8.25193614       8.25193614      10.00000000
Pd      11.00258152       8.25193614      10.00000000
Pd       0.00000000      11.00258152      10.00000000
Pd       2.75064538      11.00258152      10.00000000
Pd       5.50129076      11.00258152      10.00000000
Pd       8.25193614      11.00258152      10.00000000
Pd      11.00258152      11.00258152      10.00000000
Pd       1.33305437       1.38035701      12.05221797
Pd       4.08925664       1.38750338      11.98771029
Pd       6.82888190       1.38154444      11.99332965
Pd       9.57512057       1.39592898      11.89594876
Pd      12.38684272       1.37174114      11.92044161
Pd       1.37065655       4.09970544      12.00656864
Pd       4.10125007       4.12393621      12.00820233
Pd       6.82444734       4.12497179      12.00908219
Pd       9.56728621       4.13975942      11.94281254
Pd      12.36578195       4.13265160      11.93417299
Pd       1.37110082       6.89256210      11.94010419
Pd       4.13935064       6.87026939      11.96482277
Pd       6.87097415       6.85831372      11.95140951
Pd       9.64205429       6.82915781      11.94515418
Pd      12.39111484       6.85622887      11.94896407
Pd       1.35216595       9.69735034      11.99083951
Pd       4.11777592       9.66324146      11.95099537
Pd       6.89476706       9.64088005      11.95142944
Pd       9.64982872       9.59779534      11.89439304
Pd      12.42487279       9.60955999      11.94161946
Pd       1.35802606      12.41462245      12.04582394
Pd       4.10624816      12.40887780      12.00662317
Pd       6.86816975      12.39901143      11.97280504
Pd       9.63028672      12.36702810      11.91406436
Pd      12.41879361      12.34804731      11.97632258
Pd       0.01693488       0.03553651      14.05069556
Pd       2.83457284       0.11226582      14.08525230
Pd       5.57220844      13.73350875      14.03219153
Pd       8.31050281      13.68248565      13.96137823
Pd      11.03048797       0.05044065      14.00036574
Pd      13.59957764       2.82660197      13.98382523
Pd       2.60029371       2.83847658      14.07373107
Pd       5.33621809       2.68751600      14.04701394
Pd       8.25276372       2.63762452      14.07266995
Pd      10.92733125       2.72829282      13.69077073
Pd      13.70672274       5.55034523      14.02641786
Pd       2.60039870       5.59381137      13.98559945
Pd       5.48739990       5.47269270      13.95014557
Pd       8.27481070       5.41190096      13.96847713
Pd      10.99879976       5.42488386      13.97230581
Pd      13.74565868       8.26611387      13.96095953
Pd       2.75450516       8.33301727      13.96987756
Pd       5.53558247       8.27097355      13.98511669
Pd       8.27943666       8.21983446      14.00228834
Pd      11.02096270       8.23896871      14.03107507
Pd       0.07758504      11.00359153      14.02675382
Pd       2.81322087      11.03594701      13.96156591
Pd       5.57803253      10.99774194      13.90365126
Pd       8.34338343      10.91705620      14.02012579
Pd      11.03092940      11.01413438      13.92851322
Pd      12.27686801       6.49811747      16.30010977
Pd       8.79564555       9.22352857      16.62473284
Pd       1.52509511      12.49063651      16.11039982
Pd       1.32330658       7.23747190      16.07033208
Pd      12.46660550       9.81533993      16.33634037
Pd       8.40231476       0.76045722      16.81073081
Pd       4.66061973       0.90409432      16.49299097
Pd       5.70395613       9.91976211      16.33799791
Pd       4.24645113      12.07770672      15.98178338
Pd      10.03410721      11.88127682      16.64218804
Pd       0.43471790       4.44206910      16.58415656
Pd       3.30511124       4.32370574      16.75472422
Pd      10.94484256       2.94419550      16.22764580
Pd       2.40757471       9.83355327      16.46851028
Pd       6.89252686       6.93829238      16.28120683
Pd       6.95483379      12.23249718      15.89058851
Pd       9.58931150       6.75508907      15.95258746
Pd       6.76983236       3.26723498      16.35950134
Pd       0.89731751       1.57457295      16.14289039
Pd       4.10067021       7.43470027      16.27990234
O        8.85151940       2.65533073      16.17409897
O       10.53105079       9.91658186      17.09945069
O       11.76767791      11.59245382      15.75936227
O       11.19843081       0.90843561      15.99163054
O       10.34428505       0.20594739      16.87669061
O        4.07035646       9.12849260      17.22732851
O        2.58218366       0.47067997      16.21925811
O        1.28936284       2.79532702      17.86691311
O        8.26274062      12.57731090      17.37047270
O        0.63612745      10.67795567      16.05088875
O        2.60906520       2.99759246      18.08253560
O        1.82837941       5.62910447      17.27259138
O        6.87573427       5.10992710      15.52710322
O        7.02014369       8.64855632      17.17444912
O        4.74830370       3.05729656      16.16076027
O       13.01954170       2.92033202      16.01576408
O       10.90619914       5.03866123      16.05708492
O       13.30206038       8.05871637      16.85878949
O        6.53070368       1.44855592      17.10941486
O        4.03444614       5.65988590      15.46147030
115
Lattice="13.75323 0.0 0.0 0.0 13.75323 0.0 0.0 0.0 23.89" Properties=species:S:1:pos:R:3 entry_id=31 rank=5 energy=-572.9368896484375 pbc="T T F"
Pd       0.00000000       0.00000000      10.00000000
Pd       2.75064538       0.00000000      10.00000000
Pd       5.50129076       0.00000000      10.00000000
Pd       8.25193614       0.00000000      10.00000000
Pd      11.00258152       0.00000000      10.00000000
Pd       0.00000000       2.75064538      10.00000000
Pd       2.75064538       2.75064538      10.00000000
Pd       5.50129076       2.75064538      10.00000000
Pd       8.25193614       2.75064538      10.00000000
Pd      11.00258152       2.75064538      10.00000000
Pd       0.00000000       5.50129076      10.00000000
Pd       2.75064538       5.50129076      10.00000000
Pd       5.50129076       5.50129076      10.00000000
Pd       8.25193614       5.50129076      10.00000000
Pd      11.00258152       5.50129076      10.00000000
Pd       0.00000000       8.25193614      10.00000000
Pd       2.75064538       8.25193614      10.00000000
Pd       5.50129076       8.25193614      10.00000000
Pd       8.25193614       8.25193614      10.00000000
Pd      11.00258152       8.25193614      10.00000000
Pd       0.00000000      11.00258152      10.00000000
Pd       2.75064538      11.00258152      10.00000000
Pd       5.50129076      11.00258152      10.00000000
Pd       8.25193614      11.00258152      10.00000000
Pd      11.00258152      11.00258152      10.00000000
Pd       1.33305437       1.38035701      12.05221797
Pd       4.08925664       1.38750338      11.98771029
Pd       6.82888190       1.38154444      11.99332965
Pd       9.57512057       1.39592898      11.89594876
Pd      12.38684272       1.37174114      11.92044161
Pd       1.37065655       4.09970544      12.00656864
Pd       4.10125007       4.12393621      12.00820233
Pd       6.82444734       4.12497179      12.00908219
Pd       9.56728621       4.13975942      11.94281254
Pd      12.36578195       4.13265160      11.93417299
Pd       1.37110082       6.89256210      11.94010419
Pd       4.13935064       6.87026939      11.96482277
Pd       6.87097415       6.85831372      11.95140951
Pd       9.64205429       6.82915781      11.94515418
Pd      12.39111484       6.85622887      11.94896407
Pd       1.35216595       9.69735034      11.99083951
Pd       4.11777592       9.66324146      11.95099537
Pd       6.89476706       9.64088005      11.95142944
Pd       9.64982872       9.59779534      11.89439304
Pd      12.42487279       9.60955999      11.94161946
Pd       1.35802606      12.41462245      12.04582394
Pd       4.10624816      12.40887780      12.00662317
Pd       6.86816975      12.39901143      11.97280504
Pd       9.63028672      12.36702810      11.91406436
Pd      12.41879361      12.34804731      11.97632258
Pd      13.75312475      13.74423501      14.02285329
Pd       2.80934410       0.12212737      14.13337601
Pd       5.52455499      13.75051883      13.94679167
Pd       8.29620684      13.75089728      13.98450932
Pd      11.05305844       0.14779947      14.09646209
Pd      13.55736010       2.78868906      13.96489976
Pd       2.58424953       2.83619016      14.09933189
Pd       5.34099558       2.72560372      14.04574988
Pd       8.16622239       2.68867744      14.00969684
Pd      10.85815901       2.74186086      13.79749387
Pd       0.00845656       5.51140549      14.03765248
Pd       2.68748551       5.57768024      13.99194664
Pd       5.58218474       5.50297288      13.96804788
Pd       8.34871395       5.42903863      14.00752189
Pd      11.06304845       5.40649841      13.99363115
Pd       0.06173086       8.20844040      13.98516544
Pd       2.79592236       8.33382741      13.95877309
Pd       5.55825714       8.30165871      13.98307899
Pd       8.28031856       8.21462705      13.93634459
Pd      11.04872656       8.15705275      13.96212552
Pd       0.00584172      10.92899033      14.07839922
Pd       2.75458166      11.04154669      13.96787668
Pd       5.50492657      11.02136814      13.93400508
Pd       8.22889013      10.97933494      14.04107270
Pd      10.98898402      10.96894453      13.83888298
Pd      12.46304633       6.23190820      16.58348698
Pd       9.10881329       9.44829729      16.24851490
Pd       1.32714363      12.35502659      16.10835911
Pd       1.52449892       7.06004711      16.01760602
Pd      12.51316451       8.86407451      16.35651025
Pd       8.50968611       1.01589648      17.31101565
Pd       5.16177034       0.90335997      16.44452221
Pd       5.75476248      10.01503229      16.39154143
Pd       4.12399964      12.15270443      15.99646961
Pd       9.56501750      12.31340798      16.27499651
Pd       0.59860079       4.30277723      16.55318487
Pd       3.51845570       4.23337687      16.67053579
Pd      10.97390100       3.02832261      16.42817429
Pd       2.30452620       9.80602063      16.43256784
Pd       7.08318460       7.18340231      16.28778876
Pd       6.77975403      12.46201245      15.93278046
Pd       9.73526261       6.80812580      15.99269059
Pd       7.04938279       3.44146154      16.51958163
Pd       0.83676784       1.46523149      16.12137596
Pd       4.21476782       7.50161973      16.26811706
O        9.03931464       2.93336976      17.07125298
O       10.93531004       9.67329123      15.49832426
O       11.23522416      12.29909394      15.29310219
O       11.24916933       1.04756056      16.43319426
O       10.41914324       0.33661278      17.28394145
O        4.05120005       9.22489615      17.13982219
O        2.39324604       0.26104737      16.20735698
O        1.49551968       2.65086756      17.78070284
O        8.03579872      12.80425380      17.45083636
O        0.45851081      10.55474041      16.09871692
O        2.84172515       2.77904486      17.87168310
O        2.01840409       5.45104839      17.24034962
O        7.01899342       5.29379258      15.60626459
O        7.37900485       8.97623136      17.04321395
O        5.07671974       3.09829689      16.07457552
O       13.04965896       2.89712917      15.98988657
O       10.96352297       5.04333734      16.10091448
O       13.72859541       7.60068315      17.22846480
O        6.69406910       1.72552957      17.49300332
O        4.17679204       5.70254178      15.47241984
115
Lattice="13.75323 0.0 0.0 0.0 13.75323 0.0 0.0 0.0 23.89" Properties=species:S:1:pos:R:3 entry_id=14 rank=6 energy=-572.9290161132812 pbc="T T F"
Pd       0.00000000       0.00000000      10.00000000
Pd       2.75064538       0.00000000      10.00000000
Pd       5.50129076       0.00000000      10.00000000
Pd       8.25193614       0.00000000      10.00000000
Pd      11.00258152       0.00000000      10.00000000
Pd       0.00000000       2.75064538      10.00000000
Pd       2.75064538       2.75064538      10.00000000
Pd       5.50129076       2.75064538      10.00000000
Pd       8.25193614       2.75064538      10.00000000
Pd      11.00258152       2.75064538      10.00000000
Pd       0.00000000       5.50129076      10.00000000
Pd       2.75064538       5.50129076      10.00000000
Pd       5.50129076       5.50129076      10.00000000
Pd       8.25193614       5.50129076      10.00000000
Pd      11.00258152       5.50129076      10.00000000
Pd       0.00000000       8.25193614      10.00000000
Pd       2.75064538       8.25193614      10.00000000
Pd       5.50129076       8.25193614      10.00000000
Pd       8.25193614       8.25193614      10.00000000
Pd      11.00258152       8.25193614      10.00000000
Pd       0.00000000      11.00258152      10.00000000
Pd       2.75064538      11.00258152      10.00000000
Pd       5.50129076      11.00258152      10.00000000
Pd       8.25193614      11.00258152      10.00000000
Pd      11.00258152      11.00258152      10.00000000
Pd       1.33305437       1.38035701      12.05221797
Pd       4.08925664       1.38750338      11.98771029
Pd       6.82888190       1.38154444      11.99332965
Pd       9.57512057       1.39592898      11.89594876
Pd      12.38684272       1.37174114      11.92044161
Pd       1.37065655       4.09970544      12.00656864
Pd       4.10125007       4.12393621      12.00820233
Pd       6.82444734       4.12497179      12.00908219
Pd       9.56728621       4.13975942      11.94281254
Pd      12.36578195       4.13265160      11.93417299
Pd       1.37110082       6.89256210      11.94010419
Pd       4.13935064       6.87026939      11.96482277
Pd       6.87097415       6.85831372      11.95140951
Pd       9.64205429       6.82915781      11.94515418
Pd      12.39111484       6.85622887      11.94896407
Pd       1.35216595       9.69735034      11.99083951
Pd       4.11777592       9.66324146      11.95099537
Pd       6.89476706       9.64088005      11.95142944
Pd       9.64982872       9.59779534      11.89439304
Pd      12.42487279       9.60955999      11.94161946
Pd       1.35802606      12.41462245      12.04582394
Pd       4.10624816      12.40887780      12.00662317
Pd       6.86816975      12.39901143      11.97280504
Pd       9.63028672      12.36702810      11.91406436
Pd      12.41879361      12.34804731      11.97632258
Pd      13.61417633       0.04474439      13.98868889
Pd       2.81291767       0.05089679      14.15693699
Pd       5.48248384       0.00337527      13.90227544
Pd       8.23757183       0.02673331      13.97578659
Pd      10.94497264       0.06193094      13.90535467
Pd      13.72688724       2.77418914      14.00598141
Pd       2.69087973       2.76265086      14.03013999
Pd       5.41035763       2.68195154      14.08560945
Pd       8.20781542       2.71719786      14.03434819
Pd      10.96154909       2.69937535      13.87580672
Pd       0.03670633       5.56171712      13.96890036
Pd       2.73288038       5.52451280      13.91658539
Pd       5.43240248       5.55879510      14.15775301
Pd       8.30628626       5.42728167      13.97672627
Pd      11.08744636       5.49307864      13.95839421
Pd       0.07044199       8.25627379      13.98281021
Pd       2.76269617       8.28002759      14.01810249
Pd       5.51336567       8.26698269      13.93365498
Pd       8.27930817       8.26321309      13.96402714
Pd      11.08398570       8.19536961      13.93588689
Pd      13.73504719      11.02672553      14.00012025
Pd       2.69759668      10.96844610      14.00579764
Pd       5.43832108      11.03875773      13.90022773
Pd       8.20974557      11.01031703      14.11986556
Pd      10.98001481      10.98503191      13.94044173
Pd      11.99918822       6.54581688      17.04806380
Pd       9.41370002       9.49581510      16.31422999
Pd       1.24823359      12.03964324      16.23879236
Pd       1.19324610       6.84653770      16.26256423
Pd      13.14248572       9.71747584      16.25538213
Pd       8.13315211       1.24067284      17.47877695
Pd       4.92125734       0.92253732      16.29983202
Pd       6.40637746       9.91432774      15.98050009
Pd       4.05532886      12.13791403      15.97492610
Pd       9.46800972      12.54099042      16.31926365
Pd      13.40868797       4.24258446      16.31304477
Pd       3.19350603       3.85756813      16.61310790
Pd      10.12162013       3.64489945      16.62994100
Pd       2.93682774       9.69361009      16.64020362
Pd       7.16859277       7.26323287      16.39675505
Pd       6.68137274      12.60033028      15.93060317
Pd       9.67772796       6.85930593      15.81273445
Pd       6.75460065       3.66405708      16.60624569
Pd       1.13184638       1.93633232      16.36917602
Pd       4.16841354       7.29596544      16.22621616
O        8.46534734       3.21766599      17.60129637
O       11.26185571       9.59816299      15.51800123
O       11.13276765      12.43807375      15.35932961
O       10.75715253       1.68395617      16.51010519
O       10.10189964       0.78941871      17.31334553
O        4.77645508       9.04371755      16.87283714
O        1.20514877       0.13060939      15.53010573
O        2.50622615       1.31515324      17.77953794
O        7.89950772      12.99661623      17.44974069
O        1.10743853      10.28600063      17.04589236
O        3.63061612       2.04709536      17.53244179
O        1.29552942       3.71439122      17.26451403
O        7.03889729       5.44827390      15.62682199
O        7.71481974       8.99431486      17.19390755
O        4.99244619       3.95299866      15.69203622
O       11.63432459       4.01980399      15.40922363
O       10.29411958       5.57500121      17.20805347
O       13.43718411       7.82031244      17.02781250
O        6.26737600       1.90672066      17.45910605
O        2.87991657       5.75838325      15.95342698
115
Lattice="13.75323 0.0 0.0 0.0 13.75323 0.0 0.0 0.0 23.89" Properties=species:S:1:pos:R:3 entry_id=25 rank=7 energy=-572.9232177734375 pbc="T T F"
Pd       0.00000000       0.00000000      10.00000000
Pd       2.75064538       0.00000000      10.00000000
Pd       5.50129076       0.00000000      10.00000000
Pd       8.25193614       0.00000000      10.00000000
Pd      11.00258152       0.00000000      10.00000000
Pd       0.00000000       2.75064538      10.00000000
Pd       2.75064538       2.75064538      10.00000000
Pd       5.50129076       2.75064538      10.00000000
Pd       8.25193614       2.75064538      10.00000000
Pd      11.00258152       2.75064538      10.00000000
Pd       0.00000000       5.50129076      10.00000000
Pd       2.75064538       5.50129076      10.00000000
Pd       5.50129076       5.50129076      10.00000000
Pd       8.25193614       5.50129076      10.00000000
Pd      11.00258152       5.50129076      10.00000000
Pd       0.00000000       8.25193614      10.00000000
Pd       2.75064538       8.25193614      10.00000000
Pd       5.50129076       8.25193614      10.00000000
Pd       8.25193614       8.25193614      10.00000000
Pd      11.00258152       8.25193614      10.00000000
Pd       0.00000000      11.00258152      10.00000000
Pd       2.75064538      11.00258152      10.00000000
Pd       5.50129076      11.00258152      10.00000000
Pd       8.25193614      11.00258152      10.00000000
Pd      11.00258152      11.00258152      10.00000000
Pd       1.33305437       1.38035701      12.05221797
Pd       4.08925664       1.38750338      11.98771029
Pd       6.82888190       1.38154444      11.99332965
Pd       9.57512057       1.39592898      11.89594876
Pd      12.38684272       1.37174114      11.92044161
Pd       1.37065655       4.09970544      12.00656864
Pd       4.10125007       4.12393621      12.00820233
Pd       6.82444734       4.12497179      12.00908219
Pd       9.56728621       4.13975942      11.94281254
Pd      12.36578195       4.13265160      11.93417299
Pd       1.37110082       6.89256210      11.94010419
Pd       4.13935064       6.87026939      11.96482277
Pd       6.87097415       6.85831372      11.95140951
Pd       9.64205429       6.82915781      11.94515418
Pd      12.39111484       6.85622887      11.94896407
Pd       1.35216595       9.69735034      11.99083951
Pd       4.11777592       9.66324146      11.95099537
Pd       6.89476706       9.64088005      11.95142944
Pd       9.64982872       9.59779534      11.89439304
Pd      12.42487279       9.60955999      11.94161946
Pd       1.35802606      12.41462245      12.04582394
Pd       4.10624816      12.40887780      12.00662317
Pd       6.86816975      12.39901143      11.97280504
Pd       9.63028672      12.36702810      11.91406436
Pd      12.41879361      12.34804731      11.97632258
Pd       0.00045589       0.02380051      14.07433947
Pd       2.83015878       0.12797335      14.07212367
Pd       5.57416876      13.73417289      14.03683457
Pd       8.30605891      13.74019835      14.01157342
Pd      11.00590958       0.07734818      13.87669596
Pd      13.54595859       2.81187613      13.97816262
Pd       2.58308861       2.85267921      14.07549665
Pd       5.33662320       2.70336245      14.05002458
Pd       8.17763203       2.67626877      14.00985155
Pd      10.86334886       2.72305286      13.82843746
Pd      13.72428986       5.53934697      14.02001980
Pd       2.63235135       5.60460498      13.98233102
Pd       5.53667597       5.48192881      13.95494843
Pd       8.31366728       5.43857730      13.99674633
Pd      11.01295702       5.41096179      13.97623176
Pd      13.74009633       8.26619793      13.98446789
Pd       2.75409453       8.35637948      13.95976745
Pd       5.52557899       8.27860405      13.98394835
Pd       8.25199580       8.23370355      13.95355683
Pd      11.01098307       8.18289006      13.90745832
Pd       0.06671295      10.95761418      14.14141626
Pd       2.80016044      11.05696822      13.97589102
Pd       5.56494139      10.99825039      13.91895401
Pd       8.30697364      10.96969567      13.93671045
Pd      11.07174923      10.92085714      13.95898736
Pd      12.31156258       6.37010421      16.39193236
Pd       8.74385920       9.51007041      16.37908094
Pd       1.55911966      12.56054380      16.14047028
Pd       1.39839071       7.19952437      16.00982221
Pd      12.06859749       9.10731425      16.27947440
Pd       8.46516687       0.92394332      17.11661818
Pd       4.71198763       0.96039291      16.49923621
Pd       5.69667675       9.93936903      16.37827730
Pd       4.27035986      12.11945546      15.98784327
Pd      10.10692640      12.40060776      16.37561832
Pd       0.49667069       4.43254046      16.56626866
Pd       3.38757477       4.32974045      16.71081927
Pd      10.90518795       3.09435554      16.46463933
Pd       2.35343087       9.90760009      16.48267747
Pd       6.96256742       7.02616769      16.30010112
Pd       6.99113655      12.24792975      15.91035979
Pd       9.65682644       6.96972323      15.95364209
Pd       6.89083603       3.32537051      16.41802342
Pd       0.90546835       1.61342447      16.12779409
Pd       4.13119644       7.48071617      16.27563475
O        8.89539133       2.87326587      16.90819676
O       10.49690206      10.32176044      15.95410950
O       11.70401921      12.52228514      15.23216372
O       11.38582782       1.24049931      16.91893929
O       10.41110790       0.42544345      17.41221241
O        4.02262554       9.17124589      17.21813656
O        2.62252582       0.53723255      16.18319206
O        1.37514659       2.79002400      17.84755224
O        8.33587354      12.67397074      17.34130899
O        0.62858152      10.83121436      16.13170971
O        2.70671276       2.97406949      18.01999186
O        1.90407494       5.60753875      17.25004577
O        6.95187016       5.18236106      15.56469856
O        7.12929911       8.75498156      17.17222720
O        4.86838491       3.10137095      16.09414080
O       13.01111519       2.97878810      16.00166362
O       10.83375493       5.09086097      16.04012392
O       13.43996290       7.85495902      16.94579312
O        6.54891355       1.52375329      17.19259849
O        4.09468491       5.70475598      15.44606781
115
Lattice="13.75323 0.0 0.0 0.0 13.75323 0.0 0.0 0.0 23.89" Properties=species:S:1:pos:R:3 entry_id=32 rank=8 energy=-572.8970947265625 pbc="T T F"
Pd       0.00000000       0.00000000      10.00000000
Pd       2.75064538       0.00000000      10.00000000
Pd       5.50129076       0.00000000      10.00000000
Pd       8.25193614       0.00000000      10.00000000
Pd      11.00258152       0.00000000      10.00000000
Pd       0.00000000       2.75064538      10.00000000
Pd       2.75064538       2.75064538      10.00000000
Pd       5.50129076       2.75064538      10.00000000
Pd       8.25193614       2.75064538      10.00000000
Pd      11.00258152       2.75064538      10.00000000
Pd       0.00000000       5.50129076      10.00000000
Pd       2.75064538       5.50129076      10.00000000
Pd       5.50129076       5.50129076      10.00000000
Pd       8.25193614       5.50129076      10.00000000
Pd      11.00258152       5.50129076      10.00000000
Pd       0.00000000       8.25193614      10.00000000
Pd       2.75064538       8.25193614      10.00000000
Pd       5.50129076       8.25193614      10.00000000
Pd       8.25193614       8.25193614      10.00000000
Pd      11.00258152       8.25193614      10.00000000
Pd       0.00000000      11.00258152      10.00000000
Pd       2.75064538      11.00258152      10.00000000
Pd       5.50129076      11.00258152      10.00000000
Pd       8.25193614      11.00258152      10.00000000
Pd      11.00258152      11.00258152      10.00000000
Pd       1.33305437       1.38035701      12.05221797
Pd       4.08925664       1.38750338      11.98771029
Pd       6.82888190       1.38154444      11.99332965
Pd       9.57512057       1.39592898      11.89594876
Pd      12.38684272       1.37174114      11.92044161
Pd       1.37065655       4.09970544      12.00656864
Pd       4.10125007       4.12393621      12.00820233
Pd       6.82444734       4.12497179      12.00908219
Pd       9.56728621       4.13975942      11.94281254
Pd      12.36578195       4.13265160      11.93417299
Pd       1.37110082       6.89256210      11.94010419
Pd       4.13935064       6.87026939      11.96482277
Pd       6.87097415       6.85831372      11.95140951
Pd       9.64205429       6.82915781      11.94515418
Pd      12.39111484       6.85622887      11.94896407
Pd       1.35216595       9.69735034      11.99083951
Pd       4.11777592       9.66324146      11.95099537
Pd       6.89476706       9.64088005      11.95142944
Pd       9.64982872       9.59779534      11.89439304
Pd      12.42487279       9.60955999      11.94161946
Pd       1.35802606      12.41462245      12.04582394
Pd       4.10624816      12.40887780      12.00662317
Pd       6.86816975      12.39901143      11.97280504
Pd       9.63028672      12.36702810      11.91406436
Pd      12.41879361      12.34804731      11.97632258
Pd       0.01365444       0.00669365      14.03656450
Pd       2.81387243       0.09532550      14.06959660
Pd       5.51592371       0.02009208      13.95898390
Pd       8.27242526      13.70833415      13.99852730
Pd      11.04790938       0.11900333      14.13724495
Pd      13.60347331       2.78587280      14.00017916
Pd       2.61726577       2.84049822      14.06819852
Pd       5.36456042       2.72878161      14.02531293
Pd       8.27717791       2.65231652      14.11946290
Pd      10.93050729       2.71679906      13.72757490
Pd      13.74764463       5.51075083      14.04787808
Pd       2.67894548       5.59312477      14.01645696
Pd       5.52932035       5.51148307      13.97707036
Pd       8.31091130       5.42602443      13.99779899
Pd      11.04835678       5.38466286      13.97860531
Pd       0.03554738       8.22745154      13.99914268
Pd       2.74222781       8.34556961      13.95435450
Pd       5.49297510       8.27492114      13.92159005
Pd       8.24828374       8.20855938      13.99217407
Pd      11.02891804       8.12463149      13.96435191
Pd       0.01171496      10.97115442      14.05468976
Pd       2.76977504      11.05850022      14.01099405
Pd       5.48967539      11.03942853      13.91323182
Pd       8.25122936      10.96916160      14.03287696
Pd      11.00672503      10.94144547      13.82567080
Pd      12.43273878       6.13979647      16.63159914
Pd       9.29674650       9.31411427      16.35025731
Pd       1.49710136      12.43891036      16.11043780
Pd       1.44271173       7.04031558      16.02740404
Pd      12.53689764       8.77272852      16.41164966
Pd       8.34979401       0.88539042      16.94560537
Pd       4.74705481       0.76849894      16.49505844
Pd       6.55759157       9.73148682      15.91779620
Pd       4.28329504      11.14147553      16.32013695
Pd       9.47895913      12.19205075      16.28684052
Pd       0.57730990       4.26840353      16.61357302
Pd       3.44592952       4.33877893      16.70420286
Pd      10.99736345       2.91696257      16.30539817
Pd       1.87456802       9.79004291      16.42077075
Pd       7.13171821       7.03642357      16.39164203
Pd       6.58488314      12.44083115      15.95232352
Pd       9.74501639       6.69396316      16.00255079
Pd       6.79478490       3.35577954      16.37452026
Pd       1.03485977       1.45650519      16.10966437
Pd       4.11984172       7.67941467      16.26012066
O        8.89134091       2.72141004      16.26236825
O       11.04129396       9.61957832      15.47497784
O       11.14809078      12.23337618      15.30216278
O       11.19219322       0.93909343      16.30823361
O       10.29684414       0.29525228      17.16494352
O        3.67664410       9.37693752      17.11315081
O        2.71913713       0.30729975      16.16728916
O        1.52626274       2.64625920      17.81932643
O        7.91731728      12.72643451      17.42287057
O        0.23732187      10.87410897      16.09084339
O        2.85232372       2.87601815      17.95625595
O        1.94329334       5.50035115      17.30152470
O        6.92366649       5.22508309      15.58013046
O        7.64550025       8.72923928      17.26894874
O        4.83403354       3.11229713      16.03652653
O       13.11249403       2.79900668      16.04399336
O       10.97013928       4.93931615      16.07506336
O       13.68590203       7.49007592      17.33668162
O        6.49261899       1.55290842      17.15310865
O        4.15430937       5.83293611      15.52308128
115
Lattice="13.75323 0.0 0.0 0.0 13.75323 0.0 0.0 0.0 23.89" Properties=species:S:1:pos:R:3 entry_id=13 rank=9 energy=-572.8494262695312 pbc="T T F"
Pd       0.00000000       0.00000000      10.00000000
Pd       2.75064538       0.00000000      10.00000000
Pd       5.50129076       0.00000000      10.00000000
Pd       8.25193614       0.00000000      10.00000000
Pd      11.00258152       0.00000000      10.00000000
Pd       0.00000000       2.75064538      10.00000000
Pd       2.75064538       2.75064538      10.00000000
Pd       5.50129076       2.75064538      10.00000000
Pd       8.25193614       2.75064538      10.00000000
Pd      11.00258152       2.75064538      10.00000000
Pd       0.00000000       5.50129076      10.00000000
Pd       2.75064538       5.50129076      10.00000000
Pd       5.50129076       5.50129076      10.00000000
Pd       8.25193614       5.50129076      10.00000000
Pd      11.00258152       5.50129076      10.00000000
Pd       0.00000000       8.25193614      10.00000000
Pd       2.75064538       8.25193614      10.00000000
Pd       5.50129076       8.25193614      10.00000000
Pd       8.25193614       8.25193614      10.00000000
Pd      11.00258152       8.25193614      10.00000000
Pd       0.00000000      11.00258152      10.00000000
Pd       2.75064538      11.00258152      10.00000000
Pd       5.50129076      11.00258152      10.00000000
Pd       8.25193614      11.00258152      10.00000000
Pd      11.00258152      11.00258152      10.00000000
Pd       1.33305437       1.38035701      12.05221797
Pd       4.08925664       1.38750338      11.98771029
Pd       6.82888190       1.38154444      11.99332965
Pd       9.57512057       1.39592898      11.89594876
Pd      12.38684272       1.37174114      11.92044161
Pd       1.37065655       4.09970544      12.00656864
Pd       4.10125007       4.12393621      12.00820233
Pd       6.82444734       4.12497179      12.00908219
Pd       9.56728621       4.13975942      11.94281254
Pd      12.36578195       4.13265160      11.93417299
Pd       1.37110082       6.89256210      11.94010419
Pd       4.13935064       6.87026939      11.96482277
Pd       6.87097415       6.85831372      11.95140951
Pd       9.64205429       6.82915781      11.94515418
Pd      12.39111484       6.85622887      11.94896407
Pd       1.35216595       9.69735034      11.99083951
Pd       4.11777592       9.66324146      11.95099537
Pd       6.89476706       9.64088005      11.95142944
Pd       9.64982872       9.59779534      11.89439304
Pd      12.42487279       9.60955999      11.94161946
Pd       1.35802606      12.41462245      12.04582394
Pd       4.10624816      12.40887780      12.00662317
Pd       6.86816975      12.39901143      11.97280504
Pd       9.63028672      12.36702810      11.91406436
Pd      12.41879361      12.34804731      11.97632258
Pd      13.61182596       0.06516271      13.98281343
Pd       2.74849782       0.08432636      14.12934889
Pd       5.46170723      13.73898412      13.91192737
Pd       8.23729055       0.03563956      13.98994965
Pd      10.94666469       0.05297689      13.91377788
Pd      13.60641188       2.81420935      14.02814412
Pd       2.64108092       2.79496093      14.08745203
Pd       5.37868995       2.66786785      14.07846350
Pd       8.20513444       2.72356285      13.99708448
Pd      10.90327030       2.68865522      13.84659423
Pd      13.74686133       5.58870985      13.93698673
Pd       2.71945605       5.52258329      13.98131132
Pd       5.44355574       5.54718598      14.15175278
Pd       8.32862537       5.48716202      13.91914211
Pd      11.05087726       5.35786113      13.95271590
Pd       0.10416911       8.27572068      13.98894115
Pd       2.80600722       8.28563670      14.01706629
Pd       5.54065237       8.26229474      13.92082584
Pd       8.30895986       8.28189339      13.98185322
Pd      11.12398423       8.13086086      13.98234770
Pd       0.00042158      11.04808511      13.99321106
Pd       2.70762449      10.98695143      14.01102808
Pd       5.44371185      11.02425538      13.92820256
Pd       8.24307502      11.01679903      14.08054969
Pd      11.00205144      10.93147096      13.91258014
Pd      12.36729159       6.51379107      16.31963707
Pd       9.48116997       9.43616475      16.33771037
Pd       1.26362810      12.09547642      16.23695094
Pd       1.51302367       6.99961971      16.30371833
Pd      13.19565072       9.78280466      16.26001598
Pd       8.49249915       1.14363819      17.30114858
Pd       5.22928782       0.90564429      16.35264776
Pd       6.53340763       9.87804256      15.94465577
Pd       4.06033029      12.26304275      15.94437406
Pd       9.54250832      12.43620662      16.27828206
Pd       0.42857152       4.63205503      16.31999160
Pd       3.45866426       3.80523383      16.70996268
Pd      11.02337620       3.08136873      16.50433362
Pd       3.00347411       9.74631070      16.60361452
Pd       7.24159940       7.25509732      16.42113300
Pd       6.74746699      12.53938011      15.92521575
Pd       9.72681650       6.80055961      15.92832505
Pd       7.11300624       3.64535255      16.42558261
Pd       1.21421430       1.88815736      16.65203579
Pd       4.33219619       7.34914526      16.26269310
O        9.05448511       3.04132615      17.07816512
O       11.31359882       9.58092376      15.52691736
O       11.20297941      12.37536704      15.30347930
O       11.35435990       1.15857409      16.90054713
O       10.37640173       0.42534088      17.48353803
O        4.85951114       9.13327681      16.85581263
O        1.14265365       0.19529915      15.58038330
O        2.78193155       1.13693764      17.64881445
O        7.99659911      12.94027355      17.43264246
O        1.17478033      10.33739169      17.03181004
O        3.88599542       1.96527722      17.52529996
O        1.65478821       3.60930928      17.55683942
O        7.14821678       5.47877397      15.57686767
O        7.78690040       8.96882191      17.24066872
O        5.20657600       3.91568826      15.72035300
O       13.08277316       2.91819397      16.04724577
O       10.97877532       5.10115284      16.03168601
O       13.60684935       7.88246168      16.93085255
O        6.68616465       1.92457367      17.30929034
O        3.12877711       5.75295745      16.02665947
115
Lattice="13.75323 0.0 0.0 0.0 13.75323 0.0 0.0 0.0 23.89" Properties=species:S:1:pos:R:3 entry_id=29 rank=10 energy=-572.82861328125 pbc="T T F"
Pd       0.00000000       0.00000000      10.00000000
Pd       2.75064538       0.00000000      10.00000000
Pd       5.50129076       0.00000000      10.00000000
Pd       8.25193614       0.00000000      10.00000000
Pd      11.00258152       0.00000000      10.00000000
Pd       0.00000000       2.75064538      10.00000000
Pd       2.75064538       2.75064538      10.00000000
Pd       5.50129076       2.75064538      10.00000000
Pd       8.25193614       2.75064538      10.00000000
Pd      11.00258152       2.75064538      10.00000000
Pd       0.00000000       5.50129076      10.00000000
Pd       2.75064538       5.50129076      10.00000000
Pd       5.50129076       5.50129076      10.00000000
Pd       8.25193614       5.50129076      10.00000000
Pd      11.00258152       5.50129076      10.00000000
Pd       0.00000000       8.25193614      10.00000000
Pd       2.75064538       8.25193614      10.00000000
Pd       5.50129076       8.25193614      10.00000000
Pd       8.25193614       8.25193614      10.00000000
Pd      11.00258152       8.25193614      10.00000000
Pd       0.00000000      11.00258152      10.00000000
Pd       2.75064538      11.00258152      10.00000000
Pd       5.50129076      11.00258152      10.00000000
Pd       8.25193614      11.00258152      10.00000000
Pd      11.00258152      11.00258152      10.00000000
Pd       1.33305437       1.38035701      12.05221797
Pd       4.08925664       1.38750338      11.98771029
Pd       6.82888190       1.38154444      11.99332965
Pd       9.57512057       1.39592898      11.89594876
Pd      12.38684272       1.37174114      11.92044161
Pd       1.37065655       4.09970544      12.00656864
Pd       4.10125007       4.12393621      12.00820233
Pd       6.82444734       4.12497179      12.00908219
Pd       9.56728621       4.13975942      11.94281254
Pd      12.36578195       4.13265160      11.93417299
Pd       1.37110082       6.89256210      11.94010419
Pd       4.13935064       6.87026939      11.96482277
Pd       6.87097415       6.85831372      11.95140951
Pd       9.64205429       6.82915781      11.94515418
Pd      12.39111484       6.85622887      11.94896407
Pd       1.35216595       9.69735034      11.99083951
Pd       4.11777592       9.66324146      11.95099537
Pd       6.89476706       9.64088005      11.95142944
Pd       9.64982872       9.59779534      11.89439304
Pd      12.42487279       9.60955999      11.94161946
Pd       1.35802606      12.41462245      12.04582394
Pd       4.10624816      12.40887780      12.00662317
Pd       6.86816975      12.39901143      11.97280504
Pd       9.63028672      12.36702810      11.91406436
Pd      12.41879361      12.34804731      11.97632258
Pd      13.73955822      13.74290835      14.04076075
Pd       2.80156199       0.09823051      14.05883783
Pd       5.49857874       0.02378751      13.97032551
Pd       8.25078312      13.73958433      14.01580881
Pd      11.00447213       0.08829999      13.91533748
Pd      13.54898336       2.75928015      14.00598938
Pd       2.59182372       2.84359817      14.07536618
Pd       5.35027940       2.73135678      14.02814522
Pd       8.18289318       2.67732658      14.00312302
Pd      10.86624855       2.71565834      13.84255307
Pd       0.01125694       5.48952299      14.03701751
Pd       2.70810714       5.59245693      14.00749288
Pd       5.57130620       5.50630623      13.99061536
Pd       8.33510283       5.42589492      14.00594303
Pd      11.06117974       5.38607854      13.97339480
Pd       0.03675242       8.21573923      14.00176278
Pd       2.74376175       8.34443991      13.95495121
Pd       5.49408198       8.27280642      13.92160189
Pd       8.24967665       8.21496501      13.99394484
Pd      11.02908254       8.15955518      13.96419075
Pd       0.01879134      10.95906279      14.05919282
Pd       2.77686932      11.05750081      14.00923517
Pd       5.49639143      11.03966501      13.91209591
Pd       8.26133771      10.98788423      14.04960832
Pd      11.02253112      10.97208418      13.87196351
Pd      12.42215960       6.05704154      16.60899499
Pd       9.30622961       9.33328543      16.34860630
Pd       1.52219977      12.42701024      16.11235737
Pd       1.45205888       6.99553535      16.01195330
Pd      12.52110706       8.70905031      16.40843646
Pd       8.37646409       0.91106548      17.30875920
Pd       4.78654964       0.78865791      16.54401042
Pd       6.56358216       9.72832976      15.91406342
Pd       4.28098865      11.10653075      16.31886182
Pd       9.46653982      12.33317951      16.25925607
Pd       0.57620723       4.18205099      16.55532829
Pd       3.51123263       4.29181962      16.64299964
Pd      10.92313198       2.88474926      16.52132046
Pd       1.84947412       9.76502001      16.40419016
Pd       7.17166439       7.02129177      16.39546789
Pd       6.57020478      12.45486662      15.95927434
Pd       9.78397329       6.71583148      16.00084577
Pd       6.96114633       3.31504851      16.46390767
Pd       1.03242305       1.40935409      16.08849689
Pd       4.12258129       7.67037570      16.26087869
O        8.93431173       2.82003117      17.08245929
O       11.06363326       9.66736546      15.51502650
O       11.13086484      12.39479896      15.28068080
O       11.27716754       1.00198896      17.03394321
O       10.28471668       0.25308578      17.55817620
O        3.64917044       9.35626253      17.11417694
O        2.75716944       0.28945666      16.14620689
O        1.58833745       2.58048693      17.76356514
O        7.89680501      12.71689815      17.43096501
O        0.23802104      10.89209419      16.09275201
O        2.92508302       2.78802098      17.84667839
O        1.95966161       5.40493626      17.22170921
O        7.01146493       5.19460828      15.61086639
O        7.65703379       8.72940934      17.25771615
O        5.00302772       3.13605227      16.01202144
O       13.06350330       2.72425373      16.03918979
O       10.93303477       4.88918629      16.04804549
O       13.67169923       7.40687824      17.30588466
O        6.50351485       1.55627192      17.30759034
O        4.19694395       5.82841861      15.51844330
115
Lattice="13.75323 0.0 0.0 0.0 13.75323 0.0 0.0 0.0 23.89" Properties=species:S:1:pos:R:3 entry_id=26 rank=11 energy=-572.729248046875 pbc="T T F"
Pd       0.00000000       0.00000000      10.00000000
Pd       2.75064538       0.00000000      10.00000000
Pd       5.50129076       0.00000000      10.00000000
Pd       8.25193614       0.00000000      10.00000000
Pd      11.00258152       0.00000000      10.00000000
Pd       0.00000000       2.75064538      10.00000000
Pd       2.75064538       2.75064538      10.00000000
Pd       5.50129076       2.75064538      10.00000000
Pd       8.25193614       2.75064538      10.00000000
Pd      11.00258152       2.75064538      10.00000000
Pd       0.00000000       5.50129076      10.00000000
Pd       2.75064538       5.50129076      10.00000000
Pd       5.50129076       5.50129076      10.00000000
Pd       8.25193614       5.50129076      10.00000000
Pd      11.00258152       5.50129076      10.00000000
Pd       0.00000000       8.25193614      10.00000000
Pd       2.75064538       8.25193614      10.00000000
Pd       5.50129076       8.25193614      10.00000000
Pd       8.25193614       8.25193614      10.00000000
Pd      11.00258152       8.25193614      10.00000000
Pd       0.00000000      11.00258152      10.00000000
Pd       2.75064538      11.00258152      10.00000000
Pd       5.50129076      11.00258152      10.00000000
Pd       8.25193614      11.00258152      10.00000000
Pd      11.00258152      11.00258152      10.00000000
Pd       1.33305437       1.38035701      12.05221797
Pd       4.08925664       1.38750338      11.98771029
Pd       6.82888190       1.38154444      11.99332965
Pd       9.57512057       1.39592898      11.89594876
Pd      12.38684272       1.37174114      11.92044161
Pd       1.37065655       4.09970544      12.00656864
Pd       4.10125007       4.12393621      12.00820233
Pd       6.82444734       4.12497179      12.00908219
Pd       9.56728621       4.13975942      11.94281254
Pd      12.36578195       4.13265160      11.93417299
Pd       1.37110082       6.89256210      11.94010419
Pd       4.13935064       6.87026939      11.96482277
Pd       6.87097415       6.85831372      11.95140951
Pd       9.64205429       6.82915781      11.94515418
Pd      12.39111484       6.85622887      11.94896407
Pd       1.35216595       9.69735034      11.99083951
Pd       4.11777592       9.66324146      11.95099537
Pd       6.89476706       9.64088005      11.95142944
Pd       9.64982872       9.59779534      11.89439304
Pd      12.42487279       9.60955999      11.94161946
Pd       1.35802606      12.41462245      12.04582394
Pd       4.10624816      12.40887780      12.00662317
Pd       6.86816975      12.39901143      11.97280504
Pd       9.63028672      12.36702810      11.91406436
Pd      12.41879361      12.34804731      11.97632258
Pd      13.72429857      13.71671769      14.04438416
Pd       2.79077735       0.05721074      14.04450989
Pd       5.51750050      13.75277863      14.05606087
Pd       8.25634990      13.74441587      13.99067157
Pd      10.98227354       0.12721430      13.83451248
Pd      13.64020694       2.74873251      13.94856044
Pd       2.65419233       2.81314343      14.05047689
Pd       5.42254100       2.70878551      13.99489275
Pd       8.20159291       2.66659764      14.05635509
Pd      10.93339925       2.77354599      13.92439037
Pd      13.73881793       5.49798067      13.98725531
Pd       2.62898525       5.56848443      13.97344707
Pd       5.52480088       5.49721469      13.96534020
Pd       8.29973374       5.36116610      14.17166558
Pd      10.96579696       5.56441249      13.87926516
Pd      13.73119546       8.22054983      14.00833027
Pd       2.73122978       8.30652654      13.97332974
Pd       5.51396988       8.28704617      13.98504056
Pd       8.24771621       8.20301730      13.95816971
Pd      10.98834289       8.26962639      13.88201904
Pd       0.05565967      10.91286395      14.10336791
Pd       2.80173004      11.00038458      13.95806538
Pd       5.57482602      11.01167805      13.92364716
Pd       8.31195287      10.97143370      14.00302271
Pd      11.07965100      10.98469978      14.06333076
Pd      12.28136290       5.84833888      16.30032047
Pd       9.02377260       9.57813079      16.33061260
Pd       1.49150485      12.36577022      16.10625573
Pd       1.35316659       7.07973156      16.04074940
Pd      12.11217506       8.68439967      16.35345742
Pd       8.13685113       1.25356316      17.52774346
Pd       4.61425164       0.84712694      16.64659171
Pd       5.73556452       9.91046456      16.37914336
Pd       4.21383606      12.00513856      16.01147228
Pd       9.61474749      12.72557141      16.29650066
Pd       0.57914497       4.18406467      16.54591873
Pd       3.34388003       4.27231539      16.70784103
Pd       9.68467285       3.83300436      16.44319017
Pd       2.30497650       9.77933878      16.45497326
Pd       7.00829791       7.11923012      16.29470940
Pd       6.87823704      12.33178658      15.93901653
Pd       9.75376222       6.94680465      15.97355354
Pd       6.49935790       3.41766372      16.64681892
Pd       1.07319346       1.41201286      16.08025312
Pd       4.11009199       7.45512063      16.27015083
O        8.23326660       3.28065100      17.61642806
O       10.86435283      10.11184230      15.93906913
O       11.28462786      12.62764268      15.32455688
O       10.80481078       2.11528196      17.02466684
O       10.15765560       1.08513833      17.55038761
O        4.02652375       9.15679002      17.18595378
O        2.69566586       0.26702205      16.18550404
O        1.46288651       2.60151500      17.85815718
O        8.03668351      13.02186388      17.43454696
O        0.54056174      10.64156090      16.09540613
O        2.78001374       2.85998419      18.02868321
O        1.84556277       5.50363458      17.28854455
O        6.79541367       5.24313642      15.65770548
O        7.33562621       8.88958442      17.05164269
O        4.67621783       2.99651476      15.93580466
O       13.29557025       2.63181576      15.92833534
O       11.29445759       4.30599361      15.48113490
O       13.31458382       7.32348537      17.05317525
O        6.18435657       1.65248002      17.56112008
O        4.05258687       5.67631456      15.45277192
115
Lattice="13.75323 0.0 0.0 0.0 13.75323 0.0 0.0 0.0 23.89" Properties=species:S:1:pos:R:3 entry_id=28 rank=12 energy=-572.6976318359375 pbc="T T F"
Pd       0.00000000       0.00000000      10.00000000
Pd       2.75064538       0.00000000      10.00000000
Pd       5.50129076       0.00000000      10.00000000
Pd       8.25193614       0.00000000      10.00000000
Pd      11.00258152       0.00000000      10.00000000
Pd       0.00000000       2.75064538      10.00000000
Pd       2.75064538       2.75064538      10.00000000
Pd       5.50129076       2.75064538      10.00000000
Pd       8.25193614       2.75064538      10.00000000
Pd      11.00258152       2.75064538      10.00000000
Pd       0.00000000       5.50129076      10.00000000
Pd       2.75064538       5.50129076      10.00000000
Pd       5.50129076       5.50129076      10.00000000
Pd       8.25193614       5.50129076      10.00000000
Pd      11.00258152       5.50129076      10.00000000
Pd       0.00000000       8.25193614      10.00000000
Pd       2.75064538       8.25193614      10.00000000
Pd       5.50129076       8.25193614      10.00000000
Pd       8.25193614       8.25193614      10.00000000
Pd      11.00258152       8.25193614      10.00000000
Pd       0.00000000      11.00258152      10.00000000
Pd       2.75064538      11.00258152      10.00000000
Pd       5.50129076      11.00258152      10.00000000
Pd       8.25193614      11.00258152      10.00000000
Pd      11.00258152      11.00258152      10.00000000
Pd       1.33305437       1.38035701      12.05221797
Pd       4.08925664       1.38750338      11.98771029
Pd       6.82888190       1.38154444      11.99332965
Pd       9.57512057       1.39592898      11.89594876
Pd      12.38684272       1.37174114      11.92044161
Pd       1.37065655       4.09970544      12.00656864
Pd       4.10125007       4.12393621      12.00820233
Pd       6.82444734       4.12497179      12.00908219
Pd       9.56728621       4.13975942      11.94281254
Pd      12.36578195       4.13265160      11.93417299
Pd       1.37110082       6.89256210      11.94010419
Pd       4.13935064       6.87026939      11.96482277
Pd       6.87097415       6.85831372      11.95140951
Pd       9.64205429       6.82915781      11.94515418
Pd      12.39111484       6.85622887      11.94896407
Pd       1.35216595       9.69735034      11.99083951
Pd       4.11777592       9.66324146      11.95099537
Pd       6.89476706       9.64088005      11.95142944
Pd       9.64982872       9.59779534      11.89439304
Pd      12.42487279       9.60955999      11.94161946
Pd       1.35802606      12.41462245      12.04582394
Pd       4.10624816      12.40887780      12.00662317
Pd       6.86816975      12.39901143      11.97280504
Pd       9.63028672      12.36702810      11.91406436
Pd      12.41879361      12.34804731      11.97632258
Pd      13.72524368      13.71063385      14.03920296
Pd       2.78873083       0.03896479      14.03455648
Pd       5.49242622       0.03517109      14.00281372
Pd       8.23739615      13.74543527      14.00397609
Pd      10.98238635       0.10320580      13.84630147
Pd      13.64792939       2.72835193      13.96672991
Pd       2.65724703       2.81058781      14.05020415
Pd       5.42605472       2.73735694      13.97444443
Pd       8.20864382       2.66639273      14.05681486
Pd      10.94013611       2.74060130      13.90736710
Pd       0.00880074       5.47931052      13.98213520
Pd       2.67617871       5.56889697      13.99636718
Pd       5.54683735       5.52109969      13.99526522
Pd       8.30463278       5.36085774      14.15831236
Pd      10.99045194       5.52258598      13.88994713
Pd      13.73988887       8.20960082      14.01994832
Pd       2.70567714       8.30763134      13.95974912
Pd       5.47276922       8.28371383      13.92260834
Pd       8.23520910       8.20093808      14.00265624
Pd      10.98735560       8.23431162      13.89805256
Pd       0.02400728      10.92760198      14.05865783
Pd       2.79613775      11.01164099      14.00263296
Pd       5.51543426      11.06136885      13.92164651
Pd       8.28995713      10.98856971      14.04904309
Pd      11.05063196      10.94834609      14.01719581
Pd      12.31680074       5.67417649      16.32764563
Pd       9.27711441       9.44904247      16.41999622
Pd       1.49568209      12.27945227      16.10383707
Pd       1.34841193       6.97835219      16.03639681
Pd      12.22083251       8.52448005      16.36962340
Pd       8.12419311       1.13507478      17.55537526
Pd       4.68481440       0.57850471      16.65035087
Pd       6.57146040       9.72631202      15.89695845
Pd       4.31883654      11.13315208      16.34434536
Pd       9.46898960      12.57519341      16.27440028
Pd       0.66652110       4.07956199      16.55003260
Pd       3.43640169       4.28615605      16.66447920
Pd       9.70218160       3.70333249      16.46673359
Pd       1.93456804       9.67079906      16.42640970
Pd       7.14135178       7.00242375      16.41039249
Pd       6.64186123      12.45923904      15.97542124
Pd       9.82853327       6.82684479      15.98557809
Pd       6.53460589       3.32587891      16.64429093
Pd       1.19047413       1.29765589      16.06982146
Pd       4.09257357       7.63751548      16.25397140
O        8.25047863       3.15648768      17.64090099
O       11.06200710       9.99328046      15.87255932
O       11.13733521      12.54229124      15.30592543
O       10.80148876       1.97496628      17.06464157
O       10.14075264       0.95178333      17.58675018
O        3.74414646       9.34346922      17.12624140
O        2.78199225       0.08302524      16.14739931
O        1.62702782       2.51336192      17.80897073
O        7.92934554      12.90898274      17.45294692
O        0.28018345      10.70712488      16.07934573
O        2.94266944       2.79296520      17.93545593
O        1.90381246       5.43294396      17.28489848
O        6.83238702       5.18035804      15.68270976
O        7.63597270       8.71166543      17.24540601
O        4.75091062       3.03357747      15.87747605
O       13.39894621       2.51325969      15.95203278
O       11.29758337       4.18283193      15.47438375
O       13.34671963       7.12727078      17.12227699
O        6.17496252       1.53792367      17.52988336
O        4.11529931       5.80482500      15.49846327
115
Lattice="13.75323 0.0 0.0 0.0 13.75323 0.0 0.0 0.0 23.89" Properties=species:S:1:pos:R:3 entry_id=15 rank=13 energy=-572.624755859375 pbc="T T F"
Pd       0.00000000       0.00000000      10.00000000
Pd       2.75064538       0.00000000      10.00000000
Pd       5.50129076       0.00000000      10.00000000
Pd       8.25193614       0.00000000      10.00000000
Pd      11.00258152       0.00000000      10.00000000
Pd       0.00000000       2.75064538      10.00000000
Pd       2.75064538       2.75064538      10.00000000
Pd       5.50129076       2.75064538      10.00000000
Pd       8.25193614       2.75064538      10.00000000
Pd      11.00258152       2.75064538      10.00000000
Pd       0.00000000       5.50129076      10.00000000
Pd       2.75064538       5.50129076      10.00000000
Pd       5.50129076       5.50129076      10.00000000
Pd       8.25193614       5.50129076      10.00000000
Pd      11.00258152       5.50129076      10.00000000
Pd       0.00000000       8.25193614      10.00000000
Pd       2.75064538       8.25193614      10.00000000
Pd       5.50129076       8.25193614      10.00000000
Pd       8.25193614       8.25193614      10.00000000
Pd      11.00258152       8.25193614      10.00000000
Pd       0.00000000      11.00258152      10.00000000
Pd       2.75064538      11.00258152      10.00000000
Pd       5.50129076      11.00258152      10.00000000
Pd       8.25193614      11.00258152      10.00000000
Pd      11.00258152      11.00258152      10.00000000
Pd       1.33305437       1.38035701      12.05221797
Pd       4.08925664       1.38750338      11.98771029
Pd       6.82888190       1.38154444      11.99332965
Pd       9.57512057       1.39592898      11.89594876
Pd      12.38684272       1.37174114      11.92044161
Pd       1.37065655       4.09970544      12.00656864
Pd       4.10125007       4.12393621      12.00820233
Pd       6.82444734       4.12497179      12.00908219
Pd       9.56728621       4.13975942      11.94281254
Pd      12.36578195       4.13265160      11.93417299
Pd       1.37110082       6.89256210      11.94010419
Pd       4.13935064       6.87026939      11.96482277
Pd       6.87097415       6.85831372      11.95140951
Pd       9.64205429       6.82915781      11.94515418
Pd      12.39111484       6.85622887      11.94896407
Pd       1.35216595       9.69735034      11.99083951
Pd       4.11777592       9.66324146      11.95099537
Pd       6.89476706       9.64088005      11.95142944
Pd       9.64982872       9.59779534      11.89439304
Pd      12.42487279       9.60955999      11.94161946
Pd       1.35802606      12.41462245      12.04582394
Pd       4.10624816      12.40887780      12.00662317
Pd       6.86816975      12.39901143      11.97280504
Pd       9.63028672      12.36702810      11.91406436
Pd      12.41879361      12.34804731      11.97632258
Pd      13.61430167       0.08011532      13.98050166
Pd       2.81947133       0.02306955      14.12309138
Pd       5.48930698       0.00162434      13.92187070
Pd       8.25262067       0.03532850      13.95299509
Pd      10.96092546       0.04667857      13.86079166
Pd      13.65030900       2.81893093      14.07778381
Pd       2.64892592       2.75592308      14.03163851
Pd       5.37436821       2.67233206      14.07706974
Pd       8.15635867       2.72211956      14.03090569
Pd      10.88132093       2.68427688      14.02325800
Pd       0.02654479       5.54215382      13.95265604
Pd       2.71266297       5.52006231      13.91830182
Pd       5.40859758       5.58647405      14.11040516
Pd       8.31200218       5.43500185      13.96997710
Pd      11.07465985       5.42554818      13.99882423
Pd       0.07976111       8.25449159      13.98563262
Pd       2.76954264       8.27421353      14.02383097
Pd       5.51107047       8.29686904      13.96484165
Pd       8.26905765       8.28478770      13.91778637
Pd      11.09082254       8.17548177      13.92736253
Pd      13.73928317      11.03010605      14.00011368
Pd       2.71007073      10.95756400      14.02495514
Pd       5.44767875      11.04677974      13.88143095
Pd       8.19056618      11.00806915      14.11147669
Pd      10.96838822      10.97070458      13.90663434
Pd      11.78524806       6.88654769      17.27041084
Pd       9.40257247       9.57688327      16.29881036
Pd       1.26575410      12.01808884      16.23846078
Pd       1.20768852       6.84241397      16.28681113
Pd      13.12421770       9.72601846      16.25720955
Pd       8.38759558       1.47471745      17.18476212
Pd       5.10076986       0.90710974      16.37122287
Pd       6.25895205      10.03106204      16.08394926
Pd       4.13139754      12.14754244      15.96901481
Pd       9.64978403      12.58682119      16.17268023
Pd      13.64006832       4.40356172      16.45890052
Pd       3.27487394       3.82624001      16.60150449
Pd      10.23387168       4.20157914      16.73198672
Pd       2.91047852       9.70310515      16.69064526
Pd       7.10623429       7.38795789      16.35859666
Pd       6.79534336      12.63577624      15.94124659
Pd       9.58881157       6.97067009      15.78302586
Pd       6.80436989       3.78266699      16.53835003
Pd       1.20256346       1.87877931      16.34919997
Pd       4.13741501       7.30237997      16.26294188
O        8.56662010       3.44603743      17.44163197
O       11.25229262       9.60316083      15.48788335
O       11.35584059      12.41421528      15.29105975
O       10.92736107       2.38965855      16.14327142
O       10.35313524       1.27978101      16.79364150
O        4.72975904       9.02874000      16.97868378
O        1.22812269       0.09021010      15.49626784
O        2.62855473       1.23410246      17.70527038
O        8.15633526      13.22674840      17.26746362
O        1.07781055      10.28470632      17.07446707
O        3.73760674       2.01225671      17.51228158
O        1.42919021       3.59583954      17.29334339
O        6.99400706       5.57334420      15.57441826
O        7.68141432       9.11319426      17.16055344
O        5.02838662       3.97874126      15.65000042
O       11.88066758       5.09281803      15.96821918
O       10.01531956       6.03487341      17.52294288
O       13.43971586       7.83992080      17.02544432
O        6.47144150       1.98376327      17.39215037
O        2.88859459       5.74067173      15.95780089
115
Lattice="13.75323 0.0 0.0 0.0 13.75323 0.0 0.0 0.0 23.89" Properties=species:S:1:pos:R:3 entry_id=24 rank=14 energy=-572.54931640625 pbc="T T F"
Pd       0.00000000       0.00000000      10.00000000
Pd       2.75064538       0.00000000      10.00000000
Pd       5.50129076       0.00000000      10.00000000
Pd       8.25193614       0.00000000      10.00000000
Pd      11.00258152       0.00000000      10.00000000
Pd       0.00000000       2.75064538      10.00000000
Pd       2.75064538       2.75064538      10.00000000
Pd       5.50129076       2.75064538      10.00000000
Pd       8.25193614       2.75064538      10.00000000
Pd      11.00258152       2.75064538      10.00000000
Pd       0.00000000       5.50129076      10.00000000
Pd       2.75064538       5.50129076      10.00000000
Pd       5.50129076       5.50129076      10.00000000
Pd       8.25193614       5.50129076      10.00000000
Pd      11.00258152       5.50129076      10.00000000
Pd       0.00000000       8.25193614      10.00000000
Pd       2.75064538       8.25193614      10.00000000
Pd       5.50129076       8.25193614      10.00000000
Pd       8.25193614       8.25193614      10.00000000
Pd      11.00258152       8.25193614      10.00000000
Pd       0.00000000      11.00258152      10.00000000
Pd       2.75064538      11.00258152      10.00000000
Pd       5.50129076      11.00258152      10.00000000
Pd       8.25193614      11.00258152      10.00000000
Pd      11.00258152      11.00258152      10.00000000
Pd       1.33305437       1.38035701      12.05221797
Pd       4.08925664       1.38750338      11.98771029
Pd       6.82888190       1.38154444      11.99332965
Pd       9.57512057       1.39592898      11.89594876
Pd      12.38684272       1.37174114      11.92044161
Pd       1.37065655       4.09970544      12.00656864
Pd       4.10125007       4.12393621      12.00820233
Pd       6.82444734       4.12497179      12.00908219
Pd       9.56728621       4.13975942      11.94281254
Pd      12.36578195       4.13265160      11.93417299
Pd       1.37110082       6.89256210      11.94010419
Pd       4.13935064       6.87026939      11.96482277
Pd       6.87097415       6.85831372      11.95140951
Pd       9.64205429       6.82915781      11.94515418
Pd      12.39111484       6.85622887      11.94896407
Pd       1.35216595       9.69735034      11.99083951
Pd       4.11777592       9.66324146      11.95099537
Pd       6.89476706       9.64088005      11.95142944
Pd       9.64982872       9.59779534      11.89439304
Pd      12.42487279       9.60955999      11.94161946
Pd       1.35802606      12.41462245      12.04582394
Pd       4.10624816      12.40887780      12.00662317
Pd       6.86816975      12.39901143      11.97280504
Pd       9.63028672      12.36702810      11.91406436
Pd      12.41879361      12.34804731      11.97632258
Pd      13.71541932      13.75150515      14.03438933
Pd       2.75323639      13.72767995      14.02059176
Pd       5.52949961       0.02335151      14.03142076
Pd       8.25154876       0.00969038      13.98454371
Pd      10.97380294      13.69374292      13.89201681
Pd      13.71551699       2.74539955      13.97093878
Pd       2.70831598       2.70657509      13.98140475
Pd       5.41706597       2.70046670      14.09199634
Pd       8.23752953       2.75636473      14.01296525
Pd      10.96068014       2.86021981      14.00165162
Pd      13.71493473       5.48435601      13.95807005
Pd       2.68119391       5.46802657      13.96929938
Pd       5.45855451       5.50761236      13.96036761
Pd       8.35831051       5.53216286      13.99363666
Pd      11.05306161       5.54450505      14.00412325
Pd       0.01090646       8.24190752      13.99522909
Pd       2.74992551       8.21620143      13.96712926
Pd       5.49159984       8.30166349      13.97700567
Pd       8.25971957       8.30489075      13.93910388
Pd      11.01511285       8.25052719      13.92286755
Pd      13.75191743      11.01088591      13.97292341
Pd       2.79058727      10.92668632      14.05630266
Pd       5.52801459      11.05031821      13.94932374
Pd       8.29191918      11.02219898      13.90091570
Pd      10.99238278      10.94180104      13.97835636
Pd      12.44829413       7.06650259      16.30713412
Pd       8.81278898       9.79628799      16.33351685
Pd       1.36919166      12.37117777      15.88919094
Pd       1.32785658       6.51769709      16.07663899
Pd      12.70720616      10.67050579      16.50930555
Pd       8.63122780       1.37093311      16.66302445
Pd       5.17087427       1.19450693      17.19102372
Pd       5.30230346       9.84093060      16.31383579
Pd       4.10965902      12.40040633      15.98604646
Pd      10.44628162      12.69927640      16.54639598
Pd      13.19190729       3.98924019      16.45486903
Pd       3.03468423       3.80267686      16.46569827
Pd      10.37789886       4.46898115      16.44464612
Pd       1.68065923       9.14716131      16.36918091
Pd       6.92908373       7.32803632      16.21999750
Pd       7.05288984      12.17173036      15.93373352
Pd       9.67505204       7.10523563      15.94520055
Pd       6.78107289       3.71678287      16.40236074
Pd       1.89402143       1.34636250      16.30940131
Pd       3.95344436       7.34578911      16.30194721
O        8.79770656       3.33257887      16.09712550
O       10.59672221      10.69861167      16.05331086
O       12.34848892      12.53261177      16.74191083
O       11.36555933       1.32651851      15.34835481
O       10.62744660       0.96749352      16.57138944
O        3.55647187       9.11049332      17.04708179
O        3.41408857       0.34009641      16.99702867
O        5.64580303      12.26499908      17.55247439
O        8.50708324      13.15153796      16.95018876
O        0.84173574      10.89509840      17.13132089
O        5.70134275      13.39479194      18.31424603
O        1.34894362       4.70235750      16.93108770
O        6.86919276       5.49044131      15.48264159
O        7.09661289       9.10261381      16.97992763
O        4.80455549       2.94745108      16.17081882
O        0.24241683       2.28779287      15.89784422
O       11.95723773       5.36929788      17.14314242
O       13.38583377       8.81548974      15.99755916
O        6.91174057       2.04880991      17.43096397
O        4.06709030       5.53158843      15.57466161
115
Lattice="13.75323 0.0 0.0 0.0 13.75323 0.0 0.0 0.0 23.89" Properties=species:S:1:pos:R:3 entry_id=9 rank=15 energy=-572.4574584960938 pbc="T T F"
Pd       0.00000000       0.00000000      10.00000000
Pd       2.75064538       0.00000000      10.00000000
Pd       5.50129076       0.00000000      10.00000000
Pd       8.25193614       0.00000000      10.00000000
Pd      11.00258152       0.00000000      10.00000000
Pd       0.00000000       2.75064538      10.00000000
Pd       2.75064538       2.75064538      10.00000000
Pd       5.50129076       2.75064538      10.00000000
Pd       8.25193614       2.75064538      10.00000000
Pd      11.00258152       2.75064538      10.00000000
Pd       0.00000000       5.50129076      10.00000000
Pd       2.75064538       5.50129076      10.00000000
Pd       5.50129076       5.50129076      10.00000000
Pd       8.25193614       5.50129076      10.00000000
Pd      11.00258152       5.50129076      10.00000000
Pd       0.00000000       8.25193614      10.00000000
Pd       2.75064538       8.25193614      10.00000000
Pd       5.50129076       8.25193614      10.00000000
Pd       8.25193614       8.25193614      10.00000000
Pd      11.00258152       8.25193614      10.00000000
Pd       0.00000000      11.00258152      10.00000000
Pd       2.75064538      11.00258152      10.00000000
Pd       5.50129076      11.00258152      10.00000000
Pd       8.25193614      11.00258152      10.00000000
Pd      11.00258152      11.00258152      10.00000000
Pd       1.33305437       1.38035701      12.05221797
Pd       4.08925664       1.38750338      11.98771029
Pd       6.82888190       1.38154444      11.99332965
Pd       9.57512057       1.39592898      11.89594876
Pd      12.38684272       1.37174114      11.92044161
Pd       1.37065655       4.09970544      12.00656864
Pd       4.10125007       4.12393621      12.00820233
Pd       6.82444734       4.12497179      12.00908219
Pd       9.56728621       4.13975942      11.94281254
Pd      12.36578195       4.13265160      11.93417299
Pd       1.37110082       6.89256210      11.94010419
Pd       4.13935064       6.87026939      11.96482277
Pd       6.87097415       6.85831372      11.95140951
Pd       9.64205429       6.82915781      11.94515418
Pd      12.39111484       6.85622887      11.94896407
Pd       1.35216595       9.69735034      11.99083951
Pd       4.11777592       9.66324146      11.95099537
Pd       6.89476706       9.64088005      11.95142944
Pd       9.64982872       9.59779534      11.89439304
Pd      12.42487279       9.60955999      11.94161946
Pd       1.35802606      12.41462245      12.04582394
Pd       4.10624816      12.40887780      12.00662317
Pd       6.86816975      12.39901143      11.97280504
Pd       9.63028672      12.36702810      11.91406436
Pd      12.41879361      12.34804731      11.97632258
Pd       0.03266229       0.01685267      14.07056538
Pd       2.82307758       0.09098086      14.04963823
Pd       5.53543053       0.00844806      14.04062742
Pd       8.29685155      13.71681573      13.97768699
Pd      11.05836429       0.15483679      14.08986651
Pd      13.51335597       2.83458080      13.98275712
Pd       2.56050531       2.82446503      14.06447550
Pd       5.35655145       2.70435985      14.01881715
Pd       8.15660295       2.64425404      14.03933729
Pd      10.83559410       2.77259373      13.82031062
Pd      13.71292129       5.57044756      14.03034246
Pd       2.65151494       5.58389784      13.98551136
Pd       5.55210343       5.48582500      13.97011400
Pd       8.32977813       5.35740118      14.02130063
Pd      11.04510101       5.44037919      13.95169560
Pd       0.04839993       8.27951518      13.98972990
Pd       2.78153456       8.33732063      13.97006883
Pd       5.53595420       8.27114959      13.97923665
Pd       8.26013915       8.15468406      13.94954625
Pd      11.02224363       8.14946206      13.95646541
Pd       0.07067039      10.99435464      14.17788629
Pd       2.77745089      11.04004679      13.94849478
Pd       5.52057803      10.99336030      13.90609853
Pd       8.29223709      10.92386519      13.97807899
Pd      11.06536239      10.97553412      13.85571883
Pd      12.26727017       6.18341899      16.84581121
Pd       9.07298068       9.39646467      16.24280698
Pd       1.56475147      12.70997817      16.27045093
Pd       1.45167163       7.10649159      16.00762942
Pd      12.42428898       8.78692464      16.32490274
Pd       8.24950834       0.95381069      17.24953533
Pd       4.50372163       1.08463236      16.81023772
Pd       5.74794054       9.85651132      16.37057327
Pd       4.22185617      12.03189949      15.96365272
Pd       9.55365151      12.28077381      16.28458543
Pd       0.40737789       4.36096476      16.54494467
Pd       3.21309842       4.13951720      16.54831112
Pd      10.71319244       3.10498406      16.48513127
Pd       2.32968152       9.89986317      16.43390034
Pd       7.04185193       7.07780387      16.28219088
Pd       6.85629857      12.25360620      15.83742449
Pd       9.70145451       6.69337637      15.94065814
Pd       6.77831739       3.32898688      16.49656559
Pd       0.83734791       1.73950230      16.14494975
Pd       4.16270079       7.41849275      16.26537967
O        8.73862447       2.88217631      17.07028101
O       10.88535214       9.66876494      15.48975595
O       11.23808656      12.31868142      15.31913113
O       10.99961108       1.13557429      16.31113888
O       10.21303626       0.38724899      17.19028514
O        4.00789645       9.14017597      17.13272915
O        2.54573233       0.73379867      16.07067337
O        2.71164545      12.84631182      18.10220307
O        7.95835572      12.72648358      17.41654784
O        0.65485983      10.94113545      16.16315046
O        4.02561148      13.04710771      17.78458562
O        1.87116419       5.44029401      17.20241071
O        6.93554229       5.18589032      15.59397146
O        7.36995982       8.85993997      17.05479202
O        4.75554552       2.96763244      16.02355362
O       12.89400772       2.94353422      16.02947675
O       10.66893201       5.08334840      16.77084087
O       13.63453250       7.55718376      17.21716401
O        6.37128181       1.63084574      17.49088217
O        4.13942867       5.63843345      15.46617562
115
Lattice="13.75323 0.0 0.0 0.0 13.75323 0.0 0.0 0.0 23.89" Properties=species:S:1:pos:R:3 entry_id=21 rank=16 energy=-572.4285888671875 pbc="T T F"
Pd       0.00000000       0.00000000      10.00000000
Pd       2.75064538       0.00000000      10.00000000
Pd       5.50129076       0.00000000      10.00000000
Pd       8.25193614       0.00000000      10.00000000
Pd      11.00258152       0.00000000      10.00000000
Pd       0.00000000       2.75064538      10.00000000
Pd       2.75064538       2.75064538      10.00000000
Pd       5.50129076       2.75064538      10.00000000
Pd       8.25193614       2.75064538      10.00000000
Pd      11.00258152       2.75064538      10.00000000
Pd       0.00000000       5.50129076      10.00000000
Pd       2.75064538       5.50129076      10.00000000
Pd       5.50129076       5.50129076      10.00000000
Pd       8.25193614       5.50129076      10.00000000
Pd      11.00258152       5.50129076      10.00000000
Pd       0.00000000       8.25193614      10.00000000
Pd       2.75064538       8.25193614      10.00000000
Pd       5.50129076       8.25193614      10.00000000
Pd       8.25193614       8.25193614      10.00000000
Pd      11.00258152       8.25193614      10.00000000
Pd       0.00000000      11.00258152      10.00000000
Pd       2.75064538      11.00258152      10.00000000
Pd       5.50129076      11.00258152      10.00000000
Pd       8.25193614      11.00258152      10.00000000
Pd      11.00258152      11.00258152      10.00000000
Pd       1.33305437       1.38035701      12.05221797
Pd       4.08925664       1.38750338      11.98771029
Pd       6.82888190       1.38154444      11.99332965
Pd       9.57512057       1.39592898      11.89594876
Pd      12.38684272       1.37174114      11.92044161
Pd       1.37065655       4.09970544      12.00656864
Pd       4.10125007       4.12393621      12.00820233
Pd       6.82444734       4.12497179      12.00908219
Pd       9.56728621       4.13975942      11.94281254
Pd      12.36578195       4.13265160      11.93417299
Pd       1.37110082       6.89256210      11.94010419
Pd       4.13935064       6.87026939      11.96482277
Pd       6.87097415       6.85831372      11.95140951
Pd       9.64205429       6.82915781      11.94515418
Pd      12.39111484       6.85622887      11.94896407
Pd       1.35216595       9.69735034      11.99083951
Pd       4.11777592       9.66324146      11.95099537
Pd       6.89476706       9.64088005      11.95142944
Pd       9.64982872       9.59779534      11.89439304
Pd      12.42487279       9.60955999      11.94161946
Pd       1.35802606      12.41462245      12.04582394
Pd       4.10624816      12.40887780      12.00662317
Pd       6.86816975      12.39901143      11.97280504
Pd       9.63028672      12.36702810      11.91406436
Pd      12.41879361      12.34804731      11.97632258
Pd      13.68283338       0.01681041      14.00219778
Pd       2.71727971      13.72497529      14.00754869
Pd       5.48497401       0.03589131      14.03487927
Pd       8.22214390      13.75250949      14.00446631
Pd      10.94195315       0.03097617      13.85334821
Pd      13.69551021       2.75864710      13.96115546
Pd       2.69490216       2.71008349      13.97770944
Pd       5.40370637       2.72230193      14.09657406
Pd       8.23096269       2.73084153      14.00103920
Pd      10.95657868       2.79076952      14.02056860
Pd      13.71633471       5.49066231      13.97197043
Pd       2.68870761       5.46940285      13.98056432
Pd       5.47194508       5.53865230      13.99122014
Pd       8.31918395       5.49407047      13.99493129
Pd      11.03851034       5.46173997      13.99026527
Pd       0.04542377       8.22537626      13.99485715
Pd       2.75919801       8.20919411      13.98219974
Pd       5.48839933       8.33490145      14.01726575
Pd       8.23564202       8.26751255      13.91342167
Pd      11.03322921       8.16975593      13.93939048
Pd       0.00101484      10.98556009      13.92490636
Pd       2.74575699      10.90332837      14.01738531
Pd       5.49501671      11.06439743      13.96267430
Pd       8.22270084      11.03213845      14.00572314
Pd      10.95493807      11.06744642      13.93357309
Pd      12.46762999       6.90215474      16.32852110
Pd       8.95323587       9.58091320      16.24231959
Pd       1.23314507      12.35951008      15.85413789
Pd       1.36522685       6.49407538      16.13031310
Pd      12.54700500      10.32957043      16.26472797
Pd       8.57759456       1.26982469      16.74073874
Pd       5.14416894       1.05140397      17.01549994
Pd       5.38564275       9.97902326      16.41712541
Pd       3.91219340      12.29215159      15.94519923
Pd       9.85311379      12.35248410      16.37282738
Pd      13.12266326       3.95321220      16.45573620
Pd       2.99019010       3.76877181      16.46368934
Pd      10.33019808       4.32345333      16.44500182
Pd       1.75553320       9.18547354      16.44123514
Pd       6.93781806       7.38086306      16.26231135
Pd       6.87930701      12.36190359      15.99847605
Pd       9.65180997       6.91990817      15.92553835
Pd       6.74203501       3.68016306      16.40988128
Pd       1.80857461       1.32624446      16.27220829
Pd       3.98756142       7.38371725      16.31157725
O        8.75967720       3.19004064      16.06277741
O       10.80355125       9.57659883      15.48350114
O       11.66319108      12.02017312      15.78712700
O       11.30987842       1.15605681      15.54418908
O       10.54200964       0.70612462      16.60200017
O        3.64310805       9.14893877      17.07474061
O        3.33251270       0.30651955      16.89549517
O        4.77611373      12.03406788      17.84203397
O        8.28720240      13.11799777      17.24883762
O        0.55328845      10.90881576      17.01412372
O        5.76004120      12.97872808      17.79851220
O        1.30584097       4.65910974      16.92179863
O        6.86452441       5.50556458      15.54803451
O        7.18359909       9.18476008      17.00561378
O        4.75313090       2.90464773      16.18450857
O        0.15126262       2.25110726      15.88399014
O       11.85698099       5.26804028      17.19955329
O       13.52085295       8.60172265      16.05799962
O        6.84010816       1.96942855      17.39347121
O        4.06818848       5.56050589      15.58379314
115
Lattice="13.75323 0.0 0.0 0.0 13.75323 0.0 0.0 0.0 23.89" Properties=species:S:1:pos:R:3 entry_id=12 rank=17 energy=-572.254638671875 pbc="T T F"
Pd       0.00000000       0.00000000      10.00000000
Pd       2.75064538       0.00000000      10.00000000
Pd       5.50129076       0.00000000      10.00000000
Pd       8.25193614       0.00000000      10.00000000
Pd      11.00258152       0.00000000      10.00000000
Pd       0.00000000       2.75064538      10.00000000
Pd       2.75064538       2.75064538      10.00000000
Pd       5.50129076       2.75064538      10.00000000
Pd       8.25193614       2.75064538      10.00000000
Pd      11.00258152       2.75064538      10.00000000
Pd       0.00000000       5.50129076      10.00000000
Pd       2.75064538       5.50129076      10.00000000
Pd       5.50129076       5.50129076      10.00000000
Pd       8.25193614       5.50129076      10.00000000
Pd      11.00258152       5.50129076      10.00000000
Pd       0.00000000       8.25193614      10.00000000
Pd       2.75064538       8.25193614      10.00000000
Pd       5.50129076       8.25193614      10.00000000
Pd       8.25193614       8.25193614      10.00000000
Pd      11.00258152       8.25193614      10.00000000
Pd       0.00000000      11.00258152      10.00000000
Pd       2.75064538      11.00258152      10.00000000
Pd       5.50129076      11.00258152      10.00000000
Pd       8.25193614      11.00258152      10.00000000
Pd      11.00258152      11.00258152      10.00000000
Pd       1.33305437       1.38035701      12.05221797
Pd       4.08925664       1.38750338      11.98771029
Pd       6.82888190       1.38154444      11.99332965
Pd       9.57512057       1.39592898      11.89594876
Pd      12.38684272       1.37174114      11.92044161
Pd       1.37065655       4.09970544      12.00656864
Pd       4.10125007       4.12393621      12.00820233
Pd       6.82444734       4.12497179      12.00908219
Pd       9.56728621       4.13975942      11.94281254
Pd      12.36578195       4.13265160      11.93417299
Pd       1.37110082       6.89256210      11.94010419
Pd       4.13935064       6.87026939      11.96482277
Pd       6.87097415       6.85831372      11.95140951
Pd       9.64205429       6.82915781      11.94515418
Pd      12.39111484       6.85622887      11.94896407
Pd       1.35216595       9.69735034      11.99083951
Pd       4.11777592       9.66324146      11.95099537
Pd       6.89476706       9.64088005      11.95142944
Pd       9.64982872       9.59779534      11.89439304
Pd      12.42487279       9.60955999      11.94161946
Pd       1.35802606      12.41462245      12.04582394
Pd       4.10624816      12.40887780      12.00662317
Pd       6.86816975      12.39901143      11.97280504
Pd       9.63028672      12.36702810      11.91406436
Pd      12.41879361      12.34804731      11.97632258
Pd      13.66581870       0.02507410      13.98494316
Pd       2.84865486       0.09667809      14.15550962
Pd       5.51054340       0.00009131      13.90183386
Pd       8.25680885      13.74433913      13.98427912
Pd      10.98134978       0.10064720      14.12473164
Pd      13.62203492       2.81071252      14.02635919
Pd       2.62708291       2.80139321      14.08907904
Pd       5.35909881       2.67609448      14.02775102
Pd       8.26137246       2.69548500      14.10387755
Pd      10.93560359       2.70541084      13.71814580
Pd       0.01203286       5.54437118      14.05007477
Pd       2.69657726       5.53936525      13.90571939
Pd       5.41613379       5.55710472      14.05577966
Pd       8.30760844       5.47876620      13.91974560
Pd      11.05312861       5.37735221      13.95019039
Pd       0.11077910       8.23789584      14.00295223
Pd       2.79620049       8.30676609      14.03373667
Pd       5.54397969       8.28277198      13.92729833
Pd       8.31212587       8.27307986      13.97390406
Pd      11.12495683       8.11315051      13.97418358
Pd      13.72788080      11.01203127      14.00575373
Pd       2.68576266      10.98572146      14.01223316
Pd       5.42595923      11.03628342      13.92430997
Pd       8.20187933      10.99567074      14.08938976
Pd      10.97104502      10.90765072      13.88814104
Pd      12.35630882       6.39968054      16.39258457
Pd       9.45627775       9.39632912      16.33689727
Pd       1.24435950      12.00844321      16.26670177
Pd       1.49367262       6.95742385      16.35327249
Pd      13.15716443       9.69004040      16.27532622
Pd       8.23456122       1.02830983      16.98059857
Pd       4.77202685       1.00936157      16.22448440
Pd       6.49897462       9.92051530      15.97766786
Pd       4.02393726      12.18259046      15.97893081
Pd       9.43457734      12.26548585      16.33579821
Pd       0.33085316       4.36380838      16.77420830
Pd       3.28867049       4.20640444      16.75599773
Pd      10.84256419       3.04943830      16.28586805
Pd       2.95612358       9.79201980      16.74269258
Pd       7.18863361       7.23951553      16.38072022
Pd       6.62915425      12.59240896      15.95080418
Pd       9.69832167       6.77966797      15.91607609
Pd       6.80662850       3.62788536      16.31549739
Pd       0.90326688       1.89027937      16.39706936
Pd       4.36897348       7.56316294      16.31745279
O        8.78503655       2.84126103      16.29195016
O       11.28625423       9.53069801      15.51539247
O       11.10049518      12.24378456      15.34845843
O       11.06886086       1.05813012      16.29229850
O       10.17993669       0.40977132      17.15357299
O        4.85645828       9.30514691      17.02670386
O        1.28031524       0.07273958      15.54236277
O        2.35890020       1.62484172      17.74282328
O        7.88342387      12.85342504      17.47753702
O        1.08505778      10.27857027      17.11683490
O        3.52531459       2.27549136      17.46509645
O        1.79045757       5.10633511      17.75209028
O        7.01000783       5.46744720      15.51978843
O        7.75346599       8.93515665      17.22101561
O        4.94786904       3.94276601      15.65205626
O       12.86724039       3.03622751      15.98744982
O       10.89927353       5.07722297      16.04675061
O       13.57204949       7.78663532      16.98989452
O        6.41147153       1.85999630      17.11677342
O        3.21908263       6.00942281      15.85398533
115
Lattice="13.75323 0.0 0.0 0.0 13.75323 0.0 0.0 0.0 23.89" Properties=species:S:1:pos:R:3 entry_id=23 rank=18 energy=-572.2531127929688 pbc="T T F"
Pd       0.00000000       0.00000000      10.00000000
Pd       2.75064538       0.00000000      10.00000000
Pd       5.50129076       0.00000000      10.00000000
Pd       8.25193614       0.00000000      10.00000000
Pd      11.00258152       0.00000000      10.00000000
Pd       0.00000000       2.75064538      10.00000000
Pd       2.75064538       2.75064538      10.00000000
Pd       5.50129076       2.75064538      10.00000000
Pd       8.25193614       2.75064538      10.00000000
Pd      11.00258152       2.75064538      10.00000000
Pd       0.00000000       5.50129076      10.00000000
Pd       2.75064538       5.50129076      10.00000000
Pd       5.50129076       5.50129076      10.00000000
Pd       8.25193614       5.50129076      10.00000000
Pd      11.00258152       5.50129076      10.00000000
Pd       0.00000000       8.25193614      10.00000000
Pd       2.75064538       8.25193614      10.00000000
Pd       5.50129076       8.25193614      10.00000000
Pd       8.25193614       8.25193614      10.00000000
Pd      11.00258152       8.25193614      10.00000000
Pd       0.00000000      11.00258152      10.00000000
Pd       2.75064538      11.00258152      10.00000000
Pd       5.50129076      11.00258152      10.00000000
Pd       8.25193614      11.00258152      10.00000000
Pd      11.00258152      11.00258152      10.00000000
Pd       1.33305437       1.38035701      12.05221797
Pd       4.08925664       1.38750338      11.98771029
Pd       6.82888190       1.38154444      11.99332965
Pd       9.57512057       1.39592898      11.89594876
Pd      12.38684272       1.37174114      11.92044161
Pd       1.37065655       4.09970544      12.00656864
Pd       4.10125007       4.12393621      12.00820233
Pd       6.82444734       4.12497179      12.00908219
Pd       9.56728621       4.13975942      11.94281254
Pd      12.36578195       4.13265160      11.93417299
Pd       1.37110082       6.89256210      11.94010419
Pd       4.13935064       6.87026939      11.96482277
Pd       6.87097415       6.85831372      11.95140951
Pd       9.64205429       6.82915781      11.94515418
Pd      12.39111484       6.85622887      11.94896407
Pd       1.35216595       9.69735034      11.99083951
Pd       4.11777592       9.66324146      11.95099537
Pd       6.89476706       9.64088005      11.95142944
Pd       9.64982872       9.59779534      11.89439304
Pd      12.42487279       9.60955999      11.94161946
Pd       1.35802606      12.41462245      12.04582394
Pd       4.10624816      12.40887780      12.00662317
Pd       6.86816975      12.39901143      11.97280504
Pd       9.63028672      12.36702810      11.91406436
Pd      12.41879361      12.34804731      11.97632258
Pd      13.70171726      13.75021968      14.04423593
Pd       2.70766369      13.71433073      14.03132637
Pd       5.48026734       0.03230361      14.01481608
Pd       8.21123894       0.03468197      14.00716729
Pd      10.95616290      13.75234925      13.86902287
Pd      13.69375186       2.74182981      13.95825839
Pd       2.69226663       2.69831142      13.98722392
Pd       5.39979206       2.69861839      14.10884932
Pd       8.21541530       2.75699247      14.02436957
Pd      10.93608810       2.85614740      14.04851905
Pd      13.68591480       5.47245872      13.94631984
Pd       2.65025255       5.47356901      13.97245030
Pd       5.43307999       5.49168345      13.96258200
Pd       8.33057338       5.52170777      14.00017571
Pd      11.02265962       5.54388273      14.01674287
Pd       0.00762523       8.21989826      14.02231251
Pd       2.73834670       8.21609827      14.03691255
Pd       5.48201798       8.28518153      13.92901893
Pd       8.22208700       8.29603005      13.92827571
Pd      10.99037303       8.24090031      13.95233018
Pd       0.08499373      10.98898335      13.89833891
Pd       2.84633539      10.90160544      14.09164445
Pd       5.58137079      11.06134984      13.95566865
Pd       8.30636708      11.06553799      13.95098254
Pd      11.03407199      10.92114870      13.92928741
Pd      12.32322554       7.02453017      16.30122275
Pd       8.01205802       9.76136318      16.31919362
Pd       1.32996131      12.29613264      15.90761081
Pd       1.21541707       6.44753745      16.10950778
Pd      12.53244898      10.57180388      16.12252201
Pd       8.48540030       1.35555832      16.77812079
Pd       5.04659214       1.19102185      17.26366335
Pd       4.64681972       9.81939755      16.02901993
Pd       4.02527000      12.47099316      16.01388470
Pd       9.99588912      12.61482284      16.35942315
Pd      13.05020800       3.94758798      16.43145113
Pd       2.92611084       3.76230565      16.48135710
Pd      10.24164765       4.44370305      16.43404835
Pd       1.51895628       9.04308610      16.58617168
Pd       6.64655807       7.27065620      16.23800110
Pd       6.86380970      12.32385690      15.96704518
Pd       9.51891692       7.11982561      15.95309492
Pd       6.67480298       3.70103076      16.44495860
Pd       1.76453698       1.32418793      16.31116361
Pd       3.80549886       7.18905219      16.42107324
O        8.67974325       3.27790063      16.10939503
O        9.64986882      10.70832976      15.77546994
O       11.80610036      12.33080209      15.69501234
O       11.23738021       1.28915878      15.46189504
O       10.46329269       0.83229993      16.60075844
O        3.36236088       8.89807462      17.28430420
O        3.28264864       0.35851036      17.04676042
O        5.48456968      12.24540831      17.62036950
O        8.26310836      13.16152717      17.18672333
O        0.59317008      10.88859803      17.08912674
O        5.51227572      13.36415764      18.39218709
O        1.22149064       4.63164744      16.94675504
O        6.83447524       5.44895676      15.49127963
O        6.34822788       9.02735159      17.00389767
O        4.70352924       2.91137296      16.19648016
O        0.10939803       2.24538261      15.88396534
O       11.82187361       5.33185002      17.13505166
O       13.31689333       8.74662348      16.03842596
O        6.77910297       2.06338117      17.53640451
O        3.99723687       5.44222568      15.58186739
115
Lattice="13.75323 0.0 0.0 0.0 13.75323 0.0 0.0 0.0 23.89" Properties=species:S:1:pos:R:3 entry_id=19 rank=19 energy=-572.19287109375 pbc="T T F"
Pd       0.00000000       0.00000000      10.00000000
Pd       2.75064538       0.00000000      10.00000000
Pd       5.50129076       0.00000000      10.00000000
Pd       8.25193614       0.00000000      10.00000000
Pd      11.00258152       0.00000000      10.00000000
Pd       0.00000000       2.75064538      10.00000000
Pd       2.75064538       2.75064538      10.00000000
Pd       5.50129076       2.75064538      10.00000000
Pd       8.25193614       2.75064538      10.00000000
Pd      11.00258152       2.75064538      10.00000000
Pd       0.00000000       5.50129076      10.00000000
Pd       2.75064538       5.50129076      10.00000000
Pd       5.50129076       5.50129076      10.00000000
Pd       8.25193614       5.50129076      10.00000000
Pd      11.00258152       5.50129076      10.00000000
Pd       0.00000000       8.25193614      10.00000000
Pd       2.75064538       8.25193614      10.00000000
Pd       5.50129076       8.25193614      10.00000000
Pd       8.25193614       8.25193614      10.00000000
Pd      11.00258152       8.25193614      10.00000000
Pd       0.00000000      11.00258152      10.00000000
Pd       2.75064538      11.00258152      10.00000000
Pd       5.50129076      11.00258152      10.00000000
Pd       8.25193614      11.00258152      10.00000000
Pd      11.00258152      11.00258152      10.00000000
Pd       1.33305437       1.38035701      12.05221797
Pd       4.08925664       1.38750338      11.98771029
Pd       6.82888190       1.38154444      11.99332965
Pd       9.57512057       1.39592898      11.89594876
Pd      12.38684272       1.37174114      11.92044161
Pd       1.37065655       4.09970544      12.00656864
Pd       4.10125007       4.12393621      12.00820233
Pd       6.82444734       4.12497179      12.00908219
Pd       9.56728621       4.13975942      11.94281254
Pd      12.36578195       4.13265160      11.93417299
Pd       1.37110082       6.89256210      11.94010419
Pd       4.13935064       6.87026939      11.96482277
Pd       6.87097415       6.85831372      11.95140951
Pd       9.64205429       6.82915781      11.94515418
Pd      12.39111484       6.85622887      11.94896407
Pd       1.35216595       9.69735034      11.99083951
Pd       4.11777592       9.66324146      11.95099537
Pd       6.89476706       9.64088005      11.95142944
Pd       9.64982872       9.59779534      11.89439304
Pd      12.42487279       9.60955999      11.94161946
Pd       1.35802606      12.41462245      12.04582394
Pd       4.10624816      12.40887780      12.00662317
Pd       6.86816975      12.39901143      11.97280504
Pd       9.63028672      12.36702810      11.91406436
Pd      12.41879361      12.34804731      11.97632258
Pd       0.12219213      13.70422808      14.18179765
Pd       2.86553453       0.00802950      14.08601064
Pd       5.59811868       0.00808434      14.05769375
Pd       8.33285380      13.71687588      13.98037306
Pd      11.13553038       0.07047704      13.98723479
Pd      13.55981070       2.76077799      13.97908290
Pd       2.63304262       2.77068494      13.94224322
Pd       5.35634054       2.70912012      14.04957266
Pd       8.15292802       2.68216036      14.03698952
Pd      10.83823737       2.78951090      13.99854133
Pd      13.71135752       5.51463834      13.94710415
Pd       2.64575580       5.56566380      13.99284476
Pd       5.44174195       5.51590932      13.99581774
Pd       8.30373950       5.43426612      14.03068260
Pd      11.03000107       5.46999007      13.96347788
Pd       0.01995982       8.26568716      13.92544657
Pd       2.76251869       8.29201520      13.97259486
Pd       5.49636183       8.27563234      14.00272751
Pd       8.23263473       8.20313159      13.93969104
Pd      11.00478436       8.18739502      13.94626593
Pd       0.10338777      10.98467928      13.98985617
Pd       2.79097045      10.99892346      14.05744734
Pd       5.55546255      10.98159290      13.91039856
Pd       8.32508366      10.95020748      13.90458521
Pd      11.07248989      10.95671333      13.89703638
Pd      12.32797125       7.32805237      16.30475905
Pd       9.06275233       9.55177530      16.20756906
Pd       1.83327168      12.69390390      16.73605594
Pd       1.16389743       6.81134262      16.14621594
Pd      13.07362441      11.68993369      16.37793817
Pd       8.27491135       1.12754051      16.79690066
Pd       4.63227720       1.12706286      16.79498161
Pd       5.62772368       9.83675057      16.44419462
Pd       4.35309140      12.08242297      15.94668195
Pd       9.68361659      12.36637849      16.37845658
Pd      12.79661166       4.63749997      16.45698901
Pd       2.78363795       3.99834429      16.38521693
Pd      10.07462612       4.32067344      16.35671930
Pd       1.93573015       9.43523992      16.41898851
Pd       6.96258273       7.26007700      16.28259963
Pd       6.99602874      12.13549439      15.86291465
Pd       9.62971275       6.91042997      15.96277653
Pd       6.55270364       3.56153264      16.41079521
Pd       1.21772545       1.80384001      16.11716357
Pd       3.98192007       7.48182730      16.32146562
O        8.55045561       3.04098024      16.13684422
O       10.85349319       9.60245372      15.43888184
O       11.42550944      12.24989396      15.47008962
O       11.09917725       1.23948709      15.73827044
O       10.29905085       0.70998997      16.71385681
O        3.80630920       9.28117172      17.10030787
O        2.76609399       0.61743315      16.13996027
O        3.20878003      12.85055414      18.32496611
O        8.06203959      12.96137078      17.34986152
O        0.91976375      11.06137890      17.28986486
O        4.45912944      13.06799718      17.79590069
O        1.15716946       4.97971276      16.87772696
O        6.80139075       5.39273443      15.56355419
O        7.35878475       9.03621275      17.04723513
O        4.51519801       3.02742824      16.06878837
O       13.35659423       2.81374869      15.98268205
O       11.21075362       5.84082103      17.05576494
O        0.09266424       8.65504512      15.93663678
O        6.44226190       1.80339680      17.33956901
O        4.00843547       5.67145095      15.58409865
115
Lattice="13.75323 0.0 0.0 0.0 13.75323 0.0 0.0 0.0 23.89" Properties=species:S:1:pos:R:3 entry_id=16 rank=20 energy=-572.0430908203125 pbc="T T F"
Pd       0.00000000       0.00000000      10.00000000
Pd       2.75064538       0.00000000      10.00000000
Pd       5.50129076       0.00000000      10.00000000
Pd       8.25193614       0.00000000      10.00000000
Pd      11.00258152       0.00000000      10.00000000
Pd       0.00000000       2.75064538      10.00000000
Pd       2.75064538       2.75064538      10.00000000
Pd       5.50129076       2.75064538      10.00000000
Pd       8.25193614       2.75064538      10.00000000
Pd      11.00258152       2.75064538      10.00000000
Pd       0.00000000       5.50129076      10.00000000
Pd       2.75064538       5.50129076      10.00000000
Pd       5.50129076       5.50129076      10.00000000
Pd       8.25193614       5.50129076      10.00000000
Pd      11.00258152       5.50129076      10.00000000
Pd       0.00000000       8.25193614      10.00000000
Pd       2.75064538       8.25193614      10.00000000
Pd       5.50129076       8.25193614      10.00000000
Pd       8.25193614       8.25193614      10.00000000
Pd      11.00258152       8.25193614      10.00000000
Pd       0.00000000      11.00258152      10.00000000
Pd       2.75064538      11.00258152      10.00000000
Pd       5.50129076      11.00258152      10.00000000
Pd       8.25193614      11.00258152      10.00000000
Pd      11.00258152      11.00258152      10.00000000
Pd       1.33305437       1.38035701      12.05221797
Pd       4.08925664       1.38750338      11.98771029
Pd       6.82888190       1.38154444      11.99332965
Pd       9.57512057       1.39592898      11.89594876
Pd      12.38684272       1.37174114      11.92044161
Pd       1.37065655       4.09970544      12.00656864
Pd       4.10125007       4.12393621      12.00820233
Pd       6.82444734       4.12497179      12.00908219
Pd       9.56728621       4.13975942      11.94281254
Pd      12.36578195       4.13265160      11.93417299
Pd       1.37110082       6.89256210      11.94010419
Pd       4.13935064       6.87026939      11.96482277
Pd       6.87097415       6.85831372      11.95140951
Pd       9.64205429       6.82915781      11.94515418
Pd      12.39111484       6.85622887      11.94896407
Pd       1.35216595       9.69735034      11.99083951
Pd       4.11777592       9.66324146      11.95099537
Pd       6.89476706       9.64088005      11.95142944
Pd       9.64982872       9.59779534      11.89439304
Pd      12.42487279       9.60955999      11.94161946
Pd       1.35802606      12.41462245      12.04582394
Pd       4.10624816      12.40887780      12.00662317
Pd       6.86816975      12.39901143      11.97280504
Pd       9.63028672      12.36702810      11.91406436
Pd      12.41879361      12.34804731      11.97632258
Pd       0.12496305      13.70822223      14.19198657
Pd       2.86155191       0.00648178      14.09579495
Pd       5.57505714       0.00028629      14.05137885
Pd       8.32965053      13.72485137      13.97070147
Pd      11.13811190       0.08500189      13.99079498
Pd      13.57374430       2.77386914      13.98117716
Pd       2.63921913       2.76955024      13.94010591
Pd       5.36444845       2.69867870      14.04973976
Pd       8.16924104       2.68344678      14.03456748
Pd      10.85666562       2.79114511      13.98131252
Pd      13.71581433       5.53795424      13.95784016
Pd       2.63732302       5.57693235      13.97347485
Pd       5.45816734       5.49757215      13.97735473
Pd       8.31685338       5.43362946      14.02382541
Pd      11.03967475       5.46689450      13.95771746
Pd       0.03826698       8.29219444      13.95102304
Pd       2.76713377       8.31545701      14.02723239
Pd       5.50307407       8.26537422      13.99145978
Pd       8.23671138       8.20196922      13.95256430
Pd      11.01450768       8.18093291      13.95045099
Pd       0.09186893      10.98466141      13.97355352
Pd       2.77705027      11.00619275      14.02491105
Pd       5.53974990      10.98956892      13.90094196
Pd       8.30312064      10.94996292      13.94246709
Pd      11.04569567      10.94343880      13.87325970
Pd      12.36679068       7.30861313      16.28022312
Pd       9.06293220       9.50273168      16.24756478
Pd       1.80706722      12.76515902      16.75772531
Pd       1.22339288       6.85303106      16.18241758
Pd      13.04538239      11.71781139      16.32520818
Pd       8.30879165       1.10771941      16.81941678
Pd       4.67530994       1.10083597      16.80698233
Pd       5.78855111       9.85763288      16.35954375
Pd       4.29741684      11.99818662      15.98060423
Pd       9.65767125      12.34225545      16.36052566
Pd      12.83804706       4.63669116      16.46452623
Pd       2.82472143       3.97596749      16.38676073
Pd      10.11980743       4.29594649      16.35047399
Pd       2.33698594       9.90738281      16.60133436
Pd       6.98682315       7.19572558      16.31297529
Pd       6.95603750      12.22853325      15.85380650
Pd       9.65409687       6.88454488      15.96316227
Pd       6.59107523       3.52985201      16.41004672
Pd       1.23849626       1.80611060      16.12356274
Pd       4.05815909       7.37578674      16.29686877
O        8.59273515       3.01597700      16.13861466
O       10.82753250       9.60323977      15.42784718
O       11.38850388      12.24592812      15.42494982
O       11.11833665       1.21409556      15.77196635
O       10.32423754       0.67031774      16.73686880
O        4.07200395       9.11305447      17.12933601
O        2.80254858       0.63811461      16.14808939
O        3.20908594      12.88411228      18.35557316
O        8.06147978      12.94482120      17.36863216
O        0.87324163      11.12676782      17.26194528
O        4.45794577      13.04619988      17.81379425
O        1.22132632       5.00057669      16.85897003
O        6.81748398       5.35219502      15.55027670
O        7.39530490       8.93915572      17.14016500
O        4.55693822       2.99712874      16.07614511
O       13.37532754       2.80982150      15.98684416
O       11.23430554       5.83297452      17.05121779
O        0.16055039       8.55147578      15.95540452
O        6.48158963       1.78191420      17.35805093
O        4.01099529       5.58843811      15.53543447
115
Lattice="13.75323 0.0 0.0 0.0 13.75323 0.0 0.0 0.0 23.89" Properties=species:S:1:pos:R:3 entry_id=20 rank=21 energy=-572.0152587890625 pbc="T T F"
Pd       0.00000000       0.00000000      10.00000000
Pd       2.75064538       0.00000000      10.00000000
Pd       5.50129076       0.00000000      10.00000000
Pd       8.25193614       0.00000000      10.00000000
Pd      11.00258152       0.00000000      10.00000000
Pd       0.00000000       2.75064538      10.00000000
Pd       2.75064538       2.75064538      10.00000000
Pd       5.50129076       2.75064538      10.00000000
Pd       8.25193614       2.75064538      10.00000000
Pd      11.00258152       2.75064538      10.00000000
Pd       0.00000000       5.50129076      10.00000000
Pd       2.75064538       5.50129076      10.00000000
Pd       5.50129076       5.50129076      10.00000000
Pd       8.25193614       5.50129076      10.00000000
Pd      11.00258152       5.50129076      10.00000000
Pd       0.00000000       8.25193614      10.00000000
Pd       2.75064538       8.25193614      10.00000000
Pd       5.50129076       8.25193614      10.00000000
Pd       8.25193614       8.25193614      10.00000000
Pd      11.00258152       8.25193614      10.00000000
Pd       0.00000000      11.00258152      10.00000000
Pd       2.75064538      11.00258152      10.00000000
Pd       5.50129076      11.00258152      10.00000000
Pd       8.25193614      11.00258152      10.00000000
Pd      11.00258152      11.00258152      10.00000000
Pd       1.33305437       1.38035701      12.05221797
Pd       4.08925664       1.38750338      11.98771029
Pd       6.82888190       1.38154444      11.99332965
Pd       9.57512057       1.39592898      11.89594876
Pd      12.38684272       1.37174114      11.92044161
Pd       1.37065655       4.09970544      12.00656864
Pd       4.10125007       4.12393621      12.00820233
Pd       6.82444734       4.12497179      12.00908219
Pd       9.56728621       4.13975942      11.94281254
Pd      12.36578195       4.13265160      11.93417299
Pd       1.37110082       6.89256210      11.94010419
Pd       4.13935064       6.87026939      11.96482277
Pd       6.87097415       6.85831372      11.95140951
Pd       9.64205429       6.82915781      11.94515418
Pd      12.39111484       6.85622887      11.94896407
Pd       1.35216595       9.69735034      11.99083951
Pd       4.11777592       9.66324146      11.95099537
Pd       6.89476706       9.64088005      11.95142944
Pd       9.64982872       9.59779534      11.89439304
Pd      12.42487279       9.60955999      11.94161946
Pd       1.35802606      12.41462245      12.04582394
Pd       4.10624816      12.40887780      12.00662317
Pd       6.86816975      12.39901143      11.97280504
Pd       9.63028672      12.36702810      11.91406436
Pd      12.41879361      12.34804731      11.97632258
Pd       0.11557673      13.69773546      14.17998221
Pd       2.86423026      13.72468450      14.12787687
Pd       5.55592083      13.73789195      14.03887426
Pd       8.27790645      13.74244319      14.00845107
Pd      11.10983724       0.08496559      13.94323479
Pd      13.60053553       2.73075805      13.99445312
Pd       2.66191332       2.74211348      13.94565238
Pd       5.38421817       2.69978135      14.05396637
Pd       8.18748892       2.71325911      14.02915136
Pd      10.87589535       2.80737063      14.00388787
Pd      13.72840785       5.48370270      13.93034462
Pd       2.68504936       5.51702130      13.96576510
Pd       5.46608847       5.51021084      13.98146698
Pd       8.34089590       5.47873788      14.01540000
Pd      11.05336205       5.48349089      13.95851649
Pd       0.04780982       8.22282867      13.95403367
Pd       2.76798478       8.25834525      13.97458135
Pd       5.50483412       8.27559020      14.01062441
Pd       8.24250537       8.24931967      13.93310649
Pd      11.01812548       8.18813305      13.94239978
Pd       0.03614905      10.97508329      13.97158057
Pd       2.72023353      10.95621573      13.95143179
Pd       5.53068384      10.97941407      13.93197238
Pd       8.22446295      11.03261967      14.02938438
Pd      10.97868590      10.95413620      13.84914915
Pd      12.45045877       7.41044233      16.26749728
Pd       9.01648522       9.56961331      16.21594895
Pd       1.75423825      12.73989790      16.66018964
Pd       1.29918445       6.72328106      16.00739944
Pd      12.99953144      11.74294383      16.34827299
Pd       8.38718471       1.21606050      16.80183888
Pd       4.85434468       1.13484192      16.78323870
Pd       5.51397382       9.70513097      16.51875527
Pd       4.04293539      11.76359476      15.94581360
Pd       9.63931132      12.40442125      16.30401342
Pd      12.89271347       4.57275064      16.45755023
Pd       2.83560939       3.96832654      16.40613711
Pd      10.18622930       4.38552924      16.36171873
Pd       1.71324450       9.39314091      16.33979704
Pd       6.99762437       7.30133940      16.28792773
Pd       6.75263017      12.29141079      16.05341282
Pd       9.68376194       6.94338535      15.97241217
Pd       6.63202846       3.64920320      16.38588956
Pd       1.36168423       1.74784283      16.14645569
Pd       3.94657626       7.42392530      16.30730674
O        8.65185365       3.12543219      16.12088538
O       10.77538785       9.62371672      15.39911760
O       11.37109606      12.25720652      15.39008125
O       11.16950576       1.25246132      15.69516188
O       10.37789552       0.73309652      16.68462868
O        3.59884377       9.21052726      17.03451396
O        2.94023799       0.56376594      16.22229494
O        4.41880708      12.28980794      17.86681828
O        8.12023004      13.05714199      17.34642523
O        0.84897543      11.13669493      17.26469578
O        5.44793690      13.16571423      17.67482100
O        1.20024386       4.95000511      16.91196198
O        6.85306456       5.45655811      15.53127530
O        7.32405765       9.07767372      17.07847599
O        4.56878435       3.01210511      16.07254818
O       13.49130063       2.75714959      15.99935277
O       11.41953350       5.86042119      17.02120763
O       13.54608483       9.04206323      15.82295451
O        6.58583963       1.92131845      17.33848665
O        4.05294387       5.61256326      15.58591975
115
Lattice="13.75323 0.0 0.0 0.0 13.75323 0.0 0.0 0.0 23.89" Properties=species:S:1:pos:R:3 entry_id=8 rank=22 energy=-571.9288330078125 pbc="T T F"
Pd       0.00000000       0.00000000      10.00000000
Pd       2.75064538       0.00000000      10.00000000
Pd       5.50129076       0.00000000      10.00000000
Pd       8.25193614       0.00000000      10.00000000
Pd      11.00258152       0.00000000      10.00000000
Pd       0.00000000       2.75064538      10.00000000
Pd       2.75064538       2.75064538      10.00000000
Pd       5.50129076       2.75064538      10.00000000
Pd       8.25193614       2.75064538      10.00000000
Pd      11.00258152       2.75064538      10.00000000
Pd       0.00000000       5.50129076      10.00000000
Pd       2.75064538       5.50129076      10.00000000
Pd       5.50129076       5.50129076      10.00000000
Pd       8.25193614       5.50129076      10.00000000
Pd      11.00258152       5.50129076      10.00000000
Pd       0.00000000       8.25193614      10.00000000
Pd       2.75064538       8.25193614      10.00000000
Pd       5.50129076       8.25193614      10.00000000
Pd       8.25193614       8.25193614      10.00000000
Pd      11.00258152       8.25193614      10.00000000
Pd       0.00000000      11.00258152      10.00000000
Pd       2.75064538      11.00258152      10.00000000
Pd       5.50129076      11.00258152      10.00000000
Pd       8.25193614      11.00258152      10.00000000
Pd      11.00258152      11.00258152      10.00000000
Pd       1.33305437       1.38035701      12.05221797
Pd       4.08925664       1.38750338      11.98771029
Pd       6.82888190       1.38154444      11.99332965
Pd       9.57512057       1.39592898      11.89594876
Pd      12.38684272       1.37174114      11.92044161
Pd       1.37065655       4.09970544      12.00656864
Pd       4.10125007       4.12393621      12.00820233
Pd       6.82444734       4.12497179      12.00908219
Pd       9.56728621       4.13975942      11.94281254
Pd      12.36578195       4.13265160      11.93417299
Pd       1.37110082       6.89256210      11.94010419
Pd       4.13935064       6.87026939      11.96482277
Pd       6.87097415       6.85831372      11.95140951
Pd       9.64205429       6.82915781      11.94515418
Pd      12.39111484       6.85622887      11.94896407
Pd       1.35216595       9.69735034      11.99083951
Pd       4.11777592       9.66324146      11.95099537
Pd       6.89476706       9.64088005      11.95142944
Pd       9.64982872       9.59779534      11.89439304
Pd      12.42487279       9.60955999      11.94161946
Pd       1.35802606      12.41462245      12.04582394
Pd       4.10624816      12.40887780      12.00662317
Pd       6.86816975      12.39901143      11.97280504
Pd       9.63028672      12.36702810      11.91406436
Pd      12.41879361      12.34804731      11.97632258
Pd       0.01470066      13.74972372      14.05902879
Pd       2.75290893       0.05967428      14.07332553
Pd       5.52581129       0.00664244      13.99830223
Pd       8.28699115      13.72170701      13.99167948
Pd      11.04600626       0.11118061      14.03541507
Pd      13.63404972       2.77931349      14.00659211
Pd       2.64695706       2.83401438      14.05974802
Pd       5.40188779       2.73014890      14.04268817
Pd       8.28450565       2.67807451      14.10100096
Pd      10.94217423       2.73801328      13.70383109
Pd      13.72666097       5.53029529      14.00030550
Pd       2.65038782       5.58994637      14.01008305
Pd       5.52592978       5.52660035      13.95230785
Pd       8.31808979       5.46172834      13.98859720
Pd      11.01443816       5.41208331      14.00533035
Pd      13.74724592       8.26106423      13.97870642
Pd       2.74838654       8.33783503      13.95562423
Pd       5.52297614       8.32672786      13.99488325
Pd       8.26438500       8.24370959      13.94915149
Pd      11.02419139       8.14961088      13.91145888
Pd       0.01475126      10.98712616      14.05559618
Pd       2.73935315      11.02691352      13.98573110
Pd       5.49049600      11.04781758      13.94325191
Pd       8.22820822      10.98357986      13.98820684
Pd      10.98653325      10.85983048      13.90910501
Pd      12.33616255       6.26690116      16.45771327
Pd       8.70311227       9.48962127      16.38514543
Pd       0.58977943      12.39612034      16.55472567
Pd       1.37721379       7.13443792      16.00450906
Pd      12.10384858       8.98623269      16.34498100
Pd       8.48262641       0.90515515      16.86695122
Pd       4.93881586       0.99468849      16.51597737
Pd       5.50538243      10.07232623      16.40227002
Pd       4.00684116      12.21825798      16.00696055
Pd      10.00601325      12.18501010      16.35900913
Pd       0.54763365       4.32760493      16.52552244
Pd       3.28394417       4.24106634      16.60202572
Pd      11.04688552       2.99457569      16.26024421
Pd       2.12277841       9.88776530      16.42905327
Pd       6.92631367       7.15091778      16.28088025
Pd       6.83326832      12.35018595      15.94018058
Pd       9.67849288       6.96055014      15.96997489
Pd       6.86380067       3.45606776      16.38365221
Pd       1.28235024       1.60020576      16.08590018
Pd       4.08089972       7.54522377      16.28149901
O        8.95822869       2.76900212      16.20962133
O       10.51082047      10.14650949      15.95461024
O       11.61908329      12.31021113      15.21607316
O       11.29448130       1.03051640      16.14238730
O       10.41959311       0.33938984      17.01569039
O        3.83208451       9.26067053      17.17401408
O        3.05904111       0.48244485      16.09350286
O        0.68444562       0.33340386      17.65036515
O        8.26684923      12.70140722      17.32374184
O        0.26898659      10.51213860      16.03924713
O        1.39789218       0.32047850      18.73956144
O        1.90079447       5.51663938      17.23548446
O        6.93627606       5.29686295      15.55185304
O        7.00402929       8.90065332      17.13182537
O        4.83054457       3.11585311      16.10851596
O       13.15452359       2.83010903      16.03273337
O       10.88581017       4.99935890      16.07276662
O       13.46708391       7.74022964      17.03144893
O        6.67977315       1.66224429      17.20782231
O        4.14027539       5.76307383      15.47798839
115
Lattice="13.75323 0.0 0.0 0.0 13.75323 0.0 0.0 0.0 23.89" Properties=species:S:1:pos:R:3 entry_id=10 rank=23 energy=-571.877197265625 pbc="T T F"
Pd       0.00000000       0.00000000      10.00000000
Pd       2.75064538       0.00000000      10.00000000
Pd       5.50129076       0.00000000      10.00000000
Pd       8.25193614       0.00000000      10.00000000
Pd      11.00258152       0.00000000      10.00000000
Pd       0.00000000       2.75064538      10.00000000
Pd       2.75064538       2.75064538      10.00000000
Pd       5.50129076       2.75064538      10.00000000
Pd       8.25193614       2.75064538      10.00000000
Pd      11.00258152       2.75064538      10.00000000
Pd       0.00000000       5.50129076      10.00000000
Pd       2.75064538       5.50129076      10.00000000
Pd       5.50129076       5.50129076      10.00000000
Pd       8.25193614       5.50129076      10.00000000
Pd      11.00258152       5.50129076      10.00000000
Pd       0.00000000       8.25193614      10.00000000
Pd       2.75064538       8.25193614      10.00000000
Pd       5.50129076       8.25193614      10.00000000
Pd       8.25193614       8.25193614      10.00000000
Pd      11.00258152       8.25193614      10.00000000
Pd       0.00000000      11.00258152      10.00000000
Pd       2.75064538      11.00258152      10.00000000
Pd       5.50129076      11.00258152      10.00000000
Pd       8.25193614      11.00258152      10.00000000
Pd      11.00258152      11.00258152      10.00000000
Pd       1.33305437       1.38035701      12.05221797
Pd       4.08925664       1.38750338      11.98771029
Pd       6.82888190       1.38154444      11.99332965
Pd       9.57512057       1.39592898      11.89594876
Pd      12.38684272       1.37174114      11.92044161
Pd       1.37065655       4.09970544      12.00656864
Pd       4.10125007       4.12393621      12.00820233
Pd       6.82444734       4.12497179      12.00908219
Pd       9.56728621       4.13975942      11.94281254
Pd      12.36578195       4.13265160      11.93417299
Pd       1.37110082       6.89256210      11.94010419
Pd       4.13935064       6.87026939      11.96482277
Pd       6.87097415       6.85831372      11.95140951
Pd       9.64205429       6.82915781      11.94515418
Pd      12.39111484       6.85622887      11.94896407
Pd       1.35216595       9.69735034      11.99083951
Pd       4.11777592       9.66324146      11.95099537
Pd       6.89476706       9.64088005      11.95142944
Pd       9.64982872       9.59779534      11.89439304
Pd      12.42487279       9.60955999      11.94161946
Pd       1.35802606      12.41462245      12.04582394
Pd       4.10624816      12.40887780      12.00662317
Pd       6.86816975      12.39901143      11.97280504
Pd       9.63028672      12.36702810      11.91406436
Pd      12.41879361      12.34804731      11.97632258
Pd       0.06986046      13.75168429      14.08511135
Pd       2.85145580       0.02880074      14.03878177
Pd       5.56695634      13.74178297      14.06668248
Pd       8.30091738      13.71403862      13.97248518
Pd      11.09350103       0.11897577      14.00139055
Pd      13.54527067       2.79982770      13.97408269
Pd       2.61175644       2.77329995      13.95082999
Pd       5.32903191       2.67830244      14.05004390
Pd       8.12398745       2.67176696      14.07206847
Pd      10.81580881       2.80428148      13.95262430
Pd      13.73397939       5.57282353      13.90532080
Pd       2.63744326       5.58203708      13.99667638
Pd       5.45072218       5.47938907      13.99286316
Pd       8.30744623       5.41317095      14.03870195
Pd      11.06029859       5.49546014      13.96597288
Pd       0.03601266       8.28073832      13.96313948
Pd       2.75678299       8.30679268      13.99761691
Pd       5.51284555       8.25444936      13.98794169
Pd       8.26441356       8.18674658      13.95359947
Pd      11.03397485       8.18998358      13.97394216
Pd       0.07544496      10.99986240      14.14986704
Pd       2.78780688      11.00341142      13.96024729
Pd       5.54579846      10.97412852      13.90732797
Pd       8.30786270      10.93870296      13.93947299
Pd      11.06489697      11.00061968      13.85557123
Pd      12.01645598       6.70925876      17.50798823
Pd       9.12641262       9.52631913      16.23255791
Pd       1.58688698      12.54321468      16.29152332
Pd       1.28161652       6.99500508      16.02625497
Pd      12.58231389       8.98247076      16.37279088
Pd       8.18644845       1.08720274      16.81453117
Pd       4.48711668       0.99985513      16.77810627
Pd       5.72447963       9.80300122      16.39880549
Pd       4.27338162      11.96724043      15.96088120
Pd       9.65257372      12.37102575      16.27676269
Pd      12.90276021       4.64437022      16.29084600
Pd       2.69829525       3.98044001      16.38133626
Pd      10.25490248       4.16095099      16.20324627
Pd       2.27181651       9.79521005      16.42241430
Pd       6.98536011       7.18594391      16.27741354
Pd       6.92196084      12.16938484      15.86623061
Pd       9.66477352       6.87328691      15.96715295
Pd       6.44582259       3.47437304      16.41365437
Pd       1.11288620       1.73937361      16.09544617
Pd       4.05387195       7.34919768      16.29569568
O        8.44361408       2.99932453      16.18879098
O       10.97066819       9.71404537      15.49019109
O       11.34615577      12.33385844      15.32417235
O       11.01687731       1.27526156      15.81003625
O       10.21814605       0.69284645      16.74413856
O        3.96908986       9.09479448      17.12113297
O        2.63156114       0.53554287      16.08629375
O        2.78001729      12.67794263      18.12425725
O        8.04791091      12.90911440      17.34351109
O        0.56785074      10.80476130      16.16645968
O        4.08005484      12.91888407      17.80573909
O        1.12238538       5.08551960      16.79801345
O        6.78543397       5.31399718      15.57705316
O        7.42677459       8.95431264      17.04088628
O        4.40117931       2.93801647      16.07951002
O       13.24235628       2.72466135      15.98127319
O       10.33402053       5.73029229      17.50858487
O       13.69338385       7.74769769      17.41336533
O        6.30775105       1.69783296      17.31982694
O        3.99740881       5.55178925      15.56599368
115
Lattice="13.75323 0.0 0.0 0.0 13.75323 0.0 0.0 0.0 23.89" Properties=species:S:1:pos:R:3 entry_id=22 rank=24 energy=-571.7205810546875 pbc="T T F"
Pd       0.00000000       0.00000000      10.00000000
Pd       2.75064538       0.00000000      10.00000000
Pd       5.50129076       0.00000000      10.00000000
Pd       8.25193614       0.00000000      10.00000000
Pd      11.00258152       0.00000000      10.00000000
Pd       0.00000000       2.75064538      10.00000000
Pd       2.75064538       2.75064538      10.00000000
Pd       5.50129076       2.75064538      10.00000000
Pd       8.25193614       2.75064538      10.00000000
Pd      11.00258152       2.75064538      10.00000000
Pd       0.00000000       5.50129076      10.00000000
Pd       2.75064538       5.50129076      10.00000000
Pd       5.50129076       5.50129076      10.00000000
Pd       8.25193614       5.50129076      10.00000000
Pd      11.00258152       5.50129076      10.00000000
Pd       0.00000000       8.25193614      10.00000000
Pd       2.75064538       8.25193614      10.00000000
Pd       5.50129076       8.25193614      10.00000000
Pd       8.25193614       8.25193614      10.00000000
Pd      11.00258152       8.25193614      10.00000000
Pd       0.00000000      11.00258152      10.00000000
Pd       2.75064538      11.00258152      10.00000000
Pd       5.50129076      11.00258152      10.00000000
Pd       8.25193614      11.00258152      10.00000000
Pd      11.00258152      11.00258152      10.00000000
Pd       1.33305437       1.38035701      12.05221797
Pd       4.08925664       1.38750338      11.98771029
Pd       6.82888190       1.38154444      11.99332965
Pd       9.57512057       1.39592898      11.89594876
Pd      12.38684272       1.37174114      11.92044161
Pd       1.37065655       4.09970544      12.00656864
Pd       4.10125007       4.12393621      12.00820233
Pd       6.82444734       4.12497179      12.00908219
Pd       9.56728621       4.13975942      11.94281254
Pd      12.36578195       4.13265160      11.93417299
Pd       1.37110082       6.89256210      11.94010419
Pd       4.13935064       6.87026939      11.96482277
Pd       6.87097415       6.85831372      11.95140951
Pd       9.64205429       6.82915781      11.94515418
Pd      12.39111484       6.85622887      11.94896407
Pd       1.35216595       9.69735034      11.99083951
Pd       4.11777592       9.66324146      11.95099537
Pd       6.89476706       9.64088005      11.95142944
Pd       9.64982872       9.59779534      11.89439304
Pd      12.42487279       9.60955999      11.94161946
Pd       1.35802606      12.41462245      12.04582394
Pd       4.10624816      12.40887780      12.00662317
Pd       6.86816975      12.39901143      11.97280504
Pd       9.63028672      12.36702810      11.91406436
Pd      12.41879361      12.34804731      11.97632258
Pd      13.69305350       0.02387264      13.99451311
Pd       2.68021845      13.72799394      14.02815201
Pd       5.48170986       0.00849466      14.07319644
Pd       8.23053802       0.02660445      13.95646563
Pd      10.95272351      13.69203687      13.86304804
Pd      13.74113165       2.76057083      14.07270467
Pd       2.72493510       2.70869467      13.98230050
Pd       5.44995721       2.70169624      14.06325867
Pd       8.26742801       2.76302570      14.03322273
Pd      10.97968127       2.83814852      13.96703606
Pd      13.71621315       5.46026318      13.95196971
Pd       2.68451327       5.46867187      13.98205808
Pd       5.49160011       5.52828102      13.97488448
Pd       8.34095570       5.52678723      14.02589869
Pd      11.02430515       5.54189212      13.88334169
Pd       0.01928002       8.25577445      14.04983829
Pd       2.76596270       8.21532632      13.94266782
Pd       5.50095560       8.34868159      14.03567519
Pd       8.25018236       8.30352307      13.93006630
Pd      11.01808039       8.26496706      13.92791769
Pd      13.71316322      11.00033083      13.99040059
Pd       2.70175984      10.93032704      14.03522011
Pd       5.49376804      11.07510753      13.94676584
Pd       8.27872189      11.01018555      13.89723408
Pd      10.98310078      10.94086378      13.99798604
Pd      12.29877026       6.73988905      15.99272941
Pd       8.88011723       9.79710101      16.34703272
Pd       1.02377373      12.47732639      16.02606919
Pd       1.31838714       6.55676764      16.06247766
Pd      12.80881485      10.45772292      16.59633719
Pd       8.86410183       1.31652863      16.61926222
Pd       5.32617231       0.96788812      16.91335586
Pd       5.43128089      10.06464204      16.38923460
Pd       3.79104038      12.31815035      15.95760250
Pd      10.72122689      12.65941302      16.52375237
Pd      13.47909738       4.19576086      16.85059871
Pd       3.21157584       3.77875880      16.45637918
Pd      10.53282705       4.65431589      16.28605880
Pd       1.81919693       9.15540100      16.34392685
Pd       6.93666169       7.31233367      16.24544902
Pd       7.16944358      12.19893614      15.92720793
Pd       9.63616106       7.14143155      15.93466650
Pd       6.90288883       3.60106716      16.38552916
Pd       1.91696998       1.39655085      16.33623756
Pd       4.02394999       7.36568149      16.27650116
O        8.93438581       3.31817370      16.18440092
O       10.70697752      10.65035065      16.09334343
O       12.65513080      12.38540784      16.82850901
O       11.53097554       1.30746215      15.29322477
O       10.86911113       0.94299455      16.54284676
O        3.71001359       9.13393393      17.02686113
O        3.45266930       0.34094861      16.91636281
O        4.97900485      11.92383219      17.66564373
O        8.76779401      13.09326823      16.83510552
O        0.93624599      10.77653279      17.19141368
O        5.99507319      12.87141633      17.59763029
O        1.60542421       4.79138418      16.93418305
O        6.88015566       5.44342006      15.54661039
O        7.15851449       9.09543312      16.98917201
O        4.94084775       2.86218892      16.15864770
O        0.28409547       2.39691956      16.02940952
O       11.74683716       3.79950384      17.47244529
O       13.47627657       8.56284198      16.13976358
O        7.05990432       1.84175600      17.26238110
O        4.11289551       5.53922109      15.55851378
115
Lattice="13.75323 0.0 0.0 0.0 13.75323 0.0 0.0 0.0 23.89" Properties=species:S:1:pos:R:3 entry_id=27 rank=25 energy=-571.6732788085938 pbc="T T F"
Pd       0.00000000       0.00000000      10.00000000
Pd       2.75064538       0.00000000      10.00000000
Pd       5.50129076       0.00000000      10.00000000
Pd       8.25193614       0.00000000      10.00000000
Pd      11.00258152       0.00000000      10.00000000
Pd       0.00000000       2.75064538      10.00000000
Pd       2.75064538       2.75064538      10.00000000
Pd       5.50129076       2.75064538      10.00000000
Pd       8.25193614       2.75064538      10.00000000
Pd      11.00258152       2.75064538      10.00000000
Pd       0.00000000       5.50129076      10.00000000
Pd       2.75064538       5.50129076      10.00000000
Pd       5.50129076       5.50129076      10.00000000
Pd       8.25193614       5.50129076      10.00000000
Pd      11.00258152       5.50129076      10.00000000
Pd       0.00000000       8.25193614      10.00000000
Pd       2.75064538       8.25193614      10.00000000
Pd       5.50129076       8.25193614      10.00000000
Pd       8.25193614       8.25193614      10.00000000
Pd      11.00258152       8.25193614      10.00000000
Pd       0.00000000      11.00258152      10.00000000
Pd       2.75064538      11.00258152      10.00000000
Pd       5.50129076      11.00258152      10.00000000
Pd       8.25193614      11.00258152      10.00000000
Pd      11.00258152      11.00258152      10.00000000
Pd       1.33305437       1.38035701      12.05221797
Pd       4.08925664       1.38750338      11.98771029
Pd       6.82888190       1.38154444      11.99332965
Pd       9.57512057       1.39592898      11.89594876
Pd      12.38684272       1.37174114      11.92044161
Pd       1.37065655       4.09970544      12.00656864
Pd       4.10125007       4.12393621      12.00820233
Pd       6.82444734       4.12497179      12.00908219
Pd       9.56728621       4.13975942      11.94281254
Pd      12.36578195       4.13265160      11.93417299
Pd       1.37110082       6.89256210      11.94010419
Pd       4.13935064       6.87026939      11.96482277
Pd       6.87097415       6.85831372      11.95140951
Pd       9.64205429       6.82915781      11.94515418
Pd      12.39111484       6.85622887      11.94896407
Pd       1.35216595       9.69735034      11.99083951
Pd       4.11777592       9.66324146      11.95099537
Pd       6.89476706       9.64088005      11.95142944
Pd       9.64982872       9.59779534      11.89439304
Pd      12.42487279       9.60955999      11.94161946
Pd       1.35802606      12.41462245      12.04582394
Pd       4.10624816      12.40887780      12.00662317
Pd       6.86816975      12.39901143      11.97280504
Pd       9.63028672      12.36702810      11.91406436
Pd      12.41879361      12.34804731      11.97632258
Pd      13.64718898      13.64905002      14.08041275
Pd       2.76992229       0.05274447      14.00534286
Pd       5.45588331       0.05627689      14.05460917
Pd       8.13390814       0.03622687      14.01244782
Pd      10.90366396      13.74378257      13.85844934
Pd      13.64469014       2.69164436      13.97597695
Pd       2.65887654       2.81590178      14.04404149
Pd       5.44150440       2.74895843      13.95420709
Pd       8.21711736       2.69702147      14.05377388
Pd      10.94870195       2.65868414      13.89048459
Pd      13.75156243       5.44188207      13.96439460
Pd       2.67511995       5.56081074      13.99174381
Pd       5.54789953       5.56094768      13.99325481
Pd       8.31154651       5.38852442      14.15193948
Pd      10.98293260       5.54755272      13.87610633
Pd      13.71124471       8.16275150      14.07223349
Pd       2.69002512       8.30673800      13.94936540
Pd       5.46897336       8.33321163      14.00579692
Pd       8.26194883       8.21801428      14.00576669
Pd      11.00314287       8.33898924      13.94048484
Pd       0.10844570      10.85575311      13.96839051
Pd       2.83282023      11.02662818      13.96770960
Pd       5.56376963      11.10482570      13.93879056
Pd       8.41768657      10.97733023      13.93179998
Pd      11.96397034      11.68194440      15.52178235
Pd      12.27705818       5.53817473      16.30767310
Pd       9.36139621       9.46824837      16.65474914
Pd       1.56854912      12.34584275      16.10524101
Pd       1.29512904       6.83188155      16.04325774
Pd      12.25954032       8.44030688      16.53653054
Pd       8.05170197       1.18841216      17.68209583
Pd       4.60132629       0.84303002      16.78203653
Pd       6.75296639       9.84556375      15.86587993
Pd       4.21062447      10.70574264      16.23001349
Pd       8.91507821      12.39782326      16.29676127
Pd       0.66030701       3.98763758      16.59937435
Pd       3.45402520       4.24111276      16.64439152
Pd       9.68374232       3.68532433      16.47340831
Pd       1.49535404       9.59680084      16.18739965
Pd       7.15743803       7.04625778      16.39289072
Pd       6.20186739      12.50622417      16.24513970
Pd       9.85813514       6.88304578      15.96759241
Pd       6.57681231       3.42106787      16.70292217
Pd       1.19011864       1.27828736      16.04145340
Pd       3.89917338       7.58714365      16.27625907
O        8.27191255       3.21766564      17.72472720
O       11.20269612      10.06356115      16.51544462
O       10.17483185      12.08028066      14.83679392
O       10.74922209       1.99786380      17.19659279
O       10.06233674       0.98561967      17.69158036
O        3.25934743       9.21047480      17.13047393
O        2.84919153       0.14052130      16.10166392
O        1.71172633       2.38020344      17.79744442
O        7.63328481      12.98599393      17.64242691
O        0.04056780      11.11552121      16.13938965
O        3.05065327       2.64314915      17.84581063
O        1.91106971       5.32865294      17.31917342
O        6.84964392       5.22847998      15.66925556
O        7.63609889       8.73245257      17.26304189
O        4.83593948       3.07936245      15.86040068
O       13.36417270       2.45966154      15.96882237
O       11.23275678       4.11540957      15.38867538
O       13.31864979       6.93374408      17.15586053
O        6.12724608       1.71296456      17.68357841
O        4.10847006       5.78200561      15.50064112
115
Lattice="13.75323 0.0 0.0 0.0 13.75323 0.0 0.0 0.0 23.89" Properties=species:S:1:pos:R:3 entry_id=18 rank=26 energy=-571.6134033203125 pbc="T T F"
Pd       0.00000000       0.00000000      10.00000000
Pd       2.75064538       0.00000000      10.00000000
Pd       5.50129076       0.00000000      10.00000000
Pd       8.25193614       0.00000000      10.00000000
Pd      11.00258152       0.00000000      10.00000000
Pd       0.00000000       2.75064538      10.00000000
Pd       2.75064538       2.75064538      10.00000000
Pd       5.50129076       2.75064538      10.00000000
Pd       8.25193614       2.75064538      10.00000000
Pd      11.00258152       2.75064538      10.00000000
Pd       0.00000000       5.50129076      10.00000000
Pd       2.75064538       5.50129076      10.00000000
Pd       5.50129076       5.50129076      10.00000000
Pd       8.25193614       5.50129076      10.00000000
Pd      11.00258152       5.50129076      10.00000000
Pd       0.00000000       8.25193614      10.00000000
Pd       2.75064538       8.25193614      10.00000000
Pd       5.50129076       8.25193614      10.00000000
Pd       8.25193614       8.25193614      10.00000000
Pd      11.00258152       8.25193614      10.00000000
Pd       0.00000000      11.00258152      10.00000000
Pd       2.75064538      11.00258152      10.00000000
Pd       5.50129076      11.00258152      10.00000000
Pd       8.25193614      11.00258152      10.00000000
Pd      11.00258152      11.00258152      10.00000000
Pd       1.33305437       1.38035701      12.05221797
Pd       4.08925664       1.38750338      11.98771029
Pd       6.82888190       1.38154444      11.99332965
Pd       9.57512057       1.39592898      11.89594876
Pd      12.38684272       1.37174114      11.92044161
Pd       1.37065655       4.09970544      12.00656864
Pd       4.10125007       4.12393621      12.00820233
Pd       6.82444734       4.12497179      12.00908219
Pd       9.56728621       4.13975942      11.94281254
Pd      12.36578195       4.13265160      11.93417299
Pd       1.37110082       6.89256210      11.94010419
Pd       4.13935064       6.87026939      11.96482277
Pd       6.87097415       6.85831372      11.95140951
Pd       9.64205429       6.82915781      11.94515418
Pd      12.39111484       6.85622887      11.94896407
Pd       1.35216595       9.69735034      11.99083951
Pd       4.11777592       9.66324146      11.95099537
Pd       6.89476706       9.64088005      11.95142944
Pd       9.64982872       9.59779534      11.89439304
Pd      12.42487279       9.60955999      11.94161946
Pd       1.35802606      12.41462245      12.04582394
Pd       4.10624816      12.40887780      12.00662317
Pd       6.86816975      12.39901143      11.97280504
Pd       9.63028672      12.36702810      11.91406436
Pd      12.41879361      12.34804731      11.97632258
Pd       0.06977638       0.12629266      14.06097765
Pd       2.87869399       0.09201239      14.02364533
Pd       5.60327942      13.72967017      14.02396603
Pd       8.33242365      13.70722673      14.01387756
Pd      11.11158789       0.05921845      14.11310688
Pd      13.63215796       2.89680298      14.01504945
Pd       2.67043687       2.81806643      14.02078745
Pd       5.44271265       2.73127880      14.04437306
Pd       8.29420399       2.64516434      14.09063292
Pd      10.95323538       2.69026483      13.71451461
Pd      13.67185695       5.66172756      14.06186428
Pd       2.59589209       5.53930374      13.96704148
Pd       5.49631386       5.50902496      13.98945278
Pd       8.21193523       5.42251824      14.00044363
Pd      10.94281754       5.36670144      14.01502848
Pd      13.69552420       8.34340335      13.98138398
Pd       2.66720840       8.29538991      14.00591088
Pd       5.49331898       8.23682916      13.89904105
Pd       8.22474540       8.23148157      13.89743182
Pd      10.99286575       8.09459135      13.95878249
Pd       0.02671795      11.06536880      14.09829460
Pd       2.78125477      11.00945251      14.03106294
Pd       5.57610838      10.97290221      13.97768807
Pd       8.31712957      10.97938090      13.93839628
Pd      11.06774214      10.80523705      13.87625249
Pd      11.95637285       6.40339945      16.43769696
Pd       7.68137961       9.54273450      16.29827680
Pd       1.56577470      12.86873472      16.16253680
Pd       0.60339622       7.62820301      16.47061803
Pd      11.02267887       9.11957928      16.44548914
Pd       8.50918645       0.82616565      16.90962169
Pd       4.85386155       0.94742573      16.50043791
Pd       4.33047593       9.50491328      15.91832464
Pd       4.20649626      12.16708862      16.00818652
Pd       9.91024215      12.21246712      16.44820625
Pd       0.60681326       4.70341768      16.52566993
Pd       3.46815696       4.12257088      16.82249747
Pd      11.08754408       2.94297096      16.27768562
Pd       1.68216926      10.06915575      16.47040378
Pd       6.57995182       6.99588583      16.21264686
Pd       6.86112155      12.21945112      15.98003917
Pd       9.32892345       7.01726960      15.99893080
Pd       6.99006957       3.36302233      16.45262281
Pd       1.13907208       1.91388202      16.20010153
Pd       3.24873918       7.10481627      16.45899195
O        9.01818399       2.65344813      16.22464641
O        9.48738473      10.29860776      15.96421019
O       11.47820260      12.16667656      15.28113203
O       11.37121065       0.97103962      16.20539582
O       10.48223354       0.29872799      17.11291221
O        2.33061696       8.49613698      17.46008038
O        2.80208215       0.71776327      16.09460778
O        1.72567197       2.33860899      18.16476168
O        8.19984881      12.65683553      17.43264998
O        0.30882023      11.40633251      16.09270763
O        2.97394679       2.77165045      18.24548574
O        2.16866945       5.50068020      17.42573552
O        7.44235601       5.24452615      15.91243642
O        5.97523322       8.75708820      16.84505546
O        4.96842180       3.04247268      16.11939310
O       13.18001084       3.11955645      16.07591702
O       10.81019049       4.87945723      16.01863071
O       12.53575224       8.10968415      17.17542117
O        6.66510059       1.52706656      17.16228087
O        4.01842280       5.55191801      15.47132158
115
Lattice="13.75323 0.0 0.0 0.0 13.75323 0.0 0.0 0.0 23.89" Properties=species:S:1:pos:R:3 entry_id=5 rank=27 energy=-571.4288330078125 pbc="T T F"
Pd       0.00000000       0.00000000      10.00000000
Pd       2.75064538       0.00000000      10.00000000
Pd       5.50129076       0.00000000      10.00000000
Pd       8.25193614       0.00000000      10.00000000
Pd      11.00258152       0.00000000      10.00000000
Pd       0.00000000       2.75064538      10.00000000
Pd       2.75064538       2.75064538      10.00000000
Pd       5.50129076       2.75064538      10.00000000
Pd       8.25193614       2.75064538      10.00000000
Pd      11.00258152       2.75064538      10.00000000
Pd       0.00000000       5.50129076      10.00000000
Pd       2.75064538       5.50129076      10.00000000
Pd       5.50129076       5.50129076      10.00000000
Pd       8.25193614       5.50129076      10.00000000
Pd      11.00258152       5.50129076      10.00000000
Pd       0.00000000       8.25193614      10.00000000
Pd       2.75064538       8.25193614      10.00000000
Pd       5.50129076       8.25193614      10.00000000
Pd       8.25193614       8.25193614      10.00000000
Pd      11.00258152       8.25193614      10.00000000
Pd       0.00000000      11.00258152      10.00000000
Pd       2.75064538      11.00258152      10.00000000
Pd       5.50129076      11.00258152      10.00000000
Pd       8.25193614      11.00258152      10.00000000
Pd      11.00258152      11.00258152      10.00000000
Pd       1.33305437       1.38035701      12.05221797
Pd       4.08925664       1.38750338      11.98771029
Pd       6.82888190       1.38154444      11.99332965
Pd       9.57512057       1.39592898      11.89594876
Pd      12.38684272       1.37174114      11.92044161
Pd       1.37065655       4.09970544      12.00656864
Pd       4.10125007       4.12393621      12.00820233
Pd       6.82444734       4.12497179      12.00908219
Pd       9.56728621       4.13975942      11.94281254
Pd      12.36578195       4.13265160      11.93417299
Pd       1.37110082       6.89256210      11.94010419
Pd       4.13935064       6.87026939      11.96482277
Pd       6.87097415       6.85831372      11.95140951
Pd       9.64205429       6.82915781      11.94515418
Pd      12.39111484       6.85622887      11.94896407
Pd       1.35216595       9.69735034      11.99083951
Pd       4.11777592       9.66324146      11.95099537
Pd       6.89476706       9.64088005      11.95142944
Pd       9.64982872       9.59779534      11.89439304
Pd      12.42487279       9.60955999      11.94161946
Pd       1.35802606      12.41462245      12.04582394
Pd       4.10624816      12.40887780      12.00662317
Pd       6.86816975      12.39901143      11.97280504
Pd       9.63028672      12.36702810      11.91406436
Pd      12.41879361      12.34804731      11.97632258
Pd      13.68889781      13.73721021      14.10399619
Pd       2.81594726       0.13914204      14.10787743
Pd       5.60311765      13.74124997      13.99402662
Pd       8.32429617      13.75131965      13.98937004
Pd      10.97632134       0.02072046      13.87936481
Pd      13.66047427       2.71678568      13.99621616
Pd       2.72037195       2.90908673      14.11266116
Pd       5.48013098       2.76659499      14.02871524
Pd       8.25157324       2.68917508      13.96150783
Pd      10.93866588       2.68420614      13.88826261
Pd       0.03652482       5.45334952      13.95792567
Pd       2.74377708       5.60878067      14.02148657
Pd       5.47038080       5.56987702      13.98731904
Pd       8.24018457       5.45016602      14.00195667
Pd      10.99806175       5.38031767      14.01495766
Pd       0.08274511       8.19527525      13.99212807
Pd       2.82825819       8.34202542      13.97163382
Pd       5.60064171       8.33747839      13.91086449
Pd       8.29244592       8.22509284      13.97588524
Pd      11.03767648       8.19309651      13.83677511
Pd      13.56878440      10.88436077      14.14773968
Pd       2.72122531      11.11997446      14.02864487
Pd       5.49469999      11.03978097      13.94981219
Pd       8.21016844      10.96213095      13.91640825
Pd      10.88713954      10.97609373      13.86385821
Pd      12.52413553       6.47618112      16.13824041
Pd       8.74929252       9.63900831      16.35340404
Pd       0.87746459      12.58308695      16.75550991
Pd       1.60307994       7.07585095      16.25176491
Pd      12.03739883       9.29578129      16.05241334
Pd       9.10235209       0.89369932      17.11269139
Pd       5.37414096       1.02233640      16.48326892
Pd       5.74278660      10.00493774      16.36893896
Pd       4.30085700      12.28519271      16.03418981
Pd      10.90431199      12.44994016      16.37128302
Pd       1.21595813       4.35184803      16.30045014
Pd       4.16233255       4.51181165      16.39897377
Pd      11.47679948       3.09700089      16.53189074
Pd       2.80167402       9.80403083      16.41148843
Pd       7.24431799       6.89548079      16.46670317
Pd       7.16661052      12.29417953      15.97558443
Pd       9.85033450       7.13743751      15.96759683
Pd       7.63500402       3.31265420      16.56050504
Pd       1.58844503       1.59957336      16.15522559
Pd       4.34284476       7.22026894      15.92209644
O        9.54497752       2.83750655      17.18018369
O       10.50120798      10.52412706      15.89242259
O       12.91421693      12.43320072      15.62677461
O       12.02439329       1.27939079      17.04671931
O       11.05870895       0.40889634      17.46105529
O        4.29505181       8.84042692      17.17061553
O        3.41983739       0.56588791      16.09376718
O        1.04525217       0.57243092      17.93229826
O        8.91867047      12.67242913      16.99788328
O        1.33732219      10.92488621      15.69455540
O        1.90143824      13.33706155      18.34544329
O        2.59008885       5.53170211      17.06198329
O        8.03768056       5.15897165      15.98019511
O        7.17198993       8.77241827      17.09892410
O        5.63451200       3.23660762      16.03244348
O       13.62266466       2.92154605      16.03119465
O       11.18931992       5.03306760      16.05435049
O       13.63469528       8.12961636      16.12767252
O        7.17637657       1.49349962      17.22276752
O        5.46576592       6.03953665      17.09728401
115
Lattice="13.75323 0.0 0.0 0.0 13.75323 0.0 0.0 0.0 23.89" Properties=species:S:1:pos:R:3 entry_id=7 rank=28 energy=-571.3043212890625 pbc="T T F"
Pd       0.00000000       0.00000000      10.00000000
Pd       2.75064538       0.00000000      10.00000000
Pd       5.50129076       0.00000000      10.00000000
Pd       8.25193614       0.00000000      10.00000000
Pd      11.00258152       0.00000000      10.00000000
Pd       0.00000000       2.75064538      10.00000000
Pd       2.75064538       2.75064538      10.00000000
Pd       5.50129076       2.75064538      10.00000000
Pd       8.25193614       2.75064538      10.00000000
Pd      11.00258152       2.75064538      10.00000000
Pd       0.00000000       5.50129076      10.00000000
Pd       2.75064538       5.50129076      10.00000000
Pd       5.50129076       5.50129076      10.00000000
Pd       8.25193614       5.50129076      10.00000000
Pd      11.00258152       5.50129076      10.00000000
Pd       0.00000000       8.25193614      10.00000000
Pd       2.75064538       8.25193614      10.00000000
Pd       5.50129076       8.25193614      10.00000000
Pd       8.25193614       8.25193614      10.00000000
Pd      11.00258152       8.25193614      10.00000000
Pd       0.00000000      11.00258152      10.00000000
Pd       2.75064538      11.00258152      10.00000000
Pd       5.50129076      11.00258152      10.00000000
Pd       8.25193614      11.00258152      10.00000000
Pd      11.00258152      11.00258152      10.00000000
Pd       1.33305437       1.38035701      12.05221797
Pd       4.08925664       1.38750338      11.98771029
Pd       6.82888190       1.38154444      11.99332965
Pd       9.57512057       1.39592898      11.89594876
Pd      12.38684272       1.37174114      11.92044161
Pd       1.37065655       4.09970544      12.00656864
Pd       4.10125007       4.12393621      12.00820233
Pd       6.82444734       4.12497179      12.00908219
Pd       9.56728621       4.13975942      11.94281254
Pd      12.36578195       4.13265160      11.93417299
Pd       1.37110082       6.89256210      11.94010419
Pd       4.13935064       6.87026939      11.96482277
Pd       6.87097415       6.85831372      11.95140951
Pd       9.64205429       6.82915781      11.94515418
Pd      12.39111484       6.85622887      11.94896407
Pd       1.35216595       9.69735034      11.99083951
Pd       4.11777592       9.66324146      11.95099537
Pd       6.89476706       9.64088005      11.95142944
Pd       9.64982872       9.59779534      11.89439304
Pd      12.42487279       9.60955999      11.94161946
Pd       1.35802606      12.41462245      12.04582394
Pd       4.10624816      12.40887780      12.00662317
Pd       6.86816975      12.39901143      11.97280504
Pd       9.63028672      12.36702810      11.91406436
Pd      12.41879361      12.34804731      11.97632258
Pd      13.62079729      13.70754876      14.24394860
Pd       2.72263569       0.12392077      14.13752134
Pd       5.53296895      13.73986094      14.00597295
Pd       8.28735221       0.00579128      13.96103628
Pd      10.94782685       0.01308461      13.86069500
Pd      13.63374487       2.75019747      13.99246316
Pd       2.66725914       2.87142824      14.05031928
Pd       5.41578621       2.71816733      14.04327315
Pd       8.31645098       2.71726223      14.09176848
Pd      10.96388417       2.69593814      13.79768768
Pd      13.74026331       5.50354318      13.98687497
Pd       2.64587819       5.62566999      14.00910667
Pd       5.54665452       5.50396627      13.94630932
Pd       8.32541526       5.48266195      13.99323240
Pd      11.02529272       5.43780543      13.94205679
Pd       0.03361895       8.21810140      13.97401405
Pd       2.80262850       8.37195540      13.96542516
Pd       5.55380039       8.30132766      13.99754580
Pd       8.29004881       8.25903044      13.95243533
Pd      11.05872055       8.23023862      13.93123886
Pd      13.67364304      10.91253787      14.04490350
Pd       2.77068665      11.12488327      13.98727264
Pd       5.52742541      11.01156692      13.93831565
Pd       8.26155277      10.97670974      13.91906821
Pd      10.95534035      10.98172109      13.87331876
Pd      12.43226393       6.51924259      16.32583542
Pd       8.94067913       9.66384932      16.31648873
Pd       0.08310856      11.52177049      17.09114677
Pd       1.49682508       7.24366979      16.04458652
Pd      12.25429021       9.31844681      16.23870434
Pd       8.65372418       0.93022432      16.72359904
Pd       4.86563430       1.03323198      16.47005909
Pd       5.76474014      10.02924966      16.41067118
Pd       4.27279928      12.23285186      16.00265324
Pd      10.70154979      12.54480037      16.41029736
Pd       0.63286436       4.48813211      16.53617379
Pd       3.34294304       4.29433659      16.65237685
Pd      11.12119158       3.21649392      16.37878317
Pd       2.72394561       9.92494489      16.46654698
Pd       7.04920234       7.14646852      16.28506788
Pd       7.05777612      12.29801131      15.89099058
Pd       9.72683075       7.02581047      15.94351737
Pd       6.90486391       3.42137303      16.35819357
Pd       1.27096131       1.71607507      16.10423206
Pd       4.25312310       7.46898622      16.35057980
O        8.99561223       2.87198405      16.24244296
O       10.69540195      10.56112866      15.89420522
O       12.67584348      12.69365103      15.85622563
O       11.60252558       1.43395106      17.01806522
O       10.60706517       0.57554584      17.33928900
O        4.24108425       9.11027161      17.40093754
O        2.93272855       0.55551480      16.15162326
O       12.85184245      11.94680701      18.75129523
O        8.68533545      12.70335549      17.01625401
O        1.29167496      10.97324842      15.61602947
O       13.45780820      12.60815089      19.66240335
O        2.00411215       5.63524837      17.28395270
O        6.95343777       5.29241460      15.56914620
O        7.31155016       8.90016576      17.08427131
O        4.87036728       3.14858843      16.13519937
O       13.26971742       2.98200409      16.02891788
O       10.96271730       5.21506858      16.00199507
O       13.56020868       8.00708339      16.90991461
O        6.72584006       1.57072170      17.02879190
O        4.15400515       5.74714857      15.43701575
115
Lattice="13.75323 0.0 0.0 0.0 13.75323 0.0 0.0 0.0 23.89" Properties=species:S:1:pos:R:3 entry_id=6 rank=29 energy=-571.2294311523438 pbc="T T F"
Pd       0.00000000       0.00000000      10.00000000
Pd       2.75064538       0.00000000      10.00000000
Pd       5.50129076       0.00000000      10.00000000
Pd       8.25193614       0.00000000      10.00000000
Pd      11.00258152       0.00000000      10.00000000
Pd       0.00000000       2.75064538      10.00000000
Pd       2.75064538       2.75064538      10.00000000
Pd       5.50129076       2.75064538      10.00000000
Pd       8.25193614       2.75064538      10.00000000
Pd      11.00258152       2.75064538      10.00000000
Pd       0.00000000       5.50129076      10.00000000
Pd       2.75064538       5.50129076      10.00000000
Pd       5.50129076       5.50129076      10.00000000
Pd       8.25193614       5.50129076      10.00000000
Pd      11.00258152       5.50129076      10.00000000
Pd       0.00000000       8.25193614      10.00000000
Pd       2.75064538       8.25193614      10.00000000
Pd       5.50129076       8.25193614      10.00000000
Pd       8.25193614       8.25193614      10.00000000
Pd      11.00258152       8.25193614      10.00000000
Pd       0.00000000      11.00258152      10.00000000
Pd       2.75064538      11.00258152      10.00000000
Pd       5.50129076      11.00258152      10.00000000
Pd       8.25193614      11.00258152      10.00000000
Pd      11.00258152      11.00258152      10.00000000
Pd       1.33305437       1.38035701      12.05221797
Pd       4.08925664       1.38750338      11.98771029
Pd       6.82888190       1.38154444      11.99332965
Pd       9.57512057       1.39592898      11.89594876
Pd      12.38684272       1.37174114      11.92044161
Pd       1.37065655       4.09970544      12.00656864
Pd       4.10125007       4.12393621      12.00820233
Pd       6.82444734       4.12497179      12.00908219
Pd       9.56728621       4.13975942      11.94281254
Pd      12.36578195       4.13265160      11.93417299
Pd       1.37110082       6.89256210      11.94010419
Pd       4.13935064       6.87026939      11.96482277
Pd       6.87097415       6.85831372      11.95140951
Pd       9.64205429       6.82915781      11.94515418
Pd      12.39111484       6.85622887      11.94896407
Pd       1.35216595       9.69735034      11.99083951
Pd       4.11777592       9.66324146      11.95099537
Pd       6.89476706       9.64088005      11.95142944
Pd       9.64982872       9.59779534      11.89439304
Pd      12.42487279       9.60955999      11.94161946
Pd       1.35802606      12.41462245      12.04582394
Pd       4.10624816      12.40887780      12.00662317
Pd       6.86816975      12.39901143      11.97280504
Pd       9.63028672      12.36702810      11.91406436
Pd      12.41879361      12.34804731      11.97632258
Pd      13.62241367      13.69584909      14.22268310
Pd       2.71581276       0.09714074      14.07900361
Pd       5.53169017      13.70100530      13.97442841
Pd       8.29654084       0.03267863      13.97642198
Pd      10.94343793       0.02157366      13.86712887
Pd      13.62961863       2.72416698      13.99649270
Pd       2.69277294       2.89740324      14.13189222
Pd       5.43357806       2.63200124      14.01988177
Pd       8.24526278       2.71592353      13.94362704
Pd      10.92921471       2.69705317      13.87373505
Pd      13.74889325       5.50024184      13.98111982
Pd       2.70496265       5.61542098      13.97706796
Pd       5.50181365       5.60217278      14.06511605
Pd       8.27218274       5.50362399      13.98670479
Pd      10.99298449       5.42898865      13.98390625
Pd       0.03445095       8.23842810      13.97292399
Pd       2.79376665       8.34311990      13.96042999
Pd       5.55723186       8.30911444      13.97572989
Pd       8.31561885       8.27300206      13.96053864
Pd      11.05929897       8.22687202      13.86841552
Pd      13.74379490      10.97188784      14.03152101
Pd       2.75379208      11.05021175      13.97316789
Pd       5.51443852      10.99296289      13.96045392
Pd       8.25855231      11.00679477      13.92264889
Pd      10.97302811      10.98480213      13.89243865
Pd      12.44938537       6.21648546      16.37439906
Pd       8.93352500       9.77245689      16.30662464
Pd      13.72261320      12.08576192      17.36333171
Pd       1.46435365       7.11662327      15.97619223
Pd      12.17778028       9.07059354      16.28772072
Pd       8.74478127       0.97326488      17.02059735
Pd       5.03563465       1.10098280      16.36450081
Pd       5.63325151      10.18851464      16.52643821
Pd       4.10482833      12.28224076      15.96291064
Pd      10.71628864      12.54506479      16.42286561
Pd       0.94031110       4.28210253      16.36170328
Pd       3.89976418       4.64367392      16.27899982
Pd      11.24575220       3.02841625      16.56545059
Pd       1.96319872      10.06577778      16.38261023
Pd       7.30274594       7.20844336      16.35363499
Pd       7.01481317      12.37503136      15.87673201
Pd       9.95952524       7.27198802      16.06951854
Pd       7.46072819       3.57356335      16.40445432
Pd       1.34991136       1.51720580      16.07756507
Pd       4.14407116       8.00845658      16.41288267
O        9.25659301       2.89958018      17.12817385
O       10.75395654      10.51929288      15.90343793
O       12.65464704      12.86459590      15.90357848
O       11.67563585       1.33322469      17.43836679
O       10.64431535       0.45825431      17.58739229
O        3.72284911       9.77322028      17.13720128
O        3.12546769       0.46209295      16.14105231
O        0.20129989      13.12736324      19.08605825
O        8.66974215      12.71267325      16.97184996
O        0.05088769      10.51211716      16.07872519
O        0.74520414      11.90190415      19.23474736
O        2.29527549       5.51225973      17.01722557
O        8.05628516       5.41945776      15.98461277
O        7.23589575       9.07752949      16.98807117
O        5.64001560       3.95055363      15.54674665
O       13.40295912       2.80885134      16.04726559
O       11.06822325       4.90300204      15.95552503
O       13.49905864       7.73804493      16.95662391
O        6.83273550       1.73868532      16.89825109
O        5.14303014       6.37727405      16.12477566
115
Lattice="13.75323 0.0 0.0 0.0 13.75323 0.0 0.0 0.0 23.89" Properties=species:S:1:pos:R:3 entry_id=4 rank=30 energy=-571.002685546875 pbc="T T F"
Pd       0.00000000       0.00000000      10.00000000
Pd       2.75064538       0.00000000      10.00000000
Pd       5.50129076       0.00000000      10.00000000
Pd       8.25193614       0.00000000      10.00000000
Pd      11.00258152       0.00000000      10.00000000
Pd       0.00000000       2.75064538      10.00000000
Pd       2.75064538       2.75064538      10.00000000
Pd       5.50129076       2.75064538      10.00000000
Pd       8.25193614       2.75064538      10.00000000
Pd      11.00258152       2.75064538      10.00000000
Pd       0.00000000       5.50129076      10.00000000
Pd       2.75064538       5.50129076      10.00000000
Pd       5.50129076       5.50129076      10.00000000
Pd       8.25193614       5.50129076      10.00000000
Pd      11.00258152       5.50129076      10.00000000
Pd       0.00000000       8.25193614      10.00000000
Pd       2.75064538       8.25193614      10.00000000
Pd       5.50129076       8.25193614      10.00000000
Pd       8.25193614       8.25193614      10.00000000
Pd      11.00258152       8.25193614      10.00000000
Pd       0.00000000      11.00258152      10.00000000
Pd       2.75064538      11.00258152      10.00000000
Pd       5.50129076      11.00258152      10.00000000
Pd       8.25193614      11.00258152      10.00000000
Pd      11.00258152      11.00258152      10.00000000
Pd       1.33305437       1.38035701      12.05221797
Pd       4.08925664       1.38750338      11.98771029
Pd       6.82888190       1.38154444      11.99332965
Pd       9.57512057       1.39592898      11.89594876
Pd      12.38684272       1.37174114      11.92044161
Pd       1.37065655       4.09970544      12.00656864
Pd       4.10125007       4.12393621      12.00820233
Pd       6.82444734       4.12497179      12.00908219
Pd       9.56728621       4.13975942      11.94281254
Pd      12.36578195       4.13265160      11.93417299
Pd       1.37110082       6.89256210      11.94010419
Pd       4.13935064       6.87026939      11.96482277
Pd       6.87097415       6.85831372      11.95140951
Pd       9.64205429       6.82915781      11.94515418
Pd      12.39111484       6.85622887      11.94896407
Pd       1.35216595       9.69735034      11.99083951
Pd       4.11777592       9.66324146      11.95099537
Pd       6.89476706       9.64088005      11.95142944
Pd       9.64982872       9.59779534      11.89439304
Pd      12.42487279       9.60955999      11.94161946
Pd       1.35802606      12.41462245      12.04582394
Pd       4.10624816      12.40887780      12.00662317
Pd       6.86816975      12.39901143      11.97280504
Pd       9.63028672      12.36702810      11.91406436
Pd      12.41879361      12.34804731      11.97632258
Pd      13.69490975      13.72796542      14.15087096
Pd       2.80994373       0.13599011      14.12750509
Pd       5.59445236      13.75257186      14.00021127
Pd       8.32367363      13.74939690      13.99130333
Pd      10.98441557       0.02800550      13.88902422
Pd      13.66207891       2.70654605      14.00415812
Pd       2.72618183       2.88898619      14.05392659
Pd       5.49437744       2.75992635      14.03328476
Pd       8.25578921       2.68038123      13.97912169
Pd      10.93921265       2.69678440      13.89574951
Pd       0.03764958       5.45721258      13.94630591
Pd       2.74190586       5.59762036      14.01179591
Pd       5.46873302       5.52980742      13.99921525
Pd       8.29345006       5.38816012      14.07610119
Pd      11.00711939       5.40482949      14.02711544
Pd       0.03324554       8.20719391      13.98272893
Pd       2.74014909       8.32341580      13.92895223
Pd       5.44025689       8.41355311      13.95373166
Pd       8.32914428       8.24114496      13.96157044
Pd      11.03366050       8.22112983      13.81989523
Pd      13.56096991      10.91113054      14.16993568
Pd       2.78355481      11.10700322      13.96934084
Pd       5.52779241      11.07973763      13.99693665
Pd       8.22102938      10.97522084      13.93009737
Pd      10.89339949      10.99708417      13.86224480
Pd      12.57354646       6.47677042      16.15410099
Pd       8.76933056       9.72421698      16.41976686
Pd       1.13775994      12.48583698      16.70583188
Pd       1.58213603       7.15835869      16.29043675
Pd      12.03334876       9.34039081      16.05817910
Pd       9.16528171       0.94778513      17.11447613
Pd       5.43281662       1.00926819      16.49944573
Pd       5.77705057      10.03531406      16.44998573
Pd       4.23958152      12.30268174      16.06867110
Pd      10.95229298      12.49247583      16.40386063
Pd       1.25991627       4.46114519      16.29005571
Pd       4.09049098       4.39389097      16.25392613
Pd      11.54593854       3.12305367      16.54333646
Pd       2.89198180       9.75164964      16.35131571
Pd       7.46512084       6.98236111      16.79428150
Pd       7.18705545      12.32126735      16.00905639
Pd       9.98838581       7.26131837      16.03589387
Pd       7.66556676       3.35804985      16.60210572
Pd       1.62331527       1.67548852      16.15245730
Pd       4.24609777       7.07960242      15.98033494
O        9.60573763       2.88586896      17.19055249
O       10.51375092      10.58736958      15.89198921
O       12.95139072      12.43847712      15.69584075
O       12.10175042       1.31237176      17.07268551
O       11.12134841       0.45045126      17.48440919
O        4.35986647       8.75670978      17.13412835
O        3.45600358       0.59475046      16.13302081
O        1.27726657       1.18778317      18.09513054
O        8.95987898      12.73311315      17.00162245
O        1.44468696      10.87647805      15.56398220
O        0.83552282      13.70553299      18.22133717
O        2.72451978       5.65261502      16.99905245
O        8.07916708       5.21916815      16.12596136
O        7.23292917       8.87498579      17.28286128
O        5.64144495       3.19245239      16.05546359
O       13.66769946       3.01000716      16.03005901
O       11.24819144       5.03643681      16.05032957
O       13.62235449       8.16936274      16.13010480
O        7.23657578       1.51733949      17.21469916
O        6.74432702       7.10018270      14.83458355
115
Lattice="13.75323 0.0 0.0 0.0 13.75323 0.0 0.0 0.0 23.89" Properties=species:S:1:pos:R:3 entry_id=2 rank=31 energy=-570.258056640625 pbc="T T F"
Pd       0.00000000       0.00000000      10.00000000
Pd       2.75064538       0.00000000      10.00000000
Pd       5.50129076       0.00000000      10.00000000
Pd       8.25193614       0.00000000      10.00000000
Pd      11.00258152       0.00000000      10.00000000
Pd       0.00000000       2.75064538      10.00000000
Pd       2.75064538       2.75064538      10.00000000
Pd       5.50129076       2.75064538      10.00000000
Pd       8.25193614       2.75064538      10.00000000
Pd      11.00258152       2.75064538      10.00000000
Pd       0.00000000       5.50129076      10.00000000
Pd       2.75064538       5.50129076      10.00000000
Pd       5.50129076       5.50129076      10.00000000
Pd       8.25193614       5.50129076      10.00000000
Pd      11.00258152       5.50129076      10.00000000
Pd       0.00000000       8.25193614      10.00000000
Pd       2.75064538       8.25193614      10.00000000
Pd       5.50129076       8.25193614      10.00000000
Pd       8.25193614       8.25193614      10.00000000
Pd      11.00258152       8.25193614      10.00000000
Pd       0.00000000      11.00258152      10.00000000
Pd       2.75064538      11.00258152      10.00000000
Pd       5.50129076      11.00258152      10.00000000
Pd       8.25193614      11.00258152      10.00000000
Pd      11.00258152      11.00258152      10.00000000
Pd       1.33305437       1.38035701      12.05221797
Pd       4.08925664       1.38750338      11.98771029
Pd       6.82888190       1.38154444      11.99332965
Pd       9.57512057       1.39592898      11.89594876
Pd      12.38684272       1.37174114      11.92044161
Pd       1.37065655       4.09970544      12.00656864
Pd       4.10125007       4.12393621      12.00820233
Pd       6.82444734       4.12497179      12.00908219
Pd       9.56728621       4.13975942      11.94281254
Pd      12.36578195       4.13265160      11.93417299
Pd       1.37110082       6.89256210      11.94010419
Pd       4.13935064       6.87026939      11.96482277
Pd       6.87097415       6.85831372      11.95140951
Pd       9.64205429       6.82915781      11.94515418
Pd      12.39111484       6.85622887      11.94896407
Pd       1.35216595       9.69735034      11.99083951
Pd       4.11777592       9.66324146      11.95099537
Pd       6.89476706       9.64088005      11.95142944
Pd       9.64982872       9.59779534      11.89439304
Pd      12.42487279       9.60955999      11.94161946
Pd       1.35802606      12.41462245      12.04582394
Pd       4.10624816      12.40887780      12.00662317
Pd       6.86816975      12.39901143      11.97280504
Pd       9.63028672      12.36702810      11.91406436
Pd      12.41879361      12.34804731      11.97632258
Pd      13.70570218       0.02321947      14.13442988
Pd       2.77250529       0.00277048      14.14029572
Pd       5.55484964      13.73375225      13.95680439
Pd       8.34684517      13.69273300      14.02306925
Pd      11.01376939       0.09729178      13.76711688
Pd      13.61807586       2.77648466      13.99208799
Pd       2.77781228       2.84384298      14.09422507
Pd       5.55013026       2.76355186      14.05087021
Pd       8.27486710       2.65997072      13.98715511
Pd      10.92693821       2.74254156      13.90739758
Pd       0.01524029       5.50515841      13.92923650
Pd       2.72166828       5.55856932      14.00641572
Pd       5.44074466       5.51379470      14.00758743
Pd       8.25746624       5.37050033      14.09503944
Pd      10.97183586       5.43517509      14.01894011
Pd       0.02858106       8.25515302      13.95549010
Pd       2.74138808       8.28456463      13.92088789
Pd       5.44637647       8.36823994      13.95981158
Pd       8.35141631       8.24565026      13.97090558
Pd      11.04469932       8.23944842      13.86906250
Pd      13.53446066      10.93534346      14.21973117
Pd       2.77694664      11.03418634      13.94653825
Pd       5.52367964      11.03326347      13.95206691
Pd       8.21724655      10.93063244      14.01483024
Pd      10.90419453      10.95648521      13.86374181
Pd      12.51849188       6.53673846      16.12280611
Pd       8.74615448       9.74820977      16.60398188
Pd       1.56180396      12.48661747      16.65056861
Pd       1.52697990       7.17997909      16.28829524
Pd      11.95044061       9.39253563      16.19704914
Pd       8.92913026       1.04943516      16.79403027
Pd       5.05509747       0.96373661      16.39994114
Pd       5.72634772       9.92200801      16.40941794
Pd       4.21588402      12.19450005      16.04154741
Pd      11.02498633      12.55138415      15.97274377
Pd       1.09629713       4.54175877      16.30581230
Pd       4.07246638       4.35998010      16.25840326
Pd      11.35403857       3.18788916      16.61227238
Pd       2.86085717       9.68107939      16.37073282
Pd       7.41234639       6.94263323      16.81505037
Pd       6.94114633      12.30311451      16.03490638
Pd       9.93639395       7.29461876      16.08592732
Pd       7.60913490       3.31210960      16.58913045
Pd       1.26749016       1.84239228      16.12125682
Pd       4.20483608       7.03134949      15.97320669
O        9.43458751       2.91407565      17.27865830
O       10.50385224      10.61747392      16.59369200
O       13.00531708      12.47258295      15.60588273
O       11.88370674       1.38904503      17.25726524
O       10.90382474       0.47534275      17.37078271
O        4.31180718       8.67125755      17.17036412
O        3.18327608       1.32056803      15.70495067
O        1.19560264       1.17589265      18.04778686
O        9.01531171      12.99048458      15.98114400
O        1.45583778      10.83564183      15.54917494
O        1.66040469      13.70628463      18.19841263
O        2.66573983       5.63087297      16.95879721
O        8.04050289       5.20761463      16.15750391
O        7.16501968       8.82431168      17.29606662
O        5.63728180       3.08773361      16.12994872
O       13.39561681       3.14863877      16.05206954
O       11.13963875       5.12497385      16.06237941
O       13.57676897       8.22808589      16.05139338
O        6.82326677       0.36648990      17.00218820
O        6.79568093       7.07019327      14.80883004
115
Lattice="13.75323 0.0 0.0 0.0 13.75323 0.0 0.0 0.0 23.89" Properties=species:S:1:pos:R:3 entry_id=3 rank=32 energy=-570.1822509765625 pbc="T T F"
Pd       0.00000000       0.00000000      10.00000000
Pd       2.75064538       0.00000000      10.00000000
Pd       5.50129076       0.00000000      10.00000000
Pd       8.25193614       0.00000000      10.00000000
Pd      11.00258152       0.00000000      10.00000000
Pd       0.00000000       2.75064538      10.00000000
Pd       2.75064538       2.75064538      10.00000000
Pd       5.50129076       2.75064538      10.00000000
Pd       8.25193614       2.75064538      10.00000000
Pd      11.00258152       2.75064538      10.00000000
Pd       0.00000000       5.50129076      10.00000000
Pd       2.75064538       5.50129076      10.00000000
Pd       5.50129076       5.50129076      10.00000000
Pd       8.25193614       5.50129076      10.00000000
Pd      11.00258152       5.50129076      10.00000000
Pd       0.00000000       8.25193614      10.00000000
Pd       2.75064538       8.25193614      10.00000000
Pd       5.50129076       8.25193614      10.00000000
Pd       8.25193614       8.25193614      10.00000000
Pd      11.00258152       8.25193614      10.00000000
Pd       0.00000000      11.00258152      10.00000000
Pd       2.75064538      11.00258152      10.00000000
Pd       5.50129076      11.00258152      10.00000000
Pd       8.25193614      11.00258152      10.00000000
Pd      11.00258152      11.00258152      10.00000000
Pd       1.33305437       1.38035701      12.05221797
Pd       4.08925664       1.38750338      11.98771029
Pd       6.82888190       1.38154444      11.99332965
Pd       9.57512057       1.39592898      11.89594876
Pd      12.38684272       1.37174114      11.92044161
Pd       1.37065655       4.09970544      12.00656864
Pd       4.10125007       4.12393621      12.00820233
Pd       6.82444734       4.12497179      12.00908219
Pd       9.56728621       4.13975942      11.94281254
Pd      12.36578195       4.13265160      11.93417299
Pd       1.37110082       6.89256210      11.94010419
Pd       4.13935064       6.87026939      11.96482277
Pd       6.87097415       6.85831372      11.95140951
Pd       9.64205429       6.82915781      11.94515418
Pd      12.39111484       6.85622887      11.94896407
Pd       1.35216595       9.69735034      11.99083951
Pd       4.11777592       9.66324146      11.95099537
Pd       6.89476706       9.64088005      11.95142944
Pd       9.64982872       9.59779534      11.89439304
Pd      12.42487279       9.60955999      11.94161946
Pd       1.35802606      12.41462245      12.04582394
Pd       4.10624816      12.40887780      12.00662317
Pd       6.86816975      12.39901143      11.97280504
Pd       9.63028672      12.36702810      11.91406436
Pd      12.41879361      12.34804731      11.97632258
Pd      13.71772482       0.05412634      14.12192895
Pd       2.76124084      13.74695619      14.13236236
Pd       5.52391954       0.01354061      13.95508577
Pd       8.30469066      13.68431153      13.93061399
Pd      11.01574227       0.08305989      13.79639149
Pd      13.60141817       2.80036558      14.00016297
Pd       2.74326820       2.84120317      14.08696828
Pd       5.51450633       2.78120475      14.01709401
Pd       8.25702248       2.64375432      13.97675205
Pd      10.91368550       2.72419208      13.92136094
Pd       0.03318864       5.50910735      13.92870134
Pd       2.72849867       5.56093622      14.03355297
Pd       5.43303618       5.52780969      14.01504287
Pd       8.25409991       5.32357870      14.11982557
Pd      10.99323058       5.41086043      13.99369295
Pd       0.04974228       8.25705136      13.93737092
Pd       2.77588090       8.27642388      13.92456972
Pd       5.49702689       8.38320119      13.95111760
Pd       8.38087587       8.26510759      13.97591335
Pd      11.06241176       8.23217239      13.91226901
Pd      13.57878761      10.94085641      14.19493371
Pd       2.77311395      11.03738820      13.94702873
Pd       5.51377443      11.07129664      13.94187514
Pd       8.18946754      10.94227205      14.19948754
Pd      10.90507803      10.93159308      13.86062472
Pd      12.56692264       6.57450812      16.10957146
Pd       9.00495410       9.58395802      16.65300358
Pd       1.59660551      12.38925106      16.66819892
Pd       1.61193644       7.24342564      16.30949689
Pd      12.02764166       9.41165561      16.23484127
Pd       9.31885855       1.01735801      16.28288887
Pd       4.98628809       1.06369542      16.40207870
Pd       6.15568118       9.99444987      16.27528952
Pd       4.27719339      12.21642560      16.05795497
Pd      11.17325617      12.46193140      15.97275810
Pd       1.06252112       4.62236537      16.38090286
Pd       3.99110911       4.44697999      16.31737836
Pd      11.38265319       3.17690706      16.61399526
Pd       3.06571368       9.70555200      16.32925199
Pd       7.38882376       6.75488722      16.79495905
Pd       6.92852080      12.69808351      16.10747032
Pd       9.91057334       7.06646277      16.02813307
Pd       7.46818219       3.04230614      16.59994550
Pd       1.25521301       1.92592010      16.13906090
Pd       4.32202138       7.10116674      16.02496145
O        9.44044515       2.78130597      17.12600740
O       10.64827972      10.62898749      16.82724885
O       13.16180772      12.48066225      15.62496207
O       11.96976264       1.40182772      17.37410934
O       11.03465604       0.44838602      17.42848128
O        4.63652316       8.83339828      17.03984366
O        3.09404421       1.24816284      15.74146209
O        1.08477307       1.10395666      17.99637062
O        9.12312129      12.83694180      15.83248469
O        1.51904905      10.73839753      15.58847320
O        1.66354180      13.68440929      18.14914000
O        2.62299256       5.68271268      17.06725800
O        7.81525516       4.94263904      16.12545711
O        7.38044285       8.66903788      17.23708420
O        5.47581353       3.13677637      16.07929980
O       13.39856347       3.21066624      16.07350596
O       11.15898847       5.16517182      16.06551198
O       13.64710723       8.25374398      16.01966957
O        6.86411265       0.99112311      17.00077863
O        6.86044107       7.03585252      14.78191949
115
Lattice="13.75323 0.0 0.0 0.0 13.75323 0.0 0.0 0.0 23.89" Properties=species:S:1:pos:R:3 entry_id=30 rank=33 energy=-570.1068115234375 pbc="T T F"
Pd       0.00000000       0.00000000      10.00000000
Pd       2.75064538       0.00000000      10.00000000
Pd       5.50129076       0.00000000      10.00000000
Pd       8.25193614       0.00000000      10.00000000
Pd      11.00258152       0.00000000      10.00000000
Pd       0.00000000       2.75064538      10.00000000
Pd       2.75064538       2.75064538      10.00000000
Pd       5.50129076       2.75064538      10.00000000
Pd       8.25193614       2.75064538      10.00000000
Pd      11.00258152       2.75064538      10.00000000
Pd       0.00000000       5.50129076      10.00000000
Pd       2.75064538       5.50129076      10.00000000
Pd       5.50129076       5.50129076      10.00000000
Pd       8.25193614       5.50129076      10.00000000
Pd      11.00258152       5.50129076      10.00000000
Pd       0.00000000       8.25193614      10.00000000
Pd       2.75064538       8.25193614      10.00000000
Pd       5.50129076       8.25193614      10.00000000
Pd       8.25193614       8.25193614      10.00000000
Pd      11.00258152       8.25193614      10.00000000
Pd       0.00000000      11.00258152      10.00000000
Pd       2.75064538      11.00258152      10.00000000
Pd       5.50129076      11.00258152      10.00000000
Pd       8.25193614      11.00258152      10.00000000
Pd      11.00258152      11.00258152      10.00000000
Pd       1.33305437       1.38035701      12.05221797
Pd       4.08925664       1.38750338      11.98771029
Pd       6.82888190       1.38154444      11.99332965
Pd       9.57512057       1.39592898      11.89594876
Pd      12.38684272       1.37174114      11.92044161
Pd       1.37065655       4.09970544      12.00656864
Pd       4.10125007       4.12393621      12.00820233
Pd       6.82444734       4.12497179      12.00908219
Pd       9.56728621       4.13975942      11.94281254
Pd      12.36578195       4.13265160      11.93417299
Pd       1.37110082       6.89256210      11.94010419
Pd       4.13935064       6.87026939      11.96482277
Pd       6.87097415       6.85831372      11.95140951
Pd       9.64205429       6.82915781      11.94515418
Pd      12.39111484       6.85622887      11.94896407
Pd       1.35216595       9.69735034      11.99083951
Pd       4.11777592       9.66324146      11.95099537
Pd       6.89476706       9.64088005      11.95142944
Pd       9.64982872       9.59779534      11.89439304
Pd      12.42487279       9.60955999      11.94161946
Pd       1.35802606      12.41462245      12.04582394
Pd       4.10624816      12.40887780      12.00662317
Pd       6.86816975      12.39901143      11.97280504
Pd       9.63028672      12.36702810      11.91406436
Pd      12.41879361      12.34804731      11.97632258
Pd      13.69960436       0.04657518      14.11334790
Pd       2.77284626       0.00815311      14.13423010
Pd       5.54430539       0.02239706      13.94555646
Pd       8.32366384       0.01140926      13.93945434
Pd      10.98207413       0.03210121      13.81955042
Pd      13.63644771       2.78918787      13.99808905
Pd       2.76121872       2.83639101      14.07147828
Pd       5.52625307       2.80458453      14.02170508
Pd       8.26443852       2.67993241      13.97582550
Pd      10.93425927       2.68744571      13.88918921
Pd      13.74651043       5.52057883      13.94837846
Pd       2.71395008       5.56287641      14.01886401
Pd       5.44251420       5.56194635      14.02561147
Pd       8.22509338       5.37416177      14.04745384
Pd      10.93293411       5.37836468      14.01799055
Pd       0.03990711       8.27391409      13.94810804
Pd       2.76178162       8.28854891      13.91284556
Pd       5.50001467       8.38435380      13.98920795
Pd       8.34990625       8.25273802      13.96781103
Pd      11.07032943       8.18388661      13.90473581
Pd      13.57658091      10.94600569      14.23711527
Pd       2.76794798      11.04021021      13.95928249
Pd       5.52820161      11.05301790      13.92524040
Pd       8.25522767      10.95762815      14.00937938
Pd      10.92713807      10.89152551      13.89598380
Pd      12.32719631       6.54356925      16.07533999
Pd       8.71141560      10.45240053      16.89561963
Pd       1.68411347      12.41523648      16.70537324
Pd       1.49382445       7.19505140      16.26501633
Pd      12.15412675       9.58762569      16.44034197
Pd       9.03167843       0.78218218      17.03174542
Pd       5.19609441       1.07743067      16.40946350
Pd       6.03455397      10.03941986      16.35499208
Pd       4.30645007      12.25294029      16.02300964
Pd      10.99359606      12.43279858      16.01603942
Pd       1.04185667       4.53630034      16.33153868
Pd       3.96519493       4.44659636      16.28703208
Pd      11.34701321       3.09538309      16.56769592
Pd       3.05836371       9.69502211      16.33993302
Pd       7.82124080       6.81604334      16.78849724
Pd       6.99647979      12.50739054      15.86733317
Pd      10.04367667       8.04995920      16.27009754
Pd       7.52554708       3.20366815      16.60367298
Pd       1.35225325       1.82916335      16.11643443
Pd       4.20040207       7.10840939      15.97784431
O        9.42584547       2.73047454      17.21148381
O       10.83761842      10.77133432      17.21495156
O       12.97115511      12.49304539      15.53208922
O       11.91917820       1.30207181      17.18916622
O       10.98506800       0.35500610      17.41903397
O        4.62572908       8.77916547      17.06702558
O        3.24717128       1.17457779      15.77243415
O        1.28699898       1.11747774      18.02887748
O        8.92899539      12.50604828      16.64142133
O        1.51014590      10.77080488      15.62195236
O        1.85993358      13.69489903      18.19020148
O        2.55626923       5.65596489      17.01423821
O        7.93529893       5.02212356      16.04204928
O        8.46982802       8.55633204      17.45798232
O        5.51933822       3.22417106      16.06427815
O       13.41938707       3.08775843      16.05552887
O       11.09069266       5.01120104      16.01859419
O       13.49679192       8.17858868      16.01806278
O        7.05137925       1.33800583      17.18218446
O        6.84004153       7.12366119      14.93994450
115
Lattice="13.75323 0.0 0.0 0.0 13.75323 0.0 0.0 0.0 23.89" Properties=species:S:1:pos:R:3 entry_id=1 rank=34 energy=-568.599365234375 pbc="T T F"
Pd       0.00000000       0.00000000      10.00000000
Pd       2.75064538       0.00000000      10.00000000
Pd       5.50129076       0.00000000      10.00000000
Pd       8.25193614       0.00000000      10.00000000
Pd      11.00258152       0.00000000      10.00000000
Pd       0.00000000       2.75064538      10.00000000
Pd       2.75064538       2.75064538      10.00000000
Pd       5.50129076       2.75064538      10.00000000
Pd       8.25193614       2.75064538      10.00000000
Pd      11.00258152       2.75064538      10.00000000
Pd       0.00000000       5.50129076      10.00000000
Pd       2.75064538       5.50129076      10.00000000
Pd       5.50129076       5.50129076      10.00000000
Pd       8.25193614       5.50129076      10.00000000
Pd      11.00258152       5.50129076      10.00000000
Pd       0.00000000       8.25193614      10.00000000
Pd       2.75064538       8.25193614      10.00000000
Pd       5.50129076       8.25193614      10.00000000
Pd       8.25193614       8.25193614      10.00000000
Pd      11.00258152       8.25193614      10.00000000
Pd       0.00000000      11.00258152      10.00000000
Pd       2.75064538      11.00258152      10.00000000
Pd       5.50129076      11.00258152      10.00000000
Pd       8.25193614      11.00258152      10.00000000
Pd      11.00258152      11.00258152      10.00000000
Pd       1.33305437       1.38035701      12.05221797
Pd       4.08925664       1.38750338      11.98771029
Pd       6.82888190       1.38154444      11.99332965
Pd       9.57512057       1.39592898      11.89594876
Pd      12.38684272       1.37174114      11.92044161
Pd       1.37065655       4.09970544      12.00656864
Pd       4.10125007       4.12393621      12.00820233
Pd       6.82444734       4.12497179      12.00908219
Pd       9.56728621       4.13975942      11.94281254
Pd      12.36578195       4.13265160      11.93417299
Pd       1.37110082       6.89256210      11.94010419
Pd       4.13935064       6.87026939      11.96482277
Pd       6.87097415       6.85831372      11.95140951
Pd       9.64205429       6.82915781      11.94515418
Pd      12.39111484       6.85622887      11.94896407
Pd       1.35216595       9.69735034      11.99083951
Pd       4.11777592       9.66324146      11.95099537
Pd       6.89476706       9.64088005      11.95142944
Pd       9.64982872       9.59779534      11.89439304
Pd      12.42487279       9.60955999      11.94161946
Pd       1.35802606      12.41462245      12.04582394
Pd       4.10624816      12.40887780      12.00662317
Pd       6.86816975      12.39901143      11.97280504
Pd       9.63028672      12.36702810      11.91406436
Pd      12.41879361      12.34804731      11.97632258
Pd      13.63881386      13.70848030      14.10935393
Pd       2.68575178       0.07238522      14.20176758
Pd       5.49791865      13.64326292      13.94995715
Pd       8.25925983       0.11451982      14.02585178
Pd      10.96766000       0.07620025      13.76704998
Pd      13.59186641       2.74399054      13.98580915
Pd       2.64970815       2.84840701      14.16234906
Pd       5.45788877       2.73058012      14.07588085
Pd       8.22041111       2.75280371      13.97607858
Pd      10.89237998       2.72027105      13.88279053
Pd       0.02088520       5.51262173      13.95282273
Pd       2.73112549       5.56385870      14.00073933
Pd       5.46408337       5.51588980      14.08008777
Pd       8.26920502       5.48279977      14.05482246
Pd      10.99605675       5.39763115      13.97619545
Pd       0.03995705       8.29347560      13.96953430
Pd       2.74341327       8.28813152      13.88890267
Pd       5.47976576       8.29399742      13.95464787
Pd       8.39604660       8.21833270      13.82052677
Pd      11.07354317       8.19156006      13.94254770
Pd      13.58700182      10.93980123      14.42237583
Pd       2.77826829      11.08303897      13.97612021
Pd       5.55706887      10.94807282      14.02039075
Pd       8.32978297      11.02656766      13.93358216
Pd      11.01910449      10.87983816      13.83026156
Pd      12.43304052       6.59738976      16.10081073
Pd       8.75651313       9.62368379      16.22351131
Pd       1.83590565      12.62477300      16.70833514
Pd       1.42557695       7.00142845      16.23755355
Pd      11.89202560       9.38523777      16.29692965
Pd       8.41096812       1.37527824      17.14021793
Pd       5.60471961       0.75755931      16.47162554
Pd       5.67444550       9.79153953      16.99548457
Pd       4.35692778      12.06862507      16.14064569
Pd      10.87155270      12.42819301      15.90952350
Pd       0.95396579       4.26892870      16.27353537
Pd       3.97189272       4.37266980      16.28840150
Pd      11.21430044       3.15462411      16.56394872
Pd       3.11580222       9.60348422      16.22841529
Pd       7.21792204       7.17971244      16.87553628
Pd       6.98272950      12.03405234      16.19880207
Pd       9.71351624       6.97753983      15.98233231
Pd       7.54327811       3.71433722      16.44454386
Pd       0.97953540       1.41307994      16.06238616
Pd       4.08509254       7.09524193      15.91180154
O        9.31123740       3.11960594      17.16206301
O       10.41184703      10.53415597      16.83797983
O       12.87082668      12.49609490      15.64192137
O       11.47048544       1.28934728      17.23812408
O       10.42411725       0.44678865      17.19036949
O        5.20698684       7.80600676      17.35032932
O        4.15193724       1.25042219      15.15953145
O        1.76501007       1.36461413      17.91696948
O        8.89169324      12.48990934      15.43373676
O        1.55972984      10.93036622      15.69227620
O        2.32574943       0.17168400      18.10981488
O        2.40958854       5.39687488      16.95888439
O        6.96394852       5.57328401      15.70147091
O        7.52968805       8.94073230      17.74977120
O        5.60728742       3.25241468      16.11113009
O       13.20922368       2.99259971      16.01975015
O       11.05207632       5.16828885      16.05995942
O       13.55887508       8.24372189      16.05734459
O        7.11759091      13.69727277      17.42433837
O        7.06976692       8.64352525      15.26077077
115
Lattice="13.75323 0.0 0.0 0.0 13.75323 0.0 0.0 0.0 23.89" Properties=species:S:1:pos:R:3 entry_id=0 rank=35 energy=-568.36962890625 pbc="T T F"
Pd       0.00000000       0.00000000      10.00000000
Pd       2.75064538       0.00000000      10.00000000
Pd       5.50129076       0.00000000      10.00000000
Pd       8.25193614       0.00000000      10.00000000
Pd      11.00258152       0.00000000      10.00000000
Pd       0.00000000       2.75064538      10.00000000
Pd       2.75064538       2.75064538      10.00000000
Pd       5.50129076       2.75064538      10.00000000
Pd       8.25193614       2.75064538      10.00000000
Pd      11.00258152       2.75064538      10.00000000
Pd       0.00000000       5.50129076      10.00000000
Pd       2.75064538       5.50129076      10.00000000
Pd       5.50129076       5.50129076      10.00000000
Pd       8.25193614       5.50129076      10.00000000
Pd      11.00258152       5.50129076      10.00000000
Pd       0.00000000       8.25193614      10.00000000
Pd       2.75064538       8.25193614      10.00000000
Pd       5.50129076       8.25193614      10.00000000
Pd       8.25193614       8.25193614      10.00000000
Pd      11.00258152       8.25193614      10.00000000
Pd       0.00000000      11.00258152      10.00000000
Pd       2.75064538      11.00258152      10.00000000
Pd       5.50129076      11.00258152      10.00000000
Pd       8.25193614      11.00258152      10.00000000
Pd      11.00258152      11.00258152      10.00000000
Pd       1.33305437       1.38035701      12.05221797
Pd       4.08925664       1.38750338      11.98771029
Pd       6.82888190       1.38154444      11.99332965
Pd       9.57512057       1.39592898      11.89594876
Pd      12.38684272       1.37174114      11.92044161
Pd       1.37065655       4.09970544      12.00656864
Pd       4.10125007       4.12393621      12.00820233
Pd       6.82444734       4.12497179      12.00908219
Pd       9.56728621       4.13975942      11.94281254
Pd      12.36578195       4.13265160      11.93417299
Pd       1.37110082       6.89256210      11.94010419
Pd       4.13935064       6.87026939      11.96482277
Pd       6.87097415       6.85831372      11.95140951
Pd       9.64205429       6.82915781      11.94515418
Pd      12.39111484       6.85622887      11.94896407
Pd       1.35216595       9.69735034      11.99083951
Pd       4.11777592       9.66324146      11.95099537
Pd       6.89476706       9.64088005      11.95142944
Pd       9.64982872       9.59779534      11.89439304
Pd      12.42487279       9.60955999      11.94161946
Pd       1.35802606      12.41462245      12.04582394
Pd       4.10624816      12.40887780      12.00662317
Pd       6.86816975      12.39901143      11.97280504
Pd       9.63028672      12.36702810      11.91406436
Pd      12.41879361      12.34804731      11.97632258
Pd      13.67353906      13.72248677      14.12272057
Pd       2.72736025       0.12310058      14.15923372
Pd       5.56764382      13.60127540      14.03093513
Pd       8.31113766       0.10900719      14.01824553
Pd      10.99885225       0.07519728      13.76842686
Pd      13.57145995       2.74698591      13.98595686
Pd       2.62546035       2.87329711      14.11543385
Pd       5.40159317       2.67085739      14.14078600
Pd       8.19823506       2.74854739      13.97301818
Pd      10.87838111       2.72182165      13.87383119
Pd       0.01991262       5.52494293      13.94829965
Pd       2.72468949       5.57281306      14.00078383
Pd       5.45483686       5.48843040      14.05959785
Pd       8.28003841       5.48941754      14.03817557
Pd      11.00280300       5.40147026      13.97595926
Pd       0.04931592       8.32350835      13.97675397
Pd       2.75244604       8.28644194      13.88463285
Pd       5.49362436       8.26864070      13.94877362
Pd       8.39941624       8.22318435      13.82578524
Pd      11.08125986       8.19346084      13.93856734
Pd      13.58979711      10.96585697      14.49940265
Pd       2.73984300      11.07826634      14.00465166
Pd       5.55284632      10.91656668      13.94855025
Pd       8.34361447      11.01724551      13.92595776
Pd      11.03782332      10.87930270      13.83005739
Pd      12.43881367       6.59684794      16.10675893
Pd       8.74116053       9.62822537      16.23303568
Pd       2.03147005      12.73165135      16.63074796
Pd       1.42327778       7.00750421      16.24501118
Pd      11.88120113       9.39348439      16.29940771
Pd       8.31863864       1.38949865      16.93514108
Pd       4.98849913       0.39756694      17.14323850
Pd       5.65177066       9.65491587      17.05131950
Pd       4.39277356      11.78441747      16.13393667
Pd      10.86533129      12.42601620      15.90932085
Pd       0.85298961       4.27849306      16.29475663
Pd       3.89301427       4.40291109      16.30311236
Pd      11.16052929       3.15617517      16.54463013
Pd       2.99484701       9.50856196      16.26860945
Pd       7.25985368       7.15688169      16.87813681
Pd       6.97185947      11.98253028      16.16376640
Pd       9.73197330       6.99024258      15.98046883
Pd       7.45760597       3.74018657      16.41345902
Pd       1.06449777       1.47784281      16.03834727
Pd       4.09218289       7.08655396      15.90533639
O        9.24110029       3.12110246      17.09447339
O       10.39826690      10.53750031      16.84627955
O       12.86240571      12.54271889      15.65043458
O       11.39852288       1.29067759      17.22331635
O       10.35746586       0.44791068      17.12760444
O        5.25820108       7.65532155      17.37410936
O        4.37074530       1.04478259      15.18384513
O        2.38423372       1.64728643      17.52439747
O        8.88489019      12.46900469      15.43449359
O        1.54101789      10.98690538      15.78615342
O        3.01285419       0.39561720      17.68356761
O        2.31834254       5.37295021      16.99769013
O        6.97090869       5.60166590      15.66527050
O        7.54563416       8.90550897      17.78072670
O        5.53452540       3.35614090      16.06159687
O       13.14768557       2.97547693      16.00704425
O       11.04147247       5.17906370      16.06157066
O       13.55093622       8.25334878      16.06152269
O        6.93174372       0.04083898      17.13077049
O        7.07133680       8.66462056      15.26569317
