60
Properties=species:S:1:pos:R:3 system=runs/20260728-safe-lbfgs-strict-quench-200-production/output-c60-seed42 state_id=intermediate_accepted pbc="F F F"
C       -1.03627372      -1.41815407       1.67932130
C        3.70613705      -2.62179709       2.02606803
C        1.14600680       0.34093841       2.09564676
C       -2.37165794       2.87506421      -2.74565260
C       -3.59346621       2.81760055      -0.32417470
C        3.43888016      -0.62746987       2.31105935
C       -1.93234653      -0.60080716       2.43070202
C       -0.37989022      -1.51528594       3.86401936
C        0.42740199       1.42375653      -2.31261914
C       -1.97555982       2.11616647      -3.96802785
C       -1.39156102       2.67952278       0.53043035
C        1.64421064       0.15794680      -0.76989465
C       -0.62461215      -1.40625356       0.30413570
C       -0.12724010       2.51805755      -3.03456526
C        1.96316349      -0.15088793      -3.32235108
C       -0.59609670       0.77430714       3.67642205
C        3.47817221      -1.53725440       0.18714162
C       -2.08867395       0.34441527      -2.44105980
C       -2.77472015       1.01869522      -1.44844048
C        1.03375351      -2.40921642       2.23121903
C       -0.92285742       0.03660101      -4.36358798
C       -0.35553147      -1.37324433      -2.49032453
C       -3.97639865       1.93733371       0.76578893
C       -2.83711579       0.43244140       2.10628889
C       -2.64776644       1.69648230       2.70262332
C       -1.22612241       1.81243215       2.87292406
C       -0.38575576      -1.18654616      -3.88918001
C       -1.30280486      -0.43472805       3.69636093
C       -1.32473354      -0.65985527      -1.84122761
C        2.37632124      -0.11007180       1.53654630
C        1.75659114      -1.56636731      -3.10993291
C        1.46941196      -2.52336353       0.90180816
C       -3.36131630       2.63705608       1.88771544
C       -0.53709659       2.25091269      -4.33381675
C        0.73831236       0.25691378       3.43285403
C        0.79107832      -1.83393367      -1.85278205
C       -3.31340354       0.67093372       0.83216706
C       -2.67271600       3.17529588       0.73317657
C       -0.74422666       1.90697581       1.53964614
C        0.27248076       0.98867054       1.19945957
C       -0.28941999      -2.11766037       2.59000218
C       -1.50299340      -0.63878844      -0.47297997
C        2.60001145      -0.39475005       0.16597507
C        3.12459795      -1.79067566       3.05812455
C        2.86734338      -2.66472095       0.82394549
C        0.96527177      -1.29910830      -4.34592700
C       -0.10094103       1.57181220      -1.03437152
C        4.29477325      -1.41613573       1.40138220
C        0.58390091       0.82006120      -0.13474055
C       -2.00132240       0.72402802      -3.74384117
C        1.51503888       0.54075411      -2.21397244
C        1.78544168      -1.96262335       3.31190170
C        0.05774083       0.90865448      -4.72398264
C       -3.24559941       2.30235261      -1.63370290
C        0.59474964      -1.98802014      -0.23329606
C        0.94992628      -1.03146350       4.06112826
C        1.30014143       0.12214881      -4.57627174
C       -0.92560929       2.61972281      -0.79511759
C       -2.52553115       0.35259673      -0.23285024
C       -1.14896413       3.08883123      -2.15900769
