60
Properties=species:S:1:pos:R:3 system=runs/20260728-safe-lbfgs-strict-quench-200-production/output-c60-seed42 state_id=intermediate_accepted pbc="F F F"
C       -1.50032111      -1.79743884       1.65006016
C        3.47024325      -2.66218150       1.44383738
C        1.64141679       0.89511426       2.30825343
C       -2.10878151       2.44997309      -2.46852008
C       -3.36219102       2.53663844      -0.35856472
C        3.66683064      -0.76557374       2.28814524
C       -2.15972003      -0.79955606       2.43039431
C       -0.40481527      -1.59703968       3.69645365
C        1.29336634       2.38080670      -2.07984973
C       -1.78441654       1.72489150      -3.64927181
C       -1.03148340       3.05894580       0.56315545
C        2.31317967       1.11604556      -0.45508360
C       -1.33727849      -1.85821684       0.22031376
C        0.17360831       2.64442269      -2.89310589
C        1.76042886      -0.02294999      -2.68485369
C       -0.54326194       0.66090278       3.40297810
C        3.35645552      -1.18461313       0.02215068
C       -2.75849831      -0.26204928      -2.69081970
C       -3.34583406       0.52432912      -1.64982916
C        0.81878679      -2.45457019       1.95448102
C       -0.98987768      -0.29693226      -4.35891211
C       -0.91881183      -1.85431541      -2.59485755
C       -4.02364248       1.82397430       0.69487328
C       -2.91085455       0.29722340       1.97069087
C       -2.51122762       1.58280028       2.42335558
C       -1.11629133       1.72898000       2.65923335
C       -0.52795664      -1.54115914      -3.91592116
C       -1.31292268      -0.52278442       3.55986368
C       -2.13474552      -1.37840284      -2.07342628
C        2.78832502       0.21701016       1.74767220
C        1.32331746      -1.42791189      -2.49675488
C        1.13675078      -2.39674933       0.58950859
C       -3.21506208       2.54703930       1.67951205
C       -0.37549636       1.86681411      -3.92979795
C        0.82565274       0.28849594       3.31124607
C        0.20828339      -1.94494745      -1.73270075
C       -3.63809590       0.43219940       0.77251224
C       -2.44909060       3.10357578       0.59861763
C       -0.33382646       2.38823377       1.65659274
C        1.04130956       1.94607098       1.48834978
C       -0.48774408      -2.31881112       2.46735386
C       -2.35801559      -1.33171679      -0.65594872
C        2.86205533       0.10248098       0.33603264
C        3.04820842      -1.98153350       2.65629141
C        2.54556610      -2.34207833       0.34633019
C        0.91837625      -1.46369514      -3.90870294
C        1.00992586       2.95778900      -0.78472494
C        4.29285858      -1.47899319       1.12964406
C        1.61939341       2.16804154       0.20662270
C       -2.13287031       0.35086300      -3.79383675
C        1.95585730       1.12252213      -1.86001346
C        1.70473138      -1.98256727       2.93058437
C        0.09084211       0.62620956      -4.40940016
C       -3.10600150       1.92733721      -1.59747834
C        0.01062553      -2.15373920      -0.32278817
C        0.94352162      -1.07544801       3.73357218
C        1.27591180      -0.05004055      -4.04299777
C       -0.37360023       3.26829121      -0.69148243
C       -3.29406376      -0.22808436      -0.41940181
C       -0.90849463       3.07637483      -2.01135559
