60
Properties=species:S:1:pos:R:3 system=runs/20260728-safe-lbfgs-strict-quench-200-production/output-c60-seed42 state_id=plateau_accepted pbc="F F F"
C       -0.85151103       2.57574876       1.88786988
C       -1.21922192      -0.41075742       2.01173545
C        1.71447970      -1.30073843       1.43878386
C        0.20136002       0.34507849      -3.74314980
C        1.47357798       2.25047129      -2.85356811
C        0.22136138       0.66331117       0.17135715
C        0.51646803       2.80389517       1.49522210
C        0.54641465       1.47851053       3.32964135
C        0.99107817      -2.74647001      -2.32325455
C       -1.06946095      -0.27354065      -3.89952226
C        2.73307992       0.31341257      -1.72095769
C        1.32453107      -3.00661546      -0.08160071
C       -1.92008022       2.22200431       0.99281481
C        0.38288945      -1.94151319      -3.30205409
C       -0.89242343      -2.84373633      -0.62555410
C        2.19733682       1.04445592       1.84948735
C       -0.70290134      -2.38254482       0.72961117
C       -2.11199119       1.45063790      -2.56780306
C       -0.88924247       2.17772151      -2.55417269
C       -1.75205901       1.10440166       3.78079964
C       -2.96393016      -0.82220679      -2.77148969
C       -3.48460292       0.53415277      -0.78985755
C        1.51798545       3.36457563      -1.95665319
C        1.11807800       3.10119713       0.26275469
C        2.40511513       2.53912215       0.00572622
C        2.71419270       1.27102800       0.55659793
C       -3.57708590      -0.68459473      -1.52608401
C        1.34755413       2.04535009       2.34259693
C       -2.70548775       1.58483646      -1.28301763
C       -0.34682362       0.21048715       1.18447255
C       -2.87588230      -1.19593295       0.60607013
C       -2.22408591       0.44951163       2.62388593
C        2.71004413       2.78442780      -1.34357257
C       -0.97133470      -1.66458468      -3.53897712
C        1.76166296      -0.22125802       2.39122109
C       -3.27496390       0.19388567       0.56565890
C        0.48339222       3.39832609      -0.95920667
C        2.59838793       1.63971402      -2.19711344
C        2.87923259       0.13616721      -0.29331982
C        2.57532291      -1.13630643       0.27957633
C       -0.76416937       1.94125118       3.19494733
C       -1.86793400       2.40484150      -0.43568502
C        0.72754933      -2.34678316       1.03743271
C        0.06288379      -0.45375043       4.48429922
C       -0.75596511      -0.77345016       5.57891735
C       -3.07686025      -1.72725099      -0.68590064
C        2.21449498      -2.07704175      -1.94344742
C       -1.72005506      -1.58195233       1.33286046
C        2.41316503      -2.25177176      -0.57093054
C       -2.24452376       0.27258193      -3.32686339
C        0.38553542      -3.22938228      -1.13573949
C       -1.19808321       0.18755813       4.69653880
C       -2.07889309      -1.97186178      -2.72250681
C        0.25299947       1.67469247      -3.23135824
C       -2.75878102       1.14555554       1.47441771
C        0.90152593       0.12630365       3.53620341
C       -2.04876980      -2.44502792      -1.36630660
C        2.22974027      -0.76789672      -2.50211593
C       -0.77289443       2.87433198      -1.29609408
C        1.12402589      -0.69896034      -3.40856548
