60
Properties=species:S:1:pos:R:3 entry_id=0 rank=0 energy=-474.6696472167969 pbc="F F F"
C        1.73351401      -3.37418954      -0.91523879
C        2.05310983       0.14832344      -2.30049115
C        1.91325379       1.86926327       2.12900895
C        2.53026788      -2.20896499      -1.15177964
C       -2.92087390       1.05321555       2.39648957
C        2.47288388       0.67183001       0.13321498
C       -0.04081979      -3.76373450       0.95310530
C        2.54636392      -1.61422948       2.33203610
C       -2.62115499       0.78975841      -3.27706827
C       -0.06686987      -1.52170776       0.07049310
C       -1.20634465       1.61984978       3.80370315
C        1.12406691       3.57921606       0.02750982
C        0.41949919      -3.26533914      -1.41283198
C       -0.98412132       3.98420048      -0.79135207
C        0.58790977       3.45275395      -2.41874810
C        0.13168166      -0.45973449       1.05568046
C        1.59284786       2.42500959      -2.51735407
C       -2.92933820      -2.99293763       0.16949855
C       -3.24961337      -1.86886764       0.68141676
C        2.73229237       0.89394786      -1.26114861
C       -3.00888714       1.85997071      -2.43122362
C       -1.87713397      -1.71574275      -1.63200064
C       -0.05172118      -2.59241957       2.92358254
C       -2.28376263       0.26164905       1.38896128
C       -0.86680114      -1.79388356       3.48308121
C       -0.81604132       0.19560292       1.94167424
C       -2.52166577      -0.54037212      -1.09485598
C        2.06931872      -2.60226263       1.54498648
C       -1.83438048      -2.81376912      -0.70649707
C        2.56778082       1.90609628       0.84574709
C       -1.21299014      -1.06651778      -3.92664856
C        1.56818874      -1.24298143      -1.89518520
C       -1.35545304      -0.55248585       3.18097332
C       -1.68453306       3.76764360      -2.04397806
C        2.26884806       0.79322879       2.90910251
C       -0.89455722      -1.67979348      -2.71229488
C        0.74184801      -3.16619361       1.91088612
C       -2.18487938       0.62163769       3.62408670
C       -0.41450924       1.52611388       2.68563652
C        0.56488675       2.39378159       2.09914948
C        2.35946405      -2.78744808       0.16162451
C       -0.44065006      -2.96471953      -0.22613615
C        2.32551225       2.89979130      -0.14601061
C        1.28076686      -0.03293390       0.29110527
C        0.84143075      -0.87256467      -0.71751454
C       -2.77684238       0.52504530      -1.93779969
C       -1.42241534      -0.69841500      -5.25034924
C        1.47148168       1.13579482      -3.09492252
C        0.19745242       3.28074676       1.06273788
C       -2.92877646       3.15338210      -2.15279311
C        0.38553257       3.94225931      -1.09724416
C        2.49835557       2.28496245      -1.42337996
C       -0.66101547       3.57572064      -3.03659942
C       -2.98781723       2.37065564       1.93683609
C        0.40432786      -2.20349571      -2.38027770
C        2.57569132      -0.45667736       2.87982120
C       -2.02575457       0.05755616      -4.24612624
C       -1.16003084       3.57369927       0.58932426
C       -2.82022874      -0.57445819       0.36633921
C       -2.31166642       3.17526703       1.25503322
