60
Properties=species:S:1:pos:R:3 system=runs/20260728-safe-lbfgs-strict-quench-200-production/output-c60-seed42 state_id=intermediate_accepted pbc="F F F"
C        0.73322325      -2.64461746      -1.62140613
C        2.85098539       1.56551281      -1.49452420
C        2.15115505       0.03904443       1.96240522
C       -3.96688190       0.82535808       0.34489985
C       -3.53658073      -1.47071677       1.18495054
C        3.93512472       1.43420206       0.65202156
C        0.36767299      -3.20644053      -0.35496481
C        2.55205197      -2.76600887      -0.19764845
C       -1.40126732       2.85762535       0.44543676
C       -4.16506038       1.67928474      -0.76992348
C       -1.60370300      -0.25968505       2.32364681
C        1.39684515       2.79136062       2.30910657
C       -0.08214569      -1.81563096      -2.48464812
C       -2.83208997       2.79229693       0.68387303
C        2.72446243       4.53666360       1.72822224
C        1.42314506      -2.27425436       1.61066160
C        3.54955746       3.40358472       1.68711499
C       -3.29846346      -0.09549153      -2.21384686
C       -3.41570787      -1.03004961      -1.15481784
C        2.67209002      -1.15189860      -1.85234383
C       -2.92476693       2.28438405      -2.59036756
C       -1.41247238       0.57289521      -3.58146089
C       -3.06724828      -2.65581079       0.92325670
C       -0.88061433      -3.18140366       0.30966540
C       -0.87420633      -2.88064637       1.70352285
C        0.14197271      -1.99292620       2.14834945
C       -1.68320429       1.90754834      -3.12461025
C        1.51717379      -3.15263640       0.50020864
C       -2.15175057      -0.45890656      -2.97694111
C        3.06899032       1.11088613       1.76928797
C        0.53719372       1.55088593      -2.72054682
C        1.90170118      -0.30888906      -2.63319463
C       -2.26245903      -2.35985136       2.09463236
C       -3.37084262       2.94003805      -0.59598057
C        2.41265887      -1.27310676       1.47987865
C       -0.02074428       0.45488092      -3.46666666
C       -2.17121768      -2.90573042      -0.20292256
C       -2.57369870      -1.29477862       2.23404890
C       -0.21678800      -0.63215499       2.42284442
C        0.79393052       0.39655819       2.32988963
C        2.15359785      -2.43241893      -1.55630572
C       -1.51584502      -1.62082140      -2.37339632
C        2.72413707       2.36253918       2.26249059
C        3.56552963       0.79286194      -0.61104833
C        1.88109949       1.11844622      -2.34008922
C       -0.59107739       2.34515189      -2.24351870
C       -0.87992822       2.00249201       1.56828531
C        4.35215230       2.78906523       0.75575024
C        0.40077423       1.79027019       2.16000159
C       -3.72771317       1.23984006      -2.04978324
C        1.49057852       4.21034552       2.07528327
C        3.38096480      -0.63385906      -0.72743349
C       -2.63570485       3.17794133      -1.51759580
C       -3.85646667      -0.59291147       0.12705879
C        0.64116330      -0.74647784      -3.13672397
C        3.19565868      -1.57124374       0.32462992
C       -1.28015599       2.97060152      -1.06598250
C       -1.91651160       1.05298765       1.87254963
C       -2.40948011      -2.04765299      -1.29376128
C       -3.11877332       1.51190097       1.25392244
