60
Properties=species:S:1:pos:R:3 entry_id=3 rank=13 energy=-479.4869079589844 pbc="F F F"
C        1.71320533      -3.62740661      -0.76195577
C        2.18365258      -0.17774887      -2.27148141
C        1.93934569       1.91889728       1.93597966
C        2.69040204      -2.59193378      -0.98771633
C       -2.88286544       1.10737951       2.27650376
C        2.58895223       0.67295051       0.01655530
C       -0.17226301      -3.76192719       0.96839974
C        2.44444592      -1.65748441       2.35434630
C       -2.40860422       0.77042170      -3.39772709
C        0.06755109      -1.57843519       0.08647251
C       -1.16387470       1.69628652       3.67685221
C        1.00715411       3.52757253      -0.22840534
C        0.45617091      -3.38421331      -1.36838449
C       -1.16409758       3.93130625      -0.88172840
C        0.18546900       2.94438815      -2.48490580
C        0.20591573      -0.43075267       0.98247385
C        1.18966029       1.93753859      -2.56190920
C       -2.93993352      -2.86048885      -0.14469032
C       -3.25977741      -1.74564305       0.38606884
C        2.81048331       0.77609396      -1.40940431
C       -3.70685652       1.72774029      -1.74447054
C       -1.64937141      -1.54844960      -1.79323203
C       -0.16439211      -2.60889883       2.93297857
C       -2.23845386       0.33555027       1.24481298
C       -0.93145553      -1.73203367       3.42634241
C       -0.76562439       0.24410613       1.82985169
C       -2.47590394      -0.43513425      -1.32344433
C        2.00770569      -2.74333604       1.67132794
C       -1.75000991      -2.67757855      -0.89683827
C        2.55993803       1.95282859       0.62813149
C       -0.07311374      -0.20611907      -3.24416507
C        1.84873162      -1.53375994      -1.75467314
C       -1.33872582      -0.48118435       3.07866413
C       -2.02319353       3.46599693      -1.92880647
C        2.27813402       0.82260306       2.71115393
C       -0.44673581      -1.44709355      -2.61245647
C        0.62929428      -3.22840568       1.95708909
C       -2.14672899       0.69596617       3.49987585
C       -0.36701134       1.59322988       2.56655957
C        0.59724415       2.46194202       1.95001361
C        2.36292020      -3.08599468       0.32671489
C       -0.44062828      -2.95392428      -0.24852823
C        2.17848640       2.81268814      -0.43710501
C        1.43902448      -0.08733808       0.26738476
C        1.12420361      -1.08344103      -0.60323026
C       -3.05029216       0.54415155      -2.15634131
C       -1.11464481       0.52660864      -3.82563584
C        1.10677719       0.51293559      -2.90198766
C        0.17959116       3.33550869       0.91112572
C       -3.29309604       2.92136010      -1.73083666
C        0.17161845       3.76730646      -1.32612359
C        2.29960561       2.08233335      -1.67576305
C       -1.16376731       2.92206425      -2.95649486
C       -3.01455287       2.44386112       1.90256651
C        0.65075160      -2.29502263      -2.28353107
C        2.51776969      -0.44355881       2.78358759
C       -1.58443390       1.85479784      -3.75152789
C       -1.20669224       3.64311161       0.53427919
C       -2.77107363      -0.45217208       0.16599995
C       -2.32910848       3.27109844       1.25639227
