60
Properties=species:S:1:pos:R:3 entry_id=2 rank=15 energy=-478.32806396484375 pbc="F F F"
C        1.71482420      -3.63316708      -0.74626601
C        2.23454418      -0.19413844      -2.25065289
C        1.94862362       1.92260205       1.94564031
C        2.70141989      -2.60723618      -0.96874496
C       -2.86131025       1.11130657       2.28927701
C        2.60972631       0.67395169       0.03484782
C       -0.17583286      -3.75770966       0.97799038
C        2.44333307      -1.65831190       2.36745543
C       -3.03165513       1.16469293      -3.36972513
C        0.08723583      -1.57497033       0.10060459
C       -1.14934347       1.70289924       3.68981703
C        1.00396421       3.50506108      -0.23855059
C        0.46296649      -3.37919114      -1.35818848
C       -1.17302284       3.87960621      -0.88100000
C        0.15903627       2.83167917      -2.45616531
C        0.22489485      -0.42491295       0.99440202
C        1.23049089       1.89975587      -2.54344094
C       -2.93953471      -2.82019760      -0.16316446
C       -3.24035583      -1.69471476       0.35610823
C        2.85113754       0.76995165      -1.38686938
C       -3.67400430       1.81045507      -2.23129977
C       -1.61169996      -1.53397184      -1.79972519
C       -0.16575854      -2.60975780       2.94284145
C       -2.20802386       0.34911966       1.25729874
C       -0.92714738      -1.73028040       3.44055275
C       -0.74283310       0.24786595       1.84829589
C       -2.43343702      -0.40236700      -1.33630967
C        2.00767819      -2.74546968       1.68595253
C       -1.73341718      -2.65112484      -0.89710636
C        2.57336961       1.95681183       0.64127420
C       -0.04604596      -0.18019628      -3.28458433
C        1.87529881      -1.54207200      -1.73460071
C       -1.32120809      -0.47504104       3.09622023
C       -2.05107308       3.34443857      -1.87991961
C        2.28229477       0.82390459       2.72138914
C       -0.42275213      -1.45059760      -2.62466008
C        0.62756852      -3.22862760       1.96822866
C       -2.13062991       0.70158701       3.51558177
C       -0.35116694       1.59911424       2.58053650
C        0.60842879       2.46783071       1.95725001
C        2.36598517      -3.09514661       0.34421121
C       -0.43056333      -2.94511192      -0.23926336
C        2.19203709       2.81069710      -0.42954384
C        1.45435857      -0.08099123       0.27457563
C        1.14478964      -1.08286930      -0.59098820
C       -3.14768452       0.46039820      -2.16551702
C       -0.91283233       0.61648624      -3.92981495
C        1.18075930       0.49941464      -2.89406955
C        0.18604306       3.32963967       0.91078341
C       -3.37946221       3.01291901      -1.73711492
C        0.15590012       3.71005302      -1.33766566
C        2.33640307       2.07600208      -1.66290940
C       -1.20694963       2.70328284      -2.86045833
C       -3.01545302       2.44605830       1.91634461
C        0.66816541      -2.28714635      -2.27576426
C        2.51829723      -0.44318510       2.79472448
C       -1.70291075       1.67186966      -3.70676747
C       -1.20193092       3.63087581       0.54031454
C       -2.74064738      -0.40544373       0.15820667
C       -2.32396693       3.26475995       1.26512503
