60
Properties=species:S:1:pos:R:3 entry_id=17 rank=1 energy=-496.7735900878906 pbc="F F F"
C        0.61939967      -3.29817690      -0.31426673
C        1.92179164      -0.15243941      -2.35184379
C        1.87632341       1.50577663       1.83571015
C        2.05314758      -3.16692746      -0.16039998
C       -3.36637173       1.12989075       1.31135693
C        2.96897691       0.41490607      -0.22389612
C       -0.43153256      -3.06349794       0.74406524
C        2.96286723      -1.26760305       1.51630708
C       -2.71472680       0.84435056      -3.27743097
C        0.50336540      -0.64416219       0.10490098
C       -1.69757201       2.05378242       2.56637127
C        1.07837813       3.46408469      -0.05473615
C       -0.01454647      -3.16565068      -1.59121519
C       -1.14238545       3.93077831      -0.46484038
C        0.00668054       2.98883948      -2.24401385
C        0.84138449      -0.45545502       2.85053449
C        1.00237710       2.00607054      -2.51487324
C       -1.68212007      -2.90448329       0.05183515
C       -2.36269171      -1.85101422       0.72393879
C        2.69503008       0.71768405      -1.57508370
C       -3.55668486       1.15519457      -0.98561489
C       -1.72693474      -1.72012231      -2.08853385
C       -0.45264476      -2.38053395       2.04365854
C       -3.60296556       0.32435594       0.19696270
C       -1.64181994      -1.54853365       1.95254519
C       -0.34991199       0.26156734       2.95055659
C       -2.74622075      -0.90378120      -1.54636170
C        2.03007185      -2.31287095       1.91973424
C       -1.39841086      -2.87597892      -1.34249196
C        2.51115552       1.55066359       0.56435470
C       -0.30847988      -0.03376836      -3.36482810
C        1.77665998      -1.51303957      -1.98568309
C       -1.61591885      -0.27251825       2.56004923
C       -2.09901743       3.23989206      -1.27077457
C        2.05250522       0.30478373       2.61431016
C       -0.54142952      -1.31603374      -2.80620167
C        0.80956218      -1.82514565       2.49029957
C       -2.47931321       0.85819956       2.37122044
C       -0.35386199       1.68070174       2.78987679
C        0.70612915       2.30736333       2.08066855
C        2.32382915      -3.40593071       1.16573976
C        0.23807227      -1.88897015       0.05657950
C        2.10535227       2.56842847      -0.36785277
C        2.95395975      -0.96290058       0.12915822
C        2.50638260      -1.95143549      -0.81567487
C       -3.21849176       0.33126294      -2.07997986
C       -1.41541859       0.71855060      -3.80845364
C        0.87115688       0.62223025      -2.95709188
C        0.36098632       3.34581888       1.17376731
C       -3.09308215       2.45982247      -0.61273830
C        0.14489689       3.79114731      -1.06856031
C        2.16352931       2.03026742      -1.67420573
C       -1.40481979       2.88774760      -2.48602384
C       -3.10468235       2.46631862       0.82436537
C        0.55337097      -2.13520134      -2.38386662
C        3.26901819      -0.34331501       2.49385407
C       -1.89061082       1.98416507      -3.42368926
C       -1.01313607       3.69772257       0.92729430
C       -3.03745204      -0.94198784      -0.12425626
C       -2.04618297       3.02025393       1.59047122
