54
Lattice="21.66 0.0 0.0 0.0 5.10531 0.0 0.0 0.0 22.55266" Properties=species:S:1:pos:R:3 entry_id=1 rank=1 energy=-198.6719970703125 pbc="T T F"
Cu       0.00000000       0.00000000      10.00000000
Cu       3.61000000       0.00000000      10.00000000
Cu       7.22000000       0.00000000      10.00000000
Cu      10.83000000       0.00000000      10.00000000
Cu      14.44000000       0.00000000      10.00000000
Cu      18.05000000       0.00000000      10.00000000
Cu       0.00000000       2.55265548      10.00000000
Cu       3.61000000       2.55265548      10.00000000
Cu       7.22000000       2.55265548      10.00000000
Cu      10.83000000       2.55265548      10.00000000
Cu      14.44000000       2.55265548      10.00000000
Cu      18.05000000       2.55265548      10.00000000
Cu       1.80500000       1.27632774      11.27632774
Cu       5.41500000       1.27632774      11.27632774
Cu       9.02500000       1.27632774      11.27632774
Cu      12.63500000       1.27632774      11.27632774
Cu      16.24500000       1.27632774      11.27632774
Cu      19.85500000       1.27632774      11.27632774
Cu       1.80500000       3.82898322      11.27632774
Cu       5.41500000       3.82898322      11.27632774
Cu       9.02500000       3.82898322      11.27632774
Cu      12.63500000       3.82898322      11.27632774
Cu      16.24500000       3.82898322      11.27632774
Cu      19.85500000       3.82898322      11.27632774
Cu      21.61434271       0.00720463      12.58567706
Cu       3.76672376       0.08040125      12.68476903
Cu       6.28862062       4.76480126      13.31321606
Cu      10.69574545       5.01187599      12.62986130
Cu      14.52373982       0.02653384      12.59863246
Cu      18.05423853       0.05826018      12.43454046
Cu      21.61227938       2.51948492      12.58211391
Cu       3.61417881       2.69097658      12.57251409
Cu       7.17468719       2.56964934      12.39453878
Cu      10.70130004       2.45490320      12.86489794
Cu      14.61426576       2.52261839      12.74903932
Cu      17.99425125       2.58178052      12.52873668
Cu       5.53279530       2.71996859      14.62539752
Cu       8.69703065       0.99337973      13.64494210
Cu      19.75185112       1.25279669      13.84636450
Cu       8.82392482       3.60090425      13.93706079
Cu       8.18429220       5.03176116      15.89226992
Cu       2.10410826       1.29235855      14.20020583
Cu       1.74122829       3.81648270      13.80867848
Cu      10.14167877       1.87876807      15.28510139
Cu      19.80388737       3.68465841      13.82290094
Cu      16.87766535       4.31844506      14.29213934
O        7.05530858       3.87058000      14.97374759
O        0.65427208       0.17085524      14.41941735
O       18.60660783       4.96046526      14.59363785
O       12.61281227       2.52837479      12.80788534
O        9.39935521       0.97746351      16.64225139
O        6.78928514       1.39535444      13.88185431
O       15.13656334       3.94601358      13.95412564
O        3.93403910       1.71624209      14.22071031
