60
Properties=species:S:1:pos:R:3 entry_id=99 rank=0 energy=-505.60693359375 pbc="F F F"
C        2.66443337      -3.53682774      -1.67671131
C        2.35335087       0.71298612      -1.85092063
C        1.08310064       2.36428092       2.37625063
C        3.49130419      -2.73183445      -0.84482976
C       -2.32625496       0.49234548       2.50032336
C        2.59534156       1.47252988       0.61246974
C       -0.24979270      -3.77329678      -1.24709718
C        0.89323419      -1.25002159       2.07288197
C       -2.29754011       3.41925725      -0.86353215
C        1.74462543      -1.97735695       1.14816894
C       -0.28727409       0.87904155       3.49406184
C       -0.10735615       3.81212682       0.22814322
C        1.70581560      -2.90105409      -2.46129045
C       -3.60146751       2.48752265       0.99020964
C       -0.42209503       2.92660280      -2.09335119
C        2.71525646      -1.06934483       0.59173761
C        0.92085696       2.53422295      -2.17262429
C       -2.88043560      -1.30558880      -0.69045476
C       -3.21574949       1.13356004      -0.97232527
C        2.58627226       1.66865657      -0.80799362
C       -2.94561231       3.60030151       0.34669330
C       -0.36612103      -2.05781253      -2.97130017
C       -1.05937640      -3.02570683       0.50232969
C       -2.95833334       0.12942854       1.28110565
C       -1.45599502      -1.89591284       1.25893143
C       -2.57186751      -1.13467041       0.69781476
C       -1.67007391      -1.70625885      -2.61049398
C        1.52044137      -3.22669872       0.54142474
C       -1.57052067      -3.32938216      -0.80954649
C        1.81565596       2.55360654       1.19152350
C        0.24799810       0.35007825      -3.14530710
C        2.66638023      -0.68981672      -1.83657603
C       -0.55710856      -1.25372745       2.21789702
C       -2.95995311      -0.13891675      -1.52488046
C        1.00604932       1.05910580       2.95517917
C        0.59451128      -1.02173173      -3.17623936
C        0.23971749      -3.55871507       0.11210142
C       -1.10772267      -0.14393037       2.92339171
C       -0.98220255       2.13394278       3.36912870
C       -0.18422510       3.01008788       2.56634706
C        2.59534764      -3.66799452      -0.27507010
C        0.32072992      -3.19556756      -2.40352573
C        1.24522354       3.33747360       0.13919239
C        2.54058710       0.20121260       1.23508687
C        3.26773215      -1.33358871      -0.69503366
C       -2.27041239      -2.32902145      -1.47688801
C       -1.14741550       0.71374456      -2.97807052
C        1.25716634       1.22591961      -2.64769807
C       -0.76907714       3.76706754       1.51403856
C       -2.07017550      -0.32608698      -2.63633145
C       -0.90060900       3.69247928      -0.96216028
C        1.76733043       2.82681973      -1.07826502
C       -1.45576002       2.01212917      -2.48461750
C       -2.29950735       1.84442074       2.95559121
C        1.85680702      -1.50593846      -2.67463322
C        1.59664283      -0.01080909       2.28838951
C       -2.58420394       2.24142508      -1.61351954
C       -2.18704808       3.84697934       1.54300824
C       -3.48281535       1.18702719       0.44093458
C       -2.95086863       2.82235827       2.22198717
60
Properties=species:S:1:pos:R:3 entry_id=108 rank=1 energy=-502.1050720214844 pbc="F F F"
C        2.95860258      -3.47580214      -1.44894924
C        1.89063383       0.55410273      -2.39588362
C        1.21620832       3.01986780       1.60619350
C        3.73413418      -2.39945833      -0.94013898
C       -2.15643057       0.84993641       2.29030510
C        2.46168170       1.89363243      -0.24182980
C        0.17074394      -3.98025946      -0.57194048
C        1.26350326      -0.60727078       1.91712282
C       -2.69494913       4.11517649       2.70984163
C        2.11403387      -1.42896047       1.06815661
C        0.01356858       1.65471995       3.05330788
C       -2.21703263       4.32062215       1.35018031
C        1.82722632      -3.16870796      -2.19713007
C       -2.73185111       2.44922711      -0.13773092
C       -1.31508283       2.02390989      -2.12877698
C        2.90193831      -0.56991351       0.22045363
C        0.02571558       1.97017174      -2.61459355
C       -2.73712646      -1.78763597      -0.31727763
C       -3.03165727       0.41630720      -1.33200769
C        2.11906853       1.74416605      -1.62879409
C       -1.91487513       3.07309504       3.32510371
C       -0.39328266      -2.80656266      -2.62538493
C       -0.55346061      -2.87333388       1.02364823
C       -2.67409050       0.22001313       1.09287895
C       -1.03486574      -1.62382041       1.50237574
C       -2.25964077      -1.14695327       0.86788094
C       -1.72205462      -2.61968635      -2.22455495
C        2.01842880      -2.79757906       0.77566197
C       -1.14398885      -3.58395038      -0.07805868
C        1.66218661       2.99849631       0.27145795
C       -0.24275936      -0.40935327      -3.28314102
C        2.46096368      -0.75507508      -2.18343982
C       -0.16630432      -0.67259658       2.19456306
C       -3.12158134      -0.98206458      -1.42252781
C        1.23904312       1.80326061       2.33771205
C        0.34392510      -1.68765889      -3.12748511
C        0.76143116      -3.36278671       0.61252528
C       -0.79566697       0.52820394       2.69764429
C       -0.56730961       2.97393772       3.07053650
C       -0.00410765       3.69702791       1.98143559
C        3.06326100      -3.28303423      -0.05684619
C        0.52717746      -3.65258876      -1.90220695
C        0.73377619       3.39880950      -0.73797564
C        2.65475524       0.78256165       0.61818790
C        3.31822128      -1.04316591      -1.05810157
C       -2.06980092      -2.92447662      -0.87228170
C       -1.64632664      -0.27952789      -3.05662766
C        0.59119300       0.70908147      -3.01688013
C       -0.87367206       4.16809660       0.97751964
C       -2.37955235      -1.40733722      -2.57601454
C       -1.62528520       2.85460234      -0.99069337
C        1.03564377       2.65830130      -1.90347107
C       -2.13094319       0.87766008      -2.34540841
C       -2.71594616       2.03752337       2.79459190
C        1.71239748      -1.84851519      -2.70279508
C        1.85801605       0.69125317       1.80026730
C       -0.61858271       3.68036682      -0.37342835
C       -3.10447782       3.34003944       0.86118080
C       -3.04355773       1.03623022      -0.05831906
C       -3.59423198       2.99881512       2.16502217
60
Properties=species:S:1:pos:R:3 entry_id=93 rank=2 energy=-500.37274169921875 pbc="F F F"
C        2.83775159      -3.31722868      -1.86117394
C        1.80149550       0.82435825      -1.95677392
C        1.01503558       2.38979278       2.43539698
C        3.61217273      -2.37941440      -1.12536409
C       -2.09679514       0.31670398       2.54931191
C        2.33063501       1.66200632       0.44666974
C        0.02015889      -3.93980067      -1.15132093
C        1.16266548      -1.21511800       2.04702043
C       -1.15558973       5.47244155      -1.32452142
C        1.99540021      -1.84039623       1.03553108
C       -0.11168215       0.75173127       3.60814840
C       -0.41329032       4.05137740       0.63953460
C        1.72282070      -2.84957145      -2.54810799
C       -2.57747665       2.46635613       0.37459074
C       -1.43962078       2.39546142      -1.80072758
C        2.78478346      -0.82576951       0.39029337
C       -0.02087832       2.32501035      -1.99090884
C       -2.80126021      -1.72560326      -0.48711718
C       -3.01203899       0.64406557      -1.10260712
C        2.00797852       1.80854860      -0.94435145
C       -1.09825339       6.48674668      -2.06297564
C       -0.48484879      -2.37013893      -2.93603905
C       -0.71198618      -3.18121265       0.62892999
C       -2.61453554       0.02538028       1.25541374
C       -1.15393927      -2.03934490       1.34694894
C       -2.31195485      -1.33371983       0.79484944
C       -1.81831293      -2.23986146      -2.52298050
C        1.86823654      -3.10960023       0.44538312
C       -1.29667063      -3.62247519      -0.60528416
C        1.56019948       2.65282164       1.16504276
C       -0.28382470       0.10652217      -3.12568785
C        2.36837438      -0.50161053      -2.01190756
C       -0.26478167      -1.34417079       2.26863466
C       -3.15438041      -0.71953002      -1.42254979
C        1.12132697       1.07412178       2.98081817
C        0.28187694      -1.18900317      -3.19445904
C        0.60331052      -3.59948583       0.14453242
C       -0.87370852      -0.27706874       2.98661965
C       -0.92041029       1.92952964       3.61187964
C       -0.27802029       2.89253338       2.79409865
C        2.91862273      -3.42189138      -0.45957641
C        0.40959189      -3.35955292      -2.38061994
C        0.76670587       3.39008692       0.23081466
C        2.54068068       0.41008608       1.07287827
C        3.20521460      -1.02373578      -0.95819418
C       -2.18477153      -2.77352717      -1.24846798
C       -1.69743720       0.20114723      -2.96265881
C        0.54301505       1.13550097      -2.59427181
C       -1.04377721       3.56102179       1.82413076
C       -2.44861729      -0.97208669      -2.65082627
C       -1.97485611       3.17342004      -0.72688888
C        0.94683051       2.79812109      -1.04918656
C       -2.19804750       1.24039329      -2.11470880
C       -2.25738984       1.59125968       3.20406117
C        1.63418226      -1.45256271      -2.77349263
C        1.75246090       0.08771440       2.22685444
C       -1.30392538       4.42391989      -0.44233096
C       -2.39820855       3.07208850       1.66397613
C       -2.90683949       1.07146887       0.25447110
C       -3.10642196       2.55288005       2.74430143
60
Properties=species:S:1:pos:R:3 entry_id=101 rank=3 energy=-500.2637939453125 pbc="F F F"
C        2.72420570      -3.66933026      -1.65261172
C        1.96815393       0.48581756      -2.27878054
C        1.20655913       2.62651243       1.85538161
C        3.55801212      -2.69772263      -1.03558918
C       -2.06172688       0.63440991       2.37649892
C        2.52423418       1.59012831       0.00473896
C       -0.10887214      -4.05315154      -0.86990563
C        1.18328823      -1.02144294       1.96492999
C       -2.35887980       5.80372448       1.96261707
C        1.98474274      -1.80752446       1.04262955
C       -0.01418917       1.21166579       3.19421417
C       -1.95867133       4.62808064       1.36422530
C        1.63319700      -3.22293492      -2.39189998
C       -2.45513017       2.55841383       0.08912268
C       -1.11615897       2.18454983      -1.97791839
C        2.82154848      -0.92179932       0.27234311
C        0.22991746       2.06076429      -2.43988768
C       -2.83789076      -1.66798095      -0.43844014
C       -2.91656320       0.64787974      -1.25538664
C        2.26378969       1.58773473      -1.41078340
C       -2.68706709       6.91819596       2.43816906
C       -0.54975894      -2.66144954      -2.81378617
C       -0.79279667      -3.07449979       0.81908205
C       -2.62152048       0.20344764       1.14618350
C       -1.18428399      -1.84888031       1.41695155
C       -2.34182287      -1.18675720       0.81019484
C       -1.86734616      -2.40736870      -2.40881768
C        1.78880834      -3.13294474       0.61592992
C       -1.40652838      -3.61806696      -0.36064981
C        1.76590307       2.69908362       0.56855075
C       -0.20969044      -0.23780077      -3.27924633
C        2.43265504      -0.87323335      -2.15630082
C       -0.24947480      -1.07294856       2.22934867
C       -3.12679935      -0.72786143      -1.46437226
C        1.22732350       1.38409247       2.54620529
C        0.27801804      -1.56532675      -3.21495560
C        0.49967666      -3.59750181       0.37932697
C       -0.81065565       0.09687741       2.81761518
C       -0.78789183       2.41006806       2.99154513
C       -0.04481942       3.28634517       2.15359774
C        2.81227063      -3.60937056      -0.24802733
C        0.29577531      -3.63135207      -2.15728813
C        0.99409503       3.29636805      -0.46693217
C        2.62992278       0.40672319       0.77825594
C        3.23344692      -1.31100991      -1.03693545
C       -2.26039832      -2.80500906      -1.09273211
C       -1.60361346      -0.02020187      -3.05238784
C        0.70332495       0.78859958      -2.91824055
C       -0.61669613       4.14162510       1.17291045
C       -2.42265719      -1.11964546      -2.65349929
C       -1.39060134       2.96532097      -0.79530197
C        1.27984557       2.61427859      -1.66692970
C       -2.00285493       1.11281303      -2.25540529
C       -2.15558099       2.02221214       2.78979211
C        1.62287645      -1.86058136      -2.78511946
C        1.82022415       0.27455247       1.95223730
C       -0.33334134       3.70501533      -0.17074622
C       -2.75532908       3.42114818       1.19084484
C       -2.87201769       1.17213387       0.06523502
C       -3.16320433       2.84624971       2.37525195
60
Properties=species:S:1:pos:R:3 entry_id=91 rank=4 energy=-500.1906433105469 pbc="F F F"
C        2.73629637      -3.50988462      -1.76565004
C        2.21522485       0.72756321      -1.88026839
C        1.14064346       2.26989778       2.46592356
C        3.56055991      -2.67296399      -0.96533407
C       -2.08745610       0.49155472       2.50747340
C        2.58163023       1.47724507       0.58196966
C       -0.16676579      -3.83512054      -1.23237856
C        1.06207783      -1.30162947       2.08070140
C       -3.43421504       4.43714891      -1.36693376
C        1.88407738      -1.99145002       1.10389758
C       -0.10226080       0.72817208       3.64068820
C       -0.29529538       3.59053337       0.41747364
C        1.72337648      -2.91323366      -2.50873096
C       -2.85238748       2.77431006       0.51908656
C       -0.79710004       2.66546891      -1.79253356
C        2.80277019      -1.05003538       0.51930320
C        0.58982504       2.41338977      -2.03048115
C       -2.77577109      -1.35095152      -0.65460260
C       -2.69409628       1.06401475      -1.17432463
C        2.45779695       1.68491633      -0.83810564
C       -4.20759103       5.12449005      -2.07820640
C       -0.39396862      -2.18170303      -2.99942178
C       -0.92170050      -3.04733949       0.52417996
C       -2.58694454       0.29011665       1.18749731
C       -1.28818846      -1.88786144       1.25479498
C       -2.34857088      -1.06366413       0.67774111
C       -1.72125202      -1.90148982      -2.64634385
C        1.66021203      -3.23486588       0.48695052
C       -1.47483570      -3.39252055      -0.75443934
C        1.77367012       2.49503158       1.23045887
C        0.10054856       0.25892855      -3.13423060
C        2.60547376      -0.66006430      -1.90399191
C       -0.38050222      -1.30221498       2.23108235
C       -2.92881755      -0.27412309      -1.56460890
C        1.16254735       0.96811462       3.03684041
C        0.51365757      -1.09305140      -3.20102023
C        0.37063598      -3.58673789       0.10431900
C       -0.92454707      -0.20898992       2.95609653
C       -0.82076931       1.96698927       3.64046569
C       -0.14212671       2.84222679       2.75180767
C        2.72206151      -3.64411037      -0.36368151
C        0.35414170      -3.27342192      -2.42077157
C        1.06609864       3.22502886       0.23342304
C        2.62832480       0.20255934       1.19804657
C        3.29505549      -1.28335936      -0.79951490
C       -2.22844440      -2.43581772      -1.41918568
C       -1.29234470       0.52981240      -2.96940997
C        1.03799853       1.17756805      -2.59458964
C       -0.89787215       3.41606971       1.70353952
C       -2.17777237      -0.55761653      -2.74412667
C       -1.15473116       3.56748887      -0.73430933
C        1.51432481       2.76862671      -1.02495955
C       -1.70831859       1.60829842      -2.09412358
C       -2.18292502       1.71950275       3.25743252
C        1.80579560      -1.51288909      -2.71775052
C        1.75517955      -0.06038002       2.30679951
C       -2.58189980       3.74344406      -0.53750441
C       -2.32337915       3.20303519       1.78102583
C       -2.85155896       1.38503419       0.22226741
C       -2.97862919       2.77204650       2.92530768
60
Properties=species:S:1:pos:R:3 entry_id=100 rank=5 energy=-500.0375061035156 pbc="F F F"
C        2.88096385      -3.41695126      -1.70579178
C        1.83360134       0.68287450      -2.22202977
C        0.71364251       2.58840323       1.96789302
C        3.63597847      -2.40657727      -1.04889154
C       -2.18501181       0.35899649       2.47567011
C        2.17624438       1.74410974       0.11498534
C        0.08193837      -4.02992899      -0.96116904
C        1.14227040      -1.03268323       2.00570192
C       -0.49813469       6.07747881       0.93268014
C        1.99747486      -1.71432875       1.05186428
C       -0.20002581       0.99889794       3.39927312
C       -0.97907208       4.79465486       0.77521957
C        1.76725893      -3.03125957      -2.44463797
C       -2.53281947       2.38583140       0.23336695
C       -1.33459736       2.17192909      -1.93649825
C        2.74296435      -0.73248064       0.30426380
C        0.01312724       2.15046517      -2.39724989
C       -2.78933051      -1.83886800      -0.45730650
C       -2.99062200       0.50083080      -1.19308950
C        2.02398323       1.77386846      -1.30970114
C       -0.13546465       7.26676163       1.08465205
C       -0.44996644      -2.60976925      -2.86337460
C       -0.67580240      -3.17690090       0.76154353
C       -2.67239306      -0.01161002       1.19548350
C       -1.14660920      -2.00418285       1.40408693
C       -2.32565366      -1.37645941       0.80945461
C       -1.78098461      -2.45352251      -2.45119882
C        1.90248705      -3.03691063       0.57830836
C       -1.24508320      -3.70547130      -0.44616585
C        1.29261583       2.76500333       0.67745031
C       -0.27297148      -0.15882331      -3.27395294
C        2.39083192      -0.64069885      -2.13051902
C       -0.27505800      -1.21778829       2.26848075
C       -3.13184356      -0.87861542      -1.44601640
C        0.94911310       1.34590183       2.64813834
C        0.30314626      -1.45125250      -3.23710996
C        0.65253027      -3.58745141       0.31154781
C       -0.92125806      -0.13359974       2.92355404
C       -1.08311022       2.11163799       3.35031707
C       -0.53862702       3.09090078       2.48237796
C        2.95838764      -3.40003978      -0.30003247
C        0.46009037      -3.53660968      -2.22977485
C        0.65160568       3.42959168      -0.41798953
C        2.41868925       0.55863207       0.84642655
C        3.20078839      -1.05034136      -1.00858312
C       -2.14623190      -2.91719549      -1.14923433
C       -1.67751638      -0.04028536      -3.03618128
C        0.56989001       0.91857298      -2.88873343
C       -1.46094037       3.87553083       1.75570232
C       -2.41933287      -1.19680239      -2.65327591
C       -1.64591932       2.92685985      -0.75974647
C        1.01876015       2.75516623      -1.60449851
C       -2.14276706       1.04364575      -2.20975981
C       -2.40706798       1.67032452       3.02272226
C        1.66345817      -1.66317391      -2.80373939
C        1.64308197       0.31963174       2.01888713
C       -0.68887572       3.90649926      -0.31191889
C       -2.65357926       3.09082536       1.46642227
C       -2.92702836       0.98908891       0.14444799
C       -3.35424524       2.51879930       2.52230213
60
Properties=species:S:1:pos:R:3 entry_id=98 rank=6 energy=-499.8426818847656 pbc="F F F"
C        2.62456475      -3.53914594      -1.76681147
C        2.36695972       0.71485799      -1.79244963
C        1.16149046       2.23327917       2.48739211
C        3.47831906      -2.77434182      -0.92467755
C       -2.21940680       0.43859636       2.63068813
C        2.66910342       1.38924669       0.68708704
C       -0.28836306      -3.74736030      -1.29441490
C        0.95870243      -1.34991910       2.09046186
C       -3.51907580       3.49106132      -1.93216933
C        1.77866289      -2.05950277       1.12382160
C       -0.17403328       0.73689455       3.60992463
C       -0.00105603       3.78449215       0.39461860
C        1.66086980      -2.86676570      -2.51303870
C       -3.12479818       2.59181243       1.17353889
C       -0.44394383       2.99997666      -1.90106270
C        2.75420383      -1.14961273       0.58160397
C        0.91731501       2.54076210      -2.00240313
C       -2.84521217      -1.24095060      -0.61452832
C       -3.15743167       1.21204032      -0.89408580
C        2.64011969       1.63135340      -0.72740696
C       -4.20318587       4.50242038      -2.22821579
C       -0.40694517      -1.98243994      -2.96713557
C       -1.05168918      -3.03255109       0.49053532
C       -2.78741931       0.19770799       1.35492405
C       -1.40490723      -1.91125934       1.28210149
C       -2.48552773      -1.08543937       0.75394959
C       -1.69807448      -1.62266512      -2.57731042
C        1.52290692      -3.28272068       0.47745952
C       -1.59265285      -3.29054350      -0.81913529
C        1.90276718       2.45334755       1.31411788
C        0.23080612       0.42206216      -3.05010520
C        2.66272518      -0.68997252      -1.83235761
C       -0.48653373      -1.32917510       2.25356984
C       -2.91632774      -0.06174750      -1.41908617
C        1.10616145       0.92375602       3.04348898
C        0.56207583      -0.95035149      -3.14545162
C        0.22984560      -3.57987331       0.06077735
C       -1.01340918      -0.24379204       3.00923445
C       -0.87258000       1.99632259       3.54603695
C       -0.11582523       2.85772635       2.69512436
C        2.57811745      -3.71551004      -0.36938910
C        0.27269157      -3.14738347      -2.44484224
C        1.34500439       3.27724274       0.30046035
C        2.60940913       0.10129966       1.27023224
C        3.27917284      -1.37866707      -0.72409056
C       -2.28597649      -2.25985318      -1.44392092
C       -1.14739367       0.81064684      -2.86572752
C        1.24315892       1.26222641      -2.52851925
C       -0.71860296       3.59485582       1.65091624
C       -2.06989210      -0.23420871      -2.55232629
C       -0.69976813       3.81081805      -0.80018682
C        1.81302307       2.79410678      -0.94081902
C       -1.49027089       2.11472584      -2.39383667
C       -2.22588557       1.72381184       3.25134983
C        1.82564481      -1.46685808      -2.68104480
C        1.68232715      -0.13000360       2.33637533
C       -2.82503209       2.29977723      -1.81072084
C       -2.13388760       3.51053834       1.62728401
C       -3.19248045       1.32162174       0.53592103
C       -2.88161972       2.74435636       2.55933159
60
Properties=species:S:1:pos:R:3 entry_id=106 rank=7 energy=-499.6829528808594 pbc="F F F"
C        2.93461534      -3.53833349      -1.54085253
C        1.86215827       0.49009341      -2.48148287
C        1.26565148       2.96006112       1.52605494
C        3.73459383      -2.46367200      -1.06672515
C       -1.86375411       0.93681089       2.29023600
C        2.48217829       1.83306812      -0.34144193
C        0.17454642      -4.01218489      -0.54982887
C        1.42603445      -0.65699187       1.90389230
C       -3.76635225       3.96784685       3.20622785
C        2.22299791      -1.47792160       1.01001889
C        0.21150781       1.58829033       3.05271291
C       -2.14269726       4.34939511       1.27323795
C        1.77638608      -3.22983788      -2.24621792
C       -2.70240986       2.48721866      -0.16057367
C       -1.31978898       1.99796602      -2.15424585
C        2.96143406      -0.62117390       0.11683779
C        0.00773800       1.92240747      -2.66821180
C       -2.68567703      -1.76345888      -0.19005974
C       -2.99589922       0.42060798      -1.23712866
C        2.12153195       1.68247150      -1.72625619
C       -4.55252621       4.41476723       4.05916768
C       -0.45694882      -2.84941229      -2.58675732
C       -0.48043838      -2.90180036       1.07012172
C       -2.50747563       0.29137151       1.17431706
C       -0.92080344      -1.64460267       1.56020148
C       -2.15214460      -1.11004720       0.96801042
C       -1.76550087      -2.64227298      -2.13105753
C        2.08883018      -2.84535869       0.71989824
C       -1.11850571      -3.60332786      -0.00714733
C        1.68881182       2.93384967       0.18391459
C       -0.30744771      -0.46429601      -3.28963671
C        2.42746331      -0.82142441      -2.27404976
C        0.00716340      -0.74127102       2.23047114
C       -3.10498799      -0.97577947      -1.29465921
C        1.39407601       1.77768294       2.30607879
C        0.27179618      -1.74571621      -3.13450694
C        0.81788865      -3.39731532       0.60934169
C       -0.57821145       0.45268405       2.73220118
C       -0.60081813       2.75103808       2.84990395
C        0.02457373       3.58598792       1.88156713
C        3.09315551      -3.34030806      -0.15538130
C        0.48416093      -3.69676959      -1.89362230
C        0.76886184       3.35467670      -0.82087151
C        2.72371853       0.73425610       0.52078457
C        3.32032256      -1.10521797      -1.17550234
C       -2.06269362      -2.92283204      -0.76087468
C       -1.70094955      -0.32063125      -3.01185159
C        0.54757666       0.64999494      -3.07056494
C       -0.79376349       4.16911709       0.89001762
C       -2.42353234      -1.42998183      -2.47483591
C       -1.60414354       2.85546631      -1.03319240
C        1.04075830       2.60584532      -1.98619068
C       -2.14525614       0.85225371      -2.30378549
C       -1.92226440       2.32270464       2.64649262
C        1.65400728      -1.91359799      -2.76032189
C        2.00058104       0.65678863       1.75336926
C       -0.57321748       3.66726737      -0.44634366
C       -3.06083043       3.44397040       0.79584326
C       -2.95253797       1.07578074       0.01836469
C       -2.87656165       3.36493298       2.25995376
60
Properties=species:S:1:pos:R:3 entry_id=107 rank=8 energy=-499.30316162109375 pbc="F F F"
C        2.91296745      -3.53434875      -1.47961797
C        1.87806314       0.49315711      -2.46920862
C        1.22161406       2.98832509       1.50671976
C        3.71323386      -2.46005702      -1.00551950
C       -1.91245304       0.99550947       2.27124458
C        2.47231891       1.85165034      -0.33169694
C        0.13665090      -3.98120798      -0.51679446
C        1.38362397      -0.61242766       1.91954274
C       -3.23504891       3.09964245       3.39747505
C        2.18513446      -1.44483853       1.04211086
C        0.16733698       1.64726062       3.04371125
C       -2.18595860       4.42237539       1.19178958
C        1.76482446      -3.22453076      -2.20051035
C       -2.72062528       2.54661584      -0.26067989
C       -1.29960805       2.02561945      -2.21042730
C        2.93936617      -0.60019695       0.15146604
C        0.03598457       1.93495364      -2.69840063
C       -2.70931603      -1.70257296      -0.21533741
C       -2.99064850       0.46784370      -1.29208180
C        2.13292886       1.69132844      -1.72072916
C       -4.00480719       3.24993807       4.43544405
C       -0.46093986      -2.83293772      -2.57182696
C       -0.53077667      -2.84620273       1.08086614
C       -2.54327826       0.37004202       1.13696740
C       -0.96814757      -1.57991550       1.55196060
C       -2.18838334      -1.03803236       0.94304172
C       -1.77372575      -2.61231283      -2.13538163
C        2.04357637      -2.81342897       0.76271214
C       -1.16019210      -3.55617059       0.00498192
C        1.66988539       2.95527951       0.17372888
C       -0.28590922      -0.45636056      -3.29788710
C        2.43224312      -0.82026313      -2.24276154
C       -0.03978439      -0.68247271       2.22141104
C       -3.11024058      -0.92737443      -1.33457472
C        1.35766900       1.82331812       2.30471820
C        0.28196776      -1.73965339      -3.12107870
C        0.76970304      -3.35639503       0.64285892
C       -0.62720268       0.51451135       2.70767668
C       -0.64304086       2.81437301       2.85910594
C       -0.03313792       3.60638730       1.83960527
C        3.05554096      -3.32462180      -0.09417448
C        0.46553041      -3.68012035      -1.85943183
C        0.77167149       3.37571068      -0.84884715
C        2.70362808       0.76027664       0.54160646
C        3.31056941      -1.09959097      -1.13173924
C       -2.08975224      -2.87500725      -0.76600127
C       -1.68252698      -0.30161929      -3.04387602
C        0.57321496       0.65488430      -3.07853964
C       -0.81672527       4.20020225       0.83149517
C       -2.41895223      -1.40008902      -2.50199029
C       -1.60104645       2.89766923      -1.10422340
C        1.06103791       2.61852923      -2.00492906
C       -2.12776381       0.88189598      -2.35601936
C       -2.01192114       2.38268765       2.74479060
C        1.65769056      -1.91228364      -2.72754767
C        1.96951778       0.69684601       1.76897982
C       -0.57544539       3.70088276      -0.49687462
C       -3.13329192       3.52219661       0.66876651
C       -2.96222533       1.14340111      -0.04693406
C       -2.82764172       3.44285387       2.05592599
60
Properties=species:S:1:pos:R:3 entry_id=96 rank=9 energy=-499.2073974609375 pbc="F F F"
C        2.78025609      -3.53692307      -1.69790127
C        2.22124265       0.68598444      -1.84512513
C        1.01276731       2.26703374       2.41770907
C        3.58698544      -2.68861144      -0.89049226
C       -2.22076902       0.32255301       2.53720555
C        2.53465058       1.46110978       0.60979425
C       -0.11165901      -3.90830505      -1.20665962
C        1.02208323      -1.33582817       2.12153141
C       -2.98768131       5.45330505      -1.51254108
C        1.87170574      -2.02233838       1.16212097
C       -0.23573779       0.73213922       3.58103828
C       -0.25443649       3.72124141       0.33354041
C        1.77217238      -2.95834354      -2.46193860
C       -3.11959511       2.42015082       0.99352547
C       -0.79218923       2.62531801      -1.80913427
C        2.78074406      -1.06807813       0.57929482
C        0.58414152       2.34730221      -2.01812212
C       -2.77423288      -1.48968967      -0.64057989
C       -2.70615925       0.97021941      -1.09112612
C        2.44988104       1.65454772      -0.81315151
C       -3.93615362       6.24804156      -1.84170964
C       -0.35277521      -2.24959287      -2.96867438
C       -0.90085008      -3.16362647       0.55092844
C       -2.67374768       0.06723294       1.22159321
C       -1.29987859      -2.02618634       1.29485791
C       -2.38099677      -1.25093742       0.70628069
C       -1.68305127      -1.98083693      -2.62110397
C        1.67979486      -3.27443577       0.54498122
C       -1.43324239      -3.49566937      -0.74290491
C        1.71001382       2.48821664       1.22254559
C        0.11131341       0.19608925      -3.09169109
C        2.62119092      -0.69613769      -1.85240741
C       -0.42254571      -1.38762802       2.27525712
C       -2.90359005      -0.36939885      -1.51280696
C        1.03548481       0.97228524       3.01066389
C        0.54184438      -1.15127962      -3.16434004
C        0.40683599      -3.66177955       0.13870899
C       -1.01213585      -0.30617744       2.99011348
C       -1.00447171       1.95357913       3.47660713
C       -0.28225956       2.84678279       2.63352629
C        2.75569327      -3.66801416      -0.29543472
C        0.40658091      -3.33498070      -2.38903583
C        1.06408136       3.23536941       0.20092661
C        2.56967478       0.19105001       1.23751470
C        3.29750537      -1.30346796      -0.73086164
C       -2.19866648      -2.54819513      -1.41301116
C       -1.27802112       0.46351559      -2.89647782
C        1.04661116       1.11563676      -2.56824084
C       -0.91165720       3.57855542       1.59097475
C       -2.14606641      -0.63470516      -2.68853146
C       -1.06237910       3.77500688      -0.90916876
C        1.51408616       2.73549283      -1.03447864
C       -1.70835167       1.54528347      -2.02969164
C       -2.32885281       1.60418609       3.14070891
C        1.83760873      -1.55739409      -2.67373047
C        1.67177313      -0.06562183       2.32670052
C       -2.06792433       4.63234319      -1.15821685
C       -2.32956254       3.44149964       1.56812515
C       -2.92859553       1.18423858       0.32391168
C       -3.04153625       2.55999458       2.41365688
60
Properties=species:S:1:pos:R:3 entry_id=103 rank=10 energy=-499.0658874511719 pbc="F F F"
C        2.78679255      -3.58628644      -1.07582967
C        1.96408159       0.41925450      -2.32730702
C        0.93764397       3.02749591       1.45305892
C        3.56414261      -2.51282146      -0.56527119
C       -2.17436805       1.24741864       1.92172293
C        2.36358211       1.83585776      -0.19393139
C       -0.07998405      -3.92857864      -0.38735314
C        1.01395116      -0.50114093       2.05010572
C        0.01747531       1.56808992       4.61565153
C        1.86707728      -1.38781932       1.28367756
C       -0.21566535       1.87340479       3.21075632
C       -2.31414082       4.54483659       0.79963773
C        1.72745429      -3.28002666      -1.92278639
C       -2.78659262       2.66231554      -0.68081292
C       -1.18660929       2.03213324      -2.43882040
C        2.71902588      -0.59481679       0.43591721
C        0.18787695       1.88946405      -2.78761168
C       -2.87206285      -1.57005531      -0.47069527
C       -3.01184683       0.54933982      -1.66372412
C        2.17559951       1.64085254      -1.60684424
C        0.19333878       1.35351043       5.83079819
C       -0.43748139      -2.85538763      -2.53876024
C       -0.86581717      -2.70529958       1.08572061
C       -2.75057568       0.55941186       0.78644471
C       -1.30735949      -1.40697619       1.45178477
C       -2.43345523      -0.86180304       0.69571207
C       -1.78141152      -2.58723169      -2.24795066
C        1.72306273      -2.76523227       1.04333953
C       -1.40817331      -3.44788876      -0.01716816
C        1.53897116       2.96378189       0.18215683
C       -0.13012720      -0.51554289      -3.33028352
C        2.45806844      -0.89531364      -1.99057723
C       -0.43302432      -0.50837277       2.19993960
C       -3.15418520      -0.84355763      -1.65800885
C        1.00454822       1.94516305       2.32601069
C        0.38554101      -1.80238264      -3.04994836
C        0.45333608      -3.27483901       0.80608259
C       -1.01844149       0.72441380       2.55275989
C       -1.01165892       3.05951532       2.66993598
C       -0.28644095       3.72998387       1.65901812
C        2.80185817      -3.32918681       0.30909685
C        0.38895347      -3.69187333      -1.70081030
C        0.77003267       3.38527915      -0.93585650
C        2.48026277       0.78292488       0.74360602
C        3.20901349      -1.15053255      -0.78291239
C       -2.23547576      -2.77963759      -0.90617018
C       -1.53987736      -0.31890653      -3.22740888
C        0.72857070       0.58454515      -3.06553356
C       -0.93335156       4.32369037       0.55694468
C       -2.35708853      -1.37887050      -2.72753527
C       -1.58262213       2.96319004      -1.40268756
C        1.16037203       2.58295401      -2.03173555
C       -2.02435535       0.90144867      -2.63658508
C       -2.28758916       2.62361559       2.27771317
C        1.70914464      -1.98911187      -2.51051205
C        1.63349002       0.78696145       1.90398832
C       -0.59959872       3.76291088      -0.71925450
C       -3.22655936       3.63270409       0.22308486
C       -3.08227810       1.27698982      -0.44765343
C       -3.03806593       3.59717189       1.60872740
60
Properties=species:S:1:pos:R:3 entry_id=102 rank=11 energy=-498.9570617675781 pbc="F F F"
C        2.75891839      -3.66818454      -1.33038174
C        1.97724751       0.41929895      -2.31177022
C        1.05201598       2.82157709       1.65027380
C        3.55767443      -2.63878365      -0.76333908
C       -2.10730883       1.05685239       2.02590696
C        2.42817618       1.69679800      -0.09699382
C       -0.10737427      -4.00937275      -0.62106027
C        1.06787986      -0.75373460       2.00214731
C       -0.88989948       3.81583981       4.14486588
C        1.90441521      -1.60497802       1.17453756
C       -0.12971280       1.51450516       3.14325356
C       -2.21800040       4.38534405       1.12559338
C        1.69225944      -3.29521864      -2.14106335
C       -2.73167574       2.62470784      -0.48462896
C       -1.15225062       2.08266608      -2.29433514
C        2.76211628      -0.77456635       0.36977305
C        0.21797963       1.94124510      -2.66120918
C       -2.86562033      -1.60967785      -0.52256716
C       -2.98746667       0.57939348      -1.58709919
C        2.21428178       1.58917340      -1.51641025
C       -0.86592074       4.64537470       5.08062529
C       -0.47411452      -2.80136687      -2.69654428
C       -0.85874585      -2.87056672       0.93621749
C       -2.69945042       0.44142707       0.85730666
C       -1.27385734      -1.58940336       1.38667857
C       -2.40512186      -0.98024591       0.67995850
C       -1.80987706      -2.53250922      -2.37137158
C        1.73048273      -2.95918026       0.84875695
C       -1.42368308      -3.53352256      -0.20368248
C        1.62259279       2.81101192       0.36139555
C       -0.14084110      -0.42132208      -3.34871075
C        2.45665771      -0.92060609      -2.06730238
C       -0.37366856      -0.75309786       2.16365066
C       -3.14895076      -0.80923497      -1.66096081
C        1.10133761       1.66091093       2.46282413
C        0.35813018      -1.73055127      -3.15373693
C        0.44905199      -3.43731794       0.60314400
C       -0.93046331       0.47462014       2.61749789
C       -0.90148251       2.81939174       3.08430119
C       -0.15895271       3.50617917       1.88918358
C        2.78991270      -3.49450045       0.06707234
C        0.35019039      -3.70004792      -1.92380402
C        0.83939042       3.29999899      -0.71870749
C        2.54823774       0.58544413       0.77308391
C        3.22141808      -1.26013145      -0.88994878
C       -2.25231014      -2.79969113      -1.03877785
C       -1.54675668      -0.21242768      -3.21839405
C        0.73684850       0.64833075      -3.02556776
C       -0.83613711       4.13781892       0.85496251
C       -2.37214040      -1.28935753      -2.76985337
C       -1.52380483       2.94986200      -1.19501984
C        1.20703692       2.56800015      -1.86908171
C       -2.00751310       0.97729207      -2.55000780
C       -2.21838694       2.37575472       2.49667856
C        1.68587268      -1.96935267      -2.64574865
C        1.72097507       0.52579550       1.94245894
C       -0.52002186       3.68009169      -0.46985618
C       -3.15037846       3.53010500       0.49442026
C       -3.03436795       1.23162458      -0.32878100
C       -2.93785916       3.38365227       1.87519828
60
Properties=species:S:1:pos:R:3 entry_id=105 rank=12 energy=-498.4892578125 pbc="F F F"
C        2.85856139      -3.53256561      -1.14004504
C        1.91444635       0.43034381      -2.42996701
C        1.11518959       3.19069539       1.33217233
C        3.64991239      -2.43769970      -0.69959834
C       -2.10307422       1.28998756       2.08864564
C        2.43337797       1.92186760      -0.36763929
C        0.03641157      -3.89709758      -0.27812760
C        1.17977886      -0.39111457       1.97156590
C       -1.53010007       0.46366157       4.24871356
C        2.02678792      -1.28433680       1.19370435
C       -0.03125382       1.97227935       2.92711502
C       -2.22537417       4.59399962       0.80423988
C        1.74641467      -3.26064784      -1.92939047
C       -2.74790644       2.66546875      -0.58393557
C       -1.25200820       2.01011425      -2.41655912
C        2.83262730      -0.50421748       0.29545590
C        0.10165200       1.86918817      -2.83086162
C       -2.77775369      -1.56554520      -0.24554409
C       -2.99572267       0.52748705      -1.47884230
C        2.15273205       1.67489826      -1.75552258
C       -2.10380225       0.27909995       5.34491974
C       -0.45681030      -2.87522156      -2.42662302
C       -0.68169708      -2.65020213       1.21208297
C       -2.61465895       0.59348368       0.96513979
C       -1.12738784      -1.35731324       1.60681287
C       -2.29682065      -0.83783304       0.88910579
C       -1.78540624      -2.61420192      -2.06540940
C        1.89743414      -2.66734783       1.00780379
C       -1.27311217      -3.41759666       0.15627282
C        1.62628917       3.06818237       0.02831199
C       -0.22191220      -0.55195907      -3.29061889
C        2.44434575      -0.87048806      -2.09717031
C       -0.22140657      -0.46295704       2.29578343
C       -3.12632332      -0.86452364      -1.43032087
C        1.15203314       2.05534719       2.18493282
C        0.32263422      -1.82565405      -3.00784068
C        0.62554437      -3.20637822       0.86767732
C       -0.88296306       0.72826302       2.95240200
C       -0.81712326       3.09991621       2.55758821
C       -0.12969693       3.86540931       1.57025304
C        2.94479897      -3.23889617       0.23492068
C        0.42781687      -3.68342074      -1.62089199
C        0.77567238       3.42887762      -1.05758558
C        2.58982813       0.87929171       0.58036976
C        3.26844527      -1.08538116      -0.93155053
C       -2.15907507      -2.77982469      -0.69540615
C       -1.62632338      -0.36666901      -3.11751907
C        0.63816943       0.56233423      -3.10025502
C       -0.85470386       4.39990723       0.49015021
C       -2.39812435      -1.42054384      -2.53591928
C       -1.59345282       2.96344917      -1.38272341
C        1.10419393       2.59067049      -2.14485267
C       -2.08699827       0.86573946      -2.53146153
C       -2.14150358       2.68876026       2.31796498
C        1.67777240      -1.98441396      -2.54353186
C        1.77855625       0.89650171       1.75385721
C       -0.58408678       3.79596458      -0.78201163
C       -3.16609231       3.67338701       0.29122120
C       -3.00272706       1.28702210      -0.28202614
C       -2.90904231       3.66358622       1.66562729
60
Properties=species:S:1:pos:R:3 entry_id=104 rank=13 energy=-498.0426025390625 pbc="F F F"
C        2.83837610      -3.53500851      -1.03309684
C        1.90470146       0.40168548      -2.39633644
C        1.14063747       3.24514306       1.31606212
C        3.63467078      -2.43350006      -0.62155624
C       -2.05249106       1.40501335       2.05961182
C        2.46014319       1.95094917      -0.37743505
C        0.01085664      -3.80793348      -0.13053496
C        1.18690503      -0.28953369       1.92902825
C       -1.72252188      -0.02406831       3.84768417
C        2.03957913      -1.21096751       1.20786168
C       -0.00783640       2.06297979       2.96660003
C       -2.19607659       4.65512942       0.75641658
C        1.72549076      -3.27240541      -1.82513660
C       -2.74267962       2.69893955      -0.58927368
C       -1.25516482       1.99943569      -2.41383152
C        2.86611793      -0.45926835       0.31776817
C        0.09738871       1.83896382      -2.82057016
C       -2.77091269      -1.50178402      -0.16118434
C       -3.00664965       0.54918756      -1.45010934
C        2.15275916       1.66008369      -1.75063727
C       -1.94638937      -1.18461084       3.35446154
C       -0.47774668      -2.88284316      -2.31276465
C       -0.74748257      -2.65227534       1.42052944
C       -2.60399815       0.65177596       0.99479569
C       -1.25714263      -1.35722332       1.95464334
C       -2.33130651      -0.76820178       0.96833695
C       -1.80251332      -2.60755722      -1.95005466
C        1.87276330      -2.58752087       1.08639860
C       -1.29961438      -3.35585637       0.30408353
C        1.64524022       3.09465394       0.00878933
C       -0.23749258      -0.58705189      -3.23890511
C        2.43708178      -0.89437956      -2.05313652
C       -0.17966437      -0.32251626       2.22861756
C       -3.13733759      -0.83922246      -1.36575866
C        1.18636170       2.13748661       2.20261382
C        0.30389996      -1.85678170      -2.93197956
C        0.58674876      -3.13300404       1.02260597
C       -0.84485833       0.83461826       2.86788787
C       -0.78013409       3.20593713       2.56348959
C       -0.09712957       3.93232034       1.54517134
C        2.90975715      -3.19821226       0.33169947
C        0.40622560      -3.66398758      -1.47966112
C        0.78371284       3.42363470      -1.07520379
C        2.64472117       0.93605118       0.59150301
C        3.28053182      -1.08255107      -0.89931913
C       -2.16801667      -2.72869259      -0.57610060
C       -1.64104049      -0.39022330      -3.06692396
C        0.62727164       0.52556742      -3.06493536
C       -0.82851341       4.43650409       0.45311064
C       -2.41428254      -1.42696948      -2.45449430
C       -1.58731778       2.97166951      -1.39285273
C        1.10337057       2.56704497      -2.14908046
C       -2.09695041       0.85844903      -2.50980013
C       -2.10108826       2.79287812       2.29870218
C        1.66260098      -2.01287357      -2.47308817
C        1.82357512       0.98472632       1.75843553
C       -0.57030056       3.80176711      -0.80243600
C       -3.14388218       3.72740448       0.26823387
C       -3.00377702       1.32628059      -0.26708794
C       -2.88219402       3.75188022       1.64319687
60
Properties=species:S:1:pos:R:3 entry_id=94 rank=14 energy=-497.8058776855469 pbc="F F F"
C        2.90205258      -3.32441427      -1.75325082
C        1.70618739       0.75742101      -2.10853370
C        0.89075080       2.58112086       2.19287538
C        3.64394908      -2.31378718      -1.08409036
C       -2.14322601       0.38936637       2.45579841
C        2.20033481       1.76290659       0.23541253
C        0.11484138      -4.00465389      -0.98636325
C        1.16983838      -1.04044647       2.02827148
C       -0.00886192       5.65930259       0.69315389
C        2.01856652      -1.69839308       1.05066777
C       -0.17259162       0.97573870       3.46077749
C       -0.54936738       4.34173484       0.34436424
C        1.76927025      -2.94530625      -2.46487059
C       -2.67512513       2.37965325       0.15321019
C       -1.57375033       2.21494048      -2.04625850
C        2.76324647      -0.69793454       0.33430993
C       -0.17028616       2.17806620      -2.24284467
C       -2.77841417      -1.85649995      -0.44486781
C       -3.06949867       0.46189869      -1.20978377
C        1.86102705       1.80417613      -1.15332664
C        0.38472437       6.80567532       0.96653781
C       -0.45632475      -2.57265353      -2.86568167
C       -0.63674928      -3.16620752       0.74998689
C       -2.64848480       0.00149629       1.18403910
C       -1.11497292      -1.99631581       1.39675438
C       -2.29902116      -1.36990109       0.80771651
C       -1.79079295      -2.46381450      -2.45151171
C        1.93700518      -3.00732669       0.54354437
C       -1.21032303      -3.70289334      -0.45212717
C        1.39293216       2.77036886       0.88956701
C       -0.34916713      -0.10985759      -3.22497922
C        2.32626303      -0.54565139      -2.08301145
C       -0.24954610      -1.21016535       2.26739357
C       -3.16597144      -0.92148961      -1.43831119
C        1.04629964       1.30503490       2.81276791
C        0.26449331      -1.38474050      -3.20944432
C        0.69071976      -3.56438464       0.28271727
C       -0.89546544      -0.12511585       2.92207212
C       -1.02495730       2.11507399       3.39237129
C       -0.42321505       3.05946908       2.52210210
C        2.99344427      -3.33714142      -0.34858985
C        0.47659185      -3.48991924      -2.25294341
C        0.58341245       3.41645708      -0.08302410
C        2.47275565       0.56910647       0.93880172
C        3.18440881      -0.96655321      -1.00172693
C       -2.13092057      -2.92875878      -1.14262016
C       -1.76366246      -0.05345958      -3.05714197
C        0.44054834       0.98168621      -2.76790365
C       -1.21651923       3.66027078       1.53855515
C       -2.46515834      -1.22882398      -2.65493090
C       -2.09518205       3.07507853      -1.00021624
C        0.76247630       2.74280107      -1.31100919
C       -2.29258184       1.02378245      -2.27028763
C       -2.34794118       1.69765964       3.02335649
C        1.62810406      -1.56975598      -2.78106122
C        1.70835909       0.29384925       2.11893819
C       -1.51441699       4.29238338      -0.78542478
C       -2.51649545       3.07044924       1.39060892
C       -2.96247516       0.97623480       0.11720609
C       -3.22415542       2.59429898       2.49732178
60
Properties=species:S:1:pos:R:3 entry_id=92 rank=15 energy=-497.69354248046875 pbc="F F F"
C        2.72200710      -3.59221285      -1.73691420
C        2.20865991       0.63427105      -1.92817913
C        1.11764239       2.29021623       2.35188685
C        3.55909329      -2.74113866      -0.96333206
C       -2.23885851       0.19336649       2.78385196
C        2.57807635       1.43657110       0.51539267
C       -0.16687383      -3.91432016      -1.15340065
C        1.09102100      -1.33350845       2.10469757
C       -3.07956836       5.36454645      -1.35287525
C        1.90181195      -2.03513025       1.12501052
C       -0.12583019       0.76595692       3.53512637
C       -0.21537521       3.69799011       0.26522958
C        1.69777206      -3.01044551      -2.47760516
C       -3.13421544       2.63311412       0.91547777
C       -0.75828707       2.65750742      -1.92493449
C        2.80171811      -1.09477919       0.50529023
C        0.60836501       2.33152183      -2.11554970
C       -2.77713962      -1.40611707      -0.48016264
C       -2.75738369       1.19456397      -1.21180083
C        2.45921350       1.60741251      -0.90641793
C       -4.07691194       6.14521397      -1.54664208
C       -0.42970829      -2.26668117      -2.92082035
C       -0.87589616      -3.17494780       0.63636879
C       -2.97767523      -0.38939835       1.80467771
C       -1.25523659      -2.06736751       1.41406233
C       -2.49052610      -1.36226444       0.96099739
C       -1.72517552      -1.94882929      -2.49076102
C        1.69142238      -3.29757935       0.53453411
C       -1.46293130      -3.46801513      -0.63933710
C        1.77962220       2.48351366       1.13348207
C        0.08472873       0.16482647      -3.15087687
C        2.59077938      -0.75229209      -1.92750185
C       -0.34967654      -1.38967308       2.32622145
C       -2.87410924      -0.26573375      -1.37765842
C        1.13968782       0.99311357       2.95141997
C        0.48366163      -1.19499073      -3.19129761
C        0.40631323      -3.68690805       0.17298625
C       -0.90536107      -0.31668235       3.07288610
C       -0.90199818       1.96598400       3.40490828
C       -0.17692901       2.87443227       2.58001374
C        2.73944713      -3.70720858      -0.33268127
C        0.32800875      -3.35650601      -2.35149377
C        1.10237869       3.20846176       0.11280474
C        2.61985359       0.17367673       1.15511454
C        3.28382876      -1.35223713      -0.81349579
C       -2.21177188      -2.47134328      -1.26023307
C       -1.29352282       0.46301536      -2.92519422
C        1.03902433       1.07934575      -2.65132522
C       -0.83167772       3.61803263       1.55275721
C       -2.15052021      -0.60136949      -2.55965068
C       -1.03390616       3.76267537      -0.96730938
C        1.53328880       2.69409782      -1.12211089
C       -1.69604046       1.61763191      -2.17239780
C       -2.24263121       1.61051366       3.12906701
C        1.78225553      -1.61453390      -2.72226115
C        1.74951845      -0.06134153       2.26922442
C       -2.10498350       4.55737259      -1.12416389
C       -2.25565192       3.53633525       1.63634290
C       -3.19598762       1.92727183      -0.17610420
C       -2.92986824       2.55213248       2.35970596
60
Properties=species:S:1:pos:R:3 entry_id=95 rank=16 energy=-497.6924133300781 pbc="F F F"
C        2.78018939      -3.55840503      -1.70432689
C        2.25048685       0.66775919      -1.86313806
C        1.05063217       2.27435219       2.40577817
C        3.59505386      -2.71208642      -0.90219815
C       -2.30646167       0.15471641       2.73979577
C        2.55867905       1.44675099       0.59570166
C       -0.12167834      -3.90127567      -1.19034441
C        1.04716028      -1.34746409       2.11989299
C       -3.09670190       5.31066289      -1.44263228
C        1.88456737      -2.03513387       1.15278476
C       -0.21321397       0.73170105       3.54225018
C       -0.24001955       3.69995164       0.30373215
C        1.76925354      -2.97392734      -2.46101766
C       -3.16908456       2.61356119       0.87322983
C       -0.72607945       2.67410061      -1.90659251
C        2.79451246      -1.08422526       0.56482826
C        0.64633464       2.35864888      -2.07091532
C       -2.76016386      -1.41280005      -0.55139418
C       -2.73646679       1.19691673      -1.25734871
C        2.47243733       1.63228190      -0.82655486
C       -4.10919164       6.04313380      -1.72591893
C       -0.35099076      -2.23630301      -2.94555113
C       -0.87606856      -3.18461761       0.59009941
C       -3.02093561      -0.42406119       1.74033478
C       -1.27891993      -2.08655050       1.36962263
C       -2.50789059      -1.38364598       0.89653589
C       -1.65732122      -1.92894207      -2.54153546
C        1.69411160      -3.29200468       0.54429547
C       -1.43205634      -3.46749008      -0.70185761
C        1.74006235       2.48326777       1.20526467
C        0.15714855       0.19989404      -3.13808174
C        2.63906023      -0.71722425      -1.86747301
C       -0.39792060      -1.41296130       2.30822471
C       -2.84119048      -0.26285589      -1.43899243
C        1.06430509       0.97061249       2.99086216
C        0.56320237      -1.15741265      -3.18304979
C        0.41937684      -3.68471382       0.15095457
C       -0.97635124      -0.35053183       3.05287124
C       -0.99216449       1.92897329       3.40641008
C       -0.25209403       2.84989450       2.60922340
C        2.76435545      -3.68802131      -0.30177349
C        0.39867552      -3.32845211      -2.37048186
C        1.08296548       3.21600702       0.17690512
C        2.59111452       0.17688141       1.22270946
C        3.30912670      -1.32596324      -0.74434250
C       -2.17069952      -2.46701081      -1.32900491
C       -1.22731618       0.48869177      -2.94104017
C        1.09558712       1.11407961      -2.60875833
C       -0.88613974       3.60179888       1.57520829
C       -2.08737326      -0.58297307      -2.60610329
C       -1.03069634       3.76898740      -0.94561365
C        1.54583238       2.71645691      -1.05266109
C       -1.65358342       1.63375985      -2.18757992
C       -2.32406270       1.56963514       3.09570014
C        1.85245619      -1.57526285      -2.68839622
C        1.69520903      -0.07390563       2.31270114
C       -2.10959021       4.54644732      -1.13412265
C       -2.31133758       3.51240023       1.62405358
C       -3.20402113       1.91838328      -0.22644292
C       -2.99715059       2.51663845       2.32032920
60
Properties=species:S:1:pos:R:3 entry_id=87 rank=17 energy=-496.52899169921875 pbc="F F F"
C        2.59959312      -3.31254462      -2.05482681
C        2.07972614       0.91910472      -1.79175353
C        1.34459896       2.15074810       2.72333262
C        3.47264905      -2.54124745      -1.24019551
C       -1.95296940       0.37064074       2.75402473
C        2.62888161       1.47892208       0.68558700
C       -0.26914649      -3.68066881      -1.38424655
C        1.15032510      -1.40918567       2.03671882
C       -3.51751786       3.40337158      -3.86498152
C        1.91650035      -2.02233593       0.96752892
C        0.08980919       0.52466399       3.78188542
C       -0.13675816       3.67046552       0.92326350
C        1.54830075      -2.65848682      -2.68821410
C       -2.23947206       2.71864913       0.86145479
C       -0.91755188       2.72640383      -1.25468180
C        2.80925360      -1.04095951       0.40712404
C        0.44531622       2.60430333      -1.67113426
C       -2.85186141      -1.26386163      -0.47855706
C       -2.80997965       1.17079515      -0.82909114
C        2.40095179       1.79335675      -0.70010758
C       -2.92195237       4.48364960      -3.50138575
C       -0.58997032      -1.89546463      -3.00077287
C       -0.92413026      -3.03181016       0.46741158
C       -2.53181679       0.24554345       1.45626137
C       -1.24866577      -1.93108596       1.30097712
C       -2.34184342      -1.06976585       0.84232686
C       -1.89653621      -1.65455743      -2.55608330
C        1.65259719      -3.21314528       0.26940821
C       -1.54732192      -3.28117160      -0.80106489
C        1.91686077       2.47218498       1.47198372
C       -0.10376145       0.54785839      -2.95552002
C        2.46942630      -0.45933065      -1.95744765
C       -0.28515985      -1.41765383       2.26786570
C       -3.07583831      -0.12563377      -1.30217673
C        1.32981092       0.79114315       3.14595380
C        0.30550095      -0.79089139      -3.16033092
C        0.34203796      -3.53517236      -0.06474874
C       -0.77785626      -0.37077748       3.09513487
C       -0.60044875       1.76820121       3.91648058
C        0.11128588       2.74757830       3.16841452
C        2.66324840      -3.55519107      -0.66884985
C        0.18586045      -3.02765338      -2.55265272
C        1.19014421       3.32257419       0.58219112
C        2.68214547       0.15561614       1.18817939
C        3.22376009      -1.16860476      -0.95147136
C       -2.33432848      -2.27951271      -1.34907368
C       -1.49424345       0.79517900      -2.71757214
C        0.85531747       1.42490224      -2.38112048
C       -0.63039722       3.51443092       2.26098546
C       -2.37457981      -0.31506073      -2.54123998
C       -1.18071850       3.24907528       0.03834759
C        1.48295690       2.90922334      -0.74379249
C       -1.85407756       1.77118187      -1.72452647
C       -1.97224937       1.57928111       3.53483843
C        1.62207702      -1.24589423      -2.78820852
C        1.86107212      -0.18540018       2.31054340
C       -4.04963133       2.26474808      -4.15566965
C       -2.04652258       3.19922027       2.19572751
C       -2.74892288       1.41381460       0.57798522
C       -2.75681316       2.65737597       3.23462444
60
Properties=species:S:1:pos:R:3 entry_id=88 rank=18 energy=-496.4855041503906 pbc="F F F"
C        2.59577285      -3.28012636      -2.09786032
C        1.84048019       0.91864922      -1.94897112
C        1.32053159       2.28658838       2.55603542
C        3.47147670      -2.42958891      -1.36987456
C       -1.85800842       0.32634687       2.85737680
C        2.51433137       1.60950955       0.46526597
C       -0.19803006      -3.78572239      -1.23105831
C        1.29592350      -1.30215760       2.00841106
C       -2.34372750       4.16404804      -3.84344318
C        2.03024464      -1.91303391       0.91574324
C        0.23216757       0.63464433       3.74775695
C       -0.35993395       3.64277418       0.80041127
C        1.46943965      -2.71388998      -2.68515962
C       -2.40410911       2.57472019       0.90912593
C       -1.21835233       2.57035908      -1.28600036
C        2.82707265      -0.90525508       0.26479781
C        0.11969098       2.51108569      -1.78275846
C       -2.86023128      -1.48597240      -0.24867496
C       -2.98685231       0.93084833      -0.68801467
C        2.17782964       1.85249894      -0.91291176
C       -3.54658794       4.01078776      -3.41417132
C       -0.72674945      -2.08765267      -2.88434825
C       -0.77247343      -3.09900109       0.63306271
C       -2.50947890       0.11619551       1.60551537
C       -1.11012320      -1.98657291       1.44578912
C       -2.28069424      -1.20999854       1.02869106
C       -2.01619025      -1.90465572      -2.36841060
C        1.79311710      -3.14281441       0.27740849
C       -1.45826684      -3.43544373      -0.58132514
C        1.79443212       2.59159024       1.26006022
C       -0.38722209       0.38124487      -2.95876637
C        2.30088851      -0.43973600      -2.09106548
C       -0.12024075      -1.38132465       2.32895314
C       -3.19985782      -0.39677172      -1.09583628
C        1.41368078       0.94614815       3.02655080
C        0.08938265      -0.93987596      -3.13867502
C        0.48540735      -3.55009180       0.03904954
C       -0.62199932      -0.33279901       3.14776920
C       -0.52144469       1.84041610       3.88436112
C        0.08293849       2.82783677       3.05715883
C        2.76142438      -3.46462500      -0.71169236
C        0.14235558      -3.15586138      -2.45012417
C        0.96115783       3.36076607       0.38895829
C        2.67874559       0.31208368       1.01005590
C        3.15979326      -1.06319474      -1.11329167
C       -2.33920881      -2.50586245      -1.11334955
C       -1.77113405       0.55728156      -2.64365335
C        0.55443856       1.33092826      -2.47853317
C       -0.75891213       3.51297057       2.17226277
C       -2.56914348      -0.59484144      -2.36951904
C       -1.43003372       3.13014252       0.00142036
C        1.19426370       2.91179401      -0.93661925
C       -2.13282398       1.55465963      -1.67168020
C       -1.90102923       1.55955744       3.59773313
C        1.45136944      -1.30415526      -2.83699677
C        1.95005558      -0.03074955       2.19410824
C       -1.13495916       4.30800400      -4.26063413
C       -2.15537552       3.11685933       2.21038493
C       -2.85208129       1.23300300       0.70171287
C       -2.76620597       2.57856284       3.31254540
60
Properties=species:S:1:pos:R:3 entry_id=89 rank=19 energy=-496.1578063964844 pbc="F F F"
C        2.77478866      -3.59929055      -1.72186676
C        2.09023683       0.61490904      -1.90024258
C        1.30374066       2.28062516       2.46679626
C        3.61595565      -2.71343395      -0.99472328
C       -1.92357845       0.38576344       2.68878916
C        2.61498190       1.44961743       0.50512225
C       -0.07777348      -4.00833130      -1.00845833
C        1.24936556      -1.33767376       2.15575635
C       -4.49418743       7.08486218      -3.55574137
C        2.04011393      -2.02903255       1.15422998
C        0.11094639       0.72553398       3.69022857
C       -0.23657632       3.54276037       0.51819276
C        1.69956574      -3.05574899      -2.41749318
C       -2.30184315       2.51393216       0.56141072
C       -0.97911479       2.35401378      -1.55202729
C        2.89441206      -1.07708519       0.49126454
C        0.39019894       2.23911906      -1.95050548
C       -2.75260387      -1.60844809      -0.35517720
C       -2.80615864       0.77382503      -0.95784254
C        2.37533472       1.60958024      -0.90556666
C       -3.97278544       7.70966928      -2.54693200
C       -0.46691971      -2.41277301      -2.80066979
C       -0.75921482      -3.19426323       0.76745111
C       -2.49418381       0.10460466       1.41142847
C       -1.12829643      -2.02689995       1.48417134
C       -2.25336662      -1.25992387       0.93852787
C       -1.78428206      -2.17749149      -2.38388281
C        1.82258871      -3.29533322       0.58313068
C       -1.37043055      -3.59707741      -0.46711872
C        1.86381557       2.49160112       1.18620297
C       -0.07837529       0.03961864      -3.01408209
C        2.53321001      -0.75745999      -1.92133081
C       -0.18582998      -1.37834918       2.38966242
C       -3.02209264      -0.57410740      -1.29203214
C        1.34148184       0.97304774       3.02956067
C        0.38508064      -1.29625447      -3.07693500
C        0.52602016      -3.70194400       0.28764614
C       -0.72072456      -0.26976022       3.10337097
C       -0.62857787       1.94823279       3.69640543
C        0.04560403       2.87122434       2.84833976
C        2.84637152      -3.69266922      -0.31838769
C        0.35230082      -3.46188803      -2.24001377
C        1.10366930       3.21357197       0.21418915
C        2.72048675       0.18907042       1.14371703
C        3.31273079      -1.32893460      -0.84893192
C       -2.19689420      -2.69065679      -1.11550404
C       -1.47594186       0.25402330      -2.79892121
C        0.84805322       1.00839767      -2.53545663
C       -0.72441139       3.50748730       1.86632982
C       -2.31513134      -0.86440032      -2.50876224
C       -1.26192147       2.99659037      -0.31690219
C        1.41308317       2.67714006      -1.06250141
C       -1.88081529       1.31916108      -1.91993299
C       -1.99192479       1.66727906       3.34079185
C        1.71811551      -1.65891239      -2.66383070
C        1.91285796      -0.06536267       2.29873094
C       -4.52418303       5.97137728      -4.21794994
C       -2.12779414       3.13561812       1.83766736
C       -2.75581621       1.16519323       0.41521619
C       -2.81642983       2.67718497       2.93044600
60
Properties=species:S:1:pos:R:3 entry_id=116 rank=20 energy=-496.1546630859375 pbc="F F F"
C        1.94334216      -4.41298934       0.62717289
C        3.03738760      -0.66689050      -1.10735265
C        1.35206452       2.86948548       1.56005565
C        2.71426129      -3.48457467       1.37819696
C       -2.17456641       1.94647724       0.68774624
C        2.88630694       1.01917026       0.86580960
C       -0.88834256      -3.89422814      -0.09779037
C        0.04702761      -0.42537126       2.35178477
C       -9.88247517       4.99588881       4.10065540
C        0.83064088      -1.62840896       2.13726112
C       -0.71064977       2.28261315       2.42046176
C        1.27339899       3.42204755      -1.16902944
C        1.50698471      -4.03159284      -0.63727273
C       -0.87660052       2.94879960      -1.86305502
C        0.98006163       1.61608388      -2.87212429
C        2.16501440      -1.25481500       1.74291131
C        2.24236858       1.06975911      -2.47902008
C       -2.47921696      -0.97627438      -1.61403045
C       -1.38829977       0.85524781      -2.83584843
C        3.27942529       0.58542457      -0.44963436
C       -8.78469614       5.23405609       3.45461018
C        0.06973844      -3.20903650      -2.22285303
C       -1.82579609      -2.26500973       0.76530680
C       -2.27868416       1.25078885      -0.55382206
C       -1.96411122      -0.85418370       0.81836852
C       -2.41493540      -0.20022357      -0.41469486
C       -1.10953212      -2.55897210      -2.61207821
C        0.38185962      -2.94592700       1.93788262
C       -2.02753083      -3.04066997      -0.42531943
C        2.39117697       2.38016092       0.73629834
C        1.41217430      -1.23167168      -2.92757719
C        2.89651178      -1.96545088      -0.49651892
C       -1.26673165      -0.07371875       1.83477905
C       -1.95775835      -0.42939224      -2.81797463
C        0.67252749       1.96463566       2.42494054
C        1.31782074      -2.52070813      -2.35164110
C       -0.75319810      -3.17466712       1.16784653
C       -1.56721977       1.31663122       1.82069470
C       -0.87004896       3.50232034       1.69323533
C        0.37155092       3.80344750       1.06638810
C        1.43594058      -3.89374668       1.83411933
C        0.14896727      -4.04388273      -1.04700944
C        2.39367849       2.73497567      -0.64892280
C        2.25293993       0.17561626       1.81223116
C        2.93031134      -2.14768857       0.93544448
C       -2.13420560      -2.36875421      -1.63433483
C        0.23366627      -0.67282684      -3.51405358
C        2.38135031      -0.35635510      -2.36217518
C        0.33685234       4.08132493      -0.30614051
C       -1.00993202      -1.35899680      -3.36834453
C        0.51760570       2.77829290      -2.19898303
C        2.93467216       1.64191831      -1.37437149
C       -0.03505169       0.72659850      -3.31602294
C       -1.99149317       3.36932007       0.80510202
C        2.14724657      -2.91986614      -1.24164093
C        1.03660004       0.62142603       2.42402445
C       -7.89102534       6.12583896       3.16229003
C       -0.97739771       4.02057721      -0.92131887
C       -1.71805976       1.79291982      -1.80946589
C       -2.14698818       4.23617747      -0.24014371
60
Properties=species:S:1:pos:R:3 entry_id=97 rank=21 energy=-496.1546325683594 pbc="F F F"
C        2.62986487      -4.02680021      -1.38831664
C        2.52392524       0.23233700      -1.68809750
C        1.52031674       2.09757616       2.55238083
C        3.50086851      -3.23915732      -0.58766500
C       -1.93240394       0.64204506       2.45817637
C        2.90588625       1.05459745       0.74908481
C       -0.30808791      -4.04638047      -0.97233882
C        1.02619068      -1.49046759       2.28293057
C       -7.35006490       7.84512217      -3.39708326
C        1.81761253      -2.30312503       1.37728506
C        0.01536502       0.74148346       3.66377659
C        0.36505420       3.49652927       0.43871103
C        1.71240466      -3.36863210      -2.20063950
C       -1.81142355       2.74482428       0.27769040
C       -0.31077274       2.35970130      -1.68241656
C        2.85126645      -1.48593570       0.79481506
C        1.06491223       2.05974431      -1.93491225
C       -2.69996656      -1.30719390      -0.63102161
C       -2.38059093       1.04495315      -1.26494663
C        2.83361721       1.20687849      -0.68088972
C       -6.52636065       8.45735530      -2.60633683
C       -0.30143114      -2.46225745      -2.81515282
C       -1.05550097      -3.10661492       0.71270653
C       -2.40214438       0.40333007       1.13207162
C       -1.33986986      -1.88344952       1.37271694
C       -2.29381742      -0.99237112       0.70346269
C       -1.61205008      -2.04820027      -2.54031182
C        1.49593348      -3.54481262       0.80145038
C       -1.58472147      -3.45912853      -0.57408667
C        2.23180149       2.20175865       1.33548091
C        0.42394656      -0.08688329      -3.01567600
C        2.78379198      -1.18542633      -1.64686593
C       -0.41869930      -1.33871345       2.36443874
C       -2.73617831      -0.27162844      -1.60398792
C        1.32935130       0.81070819       3.13210151
C        0.71282230      -1.47222600      -3.01443843
C        0.19467408      -3.78731509       0.37592560
C       -0.87428636      -0.15260802       3.00407993
C       -0.55412986       2.04912747       3.57783072
C        0.31776398       2.85487577       2.79308798
C        2.54502937      -4.09396991       0.01586581
C        0.31252800      -3.59322156      -2.15952807
C        1.67488735       2.98983137       0.28035385
C        2.77922115      -0.19214657       1.41065697
C        3.36779488      -1.82396714      -0.49123365
C       -2.21506171      -2.47081318      -1.31569860
C       -0.94825350       0.31113731      -2.94963856
C        1.41538240       0.76600182      -2.45456432
C       -0.25862866       3.55938863       1.72842710
C       -1.95200500      -0.68166896      -2.73648711
C       -0.63211928       3.06526249      -0.49201573
C        2.04018768       2.38494880      -0.95022117
C       -1.29778282       1.44122197      -2.13040432
C       -1.89900706       1.93762446       3.08457525
C        1.93829828      -1.99255752      -2.46034802
C        1.83206497      -0.31039396       2.47888789
C       -8.42234726       7.95270913      -4.11654702
C       -1.68860202       3.37106394       1.55788719
C       -2.42067713       1.46239648       0.10105787
C       -2.53884588       3.03466183       2.57900774
60
Properties=species:S:1:pos:R:3 entry_id=129 rank=22 energy=-496.1546325683594 pbc="F F F"
C       -0.24363098      -4.53468143       0.11069875
C        2.12446871      -1.81574379      -2.17947041
C        4.21057448       1.30105957       0.71862982
C        1.15024916      -4.42278655       0.36412526
C        0.89407714       2.80432665       1.61098318
C        3.84048026      -0.86812096      -0.47148708
C       -2.13833100      -2.33271978       0.72089196
C        1.60360349      -0.72139191       2.23763307
C      -20.53484593       3.79382929       1.63403516
C        1.31099725      -2.06413116       1.77055545
C        2.78346472       1.82170298       2.45990730
C        3.41806198       2.41981767      -1.70630176
C       -0.80545356      -3.68856401      -0.83977965
C        1.38736614       3.44375533      -1.31147740
C        1.43129408       1.56992466      -2.96347888
C        2.29307902      -2.44328254       0.78724166
C        2.11005131       0.32492857      -3.15212832
C       -2.02377798       1.22413725      -0.09763199
C       -0.63588139       2.32268342      -1.80228195
C        3.32073063      -1.12571020      -1.78912509
C      -21.59386130       2.72834204       3.60017171
C       -1.90430064      -1.84686670      -1.64858905
C       -1.43282962      -0.71881423       1.80557629
C       -0.09669291       2.60902848       0.60290997
C       -0.63696718       0.45534183       1.82106427
C       -1.02848183       1.51597177       0.88659836
C       -2.46109394      -0.56920027      -1.50089667
C        0.11530356      -2.79436234       1.88685516
C       -2.51876209      -0.93292442       0.89159334
C        4.29106688       0.51416959      -0.45277358
C       -0.05045579      -0.90029260      -3.01853314
C        1.46961219      -2.89725257      -1.48634529
C        0.72090764       0.42934744       2.35391271
C       -1.80759760       1.63619032      -1.44064313
C        3.53125388       0.77779893       1.85597471
C       -0.68145027      -1.99293672      -2.37798465
C       -1.10334400      -2.14226496       1.73571043
C        1.36766024       1.69603586       2.38342989
C        3.13905225       3.04092919       1.80512585
C        3.92304201       2.71234609       0.66378243
C        0.20817426      -4.11804671       1.37804359
C       -1.89898717      -2.82248499      -0.58390926
C        3.96328332       1.11595028      -1.70779342
C        3.26195410      -1.38792979       0.71295164
C        1.94573013      -3.39409463      -0.21735989
C       -2.65523731      -0.06144638      -0.17908050
C       -0.74087730       0.35185012      -3.04014797
C        1.37266047      -0.90168620      -3.01623384
C        3.52801723       3.27209756      -0.55811060
C       -1.95291564       0.49245998      -2.29833598
C        2.09885239       2.58928991      -2.23310463
C        3.37085604       0.11786169      -2.52435862
C        0.01630105       1.55819805      -2.83627653
C        1.94201894       3.78827587       1.53549873
C        0.07656219      -3.04230123      -1.74311981
C        2.95057764      -0.48437608       1.77980521
C      -21.26080340       3.02518666       2.38347227
C        2.35177067       4.12230208      -0.50191518
C        0.12303739       3.00702210      -0.80377687
C        1.95731874       4.80337410       0.62032763
60
Properties=species:S:1:pos:R:3 entry_id=133 rank=23 energy=-496.1546325683594 pbc="F F F"
C       -1.44012854      -3.84339564       0.55287824
C        1.32401001      -2.02524554      -2.14899948
C        4.57318798       0.40383151       0.30077420
C       -0.05498775      -4.14867666       0.64596262
C        1.98299023       2.85664037       1.45059361
C        3.43860917      -1.58795292      -0.70180169
C       -2.51369990      -1.15870044       1.22376143
C        1.69474355      -0.70122737       2.21961815
C      -23.16880852       1.39648769       2.06092487
C        0.96489666      -1.90750754       1.87414134
C        3.58856121       1.37702250       2.15073851
C        3.85415761       1.63935136      -2.08885626
C       -1.84048172      -2.89526950      -0.38280163
C        2.27977296       3.23707238      -1.54335443
C        1.56769880       1.38873899      -3.06636724
C        1.66366471      -2.59179516       0.81617251
C        1.82129427      -0.00727024      -3.24877934
C       -1.45684543       2.17581925       0.17215007
C       -0.02813361       2.76005887      -1.73916712
C        2.70920854      -1.71549277      -1.93658678
C      -21.91360625       1.13182513       1.87733224
C       -2.43927738      -0.83220840      -1.18322074
C       -1.23565197       0.19953751       2.11941742
C        0.86301869       2.93905660       0.57011280
C       -0.13359631       1.08083654       1.97350391
C       -0.30669471       2.18322050       1.02149326
C       -2.57235861       0.55749658      -1.05803865
C       -0.36956827      -2.24144981       2.16510751
C       -2.43989091       0.29510672       1.34437490
C        4.27426967      -0.40402129      -0.81986228
C       -0.57091897      -0.52389377      -2.80306816
C        0.46993752      -2.84066859      -1.32113381
C        1.21104393       0.66423898       2.35652322
C       -1.29643876       2.46693176      -1.20971516
C        3.91532332       0.14042548       1.53602058
C       -1.41224599      -1.35852735      -2.02976383
C       -1.35150366      -1.25872762       2.10564377
C        2.20019579       1.67935441       2.23556842
C        4.20443607       2.41481641       1.38544896
C        4.71000985       1.83423453       0.18838593
C       -0.73375094      -3.54599856       1.73464715
C       -2.59135045      -1.73436400      -0.06563620
C        3.98723590       0.23242654      -2.06749815
C        2.88329105      -1.87750858       0.56944614
C        0.93053830      -3.42217910      -0.08250882
C       -2.44354236       1.13687791       0.24182776
C       -0.85917537       0.87656307      -2.82966138
C        0.77784959      -0.95169728      -2.95520569
C        4.35002391       2.45183875      -1.01627213
C       -1.87592814       1.39517803      -1.97192320
C        2.58963712       2.18187060      -2.47956139
C        3.03270521      -0.56526133      -2.75060214
C        0.23870081       1.80546301      -2.78615767
C        3.25679883       3.47886132       1.20073801
C       -0.92474263      -2.56861147      -1.41555245
C        2.98495479      -0.89192937       1.60402141
C      -20.93786277       0.33279801       2.17597377
C        3.49283037       3.61725327      -0.88756119
C        1.01514791       3.21377745      -0.87450658
C        3.45737011       4.41567921       0.22589469
60
Properties=species:S:1:pos:R:3 entry_id=145 rank=24 energy=-496.1546325683594 pbc="F F F"
C       -2.71910044      -2.96591227      -0.55414571
C        1.31578941      -2.23530486      -1.74712230
C        3.66647054      -0.14743108       1.80037454
C       -1.64795488      -3.52818360       0.19213764
C        1.57062079       2.94349352       1.46851708
C        2.61197852      -2.00256254       0.49490009
C       -3.24017563      -0.04367106      -0.61228907
C        0.05990084      -0.29662589       2.20926934
C      -16.51281609      -0.59290881       3.93814287
C       -0.72912041      -1.36789773       1.62845115
C        2.26022438       1.30633684       2.91794129
C        4.41940288       0.78723134      -0.71383641
C       -2.40697411      -2.12733273      -1.61916430
C        3.23888153       2.74102740      -1.05450224
C        2.81582342       0.85036905      -2.63112698
C        0.15882127      -2.34924569       1.05940289
C        2.75132530      -0.57820207      -2.59631012
C       -1.00416970       2.77769670      -1.22924653
C        1.21653923       2.72336714      -2.27976736
C        2.49348723      -2.18425310      -0.92847127
C      -17.60569605      -1.28747585       3.98554364
C       -2.03410883      -0.15056113      -2.71900202
C       -2.18201437       1.15481127       0.70111244
C        1.01479370       3.10353298       0.16408391
C       -0.94165099       1.75458225       1.03950774
C       -0.38630416       2.69235005       0.05767407
C       -1.84264943       1.23751697      -2.74674679
C       -2.09131523      -1.36833643       1.27973350
C       -2.85238681       1.36328494      -0.55095733
C        3.69100670      -1.05362463       0.71601289
C        0.36404147      -0.51005394      -3.29315995
C        0.00609843      -2.70635000      -1.37070169
C       -0.06126910       1.14218515       2.02900067
C       -0.18274289       2.79104274      -2.38919250
C        2.48965311      -0.05706990       2.59796596
C       -0.91595048      -1.01163036      -2.95752375
C       -2.65443783      -0.22977149       0.71430598
C        1.10703788       1.89687855       2.32807763
C        3.39545226       2.05047065       2.47178976
C        4.20540948       1.18438599       1.68504282
C       -2.55358104      -2.62449115       0.80218917
C       -2.89022580      -0.80053502      -1.75433317
C        4.15788629      -0.59241717      -0.55445640
C        1.50125891      -1.95286563       1.37348481
C       -0.29198035      -3.15191170      -0.03030756
C       -2.15312566       1.98982630      -1.57188904
C        0.49157299       0.89498822      -3.52799664
C        1.47961709      -1.22491551      -2.77337349
C        4.58626385       1.64977429       0.41970672
C       -0.62470331       1.74812524      -3.27366053
C        3.64318425       1.50345438      -1.67886654
C        3.42873567      -1.28015277      -1.55912650
C        1.65808159       1.57237439      -3.02742719
C        2.93813397       3.23909548       1.80691991
C       -1.08116743      -2.17436593      -2.12083368
C        1.39043987      -0.84908192       2.27973061
C      -18.85343002      -1.29073949       4.33551967
C        4.09386911       2.97030991       0.06879987
C        1.85180148       3.09155184      -1.05401259
C        3.78237807       3.93693488       0.98923620
60
Properties=species:S:1:pos:R:3 entry_id=111 rank=25 energy=-496.15460205078125 pbc="F F F"
C        2.89642632      -4.13506610      -0.15108709
C        2.86802849      -0.02699941      -1.32016534
C        0.77494760       2.56534830       2.05068175
C        3.52377713      -3.16108541       0.67220587
C       -2.52674614       0.93338799       1.36134800
C        2.58942805       1.27016511       0.91525559
C       -0.04689031      -4.23452373      -0.51531889
C        0.37509257      -1.02751956       2.39084894
C       -6.63056090       8.75869314       1.30029797
C        1.37892685      -1.95620568       1.90426147
C       -0.96837595       1.37096186       2.98554800
C        0.21909953       3.46399075      -0.52688442
C        2.22543862      -3.69747529      -1.28806573
C       -1.83580018       2.57772226      -1.09178282
C        0.13063466       1.90337789      -2.47745748
C        2.52847684      -1.21211989       1.45687176
C        1.52457913       1.63593392      -2.29935088
C       -2.44646862      -1.61552597      -1.36347292
C       -1.97411602       0.58310804      -2.35363732
C        2.89896906       1.13946740      -0.48476278
C       -6.78997429       9.96057249       1.75720355
C        0.44535313      -3.03899888      -2.57317163
C       -1.21459294      -3.02865417       0.69415777
C       -2.62749176       0.41740686       0.03481129
C       -1.66493544      -1.71813783       0.99790085
C       -2.40809763      -1.02677357      -0.06104447
C       -0.89170812      -2.65201208      -2.73631120
C        1.22302340      -3.30167876       1.52703737
C       -1.38421601      -3.65188664      -0.58770728
C        1.78261957       2.47033026       1.06406196
C        1.19506817      -0.71157015      -3.05355291
C        3.10893758      -1.39345700      -0.92777396
C       -1.03994966      -0.94202355       2.06369430
C       -2.22535694      -0.79163345      -2.50044743
C        0.43945798       1.40739121       2.80902158
C        1.47491591      -2.05258209      -2.69849891
C        0.08117715      -3.69248393       0.83651176
C       -1.65036620       0.31865691       2.31171670
C       -1.49652933       2.60390489       2.49253272
C       -0.44924649       3.28802123       1.81410198
C        2.44373697      -3.93406422       1.16737728
C        0.86520115      -3.98619822      -1.56709447
C        1.52469354       3.00848034      -0.23522266
C        2.29424396       0.17059709       1.75887841
C        3.36703825      -1.76362742       0.44356343
C       -1.79690773      -2.86182706      -1.65060263
C       -0.14620080      -0.38391249      -3.42617907
C        2.00148945       0.28687970      -2.43879978
C       -0.72396200       3.74070717       0.51733389
C       -1.16908178      -1.36989541      -3.28460155
C       -0.49530909       2.80724271      -1.57796222
C        2.20403077       2.19839345      -1.18179584
C       -0.70150035       0.86284633      -2.97083765
C       -2.66254410       2.32548211       1.70061063
C        2.51023602      -2.38789101      -1.75256252
C        1.09863965       0.21021982       2.54705917
C       -7.05153536       7.87159815       0.45479410
C       -2.05727552       3.44557667       0.02336642
C       -2.37443342       1.25401942      -1.15739106
C       -3.14658386       3.26647580       0.83554289
60
Properties=species:S:1:pos:R:3 entry_id=134 rank=26 energy=-496.15460205078125 pbc="F F F"
C       -2.07587086      -3.35242678       0.45219757
C        1.15815122      -2.09520996      -2.03907952
C        4.48761014      -0.01382897       0.61531115
C       -0.76439361      -3.84360469       0.69420073
C        2.18608764       2.83925284       1.39878022
C        3.17250447      -1.87914681      -0.40982069
C       -2.80550155      -0.50949351       0.89968305
C        1.31495914      -0.59301989       2.28358788
C      -22.09642486      -0.54320192       3.69242117
C        0.45234958      -1.70154523       1.91845411
C        3.48932373       1.19032834       2.31631980
C        4.17709878       1.17530839      -1.88409498
C       -2.24625958      -2.41079115      -0.55738911
C        2.80766436       3.00582911      -1.56397790
C        1.97753013       1.19452319      -3.07111284
C        1.13876910      -2.53617829       0.96571481
C        2.04159143      -0.23124661      -3.16800645
C       -1.18502140       2.57943339      -0.18236603
C        0.48280992       2.84809779      -1.96632453
C        2.54814968      -1.97142702      -1.70394290
C      -21.43974485      -0.33176732       2.59522059
C       -2.46388896      -0.33280245      -1.49989493
C       -1.43230491       0.70402632       1.85955082
C        1.17518338       3.02902434       0.40992072
C       -0.20520718       1.41198460       1.78570174
C       -0.12851479       2.47252786       0.77538099
C       -2.40499007       1.06636109      -1.44706438
C       -0.93692992      -1.82823631       2.09172499
C       -2.53357384       0.92403605       0.96565383
C        4.17835511      -0.83277993      -0.49441992
C       -0.43079773      -0.38127243      -2.93983462
C        0.12267954      -2.73507917      -1.26605932
C        1.02420829       0.83212242       2.31600956
C       -0.85761636       2.76650164      -1.55298869
C        3.68825550      -0.11237512       1.78987293
C       -1.45139764      -1.04498816      -2.21870357
C       -1.75651955      -0.72197270       1.89577583
C        2.15754112       1.68916296       2.25066830
C        4.31617051       2.08682308       1.57161238
C        4.83943127       1.37480139       0.45631105
C       -1.44521545      -3.09127423       1.68395567
C       -2.84625017      -1.14026926      -0.36528961
C        4.10193108      -0.23271651      -1.78992257
C        2.46674376      -2.01588619       0.81142474
C        0.37861658      -3.30518382       0.03560360
C       -2.31394541       1.69458315      -0.16683374
C       -0.50923098       1.04221484      -3.05359306
C        0.84978469      -1.00195934      -2.93979270
C        4.68496537       1.96865245      -0.80292769
C       -1.51398987       1.74551760      -2.32238713
C        3.04579403       1.86750271      -2.42018893
C        3.10827358      -0.92507404      -2.52947842
C        0.70308762       1.80870783      -2.94097250
C        3.55409604       3.26135939       1.24913786
C       -1.20288642      -2.27521606      -1.50860390
C        2.61481452      -0.99768388       1.80808925
C      -21.47290687       0.21837037       1.42242888
C        3.99763928       3.24801712      -0.80838934
C        1.49726216       3.19815287      -1.02297857
C        3.97687468       4.10554554       0.26075704
60
Properties=species:S:1:pos:R:3 entry_id=146 rank=27 energy=-496.15460205078125 pbc="F F F"
C       -2.69805972      -2.88292929      -0.65328796
C        1.38668877      -2.25332077      -1.73191556
C        3.67103498      -0.16530901       1.85747420
C       -1.66260894      -3.45752619       0.13257046
C        1.65138630       2.96233247       1.42348409
C        2.61900240      -2.01711399       0.54460656
C       -3.15396244       0.04674314      -0.76485003
C        0.05204075      -0.23634401       2.15888103
C      -19.10805624      -0.55501210       5.75541789
C       -0.74171193      -1.29935451       1.56961254
C        2.26235176       1.33098960       2.91422696
C        4.51883483       0.72033280      -0.64370903
C       -2.33521281      -2.06605733      -1.71902998
C        3.39202823       2.69401028      -1.04639154
C        2.97716432       0.78996665      -2.61024208
C        0.14223887      -2.30623047       1.03990007
C        2.88110268      -0.63651486      -2.55826002
C       -0.84178228       2.81193453      -1.34950961
C        1.40761669       2.69986322      -2.33193895
C        2.54045528      -2.21584281      -0.87925604
C      -19.24343108      -1.10782912       4.59115281
C       -1.88851260      -0.11299793      -2.83339823
C       -2.11210050       1.24093999       0.56490933
C        1.13994769       3.11592865       0.10027081
C       -0.86993623       1.81896819       0.93296855
C       -0.26512850       2.73115535      -0.04357334
C       -1.66698704       1.27048724      -2.87276098
C       -2.09251090      -1.27548566       1.17981892
C       -2.73952924       1.44602809      -0.70966468
C        3.70976112      -1.08656977       0.78628925
C        0.51839994      -0.52897789      -3.32799211
C        0.05643360      -2.69179518      -1.38889158
C       -0.03374263       1.20210214       1.95709822
C        0.01378817       2.79382780      -2.48427872
C        2.47290466      -0.04064842       2.61741902
C       -0.78132483      -0.99962220      -3.02509934
C       -2.61293653      -0.13330631       0.58145195
C        1.14003972       1.93720108       2.28216073
C        3.42569449       2.04616879       2.49353130
C        4.24045897       1.15366060       1.74201853
C       -2.56712165      -2.52747298       0.70319671
C       -2.78674563      -0.73196127      -1.88665954
C        4.22398869      -0.65150990      -0.47487945
C        1.48301966      -1.93242640       1.38765097
C       -0.29247883      -3.11343954      -0.05270968
C       -1.99615699       2.04381869      -1.71695527
C        0.68242175       0.86966198      -3.57796202
C        1.60223781      -1.25967973      -2.76523620
C        4.66893401       1.59448362       0.48324651
C       -0.42311965       1.74876276      -3.36864855
C        3.78862242       1.43935596      -1.64180898
C        3.51227766      -1.33838621      -1.49242823
C        1.84734264       1.53009794      -3.05136048
C        3.01347537       3.23510163       1.80039473
C       -0.99589424      -2.14695679      -2.17844432
C        1.36810382      -0.81452347       2.27579909
C      -19.22915212      -2.22416100       3.93303314
C        4.21632016       2.92036669       0.10040533
C        2.01295359       3.07204909      -1.09222361
C        3.89606225       3.90408294       0.99940389
60
Properties=species:S:1:pos:R:3 entry_id=144 rank=28 energy=-496.1545715332031 pbc="F F F"
C       -2.78191335      -2.74726446      -1.37041553
C        1.46064225      -2.30880390      -1.59592080
C        3.04928332      -0.19535842       2.33676825
C       -1.95573049      -3.33436994      -0.37416319
C        1.30091734       2.99313884       1.42051207
C        2.20824385      -2.04683617       0.88025107
C       -3.07601730       0.19283816      -1.64336555
C       -0.55393698      -0.11733357       1.88585696
C      -18.17490506      -0.28063159       5.88155462
C       -1.25534377      -1.16735177       1.16991654
C        1.52108339       1.38770577       3.04263457
C        4.43147360       0.57453465       0.04481156
C       -2.17214255      -1.98051751      -2.35781035
C        3.49779978       2.57497872      -0.62854630
C        3.33051415       0.63947554      -2.19897258
C       -0.32689862      -2.22417486       0.85891998
C        3.16369664      -0.77986915      -2.13446450
C       -0.57359210       2.84770142      -1.80404320
C        1.82267418       2.61630715      -2.29631881
C        2.41470132      -2.28781510      -0.52414470
C      -17.67927731      -1.37855338       6.35922004
C       -1.41950214      -0.08295459      -3.40047081
C       -2.27815588       1.38944755      -0.15616784
C        1.07902120       3.12255988       0.01687009
C       -1.11393653       1.93105482       0.44692626
C       -0.28218829       2.78760894      -0.40529957
C       -1.13406452       1.28903431      -3.42695068
C       -2.49465597      -1.10455770       0.50886766
C       -2.61994142       1.57604020      -1.53764144
C        3.26678452      -1.15214832       1.31969773
C        1.01661248      -0.60701950      -3.37906064
C        0.07066248      -2.68518175      -1.52576752
C       -0.53296325       1.31581237       1.63563537
C        0.49574644       2.75937552      -2.73637752
C        1.72739858       0.00009900       2.82936124
C       -0.33712344      -1.01763321      -3.34046108
C       -2.83201466       0.03673551      -0.21017535
C        0.58022998       2.01561491       2.17855539
C        2.77620141       2.04385656       2.85460539
C        3.68791270       1.09649316       2.31008599
C       -2.91618682      -2.35248570      -0.02505302
C       -2.51920503      -0.63568493      -2.64517794
C        4.04812682      -0.77888762       0.18182649
C        0.92858083      -1.89156534       1.46832047
C       -0.56306996      -3.04901275      -0.28068513
C       -1.65994542       2.11204984      -2.38380061
C        1.28962106       0.77586355      -3.62154285
C        1.92831722      -1.35964247      -2.58652895
C        4.38532774       1.47883582       1.15702325
C        0.20463197       1.70310840      -3.66646792
C        3.95328724       1.28793913      -1.09924369
C        3.53018665      -1.46993159      -0.94421177
C        2.34885788       1.40774977      -2.88088053
C        2.56797001       3.22483484       2.06326737
C       -0.77171013      -2.12824442      -2.52977765
C        0.68280102      -0.74183658       2.28645302
C      -17.22832170      -2.55882759       6.07130843
C        4.07925600       2.80765446       0.65717197
C        2.17583605       3.00459570      -0.96743942
C        3.62527372       3.83256784       1.44595173
60
Properties=species:S:1:pos:R:3 entry_id=150 rank=29 energy=-496.1545715332031 pbc="F F F"
C       -3.22826041      -1.76989347       0.27123747
C        0.65426866      -2.29074820      -1.43581579
C        3.92866530      -0.56129319       1.52139751
C       -2.24405819      -2.52168406       0.96873939
C        2.66970852       2.92917052       0.99844750
C        2.26490295      -2.18692903       0.60084950
C       -2.98607079       1.16205857      -0.12933853
C        0.49775038       0.31487314       2.33021714
C      -22.65635559      -3.44543461       3.75212543
C       -0.61219608      -0.55613184       1.98949064
C        3.11113862       1.32543002       2.57606906
C        4.53886245      -0.12967667      -1.16143567
C       -2.86069980      -1.16209968      -0.92477627
C        3.86456949       2.02539594      -1.63935851
C        2.75584394       0.16644892      -2.88776835
C       -0.09333262      -1.79495435       1.46785791
C        2.33336437      -1.17985469      -2.65171151
C       -0.20991343       3.19039908      -1.36133027
C        1.75413487       2.42876596      -2.62605341
C        1.90846713      -2.47708222      -0.76350340
C      -21.41590233      -3.81350050       3.67796930
C       -2.15206848       0.51408283      -2.31865772
C       -1.48510778       2.15824603       0.88781601
C        1.99830331       3.09805219      -0.24912940
C       -0.09754939       2.42949568       1.00650445
C        0.53796689       3.07353170      -0.14822793
C       -1.61783115       1.78785589      -2.55664027
C       -1.96359916      -0.22177227       1.79231854
C       -2.24609848       2.40905055      -0.30297275
C        3.57038337      -1.54760185       0.57452986
C       -0.02986500      -0.53954537      -3.09082530
C       -0.66687900      -2.34688709      -0.85983571
C        0.72485542       1.70631465       1.97060655
C        0.41759934       2.86148316      -2.59366027
C        2.93683868      -0.07425021       2.42012737
C       -1.33587626      -0.63781659      -2.55491687
C       -2.28985252       0.96298612       1.14106161
C        2.07730681       2.14250519       2.03739993
C        4.32585587       1.68465409       1.91444534
C        4.76861059       0.55570405       1.16969677
C       -2.79376743      -1.34787470       1.54276196
C       -3.00239925       0.22425930      -1.18780308
C        3.95886347      -1.36347042      -0.78924657
C        1.33631723      -1.74658456       1.57691400
C       -0.88153798      -2.55349165       0.55316157
C       -1.55828227       2.71282753      -1.46883401
C        0.41873272       0.74626365      -3.52750017
C        0.92664323      -1.47285883      -2.60135746
C        5.07609719       0.76770727      -0.18032478
C       -0.39537630       1.89185503      -3.27510877
C        3.84692900       0.66623480      -2.12784582
C        2.94660623      -1.92898781      -1.60764285
C        1.77759493       1.13021987      -3.25226437
C        4.10050131       2.87772697       1.14650949
C       -1.67470843      -1.61904673      -1.55418128
C        1.63890929      -0.56718666       2.33121907
C      -20.26820653      -3.82187705       4.27978823
C        4.89668878       2.12866393      -0.65438038
C        2.62681076       2.73567360      -1.53721026
C        4.97263629       3.23171488       0.15542768
60
Properties=species:S:1:pos:R:3 entry_id=109 rank=30 energy=-496.154541015625 pbc="F F F"
C        2.72843376      -4.21597412      -0.70380999
C        2.78805693      -0.01856109      -1.48229387
C        1.21560358       2.32750048       2.32231054
C        3.49209372      -3.35326500       0.12879795
C       -2.22429464       0.91057275       1.86605327
C        2.82488284       1.07002030       0.87770964
C       -0.23789965      -4.15508475      -0.73934637
C        0.66477801      -1.26227586       2.37920159
C       -7.87407246       8.70713658      -0.70855735
C        1.55976691      -2.18193354       1.70028364
C       -0.47713319       1.12452686       3.33522940
C        0.43052563       3.49069417      -0.08425148
C        1.96187639      -3.64422679      -1.71348417
C       -1.71801612       2.75136925      -0.49022594
C        0.04806817       2.12895489      -2.14473393
C        2.69196948      -1.44804776       1.19552713
C        1.43702793       1.78641766      -2.15003352
C       -2.57444290      -1.36775323      -1.06931992
C       -2.09789765       0.89387908      -1.90305058
C        2.97204466       1.06014443      -0.55427306
C       -7.96718418       9.33387361      -1.83867961
C        0.08913593      -2.79071008      -2.72381794
C       -1.20177621      -3.02148015       0.69843822
C       -2.49661881       0.52828371       0.51860546
C       -1.54756448      -1.72838543       1.16905899
C       -2.36421905      -0.90810589       0.26818764
C       -1.23551126      -2.33306297      -2.69824572
C        1.29379415      -3.47727224       1.22238310
C       -1.54243330      -3.51211431      -0.60665237
C        2.10378140       2.28403871       1.22396064
C        0.90329568      -0.46152746      -3.07096416
C        2.99833287      -1.42500398      -1.24573256
C       -0.77097637      -1.08522716       2.22343377
C       -2.43580274      -0.44874448      -2.14449977
C        0.90300686       1.11711373       3.00489271
C        1.14940289      -1.84092038      -2.87371195
C        0.06464128      -3.75042894       0.63256829
C       -1.28328157       0.17112838       2.65149372
C       -0.98930362       2.42039456       3.01834682
C        0.01314093       3.12163151       2.29155049
C        2.43251018      -4.12362808       0.67035672
C        0.56572224      -3.84716829      -1.86163429
C        1.73390640       2.95342372       0.01596544
C        2.56525297      -0.09193133       1.64621587
C        3.38525751      -1.93506492       0.04806585
C       -2.02640608      -2.60702624      -1.54012845
C       -0.45124521      -0.04280824      -3.25891568
C        1.82337836       0.43770653      -2.46301236
C       -0.37687175       3.70804492       1.08053261
C       -1.50338024      -0.99349224      -3.09282861
C       -0.42800203       2.96838935      -1.10228085
C        2.26263472       2.20933998      -1.07012713
C       -0.88697286       1.17693589      -2.63255024
C       -2.24747435       2.26877093       2.34157244
C        2.26240207      -2.30893843      -2.08520644
C        1.46534874      -0.07686489       2.56369701
C       -7.60031282       7.57765550      -0.13527769
C       -1.77000281       3.51807042       0.71609362
C       -2.33065820       1.46419684      -0.61380649
C       -2.77338743       3.30794432       1.62597514
60
Properties=species:S:1:pos:R:3 entry_id=112 rank=31 energy=-496.154541015625 pbc="F F F"
C        2.62386062      -4.35940311      -0.29380503
C        2.91690007      -0.24356579      -1.39596762
C        1.19370506       2.45959692       2.09464951
C        3.36741749      -3.46085184       0.51865361
C       -2.26316579       1.13783974       1.51071740
C        2.84137290       1.03109183       0.86838422
C       -0.32790164      -4.19223580      -0.54319587
C        0.48933943      -1.09090034       2.39398260
C       -8.52644553       9.04439967       0.53937950
C        1.38744946      -2.09483634       1.85348310
C       -0.61171005       1.40505858       3.07846964
C        0.62066089       3.45218059      -0.44425892
C        1.95112654      -3.84263143      -1.39582244
C       -1.52518495       2.76196577      -0.94084319
C        0.31948183       1.94294430      -2.41412294
C        2.58080160      -1.44666137       1.37280166
C        1.68984134       1.54965334      -2.29516183
C       -2.51562056      -1.35552845      -1.25458041
C       -1.88802519       0.81161347      -2.22819849
C        3.08352348       0.89970732      -0.54471565
C       -9.55788440       8.34983855       0.90478906
C        0.18932804      -3.00580524      -2.60020846
C       -1.33524377      -2.90993174       0.72929008
C       -2.46118965       0.65852185       0.18142119
C       -1.65519730      -1.57117392       1.07121013
C       -2.37479841      -0.79715358       0.05422176
C       -1.11320946      -2.49913888      -2.70453241
C        1.09772759      -3.41368885       1.46183935
C       -1.60976397      -3.49210660      -0.55368801
C        2.15075571       2.29504490       1.06763043
C        1.12442107      -0.74445085      -3.07212143
C        3.05020951      -1.63322149      -1.03493591
C       -0.92377175      -0.87466158       2.12403423
C       -2.26554704      -0.53267258      -2.38621401
C        0.78595653       1.32081291       2.84680174
C        1.29679083      -2.11136509      -2.74918632
C       -0.09948942      -3.68821134       0.81029796
C       -1.40958704       0.42999542       2.41575345
C       -1.04675441       2.68910551       2.62686497
C        0.03025207       3.29196448       1.91847312
C        2.24286341      -4.14483836       1.04504078
C        0.56130000      -4.00568809      -1.62666611
C        1.89097024       2.87781034      -0.21202510
C        2.48165085      -0.05451507       1.70508068
C        3.32801876      -2.05088701       0.31878874
C       -1.99117763      -2.64882492      -1.58691011
C       -0.19537333      -0.29251919      -3.38717984
C        2.03949340       0.16676354      -2.47432955
C       -0.25327996       3.79163958       0.64083499
C       -1.29578689      -1.18689700      -3.22080970
C       -0.18907297       2.88117890      -1.47623762
C        2.45866392       2.02854725      -1.19698360
C       -0.62000554       0.98968079      -2.89098423
C       -2.26213368       2.52953837       1.87756583
C        2.33307929      -2.55458128      -1.84991844
C        1.32533637       0.07535053       2.54048760
C       -7.23585104       9.14538736       0.59993972
C       -1.62580747       3.62426126       0.19608432
C       -2.18147536       1.49240612      -1.00657000
C       -2.69491454       3.52617799       1.04825758
60
Properties=species:S:1:pos:R:3 entry_id=118 rank=32 energy=-496.154541015625 pbc="F F F"
C        2.34216569      -4.46069567       0.27636795
C        3.08204048      -0.62068466      -1.43992514
C        1.61092473       2.75946806       1.53895658
C        3.16515999      -3.52655363       0.96194198
C       -1.96179504       1.72446929       1.06725193
C        3.11293965       0.99422126       0.59683433
C       -0.57188782      -4.03199612      -0.08125298
C        0.52980646      -0.60838196       2.36270166
C      -11.26748861       6.27158775       2.43759197
C        1.32341010      -1.77179721       2.01078666
C       -0.30918159       2.06396953       2.62013701
C        1.17959699       3.39460305      -1.13848884
C        1.74277549      -4.05731868      -0.91208426
C       -1.02063008       2.85730219      -1.58295079
C        0.74467708       1.63316016      -2.85808243
C        2.58477111      -1.33319243       1.47065744
C        2.06407330       1.12545305      -2.64085770
C       -2.43888484      -1.13399267      -1.28565048
C       -1.57215619       0.77729700      -2.56283639
C        3.35819243       0.61866308      -0.77116165
C      -11.90945532       8.18457660       3.86860561
C        0.09424658      -3.24293569      -2.28094668
C       -1.45607644      -2.47087364       0.94910680
C       -2.19147742       1.06430526      -0.17684384
C       -1.63709142      -1.06900027       1.07031959
C       -2.25739500      -0.39468174      -0.07507791
C       -1.14616914      -2.62822305      -2.49962849
C        0.90124468      -3.09934483       1.81963089
C       -1.77285174      -3.21544975      -0.23670490
C        2.55794883       2.33792620       0.57814128
C        1.26871404      -1.19214706      -3.07022304
C        3.06330657      -1.94274022      -0.86485140
C       -0.84926546      -0.29335809       2.02266318
C       -2.08876529      -0.52890451      -2.52319516
C        1.07447460       1.80117707       2.44586608
C        1.29217456      -2.50206964      -2.53558269
C       -0.31017965      -3.34907146       1.18469097
C       -1.19828948       1.08397424       2.09498405
C       -0.59958077       3.29854411       1.96215072
C        0.54487408       3.66917450       1.20196249
C        1.96746564      -4.00044329       1.55357548
C        0.34626500      -4.10993039      -1.15384177
C        2.37864963       2.73640016      -0.78314406
C        2.62953823       0.09653804       1.58073122
C        3.27695370      -2.16885189       0.54490409
C       -2.04942360      -2.51000360      -1.39855124
C        0.00798950      -0.66236356      -3.48852389
C        2.26695751      -0.29687957      -2.59374579
C        0.33290928       3.98880615      -0.14530977
C       -1.18307216      -1.40191394      -3.21817539
C        0.32691934       2.75380560      -2.09170437
C        2.86555442       1.68944079      -1.60810911
C       -0.28433598       0.71816888      -3.20801697
C       -1.81570318       3.14923111       1.21185552
C        2.26480300      -2.90272015      -1.54923469
C        1.48269756       0.47405529       2.35153202
C      -11.51607366       7.01644075       3.46857725
C       -1.04380829       3.89439302      -0.59830749
C       -1.80738375       1.66772764      -1.47041337
C       -2.12886912       4.04277093       0.22594999
60
Properties=species:S:1:pos:R:3 entry_id=124 rank=33 energy=-496.154541015625 pbc="F F F"
C        0.92845880      -4.81344660       0.06661301
C        2.53481783      -1.57551708      -2.20810054
C        3.80584437       1.93487170       0.71064687
C        2.25385951      -4.36429911       0.31534362
C        0.22754635       2.56554418       1.63263939
C        3.97563366      -0.24873411      -0.49914190
C       -1.44821626      -3.15370832       0.70694743
C        1.79042253      -0.68035176       2.22162507
C      -20.88860570       5.60487507       2.55430199
C        1.83576221      -2.05011069       1.74355600
C        2.30696224       2.07347933       2.46406147
C        2.74427961       2.84262672      -1.69893590
C        0.16816468      -4.12481374      -0.87256738
C        0.52665865       3.33109486      -1.28633915
C        1.02133519       1.54019853      -2.95678823
C        2.87525595      -2.16725367       0.75297120
C        1.98558962       0.50315743      -3.16046485
C       -2.22175487       0.32870944      -0.07808421
C       -1.15993401       1.74941249      -1.77847081
C        3.52695277      -0.61527270      -1.81746518
C      -21.41570284       6.46235245       1.73811954
C       -1.35752425      -2.60540597      -1.65849830
C       -1.15607046      -1.42445442       1.80416369
C       -0.69123372       2.14020563       0.62722663
C       -0.67459410      -0.09026181       1.82697268
C       -1.32199895       0.84857084       0.90423553
C       -2.21158330      -1.50600001      -1.49610235
C        0.85783741      -3.05373236       1.85783791
C       -2.16129418      -1.89246994       0.89263713
C        4.07001935       1.20168202      -0.46854971
C        0.19516909      -1.21842209      -3.02802305
C        2.17278517      -2.79061385      -1.52137676
C        0.65146954       0.21554752       2.35330189
C       -2.12384418       0.79237006      -1.41832797
C        3.28552757       1.25154171       1.84682860
C       -0.14137998      -2.43804292      -2.39434109
C       -0.48533765      -2.72180422       1.71879213
C        0.96549751       1.60242644       2.39231618
C        2.34559100       3.34756299       1.81857794
C        3.17806185       3.23156325       0.67044222
C        1.27154030      -4.30911606       1.33597281
C       -1.10422427      -3.55864611      -0.60356170
C        3.59504742       1.71440572      -1.71582947
C        3.55223049      -0.90441496       0.68369696
C        2.76646001      -3.16574992      -0.25971217
C       -2.51573087      -1.07252382      -0.16877250
C       -0.78370008      -0.17570646      -3.03500163
C        1.57460577      -0.86842161      -3.03245000
C        2.64789089       3.68613871      -0.54357370
C       -1.98760086      -0.34513543      -2.28604130
C        1.42107427       2.68643011      -2.21929219
C        3.26302831       0.60851222      -2.54049405
C       -0.34617937       1.17841170      -2.82287884
C        0.99939055       3.77818007       1.56153912
C        0.85683815      -3.27264482      -1.77297310
C        3.03424998      -0.11423722       1.76063246
C      -21.08668747       4.87863882       3.60935116
C        1.29884035       4.21934911      -0.47389610
C       -0.58669273       2.59150072      -0.77663128
C        0.75612436       4.77307772       0.65638679
60
Properties=species:S:1:pos:R:3 entry_id=130 rank=34 energy=-496.154541015625 pbc="F F F"
C       -0.11811879      -4.57369559       0.09659983
C        2.06085675      -1.75708364      -2.26160401
C        4.22930219       1.35165666       0.58333222
C        1.28492162      -4.43546905       0.27688285
C        0.93654988       2.75802407       1.67983512
C        3.84404694      -0.80216257      -0.62895112
C       -2.02552981      -2.43000459       0.85079145
C        1.75699535      -0.76067859       2.19919902
C      -20.55371595       3.86117841       1.28802462
C        1.46927981      -2.10088895       1.72135704
C        2.89013224       1.80554739       2.41090518
C        3.28167999       2.49792923      -1.77226476
C       -0.74914903      -3.72350935      -0.80539151
C        1.25364742       3.46885844      -1.25196821
C        1.25155531       1.62640813      -2.94052578
C        2.40495691      -2.43799399       0.67929080
C        1.94653492       0.40081023      -3.18931524
C       -2.03371934       1.14417247       0.09823076
C       -0.76638191       2.30800956      -1.65590714
C        3.26092868      -1.04727514      -1.92228014
C      -21.61440183       2.94451642       3.32685278
C       -1.93179424      -1.89365958      -1.51833461
C       -1.29706797      -0.82074654       1.92694928
C       -0.10209110       2.55914977       0.72182048
C       -0.52762852       0.37081268       1.92319019
C       -0.99225945       1.43934629       1.03241881
C       -2.50732302      -0.63190124      -1.31534003
C        0.29807124      -2.86113367       1.88628332
C       -2.42605852      -1.04245470       1.06880195
C        4.26319365       0.58968115      -0.60639910
C       -0.17573263      -0.87734789      -2.96564992
C        1.46900226      -2.86644090      -1.55589488
C        0.85671535       0.36689647       2.38333372
C       -1.90101789       1.58739922      -1.24570468
C        3.62701697       0.79088440       1.74590607
C       -0.74671027      -1.99669339      -2.31449854
C       -0.94099074      -2.23481781       1.81199352
C        1.47537451       1.64748479       2.40450902
C        3.18138341       3.04526087       1.76204046
C        3.90732855       2.75631044       0.57281744
C        0.39270932      -4.17246889       1.34643468
C       -1.84694081      -2.88877917      -0.47480538
C        3.85502651       1.20738261      -1.82954888
C        3.34393470      -1.35838410       0.57448329
C        2.02455476      -3.37694274      -0.32488188
C       -2.63985107      -0.15410774       0.02500949
C       -0.89363456       0.35878246      -2.92515680
C        1.24499833      -0.84500640      -3.03853624
C        3.43340139       3.32970006      -0.61400669
C       -2.06635929       0.45660845      -2.11688849
C        1.93382964       2.64819736      -2.22702231
C        3.24340132       0.21116669      -2.63388202
C       -0.15383829       1.57865471      -2.73823574
C        1.95494468       3.76904322       1.57155475
C        0.06792338      -3.03944170      -1.74139138
C        3.07192867      -0.48325226       1.67549867
C      -21.27927791       3.14917832       2.09185971
C        2.24418035       4.15215666      -0.47848854
C        0.02998795       2.99084691      -0.68576990
C        1.89623111       4.80140700       0.67749367
60
Properties=species:S:1:pos:R:3 entry_id=135 rank=35 energy=-496.154541015625 pbc="F F F"
C       -2.34611669      -3.12976333       0.22415976
C        1.18938769      -2.15017889      -1.96147090
C        4.34815592      -0.14169534       0.94666474
C       -1.09624057      -3.67981820       0.61787447
C        2.14488402       2.86088852       1.38368407
C        3.03831298      -1.97565861      -0.14138525
C       -2.95413536      -0.23701374       0.49120523
C        0.99393243      -0.48166626       2.29712034
C      -21.92740244      -1.39979925       2.43936233
C        0.11105679      -1.55787498       1.88599511
C        3.25147018       1.18406650       2.48935526
C        4.35937741       0.95782090      -1.61212263
C       -2.35999986      -2.22295104      -0.83050471
C        3.07211955       2.87097626      -1.50224534
C        2.29564297       1.04474017      -3.02010014
C        0.84154853      -2.46644570       1.03964620
C        2.28789498      -0.38512332      -3.05944504
C       -1.05919196       2.71495277      -0.52702077
C        0.79380507       2.82085539      -2.13722833
C        2.54313161      -2.08699644      -1.48882569
C      -21.62739923      -0.56782759       3.38656453
C       -2.36284043      -0.17716671      -1.86512060
C       -1.61696614       0.93985365       1.54258338
C        1.25147518       3.06328976       0.28929541
C       -0.35063971       1.57848834       1.57086607
C       -0.11236140       2.59176180       0.53755636
C       -2.22991667       1.21817715      -1.85657202
C       -1.29387098      -1.60284730       1.91763803
C       -2.60866413       1.18138938       0.53366910
C        4.10651270      -0.98892490      -0.15899380
C       -0.19950022      -0.39322953      -3.08322654
C        0.04630810      -2.70109629      -1.27703225
C        0.78329243       0.95704468       2.24625482
C       -0.58441440       2.82770706      -1.86194711
C        3.42862136      -0.14852578       2.03426563
C       -1.32405304      -0.97087450      -2.44780713
C       -2.02398367      -0.46407188       1.59623151
C        1.96424743       1.74975518       2.26792089
C        4.19999630       2.00354291       1.80366713
C        4.79309015       1.21890145       0.77507663
C       -1.82977447      -2.85272460       1.50470927
C       -2.90410407      -0.91582159      -0.74821885
C        4.19521406      -0.43936771      -1.47612358
C        2.20597522      -2.02414643       1.00459908
C        0.13659035      -3.23053730       0.06301666
C       -2.23279195       1.89254089      -0.59659325
C       -0.18469392       1.02641072      -3.25519789
C        1.03684579      -1.08120497      -2.92850242
C        4.80055265       1.76743067      -0.51397007
C       -1.21677898       1.81206317      -2.65829472
C        3.32944005       1.68610953      -2.28667691
C        3.24288560      -1.10739528      -2.28897408
C        1.05186855       1.73111961      -3.04512070
C        3.54304261       3.20273639       1.36217840
C       -1.21927179      -2.18157569      -1.67177403
C        2.31021461      -0.97438606       1.97366475
C      -20.66533979      -0.02208434       4.06189074
C        4.19185374       3.08057911      -0.63701001
C        1.72640489       3.15563344      -1.10746000
C        4.11222487       3.98107020       0.39328057
60
Properties=species:S:1:pos:R:3 entry_id=141 rank=36 energy=-496.154541015625 pbc="F F F"
C       -2.22599419      -3.08900229       0.14645726
C        1.35815637      -2.14809893      -1.97739277
C        4.46829570      -0.13034766       0.97750887
C       -0.98696098      -3.64236525       0.56936228
C        2.27163441       2.88528617       1.34786087
C        3.16987831      -1.96482173      -0.12156896
C       -2.82358867      -0.19124081       0.37829486
C        1.08559926      -0.44152566       2.26535454
C      -23.04636499      -0.74846011       4.40065883
C        0.20525453      -1.51522093       1.84314352
C        3.34837321       1.21264569       2.48807425
C        4.53606942       0.94869235      -1.59018439
C       -2.21264797      -2.19139969      -0.91576732
C        3.25530699       2.86729883      -1.51946948
C        2.50173480       1.03398369      -3.04025264
C        0.94730463      -2.43367696       1.01797113
C        2.48665287      -0.39597611      -3.06614297
C       -0.89353497       2.74034389      -0.62548797
C        0.99170418       2.82216202      -2.19937103
C        2.70196368      -2.08652067      -1.47760923
C      -24.14924368      -1.22720728       3.91698296
C       -2.18423883      -0.15535809      -1.96703357
C       -1.50382150       0.98851989       1.44881114
C        1.40091892       3.08354997       0.23466277
C       -0.23469133       1.62037809       1.49804540
C        0.02991295       2.62262963       0.46018326
C       -2.04475921       1.23895219      -1.96688702
C       -1.19995627      -1.55284012       1.84814571
C       -2.47241657       1.22574657       0.41607993
C        4.24323867      -0.98405262      -0.12613861
C        0.00094102      -0.39317033      -3.14140177
C        0.19865187      -2.68760719      -1.31179231
C        0.88295382       0.99745993       2.20021919
C       -0.39101800       2.83802957      -1.95147218
C        3.52742124      -0.12399447       2.04710131
C       -1.13915558      -0.95985944      -2.52398381
C       -1.91877468      -0.41294339       1.50514424
C        2.06823620       1.78279198       2.23756366
C        4.31413428       2.02184766       1.81455140
C        4.92349273       1.22628759       0.80388918
C       -1.73325760      -2.80308800       1.43421243
C       -2.75017806      -0.88082928      -0.85414686
C        4.36123223      -0.44608254      -1.44542716
C        2.31425983      -1.99899159       1.00726031
C        0.25875777      -3.20413027       0.03499196
C       -2.06993696       1.92429802      -0.71262709
C        0.02645612       1.02509833      -3.32488772
C        1.23025919      -1.08545025      -2.95522192
C        4.95858537       1.76429788      -0.48911535
C       -1.01259576       1.82014267      -2.75284407
C        3.52353586       1.67652466      -2.29132209
C        3.42217258      -1.11644910      -2.27125522
C        1.26225528       1.72585982      -3.09583099
C        3.67141836       3.22015398       1.35093038
C       -1.05591316      -2.16435244      -1.73586629
C        2.40541862      -0.94335823       1.97090423
C      -25.43095806      -1.06041257       3.82074172
C        4.35826838       3.07861371      -0.63366863
C        1.90391539       3.16030774      -1.15308209
C        4.26257061       3.98804999       0.38717022
60
Properties=species:S:1:pos:R:3 entry_id=142 rank=37 energy=-496.154541015625 pbc="F F F"
C       -2.35833747      -3.11378699      -0.23839595
C        1.45423754      -2.17181694      -1.91792085
C        4.16516249      -0.09138973       1.36590980
C       -1.17745149      -3.65105660       0.34186296
C        1.92422900       2.91148047       1.41989023
C        3.02331741      -1.95114431       0.14304828
C       -2.99510127      -0.21798257      -0.12372213
C        0.65316809      -0.41277417       2.23537061
C      -22.12795536      -1.62779210       5.46758436
C       -0.16278639      -1.49968956       1.72523409
C        2.86193864       1.26338369       2.70881146
C        4.54353778       0.95244663      -1.18911927
C       -2.22096735      -2.23133261      -1.30472707
C        3.25368722       2.86281406      -1.30494503
C        2.70224509       1.00258861      -2.87901121
C        0.68066581      -2.42293066       1.00975636
C        2.69898681      -0.42789941      -2.88677614
C       -0.97307643       2.71466494      -0.92470318
C        1.09006592       2.79150641      -2.25646062
C        2.72640228      -2.09415177      -1.25842447
C      -22.21972320      -0.76921441       4.50121485
C       -2.07416981      -0.20802560      -2.37224075
C       -1.82294523       0.98546142       1.08340154
C        1.19669455       3.08656778       0.20504165
C       -0.57283501       1.62710052       1.27845059
C       -0.18834181       2.61673067       0.26662856
C       -1.94327219       1.18738841      -2.37505512
C       -1.55800416      -1.54792017       1.55617048
C       -2.65966573       1.20218356      -0.06278982
C        4.08309158      -0.96220993       0.25595698
C        0.24049165      -0.44417902      -3.26508525
C        0.22489779      -2.71073624      -1.39126815
C        0.45283153       1.02397214       2.12297924
C       -0.31304840       2.79997125      -2.18047418
C        3.10100298      -0.07811178       2.31246048
C       -0.96352893      -1.01135000      -2.78419033
C       -2.23354952      -0.41825578       1.10804529
C        1.61916491       1.82003520       2.29443273
C        3.89820954       2.07060329       2.14624564
C        4.63054674       1.26585414       1.22940613
C       -2.03023752      -2.80727830       1.09661438
C       -2.76953513      -0.92358831      -1.32818351
C        4.35975769      -0.44149872      -1.04654900
C        2.03621634      -1.97744953       1.15953036
C        0.12218057      -3.21003174      -0.04051425
C       -2.12550382       1.88891954      -1.14324410
C        0.28044739       0.97140021      -3.46460284
C        1.44181626      -1.12452072      -2.92001168
C        4.82305156       1.78657782      -0.05671584
C       -0.82585119       1.76621099      -3.03686887
C        3.62092814       1.66304324      -2.01999779
C        3.53359340      -1.13026643      -1.97199046
C        1.47473392       1.68424078      -3.09575981
C        3.31089067       3.25765867       1.58949437
C       -0.97122788      -2.20474316      -1.97490828
C        2.00223633      -0.90814374       2.11202164
C      -21.66183394      -0.31273813       3.42426908
C        4.23816943       3.09477443      -0.29351546
C        1.86571037       3.15049906      -1.11134760
C        4.01157187       4.01705090       0.69471221
60
Properties=species:S:1:pos:R:3 entry_id=151 rank=38 energy=-496.154541015625 pbc="F F F"
C       -3.06076189      -1.86746221      -0.49332750
C        1.04220661      -2.24612456      -1.61573005
C        3.79630272      -0.51547706       1.83148628
C       -2.16947484      -2.61307523       0.32569539
C        2.53039641       2.95501526       1.20219496
C        2.33233569      -2.15755155       0.63951906
C       -2.84385465       1.07835892      -0.78887858
C        0.26077660       0.25404735       2.14069053
C      -24.26314166      -3.09644333       4.86874398
C       -0.76172664      -0.63508575       1.62030790
C        2.77923404       1.32274850       2.79343736
C        4.78141102       0.00158580      -0.72186537
C       -2.54026303      -1.22021096      -1.60880531
C        4.12519363       2.15103411      -1.24762853
C        3.26507564       0.29834691      -2.68626098
C       -0.13716151      -1.84687409       1.15465927
C        2.84993429      -1.06316998      -2.54419428
C        0.02379153       3.20727934      -1.55139429
C        2.17325391       2.52804834      -2.52827287
C        2.18793161      -2.41931141      -0.76894003
C      -24.04917458      -3.99320379       5.77912204
C       -1.68089203       0.50927712      -2.84464106
C       -1.53819911       2.08477673       0.46115056
C        2.04586098       3.14076242      -0.12699969
C       -0.19177558       2.38695565       0.78905037
C        0.58809822       3.07711270      -0.24399849
C       -1.15250643       1.80137443      -2.97161900
C       -2.07784978      -0.32935118       1.23193109
C       -2.12310280       2.34834987      -0.82310915
C        3.60877258      -1.48512393       0.82039110
C        0.56098275      -0.47044330      -3.31564997
C       -0.34729331      -2.35084636      -1.24450970
C        0.49962446       1.65891102       1.84755323
C        0.83483130       2.92665299      -2.68460834
C        2.66981096      -0.07658540       2.58414456
C       -0.80648681      -0.61531143      -2.98214679
C       -2.33623083       0.86287292       0.56504887
C        1.81414445       2.12673172       2.12392276
C        4.06766698       1.72903542       2.32751780
C        4.64689322       0.63092313       1.63221166
C       -2.83073213      -1.46825122       0.83782451
C       -2.68045204       0.16911589      -1.85913174
C        4.18748324      -1.25512191      -0.46661108
C        1.25853318      -1.76642382       1.47727511
C       -0.76044392      -2.60024972       0.11625324
C       -1.27994177       2.69883584      -1.86697621
C        1.03316857       0.83660294      -3.65374286
C        1.46031948      -1.39164506      -2.70935046
C        5.14252275       0.88615821       0.34723730
C        0.15875729       1.95464774      -3.49949720
C        4.21779828       0.80494360      -1.76253321
C        3.32303641      -1.82368044      -1.43758861
C        2.32509231       1.24675490      -3.17156631
C        3.92418194       2.93548707       1.56045953
C       -1.26166316      -1.63071839      -2.06494046
C        1.41315334      -0.59951634       2.29340163
C      -24.42366186      -5.13506326       6.26364447
C        4.99596032       2.25416378      -0.11759667
C        2.86693151       2.82835512      -1.31561674
C        4.92225556       3.33817283       0.71788825
60
Properties=species:S:1:pos:R:3 entry_id=90 rank=39 energy=-496.1545104980469 pbc="F F F"
C        2.73727677      -3.94429452      -1.40520895
C        2.42748421       0.30147045      -1.75729177
C        1.45698021       2.17806069       2.48608447
C        3.59303416      -3.10668019      -0.63940094
C       -1.92627629       0.56337827       2.50846851
C        2.83794893       1.17377248       0.65750463
C       -0.18417706      -4.09245174      -0.90689777
C        1.11961248      -1.43316663       2.27619219
C       -6.72039659       8.36819698      -3.30976450
C        1.92233571      -2.22155591       1.35938158
C        0.04717218       0.76972841       3.65691101
C        0.17954413       3.49147065       0.38776145
C        1.76845524      -3.33956537      -2.19916839
C       -1.96275287       2.63789816       0.29853523
C       -0.50143542       2.29628672      -1.69935468
C        2.90080239      -1.36620504       0.73758483
C        0.87948126       2.05678141      -1.98680145
C       -2.68785190      -1.46139784      -0.53327799
C       -2.49563851       0.89349601      -1.20574074
C        2.71947376       1.30300951      -0.77170325
C       -7.09685334       7.18561624      -2.93731588
C       -0.30091503      -2.53538044      -2.76921207
C       -0.92791254      -3.16566374       0.78693648
C       -2.42084875       0.28471053       1.19927598
C       -1.24973350      -1.94771659       1.43939943
C       -2.26051531      -1.11013736       0.78530996
C       -1.62126425      -2.17865217      -2.46322915
C        1.64270444      -3.48483495       0.80927140
C       -1.47534382      -3.55961834      -0.48033308
C        2.12854951       2.29726028       1.24807134
C        0.30851697      -0.13209510      -3.02098668
C        2.75309412      -1.10227952      -1.70442617
C       -0.32761592      -1.34751075       2.39798184
C       -2.79885242      -0.44249112      -1.51790035
C        1.34090513       0.89165512       3.08685332
C        0.66064408      -1.50265267      -3.00945514
C        0.34273639      -3.79243920       0.42345025
C       -0.81859759      -0.17424702       3.03523232
C       -0.58390194       2.04863391       3.56968277
C        0.22784395       2.88286883       2.75081526
C        2.69431155      -3.99575458       0.00161581
C        0.38219602      -3.62750654      -2.11637888
C        1.50654622       3.04378726       0.19904039
C        2.78612562      -0.06830906       1.33793316
C        3.39727866      -1.69783441      -0.55769232
C       -2.16995432      -2.61124953      -1.21658413
C       -1.07841686       0.20305592      -2.92132860
C        1.27492054       0.77321630      -2.49944863
C       -0.41008578       3.54455036       1.69372748
C       -2.02877682      -0.83188973      -2.66711677
C       -0.82178534       3.00145231      -0.50857605
C        1.86536180       2.43955825      -1.03364482
C       -1.45714076       1.32730660      -2.10712567
C       -1.93503893       1.86804560       3.11618720
C        1.92328613      -1.95849711      -2.48288926
C        1.87512430      -0.21454986       2.43352253
C       -7.05047436       9.44172806      -3.95570536
C       -1.83376007       3.28751693       1.56617095
C       -2.51698955       1.32693031       0.15570265
C       -2.63950893       2.92631622       2.61440900
60
Properties=species:S:1:pos:R:3 entry_id=148 rank=40 energy=-496.1545104980469 pbc="F F F"
C       -3.08031491      -2.22369964       0.21393728
C        0.83811732      -2.33002213      -1.48298213
C        3.92719687      -0.36685789       1.52761775
C       -2.03020233      -2.89371303       0.89886220
C        2.33964319       2.99923264       1.07779322
C        2.42750873      -2.12177346       0.56346148
C       -3.11776814       0.72572046      -0.11852819
C        0.42606507       0.15848508       2.34013923
C      -20.61349022      -2.08121324       4.51690957
C       -0.59493239      -0.80579826       1.97299516
C        2.92989934       1.40851223       2.61980609
C        4.49946282       0.18252895      -1.14238974
C       -2.77086867      -1.55670715      -0.96684341
C        3.62225458       2.27304921      -1.57385788
C        2.70069036       0.34626703      -2.87030414
C        0.04089056      -1.97722865       1.42641327
C        2.40741768      -1.03886493      -2.66611259
C       -0.54537671       3.03729909      -1.28983097
C        1.48614681       2.49502102      -2.56139696
C        2.10243619      -2.41168770      -0.80867019
C      -19.74633640      -2.58985748       3.69908118
C       -2.22108580       0.21127991      -2.31848330
C       -1.72162490       1.83689505       0.92883287
C        1.65856470       3.13119169      -0.16896280
C       -0.36646933       2.23590546       1.06076779
C        0.20707484       2.96446397      -0.07593676
C       -1.80970196       1.53531981      -2.52407314
C       -1.97158143      -0.59792203       1.77585766
C       -2.50080945       2.04211580      -0.25951533
C        3.66627155      -1.36059975       0.55710120
C       -0.00531548      -0.61720116      -3.10371597
C       -0.47344235      -2.52603294      -0.91640398
C        0.51934928       1.57294964       2.01256121
C        0.11438979       2.79750818      -2.52576994
C        2.89131456       0.00217793       2.43302821
C       -1.29787579      -0.85165196      -2.57700892
C       -2.40798711       0.56419287       1.14944601
C        1.82348052       2.13513912       2.09586821
C        4.10570414       1.89730917       1.97151238
C        4.65700853       0.83321073       1.20439446
C       -2.69073442      -1.79138439       1.49679493
C       -3.04318790      -0.18420569      -1.19868013
C        4.03832271      -1.10891763      -0.80042074
C        1.45922674      -1.79606956       1.54563095
C       -0.66984055      -2.78526107       0.49004853
C       -1.84212425       2.43652384      -1.41499646
C        0.32016306       0.71507560      -3.50918780
C        1.03471996      -1.46485918      -2.62897684
C        4.94609669       1.10467374      -0.13898555
C       -0.60031114       1.77142007      -3.23383929
C        3.73680601       0.93045812      -2.09373636
C        3.08601348      -1.74905744      -1.63547598
C        1.63561171       1.22004731      -3.21757008
C        3.76855749       3.08069510       1.23000929
C       -1.54453452      -1.88348181      -1.60034826
C        1.64630331      -0.61068260       2.32798737
C      -19.56331971      -3.41117497       2.71361977
C        4.63672537       2.45270254      -0.58205405
C        2.32219642       2.85919343      -1.46165525
C        4.60453920       3.54047726       0.25126549
60
Properties=species:S:1:pos:R:3 entry_id=110 rank=41 energy=-496.15447998046875 pbc="F F F"
C        2.53901496      -4.30108371      -0.77723056
C        2.81999911      -0.09604076      -1.47079391
C        1.38257731       2.24549893       2.39135344
C        3.34900821      -3.49722361       0.06985396
C       -2.12560798       1.02057844       1.91912374
C        2.91861822       0.93761573       0.91265307
C       -0.42027283      -4.08233648      -0.80022922
C        0.64425366      -1.31011211       2.37440935
C       -8.40472641       8.20001613      -1.07443351
C        1.48704096      -2.26019902       1.67231781
C       -0.36706688       1.11097595       3.38721608
C        0.65248913       3.50006048       0.01274023
C        1.80125815      -3.66747835      -1.77167902
C       -1.53253404       2.88395895      -0.40083452
C        0.19375636       2.20634524      -2.07603695
C        2.65422017      -1.57576846       1.17785690
C        1.56268407       1.79103595      -2.09394515
C       -2.60527910      -1.17048078      -1.06334067
C       -2.01207567       1.07973485      -1.85126129
C        3.06178168       0.95116624      -0.52001143
C       -8.48845239       8.82040845      -2.20916766
C       -0.02583607      -2.69520161      -2.75655317
C       -1.32060873      -2.93367778       0.66574456
C       -2.42015751       0.68322403       0.56440292
C       -1.59382701      -1.63389465       1.16386121
C       -2.36671482      -0.75209179       0.28293811
C       -1.32455116      -2.16996383      -2.71753849
C        1.15024255      -3.52888891       1.16893677
C       -1.68929914      -3.37579986      -0.64951752
C        2.26324595       2.17960895       1.28797197
C        0.90990590      -0.40569793      -3.06121770
C        2.95603101      -1.51647929      -1.26383224
C       -0.78047597      -1.05586766       2.22858415
C       -2.42070256      -0.23754131      -2.11949021
C        1.00965058       1.03916285       3.05055937
C        1.08277991      -1.80003579      -2.89193365
C       -0.09370031      -3.72533289       0.57935901
C       -1.22389316       0.21596070       2.68598176
C       -0.81185275       2.43833520       3.09981582
C        0.22310326       3.10100078       2.38243055
C        2.25219810      -4.22210282       0.59931885
C        0.39615630      -3.79252762      -1.91787484
C        1.92600552       2.89356940       0.09597326
C        2.60034832      -0.22498157       1.65749889
C        3.31786186      -2.07383656       0.01795404
C       -2.12590993      -2.42675418      -1.56223445
C       -0.42150109       0.08741141      -3.23464105
C        1.87775143       0.43119647      -2.43821990
C       -0.13935696       3.73177805       1.18547883
C       -1.52172163      -0.81018261      -3.08328265
C       -0.23481501       3.04715914      -1.01394003
C        2.41194773       2.14667603      -1.00816351
C       -0.79061314       1.31467391      -2.58022604
C       -2.07800439       2.36697803       2.42493327
C        2.17200118      -2.34287895      -2.11830268
C        1.50658734      -0.17260381       2.58087921
C       -8.08420607       7.09021638      -0.48704025
C       -1.54136607       3.62403977       0.82317555
C       -2.20983808       1.63280148      -0.54872674
C       -2.55062031       3.44700805       1.73343153
60
Properties=species:S:1:pos:R:3 entry_id=119 rank=42 energy=-496.15447998046875 pbc="F F F"
C        2.21640658      -4.58128783       0.23453328
C        3.13800076      -0.79277482      -1.50888438
C        1.92040080       2.67215140       1.48417705
C        3.10427880      -3.69334198       0.90069772
C       -1.71224910       1.84095079       1.08898136
C        3.30264751       0.82332517       0.51986709
C       -0.67611470      -3.98907693      -0.06562536
C        0.66883042      -0.62677073       2.34496151
C      -14.23658869       6.76534386       4.40528740
C        1.38754971      -1.83400054       1.98026552
C       -0.01293945       2.08929379       2.60747242
C        1.47225961       3.32423073      -1.18545419
C        1.61569926      -4.14665158      -0.94212616
C       -0.76345573       2.91384059      -1.58486872
C        0.90404438       1.58636446      -2.88944179
C        2.66085156      -1.46893586       1.41364783
C        2.19678566       1.00519558      -2.69630517
C       -2.39814228      -0.99171954      -1.24251676
C       -1.45057692       0.86439079      -2.54392924
C        3.49837728       0.43097631      -0.85141921
C      -13.08307597       8.44919810       3.00812490
C       -0.01154733      -3.24375171      -2.28108336
C       -1.44778837      -2.37620343       0.97529140
C       -2.00359152       1.19253807      -0.14801560
C       -1.54585459      -0.96611140       1.09580400
C       -2.14989678      -0.26020716      -0.03910050
C       -1.21975805      -2.56105147      -2.47869526
C        0.88626450      -3.13547742       1.80083530
C       -1.83055726      -3.10483924      -0.20053517
C        2.82375494       2.19620515       0.50682616
C        1.26162825      -1.26417017      -3.09995273
C        3.05537850      -2.11000858      -0.92797416
C       -0.69700679      -0.23491208       2.03059625
C       -2.03908774      -0.41045575      -2.48842023
C        1.34955842       1.74794011       2.40492617
C        1.22044400      -2.57098227      -2.55959767
C       -0.35013149      -3.31814413       1.19204325
C       -0.96633991       1.16010955       2.10389262
C       -0.24641378       3.33708308       1.95140669
C        0.90098534       3.63993475       1.16605158
C        1.89339722      -4.09668957       1.51689279
C        0.21391862      -4.12153956      -1.15639813
C        2.63986688       2.60080144      -0.85221527
C        2.78902245      -0.04357861       1.51661099
C        3.28569768      -2.34510274       0.47763407
C       -2.09149284      -2.38831113      -1.35919834
C        0.02515611      -0.66542146      -3.49710441
C        2.31899013      -0.42620438      -2.64718261
C        0.68092126       3.96833227      -0.17776535
C       -1.20038388      -1.33551449      -3.19971735
C        0.56575029       2.73140848      -2.11963710
C        3.05044461       1.52583627      -1.68280206
C       -0.18216219       0.73037723      -3.21541203
C       -1.48399560       3.25545352       1.22644167
C        2.18816442      -3.02350083      -1.59139699
C        1.68100477       0.40001231       2.30878783
C      -13.63530636       7.35009579       3.41700280
C       -0.70749944       3.95308733      -0.60348491
C       -1.61317764       1.77055632      -1.45118635
C       -1.76441610       4.16283477       0.24344034
60
Properties=species:S:1:pos:R:3 entry_id=121 rank=43 energy=-496.15447998046875 pbc="F F F"
C        1.57307605      -4.77632210       0.27719761
C        3.12709671      -1.27918721      -1.61870576
C        2.73670687       2.42057347       1.31804485
C        2.64484100      -4.06328370       0.87874005
C       -1.00055056       2.30035650       1.09343101
C        3.68957442       0.31844208       0.35328798
C       -1.16135963      -3.64159123       0.07602595
C        0.91268249      -0.55309007       2.32737314
C      -17.46900096       6.78179708       4.11790455
C        1.36821588      -1.88426573       1.97076480
C        0.78063515       2.24855598       2.53612786
C        2.30063108       3.08877838      -1.35137735
C        1.01494333      -4.26000344      -0.88754566
C        0.01227835       3.11006669      -1.64875260
C        1.33210036       1.45733036      -2.97913247
C        2.66002053      -1.78493499       1.34070610
C        2.49600600       0.64073384      -2.82114548
C       -2.32569250      -0.39477284      -1.12224938
C       -1.09993216       1.21314025      -2.51807527
C        3.74379055      -0.13411705      -1.01237213
C      -17.78912329       7.61833360       5.05450102
C       -0.46666125      -3.08936274      -2.18690354
C       -1.56138813      -1.88853343       1.09875554
C       -1.46753130       1.69387390      -0.11086502
C       -1.38028228      -0.48381754       1.17935456
C       -1.88679353       0.30038104       0.04783489
C       -1.52750902      -2.18927630      -2.35527752
C        0.61855656      -3.06802382       1.85263124
C       -2.12932546      -2.55425100      -0.03904027
C        3.48418890       1.75712139       0.31856896
C        1.12510985      -1.41321843      -3.11804211
C        2.81922121      -2.54224583      -0.99530069
C       -0.36477238       0.08901224       2.05679142
C       -1.91934885       0.07789360      -2.39965436
C        2.04125622       1.64553257       2.28961691
C        0.85805304      -2.67580408      -2.53750816
C       -0.65636428      -3.02011605       1.29929850
C       -0.35568421       1.51097355       2.09849733
C        0.76223324       3.50362529       1.85269772
C        1.90926041       3.55995767       1.01197147
C        1.40909114      -4.21149970       1.55660345
C       -0.36380998      -3.96790535      -1.04511024
C        3.31971602       2.15966649      -1.04349940
C        3.06486843      -0.40991506       1.39606768
C        3.06208776      -2.78523054       0.40702505
C       -2.29818524      -1.82632687      -1.20771606
C        0.01038693      -0.59433506      -3.48170781
C        2.34343816      -0.78615370      -2.73405457
C        1.69423298       3.89378133      -0.33140322
C       -1.30612871      -1.00760296      -3.11439856
C        1.25595750       2.66265659      -2.23096590
C        3.47739937       1.00812545      -1.85739452
C        0.08781531       0.82127982      -3.23545149
C       -0.49925236       3.64673639       1.18008308
C        1.76356963      -3.28565759      -1.59562327
C        2.10133740       0.25675242       2.21996147
C      -17.80543451       6.28382667       2.96992367
C        0.31123571       4.13814900      -0.70018250
C       -1.03453104       2.15627617      -1.44660466
C       -0.64602253       4.56824165       0.18132621
60
Properties=species:S:1:pos:R:3 entry_id=122 rank=44 energy=-496.15447998046875 pbc="F F F"
C        1.26369835      -4.81787467      -0.06974413
C        2.63181926      -1.34225502      -2.14258543
C        3.34009086       2.17573340       0.95281047
C        2.51489877      -4.23692225       0.27193575
C       -0.33385717       2.38033901       1.67913267
C        3.81732608       0.06945132      -0.31010565
C       -1.31238062      -3.44898482       0.47551308
C        1.54234620      -0.69719056       2.25919070
C      -17.98401323       7.22506025       1.98568877
C        1.76506114      -2.03574660       1.74332202
C        1.73792692       2.08536574       2.61587712
C        2.32489830       3.05313634      -1.48804296
C        0.48754578      -4.18062062      -1.03228404
C        0.04686510       3.28039863      -1.19238223
C        0.82973758       1.61730525      -2.88465075
C        2.86506940      -2.00307852       0.81344499
C        1.91219532       0.69892333      -3.06241807
C       -2.41926024      -0.04425815      -0.24549545
C       -1.42367584       1.54493871      -1.83328812
C        3.48820541      -0.29483778      -1.66351080
C      -18.03446260       6.13906954       2.69040744
C       -1.14898380      -2.80666133      -1.86239824
C       -1.27617821      -1.74071280       1.64227855
C       -1.14127573       1.89527573       0.60737850
C       -0.94690634      -0.36375766       1.73669772
C       -1.64069896       0.53334707       0.80596457
C       -2.12641068      -1.81264388      -1.71744687
C        0.89896753      -3.14322582       1.76730194
C       -2.16972779      -2.28049775       0.65682505
C        3.75032240       1.51980923      -0.23013117
C        0.31779359      -1.21015718      -3.09190832
C        2.36661294      -2.61441337      -1.51736716
C        0.30589781       0.06454209       2.35048656
C       -2.29524414       0.47681343      -1.56209167
C        2.83406647       1.39768658       2.03333227
C        0.08132451      -2.48196267      -2.51820352
C       -0.46253203      -2.95368590       1.55711278
C        0.46247281       1.47495311       2.45092373
C        1.67221131       3.37923114       2.01365901
C        2.57640236       3.39748039       0.91492159
C        1.47714671      -4.32675115       1.23320673
C       -0.85238188      -3.76535977      -0.82374084
C        3.29431870       2.02431903      -1.48810059
C        3.40203155      -0.67260386       0.82379604
C        2.92453770      -2.96968360      -0.23382439
C       -2.55188140      -1.46468839      -0.39806406
C       -0.76759818      -0.27944286      -3.12464191
C        1.64837413      -0.71312412      -3.00177057
C        2.07072368       3.83809331      -0.31476120
C       -1.98585718      -0.60557887      -2.45518260
C        1.05794815       2.77227205      -2.08992544
C        3.13318128       0.91923052      -2.36403728
C       -0.49462198       1.10487751      -2.84417419
C        0.30318051       3.67098979       1.69076431
C        1.12826844      -3.22643911      -1.86341311
C        2.74004454       0.01688815       1.89074946
C      -17.91688700       4.84862328       2.67914538
C        0.66891911       4.21818901      -0.31000652
C       -1.00524156       2.40642455      -0.77330182
C        0.00457792       4.66551811       0.80218531
60
Properties=species:S:1:pos:R:3 entry_id=125 rank=45 energy=-496.15447998046875 pbc="F F F"
C        0.82323922      -4.78333077       0.11132356
C        2.39110301      -1.56880210      -2.22376601
C        3.75325891       1.95273710       0.64147594
C        2.15631899      -4.33971450       0.32405790
C        0.20431193       2.60911496       1.65088964
C        3.87939790      -0.23878651      -0.55860452
C       -1.52429456      -3.10675670       0.80077929
C        1.76238304      -0.64253407       2.22108015
C      -19.34473154       5.24847115       2.15570594
C        1.78790188      -2.01558896       1.74989666
C        2.30093993       2.11077671       2.43221584
C        2.63925652       2.85305398      -1.74677917
C        0.04451691      -4.09771944      -0.81493451
C        0.43531547       3.35374638      -1.27855239
C        0.87696164       1.55112197      -2.95067102
C        2.79947266      -2.14364710       0.73200300
C        1.82976230       0.50768148      -3.17333511
C       -2.29798262       0.37423045       0.01639040
C       -1.27217805       1.77937499      -1.71912400
C        3.39775522      -0.61129020      -1.86330237
C      -18.74467006       5.26192402       3.30421243
C       -1.49109714      -2.57312042      -1.57016499
C       -1.19684953      -1.37319601       1.88245038
C       -0.74130074       2.18152048       0.67180421
C       -0.70783592      -0.04117512       1.88633472
C       -1.37214233       0.89537798       0.97335890
C       -2.33427168      -1.46793021      -1.39149624
C        0.80840620      -3.01368490       1.89592357
C       -2.22607836      -1.84121047       0.99777391
C        3.98380560       1.21111874      -0.53963015
C        0.03372187      -1.20354736      -2.98728773
C        2.03905243      -2.77817793      -1.52168708
C        0.63251717       0.26108919       2.37726029
C       -2.23106248       0.82953799      -1.32840053
C        3.25722948       1.27889675       1.79394690
C       -0.29389244      -2.41849505      -2.33951021
C       -0.53566166      -2.67486226       1.78739394
C        0.95536493       1.64684765       2.39890725
C        2.33036635       3.38074988       1.77774215
C        3.13334311       3.25326446       0.60963418
C        1.20077588      -4.27377838       1.36879224
C       -1.21594914      -3.52064667      -0.51590969
C        3.48241547       1.71930733      -1.77839544
C        3.48136096      -0.88505234       0.63793735
C        2.66009250      -3.14744697      -0.27139732
C       -2.60221037      -1.02546466      -0.05926978
C       -0.93884648      -0.15492516      -2.97438469
C        1.41450074      -0.86092138      -3.02751403
C        2.57699434       3.70458719      -0.59415224
C       -2.12353831      -0.31298937      -2.19309987
C        1.30173664       2.69916502      -2.23028580
C        3.12330886       0.60969330      -2.58731644
C       -0.48882708       1.19802292      -2.78104305
C        0.98051787       3.81737950       1.55173703
C        0.71520150      -3.25604597      -1.73948165
C        2.99594378      -0.08584774       1.72295600
C      -20.39285265       4.85241963       1.50457395
C        1.23249539       4.24472107      -0.49355665
C       -0.66905731       2.62350706      -0.73691430
C        0.72121583       4.80837532       0.64646142
60
Properties=species:S:1:pos:R:3 entry_id=140 rank=46 energy=-496.15447998046875 pbc="F F F"
C       -2.60609770      -2.76283165       0.07424049
C        1.13221949      -2.17826877      -1.90954311
C        4.27239876      -0.35222676       1.13430284
C       -1.43675422      -3.40623799       0.56318012
C        2.32889348       2.84426170       1.34167501
C        2.87261360      -2.10016941       0.01952381
C       -2.96346476       0.18064702       0.21621697
C        0.82628434      -0.34787788       2.28017225
C      -22.41903995      -0.24029189       4.06294624
C       -0.12324408      -1.35528510       1.84346521
C        3.21011792       1.11763574       2.56606376
C        4.54232921       0.65005254      -1.45085831
C       -2.47229194      -1.89655946      -1.00588723
C        3.42836422       2.67159362      -1.48001541
C        2.58587159       0.86818719      -2.99024984
C        0.57259247      -2.35284429       1.07134662
C        2.45076208      -0.55596509      -2.98603355
C       -0.75011941       2.91358871      -0.76594753
C        1.19935222       2.79889185      -2.25709158
C        2.45459809      -2.21796525      -1.35325281
C      -22.65975412      -1.49994227       4.24916507
C       -2.22497696       0.10340104      -2.09805220
C       -1.59403489       1.27185886       1.31728521
C        1.52685544       3.08514644       0.18638117
C       -0.27898854       1.79609373       1.40804167
C        0.11370289       2.74521101       0.36090378
C       -1.96747920       1.48069947      -2.12271418
C       -1.52566569      -1.27530127       1.78637942
C       -2.49498374       1.56373531       0.23858417
C        4.02370471      -1.21253934       0.04092217
C       -0.02079249      -0.34630960      -3.16990222
C       -0.09609632      -2.60126915      -1.28351886
C        0.75022133       1.10126906       2.17387918
C       -0.18647237       2.93652656      -2.07052459
C        3.29273402      -0.24027818       2.16200597
C       -1.22986686      -0.79960118      -2.59084435
C       -2.12873142      -0.08806918       1.38612829
C        1.99482363       1.78633820       2.24630658
C        4.26852294       1.82547859       1.91741087
C        4.84811163       0.95604220       0.95134170
C       -2.14538972      -2.48674739       1.37631869
C       -2.89787620      -0.54390866      -0.99632530
C        4.24386711      -0.72125829      -1.28355509
C        1.97052360      -2.03345394       1.11027822
C       -0.13680343      -3.08710889       0.07539226
C       -1.98707418       2.19730804      -0.88624344
C        0.13309291       1.05969142      -3.38280802
C        1.13650526      -1.13416197      -2.91507091
C        4.98474504       1.45554266      -0.35006744
C       -0.85798114       1.95365214      -2.87547352
C        3.62637193       1.44231995      -2.21221798
C        3.28778719      -1.33240999      -2.13571427
C        1.41302337       1.66000916      -3.11517274
C        3.75050130       3.06139894       1.39943604
C       -1.28322108      -1.98685500      -1.77408230
C        2.10998773      -0.96524355       2.05435174
C      -22.51088588      -2.69402829       3.76707098
C        4.50629096       2.81193966      -0.55045934
C        2.09257347       3.08618440      -1.17953848
C        4.44466965       3.75141588       0.44548103
60
Properties=species:S:1:pos:R:3 entry_id=120 rank=47 energy=-496.1544494628906 pbc="F F F"
C        1.66602028      -4.70157538       0.25388566
C        3.03053431      -1.09671031      -1.58852830
C        2.42349763       2.53689975       1.39407495
C        2.69356032      -3.93647962       0.86938236
C       -1.30116916       2.21175295       1.15054211
C        3.49633333       0.50332978       0.40688270
C       -1.12654166      -3.71684829       0.05458566
C        0.76441516      -0.54706021       2.35414339
C      -14.05284601       7.16224292       4.09796983
C        1.29454179      -1.84632767       1.98290427
C        0.47532446       2.23984924       2.59997314
C        1.96138763       3.21488784      -1.26819829
C        1.08473253      -4.20126035      -0.90665191
C       -0.32363234       3.11276151      -1.57547532
C        1.09180441       1.55396329      -2.92118690
C        2.58172460      -1.66727764       1.36139522
C        2.29868519       0.80113923      -2.76818400
C       -2.46512996      -0.52328937      -1.10628421
C       -1.32494514       1.16881848      -2.47480499
C        3.58114609       0.07245904      -0.96438750
C      -15.12340672       5.57193481       2.53069525
C       -0.45444305      -3.09621809      -2.19702274
C       -1.62620434      -2.00144843       1.09740898
C       -1.72937640       1.59629721      -0.06356314
C       -1.52479955      -0.59019938       1.19783391
C       -2.07067161       0.17957968       0.07483831
C       -1.56302547      -2.25395223      -2.35850561
C        0.61218260      -3.06805517       1.84606813
C       -2.15286310      -2.68301011      -0.05071235
C        3.21064377       1.92874547       0.38984489
C        1.04554728      -1.32212210      -3.09874816
C        2.79026030      -2.38328249      -0.98330222
C       -0.54538679       0.02657100       2.08619693
C       -2.08072932      -0.01163569      -2.37549706
C        1.76887238       1.71108258       2.35212481
C        0.84660891      -2.60536026      -2.53620057
C       -0.66095962      -3.08378052       1.28769441
C       -0.61576018       1.44598880       2.14696061
C        0.38934323       3.50076555       1.93295290
C        1.53472452       3.63241150       1.09868919
C        1.46549198      -4.16225630       1.53961663
C       -0.30755239      -3.98359677      -1.06686967
C        3.02942621       2.33964928      -0.96751260
C        2.90967540      -0.27265120       1.43734024
C        3.04156994      -2.63151604       0.41647185
C       -2.35770886      -1.94998422      -1.21038413
C       -0.11165600      -0.56128992      -3.45560015
C        2.22567375      -0.63321636      -2.70137166
C        1.30688209       3.97186340      -0.24103899
C       -1.40473292      -1.05184211      -3.10103360
C        0.94545140       2.74333632      -2.15803477
C        3.25456942       1.20944730      -1.79549526
C       -0.11407298       0.85288445      -3.19091040
C       -0.87591268       3.58274079       1.25703460
C        1.78060306      -3.17688517      -1.59808045
C        1.90659394       0.32902773       2.26447206
C      -14.72510683       6.16795753       3.61013054
C       -0.08631995       4.14371411      -0.61275227
C       -1.31663723       2.09974944      -1.39080786
C       -1.06930709       4.50840854       0.27008514
60
Properties=species:S:1:pos:R:3 entry_id=147 rank=48 energy=-496.1544494628906 pbc="F F F"
C       -2.92579620      -2.49989297      -0.83989979
C        1.26468696      -2.30569701      -1.63657635
C        3.48771484      -0.29667597       2.03500322
C       -2.00802193      -3.13642293       0.03941896
C        1.81857758       2.98747658       1.34264360
C        2.35314877      -2.09308892       0.71510063
C       -3.08585072       0.45324150      -1.08788963
C       -0.13299236      -0.01012436       2.07127054
C      -20.71627121      -1.76614367       4.66608384
C       -0.98339022      -1.01598225       1.46183360
C        2.16182091       1.37005763       2.93055229
C        4.58952834       0.39808569      -0.42754767
C       -2.41246366      -1.76668845      -1.90387436
C        3.69176329       2.45093989      -0.98176311
C        3.20296883       0.53100017      -2.50338570
C       -0.16759108      -2.12434523       1.03586585
C        2.96425680      -0.87602300      -2.40739922
C       -0.47836748       2.95829031      -1.59865620
C        1.81186867       2.59075528      -2.40905917
C        2.35386415      -2.34175062      -0.70286553
C      -20.04691407      -2.27125419       5.65413094
C       -1.70073458       0.08602745      -3.05096717
C       -2.02627174       1.59747323       0.27156119
C        1.41774008       3.13227288      -0.01907664
C       -0.76241245       2.06928825       0.70915657
C       -0.00482567       2.87753064      -0.25175733
C       -1.34257197       1.43919983      -3.12301668
C       -2.29505866      -0.88081461       0.97380386
C       -2.54040295       1.80775275      -1.05221993
C        3.51088508      -1.26193075       1.00301014
C        0.68261971      -0.57774352      -3.35308111
C       -0.12219319      -2.60149639      -1.37791741
C       -0.06347222       1.41976410       1.81281694
C        0.44817484       2.81038443      -2.66622842
C        2.25739096      -0.02710306       2.70045237
C       -0.67457058      -0.90902563      -3.13015592
C       -2.65976301       0.27944869       0.29997091
C        1.15114025       2.05272578       2.19683671
C        3.41593508       1.95324213       2.57200036
C        4.18994213       0.95639941       1.91449544
C       -2.85512188      -2.10138091       0.50957808
C       -2.71879523      -0.40375040      -2.15097149
C        4.15169311      -0.93108345      -0.23173656
C        1.17518592      -1.86638121       1.46973628
C       -0.60188221      -2.93140800      -0.05716428
C       -1.67412300       2.28886533      -2.02243195
C        1.00021441       0.78697677      -3.63965758
C        1.64861529      -1.38291327      -2.68610466
C        4.74517586       1.30116857       0.67555895
C       -0.02637365       1.77504152      -3.54260625
C        4.00463460       1.14051971      -1.50147759
C        3.44736308      -1.58846635      -1.27392123
C        2.18437320       1.35565952      -3.05270783
C        3.17114396       3.14580552       1.80903645
C       -1.05899438      -1.99370867      -2.26140277
C        1.10832551      -0.70605363       2.30718208
C      -18.91121790      -2.28268695       6.27797231
C        4.45194110       2.64668779       0.21389964
C        2.36263379       2.95545893      -1.14193477
C        4.16805007       3.69361154       1.05151222
60
Properties=species:S:1:pos:R:3 entry_id=127 rank=49 energy=-496.1544189453125 pbc="F F F"
C        0.05435840      -4.62997668       0.13927661
C        1.88193980      -1.69245436      -2.36462881
C        4.20352120       1.45521203       0.31036190
C        1.46246295      -4.43928736       0.18310190
C        0.98124501       2.71409330       1.75344078
C        3.78368469      -0.69403106      -0.89953168
C       -1.85076529      -2.57271394       1.12097016
C        1.98202739      -0.77760038       2.11720064
C      -19.87893594       4.40834616       0.85373552
C        1.70017559      -2.12048669       1.64442421
C        3.03246721       1.82673934       2.26700427
C        2.98379016       2.59912622      -1.91777418
C       -0.69476768      -3.78908395      -0.67680517
C        0.98125622       3.47939472      -1.18058654
C        0.88080675       1.66526628      -2.89489272
C        2.54266448      -2.40606777       0.51132516
C        1.59397806       0.47280059      -3.23416285
C       -2.06855797       1.00892486       0.44166428
C       -1.02488299       2.24718140      -1.40604961
C        3.08239820      -0.94107481      -2.13236667
C      -20.79722922       2.55748033       2.21623516
C       -2.01067841      -1.99707364      -1.23396534
C       -1.08042300      -0.95293409       2.15061299
C       -0.13970610       2.48985610       0.89933383
C       -0.36069822       0.26785199       2.09354198
C       -0.95205571       1.33133658       1.27475013
C       -2.61161927      -0.76290944      -0.95166841
C        0.57984161      -2.92739647       1.90832069
C       -2.28063920      -1.20584007       1.40495783
C        4.14945905       0.71334425      -0.89130289
C       -0.44557704      -0.89044709      -2.82614768
C        1.40515278      -2.83557027      -1.62660904
C        1.06224242       0.31020015       2.41253744
C       -2.08578741       1.47662016      -0.90042061
C        3.73841271       0.85271675       1.51409930
C       -0.90640627      -2.04036650      -2.14332174
C       -0.68313584      -2.34915519       1.97162328
C        1.63127804       1.61357558       2.39768160
C        3.21167281       3.08702237       1.61781420
C        3.82842103       2.84619905       0.35829932
C        0.67097177      -4.22663247       1.33969638
C       -1.78633519      -3.00447320      -0.22398422
C        3.59734129       1.33348401      -2.05535983
C        3.42601269      -1.28897622       0.33595944
C        2.09987556      -3.34419306      -0.46798589
C       -2.62953170      -0.31083403       0.40392358
C       -1.20363345       0.31459533      -2.69363368
C        0.95866303      -0.80148469      -3.03865644
C        3.21817666       3.41900042      -0.76496147
C       -2.29426998       0.35381425      -1.77272279
C        1.59198407       2.70147519      -2.23287205
C        2.94596601       0.32654782      -2.81351384
C       -0.49520319       1.55925922      -2.55682017
C        1.94603060       3.76491767       1.56340776
C       -0.00032571      -3.05868028      -1.67401796
C        3.22802077      -0.44115658       1.47359218
C      -20.37312578       3.72106858       1.83495264
C        2.01712824       4.19064424      -0.49710904
C       -0.16255169       2.94621577      -0.50641041
C        1.76034709       4.80771388       0.69949181
60
Properties=species:S:1:pos:R:3 entry_id=136 rank=50 energy=-496.1544189453125 pbc="F F F"
C       -2.56653808      -2.86698455       0.01792343
C        1.17377103      -2.17371158      -1.92426493
C        4.24487108      -0.30604588       1.16333572
C       -1.38694771      -3.48768101       0.51163355
C        2.22002556       2.84146978       1.38248098
C        2.89682867      -2.07550872       0.01954966
C       -2.99785751       0.06369785       0.18384085
C        0.78822762      -0.39438955       2.27631532
C      -20.98859980      -1.92003855       3.62090085
C       -0.13286615      -1.41980022       1.82268438
C        3.13211660       1.12431544       2.59747961
C        4.51152877       0.72909073      -1.41037033
C       -2.44548109      -1.98800109      -1.05316080
C        3.34800882       2.72243152      -1.42903153
C        2.56374667       0.91611901      -2.96663045
C        0.59361659      -2.39375012       1.04860152
C        2.46273643      -0.51108755      -2.97602865
C       -0.84175570       2.85924082      -0.75166328
C        1.12370497       2.80533229      -2.22622441
C        2.49217244      -2.18739805      -1.35751847
C      -21.90576915      -1.19629256       4.18182418
C       -2.23727483       0.02798455      -2.12424342
C       -1.66317698       1.17577114       1.30633856
C        1.42210079       3.07465315       0.22276007
C       -0.36213556       1.73000884       1.41414709
C        0.01595250       2.69992574       0.38121108
C       -2.01230667       1.41129915      -2.13352172
C       -1.53636136      -1.37178221       1.75327520
C       -2.56247997       1.45739992       0.22363850
C        4.02656280      -1.16104025       0.05932751
C       -0.01161754      -0.35762685      -3.17698279
C       -0.04949543      -2.63281632      -1.31382252
C        0.67717582       1.05286988       2.18223851
C       -0.26671670       2.90841404      -2.05074498
C        3.25237846      -0.22711876       2.18214673
C       -1.21438052      -0.84532121      -2.61342451
C       -2.16521707      -0.19660778       1.35745001
C        1.90391351       1.76678456       2.27315822
C        4.17889532       1.86351376       1.96585194
C        4.78974283       1.01788564       0.99782456
C       -2.12428434      -2.59297426       1.32649880
C       -2.90537926      -0.64630239      -1.03560474
C        4.24489648      -0.65042719      -1.25854887
C        1.98352994      -2.04179275       1.10291523
C       -0.09010784      -3.13425794       0.03931002
C       -2.05989819       2.11437604      -0.89017069
C        0.10971437       1.05304588      -3.37801802
C        1.16185107      -1.12036581      -2.91996861
C        4.92477189       1.53364971      -0.29764082
C       -0.90730215       1.91798669      -2.87130408
C        3.58299704       1.50663397      -2.17239865
C        3.31039221      -1.27506985      -2.12464385
C        1.37288950       1.68106322      -3.09423016
C        3.63561260       3.09144871       1.45511386
C       -1.24656017      -2.04130419      -1.80893438
C        2.08846510      -0.97890347       2.05714879
C      -22.89181469      -0.38048194       3.97790150
C        4.41413852       2.87958124      -0.48863263
C        1.99985641       3.10197706      -1.13740180
C        4.32205711       3.80802543       0.51533655
60
Properties=species:S:1:pos:R:3 entry_id=139 rank=51 energy=-496.1544189453125 pbc="F F F"
C       -2.64805283      -2.73421992      -0.01893728
C        1.14427427      -2.18528107      -1.91020079
C        4.21860821      -0.37330077       1.20943426
C       -1.49664247      -3.38378773       0.50240871
C        2.29483208       2.83968415       1.36238589
C        2.83283926      -2.11162290       0.06318246
C       -2.98645423       0.21052312       0.10782901
C        0.74361416      -0.33802713       2.26988681
C      -23.37016865      -0.77414689       4.25613998
C       -0.20239929      -1.33941885       1.81184715
C        3.13178314       1.10897267       2.61081173
C        4.56490321       0.61931367      -1.37042683
C       -2.47997395      -1.87356353      -1.09851896
C        3.46523180       2.64790233      -1.42997610
C        2.64866305       0.84843019      -2.95903554
C        0.50494604      -2.34254083       1.05741899
C        2.50233833      -0.57492068      -2.95656999
C       -0.72799027       2.92421705      -0.82374211
C        1.25783213       2.79025937      -2.26346243
C        2.45105716      -2.23157345      -1.31949978
C      -22.43677613      -1.63644920       4.00167681
C       -2.19033332       0.12234392      -2.18735358
C       -1.63950216       1.29663703       1.24297792
C        1.52454325       3.08178609       0.18631620
C       -0.32299288       1.81180127       1.36604946
C        0.10471152       2.75361165       0.32581652
C       -1.92186082       1.49781254      -2.20847857
C       -1.60273709      -1.24998508       1.72060490
C       -2.50835401       1.59007045       0.13864940
C        3.99068529      -1.23413901       0.11200291
C        0.03765393      -0.34652664      -3.20127532
C       -0.10257361      -2.59670564      -1.31363416
C        0.68126566       1.11181070       2.16000804
C       -0.13111845       2.93996149      -2.11337079
C        3.21355180      -0.24992913       2.21099326
C       -1.18928763      -0.78923732      -2.65249008
C       -2.18658387      -0.05927446       1.30172983
C        1.92953103       1.78735175       2.26167444
C        4.21178014       1.80637799       1.98691530
C        4.81025942       0.92959155       1.03878852
C       -2.21988873      -2.45679452       1.29405035
C       -2.89514456      -0.51767050      -1.10126127
C        4.25008682      -0.74902272      -1.20756527
C        1.90342331      -2.03354517       1.12982612
C       -0.18286126      -3.07557289       0.04633428
C       -1.96640996       2.21659066      -0.97399720
C        0.20735604       1.05774000      -3.41267480
C        1.18231938      -1.14368079      -2.91829409
C        4.98587366       1.42405778      -0.26022021
C       -0.78974440       1.96082818      -2.93370059
C        3.67347956       1.41650816      -2.15564535
C        3.31130730      -1.35502230      -2.08267547
C        1.48489655       1.64857077      -3.11389688
C        3.71670457       3.04501697       1.45360568
C       -1.27234435      -1.97482798      -1.83613823
C        2.02760792      -0.96508259       2.07510178
C      -21.22842516      -2.01322238       4.27743878
C        4.52146696       2.78324252      -0.47536469
C        2.12541753       3.07285481      -1.16424767
C        4.44070285       3.72633365       0.51578189
60
Properties=species:S:1:pos:R:3 entry_id=149 rank=52 energy=-496.1543884277344 pbc="F F F"
C       -3.23089888      -1.64943638       0.54813269
C        0.53831943      -2.28641669      -1.36058354
C        4.01055695      -0.59949869       1.38931976
C       -2.22776829      -2.41600658       1.20080140
C        2.80740675       2.91134884       0.88761902
C        2.26046216      -2.19559355       0.58415441
C       -2.94056597       1.26988448       0.09688316
C        0.65064604       0.36863558       2.37377777
C      -22.68581325      -3.94823810       2.89250230
C       -0.49665649      -0.47909724       2.10540600
C        3.29756575       1.31859647       2.46178045
C        4.48277548      -0.21545349      -1.32942201
C       -2.91532162      -1.06603442      -0.67440792
C        3.83480836       1.94931150      -1.79991886
C        2.61506356       0.10157762      -2.95976962
C       -0.03663699      -1.73598359       1.57218205
C        2.17394158      -1.23075721      -2.68096160
C       -0.18960635       3.21303881      -1.31372106
C        1.68305941       2.39017899      -2.67541391
C        1.82259290      -2.49391104      -0.75457184
C      -21.66545868      -4.06833658       3.68219047
C       -2.24358178       0.57467952      -2.12624934
C       -1.36332838       2.24232844       1.01679427
C        2.07302055       3.08097406      -0.32373251
C        0.03466741       2.48037371       1.05488818
C        0.62075407       3.09312590      -0.14220361
C       -1.69350984       1.83164934      -2.41052132
C       -1.84847284      -0.11438815       1.97854290
C       -2.18270017       2.49663585      -0.13415710
C        3.57713907      -1.58794598       0.47699022
C       -0.19364458      -0.53971139      -3.00028298
C       -0.75030504      -2.30392449      -0.71305415
C        0.89099640       1.74930379       1.98262200
C        0.36081240       2.85487865      -2.57439879
C        3.08156496      -0.07817666       2.33460177
C       -1.46982717      -0.59962646      -2.39191979
C       -2.18078589       1.07016699       1.33012954
C        2.25498450       2.15323025       1.96903532
C        4.48212963       1.64022378       1.72946614
C        4.85643741       0.49207994       0.97662904
C       -2.71757116      -1.22263758       1.78839161
C       -3.03674842       0.32024340      -0.94659600
C        3.89408486      -1.42961732      -0.90824434
C        1.39755649      -1.72136440       1.60357913
C       -0.89139323      -2.48691268       0.71239139
C       -1.55259423       2.76767441      -1.34003335
C        0.26044616       0.72925986      -3.47941416
C        0.76580732      -1.48948188      -2.55029167
C        5.09391567       0.68057585      -0.39121148
C       -0.51101128       1.89721414      -3.19716722
C        3.75821507       0.58488930      -2.26814611
C        2.82533517      -1.98102085      -1.66148730
C        1.64126640       1.08377575      -3.28458579
C        4.24241047       2.82848404       0.95839392
C       -1.77698979      -1.56017397      -1.36142332
C        1.76909165      -0.54083409       2.32471899
C      -20.46853923      -3.65248223       3.95353798
C        4.92099739       2.03977548      -0.87326008
C        2.62110818       2.68967282      -1.63990774
C        5.06672328       3.15039151      -0.08337335
60
Properties=species:S:1:pos:R:3 entry_id=115 rank=53 energy=-496.15435791015625 pbc="F F F"
C        2.59293491      -4.24730255       0.26180077
C        2.97074439      -0.25449282      -1.20565126
C        0.88254182       2.74754109       1.81096959
C        3.24270179      -3.26161864       1.05312129
C       -2.49495302       1.31791669       1.01660769
C        2.65513140       1.23288381       0.90338875
C       -0.32123265      -4.15375642      -0.29780809
C        0.17071657      -0.76848979       2.38275108
C       -7.57527534       7.29471081       1.18795958
C        1.12622038      -1.80521730       2.03804378
C       -1.00846935       1.76378996       2.70464685
C        0.56606066       3.47914294      -0.85783681
C        2.03247964      -3.85139402      -0.94801976
C       -1.51339709       2.70568634      -1.49422623
C        0.47600521       1.77888000      -2.68854732
C        2.35894719      -1.18777343       1.61993747
C        1.83011019       1.42241335      -2.39565770
C       -2.44452036      -1.43737115      -1.50185412
C       -1.73205069       0.63521206      -2.61365069
C        3.04096402       0.96860827      -0.45817523
C       -7.30618343       7.86170931       2.32191180
C        0.39652789      -3.16434828      -2.39873995
C       -1.46430227      -2.77220675       0.73512466
C       -2.55294109       0.70763663      -0.27209413
C       -1.82777722      -1.41191012       0.90941390
C       -2.44488912      -0.75233670      -0.24641412
C       -0.89227016      -2.69237164      -2.68269833
C        0.88721346      -3.16052923       1.75208069
C       -1.60071937      -3.48051976      -0.50611235
C        1.94044730       2.49922697       0.90696100
C        1.36114357      -0.94531646      -2.99635296
C        3.07546212      -1.59993474      -0.69788561
C       -1.21028387      -0.60311814       1.95519000
C       -2.08338351      -0.72380681      -2.67684226
C        0.40584474       1.67975860       2.62456967
C        1.50844570      -2.27130172      -2.52452912
C       -0.23706098      -3.51750643       1.01576462
C       -1.73118569       0.71589102       2.06735564
C       -1.40234483       2.99011595       2.08700219
C       -0.26202920       3.54007227       1.43707030
C        2.07385803      -3.90900138       1.52644302
C        0.67366925      -4.05766558      -1.29844332
C        1.80963349       2.95075481      -0.44337518
C        2.21789722       0.22804923       1.80181248
C        3.21453120      -1.87875916       0.71193646
C       -1.87972888      -2.74790930      -1.65064499
C        0.07653938      -0.54806352      -3.48429375
C        2.20534365       0.03450566      -2.40224959
C       -0.41599217       3.90971374       0.09472452
C       -1.02951100      -1.43993100      -3.34134744
C       -0.13107552       2.79448838      -1.90259655
C        2.47964827       2.01861204      -1.27786646
C       -0.40451518       0.76888782      -3.16092726
C       -2.53529405       2.73941878       1.23998945
C        2.45107777      -2.60789119      -1.48651023
C        0.98051280       0.41949155       2.49743255
C       -7.03058077       7.66246647       3.57256356
C       -1.73495801       3.67503141      -0.46645889
C       -2.15347570       1.42636333      -1.50092612
C       -2.88602428       3.64399525       0.27721674
60
Properties=species:S:1:pos:R:3 entry_id=117 rank=54 energy=-496.154296875 pbc="F F F"
C        1.58739643      -4.45435695       0.79025354
C        3.03774694      -0.90414676      -1.09329762
C        1.68849404       2.88578106       1.41231862
C        2.44129470      -3.57169715       1.50646322
C       -1.90680340       2.26245108       0.55538969
C        3.04301315       0.87109227       0.80561872
C       -1.18145128      -3.70140816       0.02408114
C        0.07469226      -0.23507916       2.33092935
C       -9.40264925       3.54073322       4.62957433
C        0.74102826      -1.51448667       2.17244395
C       -0.42297082       2.53191786       2.28283874
C        1.66725111       3.32676242      -1.33842227
C        1.19135175      -4.08578442      -0.49132999
C       -0.51588702       3.03002739      -2.02659821
C        1.20919843       1.48647398      -2.96622950
C        2.10630051      -1.28614464       1.77273472
C        2.41302312       0.84038198      -2.54196440
C       -2.48220768      -0.71199925      -1.62405477
C       -1.22055828       0.95488376      -2.91507790
C        3.39616384       0.34688371      -0.48788934
C      -11.01833707       5.19482978       3.75423644
C       -0.15649288      -3.20045487      -2.12103729
C       -1.96209377      -1.95537684       0.81170004
C       -2.07350973       1.52827692      -0.65674485
C       -1.96507121      -0.53693305       0.80464284
C       -2.34700608       0.10410881      -0.45796527
C       -1.26732848      -2.45876471      -2.54575041
C        0.16896517      -2.79041360       2.02498070
C       -2.23269903      -2.75773407      -0.34695386
C        2.67836523       2.26597101       0.61586557
C        1.36968124      -1.38914904      -2.89696567
C        2.77200754      -2.15670482      -0.42929803
C       -1.19927609       0.21605526       1.79238277
C       -1.90860414      -0.26870449      -2.84670287
C        0.92410160       2.08595029       2.30941404
C        1.15099221      -2.63762898      -2.26819005
C       -0.98169978      -2.94459114       1.25928615
C       -1.36538342       1.62669834       1.71768600
C       -0.46470546       3.72972577       1.50490540
C        0.80124055       3.88595227       0.87379978
C        1.12829735      -3.83733629       1.97012051
C       -0.16025137      -3.98919504      -0.91084101
C        2.71653562       2.55976666      -0.78293823
C        2.32950979       0.13140979       1.78186949
C        2.78491183      -2.28140438       1.00902756
C       -2.27181094      -2.13055992      -1.58377230
C        0.25177904      -0.74710402      -3.51515542
C        2.41636895      -0.58619042      -2.36367282
C        0.79527152       4.10671576      -0.50949939
C       -1.05139408      -1.30622760      -3.35039657
C        0.85681302       2.71481569      -2.34586202
C        3.15401131       1.39101476      -1.45835231
C        0.11596857       0.67860859      -3.37916346
C       -1.59133332       3.66534567       0.61558422
C        1.93517709      -3.06566556      -1.13685789
C        1.15883902       0.71541744       2.36536194
C       -9.91646864       4.58412778       4.05853054
C       -0.51742864       4.14413145      -1.12968385
C       -1.46263453       1.96175844      -1.93075075
C       -1.66280482       4.49830351      -0.46556884
60
Properties=species:S:1:pos:R:3 entry_id=137 rank=55 energy=-496.154296875 pbc="F F F"
C       -2.12035738      -3.43506045       0.31816219
C        1.17749686      -2.09373440      -2.04031784
C        4.35744352       0.04672377       0.74651072
C       -0.80862751      -3.89855593       0.60868054
C        1.96278602       2.84398526       1.44793761
C        3.12365354      -1.84204840      -0.33415297
C       -2.93000403      -0.61307414       0.74548662
C        1.13585331      -0.61151568       2.29112586
C      -20.45444748      -0.72181487       3.36674762
C        0.31324266      -1.73786408       1.88974889
C        3.26583212       1.22090743       2.40987096
C        4.11520389       1.24189733      -1.75976922
C       -2.27439968      -2.49353038      -0.69445403
C        2.69496631       3.04118095      -1.48776353
C        1.96338024       1.21772352      -3.03223480
C        1.05433642      -2.55227646       0.96057995
C        2.06214446      -0.20641411      -3.12991528
C       -1.33860183       2.51553782      -0.26228768
C        0.39023687       2.83193740      -1.97980147
C        2.55022324      -1.94050970      -1.65117420
C      -19.94382783       0.06397537       2.47220586
C       -2.50357543      -0.41681367      -1.63945753
C       -1.62099936       0.62561933       1.76102229
C        0.98662143       3.01634456       0.42155818
C       -0.40819640       1.36053982       1.73622517
C       -0.31710189       2.42788122       0.73444649
C       -2.47703325       0.98364099      -1.57922807
C       -1.07913520      -1.89532532       2.00715653
C       -2.69311263       0.82589324       0.82738432
C        4.10873616      -0.77318708      -0.37730522
C       -0.41359756      -0.41264020      -2.99837434
C        0.12809925      -2.76001129      -1.30951504
C        0.81201572       0.80664513       2.31263854
C       -0.96318664       2.71742309      -1.61809586
C        3.51525594      -0.07532275       1.88887150
C       -1.44609990      -1.10210730      -2.31850421
C       -1.91412358      -0.80726814       1.77935684
C        1.92717028       1.68951993       2.29333046
C        4.10087594       2.13891031       1.70160373
C        4.68350625       1.44395449       0.60518326
C       -1.54356615      -3.16704354       1.57447718
C       -2.91186959      -1.23791203      -0.52291400
C        4.06695694      -0.16796328      -1.67227755
C        2.37540758      -2.00141751       0.85912279
C        0.34747696      -3.33240754      -0.00216986
C       -2.44782130       1.60623563      -0.29299518
C       -0.51921508       1.00935720      -3.11145506
C        0.87979101      -1.00470605      -2.95010781
C        4.56346632       2.04059835      -0.65676728
C       -1.56713638       1.68641002      -2.41669464
C        2.99109180       1.91198557      -2.33852275
C        3.11771314      -0.87857066      -2.45121767
C        0.67093790       1.80259689      -2.94959791
C        3.32560397       3.29741820       1.35370674
C       -1.19707818      -2.32854847      -1.60181223
C        2.46233981      -0.98502296       1.86472831
C      -18.91727603       0.77671139       2.13097163
C        3.84931542       3.30519181      -0.68465825
C        1.36012000       3.20059436      -0.99693728
C        3.76801478       4.15643956       0.38667014
60
Properties=species:S:1:pos:R:3 entry_id=138 rank=56 energy=-496.154296875 pbc="F F F"
C       -2.29958843      -3.24192573      -0.08395021
C        1.36597165      -2.14169944      -1.98573472
C        4.22344122      -0.06273317       1.17458684
C       -1.06786699      -3.75799656       0.40240963
C        1.90812087       2.86869612       1.46232203
C        3.05815510      -1.92413977      -0.02531340
C       -3.00918343      -0.36935672       0.15547760
C        0.78865684      -0.51465954       2.26020109
C      -20.90821378       0.46254492       4.69689460
C       -0.02732651      -1.61274012       1.77467301
C        2.97446911       1.21505062       2.63956750
C        4.40331025       1.05865487      -1.36768010
C       -2.25690794      -2.32714806      -1.13100507
C        3.05691205       2.93305305      -1.34634255
C        2.45537904       1.09691544      -2.93200931
C        0.79273411      -2.49058534       0.97939151
C        2.49247125      -0.33247980      -2.98130999
C       -1.12982582       2.64549198      -0.69370367
C        0.83781137       2.81954075      -2.15475524
C        2.67597597      -2.04123147      -1.40838551
C      -20.71549974      -0.40254910       3.75130245
C       -2.23862782      -0.27246018      -2.14710128
C       -1.79641855       0.83824909       1.31740990
C        1.09845355       3.05340694       0.30196433
C       -0.55519529       1.51308982       1.44727000
C       -0.26584641       2.54041589       0.44075212
C       -2.14835120       1.12600854      -2.11924567
C       -1.42839423      -1.69921115       1.69819633
C       -2.71076124       1.05807050       0.23339557
C        4.09331582      -0.90597658       0.04759123
C        0.01646846      -0.41429726      -3.19685493
C        0.19003599      -2.73201166      -1.39456991
C        0.54054881       0.91816543       2.20423664
C       -0.55704101       2.78376969      -1.98719183
C        3.22459238      -0.10714727       2.18833376
C       -1.13599660      -1.03082982      -2.65458950
C       -2.16464901      -0.57806263       1.33036379
C        1.69203118       1.74498487       2.32283170
C        3.94835979       2.06851207       2.03498287
C        4.64018083       1.31104630       1.04850970
C       -1.89252862      -2.95988565       1.23469229
C       -2.84193797      -1.03627871      -1.08022990
C        4.26976863      -0.34365640      -1.25459462
C        2.14133642      -2.00692921       1.05174608
C        0.18984655      -3.26752918      -0.05331014
C       -2.26909549       1.78948662      -0.85942317
C        0.00260654       1.00681468      -3.35653231
C        1.25695847      -1.06731105      -2.95313503
C        4.73227555       1.87051048      -0.23215433
C       -1.09508240       1.75659106      -2.83631637
C        3.40940606       1.76297560      -2.11692785
C        3.40599975      -1.03339527      -2.14455766
C        1.19726151       1.74590413      -3.04719042
C        3.29251766       3.25246247       1.55251969
C       -1.05638368      -2.24595735      -1.88234122
C        2.13973275      -0.96472923       2.03443857
C      -21.23416039      -1.38801818       3.08827527
C        4.09820253       3.16685782      -0.39364823
C        1.67712531       3.17289246      -1.05357520
C        3.91137637       4.05388061       0.63437707
60
Properties=species:S:1:pos:R:3 entry_id=113 rank=57 energy=-496.1542663574219 pbc="F F F"
C        2.72791241      -4.36999490      -0.23329740
C        2.97272516      -0.25903220      -1.36819585
C        1.14483721       2.44527058       2.06678290
C        3.44222384      -3.45220852       0.58412483
C       -2.28227809       1.06008779       1.43960507
C        2.83819212       1.03445978       0.88259806
C       -0.22321574      -4.25583269      -0.53340888
C        0.49432871      -1.11287095       2.38557597
C       -9.22677267       9.56857338       1.01125644
C        1.41712114      -2.10698698       1.86930971
C       -0.65929024       1.36945155       3.02971312
C        0.59894263       3.40536482      -0.49001323
C        2.06543066      -3.87253665      -1.35034226
C       -1.52655286       2.67375369      -1.01497457
C        0.35553855       1.87316917      -2.44942614
C        2.60874765      -1.44358530       1.40461001
C        1.73030527       1.50479366      -2.30404261
C       -2.44521987      -1.46156080      -1.30766345
C       -1.83658428       0.70700646      -2.28946164
C        3.10633252       0.89476956      -0.52517036
C      -10.01856956      10.51750623       1.39802816
C        0.31084035      -3.07534634      -2.59053850
C       -1.27282814      -2.97903053       0.70978018
C       -2.44907411       0.56560079       0.11151450
C       -1.61968244      -1.64216396       1.03352547
C       -2.33551940      -0.88936693      -0.00178848
C       -0.99830853      -2.59297144      -2.72235962
C        1.15572328      -3.43393418       1.48645945
C       -1.51577416      -3.57689965      -0.57205084
C        2.12254148       2.28821295       1.05822962
C        1.21585976      -0.80434427      -3.06939385
C        3.12375068      -1.64317635      -0.99246360
C       -0.91755134      -0.92315805       2.09133756
C       -2.18977587      -0.64442844      -2.44251173
C        0.74307671       1.30671511       2.82176579
C        1.40620089      -2.16507999      -2.73089595
C       -0.02706998      -3.73676279       0.81927911
C       -1.43048705       0.37513589       2.36406792
C       -1.10810148       2.64179188       2.55898001
C       -0.02938794       3.25601187       1.86327000
C        2.31940878      -4.15000846       1.09681920
C        0.68255867      -4.05978871      -1.60182019
C        1.87481561       2.85504603      -0.23098180
C        2.48190639      -0.05005930       1.72267202
C        3.38428106      -2.04506522       0.36973793
C       -1.89327230      -2.74837851      -1.61935994
C       -0.10633695      -0.37817186      -3.41038082
C        2.10581804       0.12677096      -2.46426620
C       -0.29901285       3.74000598       0.57681972
C       -1.19462575      -1.28936899      -3.25451254
C       -0.18389902       2.81083179      -1.52926337
C        2.47334894       2.00693823      -1.19821981
C       -0.56047966       0.90045833      -2.93264458
C       -2.30886372       2.45536715       1.79232348
C        2.43502199      -2.58315931      -1.81100700
C        1.30864089       0.06772363       2.53585241
C       -8.02656687       9.28041115       0.61444457
C       -1.66069894       3.54545071       0.11080835
C       -2.16128548       1.39325173      -1.07911865
C       -2.74241634       3.43647181       0.94533725
60
Properties=species:S:1:pos:R:3 entry_id=123 rank=58 energy=-496.1542663574219 pbc="F F F"
C        0.57298098      -4.73688221       0.27008455
C        2.67938261      -1.66034684      -1.81062181
C        3.46208605       1.98670580       1.11353334
C        1.83806673      -4.29821665       0.74730702
C       -0.20492018       2.72687083       1.28196525
C        3.80017235      -0.26387907       0.07525163
C       -1.83198947      -3.00435643       0.34545657
C        1.12195515      -0.50565439       2.33891664
C      -16.95945013       4.54996033       3.43643157
C        1.21951240      -1.90065959       1.94957640
C        1.65710623       2.24911778       2.53182487
C        2.91300422       2.77518607      -1.50258835
C        0.02904868      -4.09117905      -0.83513260
C        0.67250215       3.32537943      -1.55880140
C        1.43038652       1.43334715      -3.00330622
C        2.42628811      -2.09074044       1.18588759
C        2.38543433       0.36951417      -2.95954435
C       -2.33853115       0.44074301      -0.75437587
C       -0.93066147       1.74615710      -2.28740782
C        3.60360692      -0.69695253      -1.28392030
C      -18.24165642       4.47781197       3.26101726
C       -1.27204624      -2.59295446      -1.98381282
C       -1.70632842      -1.22107326       1.38663089
C       -0.92181718       2.26139374       0.13959471
C       -1.20059743       0.10319945       1.43455165
C       -1.63058809       0.99909264       0.35550977
C       -2.10924246      -1.47039913      -2.04793941
C        0.20960778      -2.87909297       1.92057602
C       -2.52983685      -1.72172358       0.32293391
C        3.92855629       1.18403872       0.04761553
C        0.55572244      -1.31109346      -3.09122923
C        2.15714213      -2.82895099      -1.14722625
C        0.00527197       0.41553118       2.19445231
C       -1.97169611       0.82706210      -2.07206871
C        2.71377629       1.37705017       2.16111545
C        0.06831892      -2.48797740      -2.47455567
C       -1.06986467      -2.53287271       1.50125696
C        0.34368583       1.79665945       2.22125526
C        1.85486548       3.48463059       1.84120204
C        2.88972736       3.28927501       0.88411461
C        0.68033384      -4.16917578       1.55453622
C       -1.25526622      -3.48943314      -0.85108425
C        3.71828431       1.63301194      -1.29381255
C        3.13994356      -0.84582021       1.18607236
C        2.48502374      -3.14215105       0.22317590
C       -2.64997576      -0.95754372      -0.82843954
C       -0.37278469      -0.25331857      -3.34469141
C        1.91848510      -0.98506481      -2.84284842
C        2.61752014       3.68272511      -0.43248420
C       -1.70329327      -0.35938750      -2.83744856
C        1.71239530       2.61330994      -2.26396304
C        3.52036889       0.48780459      -2.10790553
C        0.05342676       1.10303499      -3.12163224
C        0.59655375       3.92186647       1.30302853
C        0.90298018      -3.30318379      -1.62696911
C        2.44711469       0.01233052       2.10056982
C      -19.35335239       5.14419462       3.26095430
C        1.29676369       4.24295255      -0.65622567
C       -0.53802815       2.63346112      -1.23838152
C        0.56145791       4.86779127       0.31706991
60
Properties=species:S:1:pos:R:3 entry_id=128 rank=59 energy=-496.1542663574219 pbc="F F F"
C       -0.55859110      -4.39345811       0.23550985
C        1.67719430      -1.81380233      -2.32807051
C        4.44387433       1.01407008       0.28253851
C        0.86181176      -4.41251120       0.27791341
C        1.44480805       2.76372004       1.69055618
C        3.70603971      -1.07374043      -0.88020685
C       -2.13652861      -2.05920813       1.16530767
C        1.92218576      -0.82877106       2.13857901
C      -22.60680138       2.92856072       2.30359617
C        1.44362107      -2.12511220       1.69380565
C        3.34370285       1.59636038       2.22851458
C        3.40147074       2.27679386      -1.97316883
C       -1.17779756      -3.47112867      -0.60155932
C        1.55203262       3.45916018      -1.25903045
C        1.18248931       1.64203703      -2.93298419
C        2.23029949      -2.55343042       0.56583841
C        1.71089403       0.35052247      -3.24557443
C       -1.82461795       1.49901233       0.41010168
C       -0.61387782       2.53133853      -1.46089426
C        2.97488697      -1.24202222      -2.10861758
C      -20.62048815       1.96745453       1.18349030
C       -2.21773010      -1.51779208      -1.20219098
C       -1.13367200      -0.54938196       2.16160256
C        0.30169126       2.68940963       0.83982439
C       -0.24172388       0.55019995       2.08115543
C       -0.67139908       1.67111193       1.23818343
C       -2.62854847      -0.20191712      -0.94701657
C        0.21583148      -2.75202103       1.97089796
C       -2.35855824      -0.63838057       1.41872231
C        4.27720291       0.26304541      -0.90297658
C       -0.50716602      -0.68867259      -2.81404469
C        1.03837669      -2.85653680      -1.56509190
C        1.17207053       0.38938726       2.40391797
C       -1.77587848       1.93638265      -0.94111041
C        3.89877507       0.51258949       1.49961317
C       -1.13196202      -1.74315261      -2.10732686
C       -0.94784594      -1.99254920       2.01410084
C        1.92663642       1.59398207       2.35961520
C        3.70575431       2.80232970       1.55267913
C        4.27737096       2.44566551       0.29931525
C        0.11224449      -4.06160028       1.42797889
C       -2.14234415      -2.52516318      -0.16944985
C        3.82123705       0.93196507      -2.08191104
C        3.26801690      -1.58262096       0.36751397
C        1.65209510      -3.43589913      -0.39424636
C       -2.57483531       0.27647692       0.39893126
C       -1.07766395       0.61816214      -2.70709672
C        0.89468637      -0.81229247      -3.02499287
C        3.75597338       3.07701457      -0.83738348
C       -2.14966382       0.83826312      -1.78988485
C        2.03955091       2.57702699      -2.29325300
C        3.02690969       0.01584048      -2.81855179
C       -0.19315186       1.74736086      -2.59477829
C        2.55330278       3.65726272       1.48116029
C       -0.38446968      -2.87227153      -1.61232592
C        3.20283957      -0.69280264       1.48807426
C      -21.51217327       2.80022963       1.62000667
C        2.68289501       4.02336255      -0.58903231
C        0.34335261       3.11521405      -0.57505557
C        2.52229672       4.69605011       0.59383737
60
Properties=species:S:1:pos:R:3 entry_id=143 rank=60 energy=-496.1540832519531 pbc="F F F"
C       -2.82486035      -2.69796249      -0.65828046
C        1.29606490      -2.28457102      -1.68958201
C        3.63498321      -0.24114207       1.88962523
C       -1.82947230      -3.30722349       0.15246170
C        1.77786980       2.96647356       1.36153150
C        2.51032889      -2.06506239       0.59892055
C       -3.13889180       0.24821384      -0.83425965
C        0.01372372      -0.13354247       2.14329880
C      -20.07564594      -2.71907089       4.96604068
C       -0.82342084      -1.16774342       1.56199562
C        2.28808338       1.34185367       2.89753418
C        4.55441482       0.55292255      -0.61765100
C       -2.41107947      -1.91967247      -1.73477859
C        3.53318349       2.57070201      -1.07630392
C        3.04574365       0.65841785      -2.60805077
C        0.01752464      -2.22619007       1.06420999
C        2.87803647      -0.76002210      -2.52709027
C       -0.68505565       2.88600608      -1.44013189
C        1.56837605       2.64820485      -2.39120315
C        2.43881537      -2.28645768      -0.82180080
C      -19.50161197      -1.56345384       4.84005488
C       -1.85538548      -0.01290006      -2.88063054
C       -2.05317247       1.41383502       0.48502901
C        1.29123220       3.11942325       0.02906371
C       -0.78852814       1.93678938       0.85864561
C       -0.12861934       2.80033655      -0.12609553
C       -1.56507640       1.35688004      -2.94343957
C       -2.16581881      -1.08619691       1.15012227
C       -2.65575471       1.62632250      -0.80002560
C        3.64188009      -1.18392788       0.83680093
C        0.53449664      -0.55384091      -3.33247009
C       -0.05766884      -2.65217828      -1.35817614
C        0.00293006       1.30184989       1.90692173
C        0.18231914       2.80559005      -2.56340972
C        2.43556129      -0.04468045       2.63213949
C       -0.79053597      -0.95535977      -3.03963992
C       -2.62220371       0.06707013       0.52180850
C        1.20630240       1.98607934       2.23336319
C        3.49032923       1.99192298       2.47950030
C        4.26922888       1.04615054       1.75584424
C       -2.69536089      -2.32399676       0.69308089
C       -2.79616929      -0.56924474      -1.93597318
C        4.19175313      -0.79919973      -0.42582416
C        1.36988511      -1.91136433       1.42579544
C       -0.44203972      -3.03238296      -0.01964682
C       -1.87141873       2.16838913      -1.80816996
C        0.77042343       0.82943818      -3.60884836
C        1.57318847      -1.32385835      -2.73896224
C        4.73181009       1.44091540       0.49388587
C       -0.29374951       1.76494897      -3.43261465
C        3.87547472       1.28659493      -1.64114025
C        3.45991217      -1.47040725      -1.43916263
C        1.95956611       1.44363372      -3.08053492
C        3.14477901       3.18348844       1.75468232
C       -1.07135254      -2.07333198      -2.17307689
C        1.29846087      -0.77238300       2.29176215
C      -19.03989680      -0.53265039       5.47476277
C        4.35008093       2.77921823       0.07921657
C        2.17503592       3.01352445      -1.15016211
C        4.06792189       3.79594100       0.95406346
60
Properties=species:S:1:pos:R:3 entry_id=114 rank=61 energy=-495.92498779296875 pbc="F F F"
C        2.95582310      -4.19580061      -0.15284433
C        2.92593404      -0.09178312      -1.33546416
C        0.84918168       2.51438888       2.03556467
C        3.58730543      -3.21941371       0.66451535
C       -2.45703708       0.88144837       1.36511287
C        2.65767609       1.21359705       0.89711323
C        0.01025745      -4.29413880      -0.50426908
C        0.44712361      -1.07822956       2.38814806
C       -7.90637919      10.76967618       1.12344172
C        1.44854894      -2.00890448       1.90080541
C       -0.89118335       1.32341782       2.98040563
C        0.28231691       3.40385530      -0.54273604
C        2.27969899      -3.76116241      -1.28791087
C       -1.77557681       2.51678217      -1.09532175
C        0.18435833       1.83595637      -2.48705559
C        2.59705903      -1.26716723       1.44673056
C        1.57892843       1.56835522      -2.31444576
C       -2.39137763      -1.67728246      -1.35145437
C       -1.92073781       0.51789811      -2.35009393
C        2.96041511       1.07727651      -0.50382106
C       -8.57456476       9.71691353       1.71808474
C        0.49483766      -3.10620641      -2.56824483
C       -1.15178204      -3.08383709       0.70566440
C       -2.56480846       0.36081611       0.04098357
C       -1.59996961      -1.77208155       1.00682009
C       -2.34727924      -1.08394312      -0.05115181
C       -0.84278177      -2.71940747      -2.72752165
C        1.28979765      -3.35533027       1.52895121
C       -1.32715534      -3.71146771      -0.57332764
C        1.85270121       2.41530196       1.04518928
C        1.24481920      -0.78098422      -3.05963003
C        3.16754061      -1.45695663      -0.93940101
C       -0.96930703      -0.99304234       2.06710719
C       -2.17365805      -0.85705105      -2.49164093
C        0.51561631       1.35833529       2.79776948
C        1.52462078      -2.12081444      -2.70069467
C        0.14433926      -3.74750268       0.84505134
C       -1.57700413       0.26925864       2.31341629
C       -1.42047946       2.55523496       2.48625299
C       -0.37562763       3.23723856       1.80179837
C        2.50867986      -3.98979891       1.16673079
C        0.91819896      -4.04995999      -1.56048089
C        1.58875968       2.94830946      -0.25505173
C        2.36471099       0.11667687       1.74494250
C        3.43156779      -1.82254300       0.43215089
C       -1.74397953      -2.92511270      -1.63742062
C       -0.09801235      -0.45389986      -3.42740808
C        2.05507691       0.21884880      -2.45195645
C       -0.65579688       3.68546911       0.50456839
C       -1.12112457      -1.43863420      -3.27837102
C       -0.43711939       2.74344258      -1.58809220
C        2.26296108       2.13389535      -1.20141594
C       -0.65054349       0.79452022      -2.97349612
C       -2.58996587       2.27482717       1.70032002
C        2.56349949      -2.45346667      -1.75773381
C        1.17207458       0.15967201       2.53692691
C       -7.51933468       9.46988206       0.86135694
C       -1.99146512       3.38899161       0.01753420
C       -2.31577004       1.19335377      -1.15464490
C       -3.07767898       3.21341244       0.83469841
60
Properties=species:S:1:pos:R:3 entry_id=126 rank=62 energy=-495.9249267578125 pbc="F F F"
C       -0.06517179      -4.60521155       0.13513768
C        1.67048382      -1.65666365      -2.42265386
C        4.19305219       1.40549977       0.16784329
C        1.34618883      -4.43934048       0.10278228
C        1.08142681       2.69332736       1.81388838
C        3.66659758      -0.71488969      -1.05064697
C       -1.87388172      -2.53601255       1.25345316
C        2.04029278      -0.82112183       2.06489430
C      -19.98695344       3.55448711       1.30314080
C        1.70828332      -2.15128875       1.58792269
C        3.14250848       1.76336928       2.19438381
C        2.87162261       2.60788103      -1.96874984
C       -0.84404878      -3.74016566      -0.62611634
C        0.93004262       3.50821194      -1.10353890
C        0.70131453       1.72630972      -2.83986105
C        2.47808343      -2.42996147       0.40243264
C        1.37274459       0.52813811      -3.24011381
C       -2.06628055       1.06096189       0.64808477
C       -1.10633110       2.31446241      -1.23487548
C        2.89497140      -0.92931232      -2.24685466
C      -18.62836945       3.77992594       1.19578183
C       -2.15715909      -1.91627128      -1.07920128
C       -1.01796662      -0.94713442       2.26463388
C       -0.08949789       2.50208221       1.02106524
C       -0.28132080       0.26272197       2.18870594
C       -0.89923104       1.35018818       1.42230210
C       -2.71837433      -0.67670137      -0.74253778
C        0.59046792      -2.94474180       1.90187991
C       -2.26207715      -1.16706023       1.58333206
C        4.05781060       0.68541439      -1.04063084
C       -0.66451768      -0.80814118      -2.73907827
C        1.21582390      -2.80365605      -1.67587439
C        1.15773310       0.27694753       2.42908829
C       -2.15029036       1.55278067      -0.68278695
C        3.78698858       0.79064445       1.38661867
C       -1.10652760      -1.96236296      -2.05013735
C       -0.65700952      -2.34693434       2.04192285
C        1.74756543       1.57116926       2.40268386
C        3.30665686       3.03117456       1.55592394
C        3.84678487       2.80154033       0.25966793
C        0.62494982      -4.23444286       1.30569759
C       -1.89450842      -2.94515571      -0.10006917
C        3.45398463       1.33465827      -2.16236433
C        3.36871868      -1.32447467       0.19373709
C        1.96409138      -3.34300805      -0.56524312
C       -2.65147400      -0.24866391       0.61941109
C       -1.39145526       0.40767884      -2.54253137
C        0.72687560      -0.73890478      -3.02951876
C        3.18533932       3.40403966      -0.81801590
C       -2.42713645       0.44918510      -1.56063106
C        1.46641763       2.73873811      -2.20186302
C        2.74391940       0.35187976      -2.89980213
C       -0.65464953       1.63783761      -2.42532282
C        2.05229317       3.73106785       1.58509011
C       -0.19370891      -3.00382174      -1.64897767
C        3.25225340      -0.49366902       1.35480578
C      -19.13123189       2.50245916       1.04039036
C        2.01525534       4.19081468      -0.46952636
C       -0.18299484       2.98327770      -0.37377642
C        1.83755740       4.79136121       0.74965171
60
Properties=species:S:1:pos:R:3 entry_id=132 rank=63 energy=-495.92486572265625 pbc="F F F"
C       -1.17036489      -4.00590960       0.49521311
C        1.52312394      -2.02111563      -2.16007339
C        4.59277645       0.57918105       0.34537624
C        0.22861108      -4.23172374       0.60699263
C        1.85018546       2.87357794       1.46447052
C        3.58890767      -1.46997135      -0.68116763
C       -2.40705677      -1.38916274       1.16074631
C        1.75428764      -0.69621649       2.21705915
C      -23.06507365       0.71678791       2.37480700
C        1.09948644      -1.94018362       1.85566363
C        3.52830469       1.48655946       2.18484582
C        3.83612648       1.78240495      -2.05005896
C       -1.61159160      -3.07724470      -0.44156566
C        2.16583689       3.28562832      -1.52267732
C        1.58248100       1.40601909      -3.06285727
C        1.85208295      -2.57924446       0.80666894
C        1.91904278       0.02731967      -3.24561423
C       -1.52831215       2.00486312       0.13607803
C       -0.10784336       2.67726228      -1.75277268
C        2.88528504      -1.63366974      -1.92695984
C      -23.29479800       1.86048442       1.63548451
C       -2.31642686      -1.04865332      -1.24333170
C       -1.22057657       0.03573436       2.07795222
C        0.73956204       2.89618055       0.56877374
C       -0.16894560       0.97915355       1.95095574
C       -0.39174198       2.07377291       1.00098624
C       -2.53139932       0.33046856      -1.11527573
C       -0.21707942      -2.35170643       2.12692147
C       -2.41875678       0.06615120       1.28807732
C        4.35627831      -0.23918569      -0.78270046
C       -0.44539210      -0.62693540      -2.83487822
C        0.70545322      -2.88759934      -1.34730460
C        1.19181100       0.63842054       2.35191074
C       -1.36469741       2.30991466      -1.24241365
C        3.93416677       0.27320642       1.57061301
C       -1.24774515      -1.51085924      -2.07564259
C       -1.25265161      -1.42633221       2.05718313
C        2.12346081       1.70824728       2.24897960
C        4.09373286       2.56133328       1.43147954
C        4.64792591       2.01562457       0.23967042
C       -0.49892012      -3.67359393       1.68780773
C       -2.43341378      -1.96298740      -0.13155282
C        4.04996528       0.38561417      -2.03175866
C        3.03225911      -1.79534375       0.58074254
C        1.18185667      -3.44791790      -0.10490171
C       -2.45530171       0.91107998       0.18839479
C       -0.81435408       0.75450392      -2.86192502
C        0.92766149      -0.97646069      -2.96970917
C        4.26910694       2.61696323      -0.96722729
C       -1.87115594       1.21015693      -2.01644599
C        2.54872471       2.25386470      -2.45818758
C        3.15329204      -0.46273688      -2.73197205
C        0.22768486       1.74454292      -2.79973997
C        3.08894454       3.56960376       1.23583065
C       -0.70083991      -2.69343434      -1.45861023
C        3.06242012      -0.81029134       1.62045462
C      -22.29850151       1.84532449       2.59236340
C        3.34517003       3.73104667      -0.84664503
C        0.89549742       3.18645070      -0.87206897
C        3.24836085       4.52215567       0.26859191
60
Properties=species:S:1:pos:R:3 entry_id=131 rank=64 energy=-495.9248046875 pbc="F F F"
C       -0.57940881      -4.35984843       0.09604155
C        2.33714397      -2.00624473      -1.95369834
C        4.28412045       1.08385471       1.06641294
C        0.76936406      -4.35802165       0.54430672
C        1.03674553       2.92501007       1.39434008
C        3.87904728      -1.11220900      -0.06123726
C       -2.32092355      -1.96632088       0.31786026
C        1.30849461      -0.60421289       2.28391086
C      -23.14132602       2.31083934       3.56016430
C        0.95686209      -1.94132587       1.84348966
C        2.68434715       1.83277081       2.55605387
C        3.94899939       2.12068601      -1.49805301
C       -0.91811919      -3.52658160      -0.96500843
C        1.99260919       3.34412750      -1.45415298
C        2.08872729       1.37556622      -2.99138598
C        2.02678705      -2.46570415       1.03356276
C        2.66435660       0.06554310      -3.01884722
C       -1.75017481       1.50924672      -0.64419134
C       -0.03923312       2.37654322      -2.17948356
C        3.52742725      -1.40211478      -1.42717933
C      -24.41296148       2.49644892       4.06609886
C       -1.71074389      -1.64839931      -2.01314475
C       -1.62333732      -0.35810267       1.41570793
C        0.18381984       2.75791347       0.26269191
C       -0.72732799       0.73892741       1.48982789
C       -0.87900410       1.77078354       0.45892302
C       -2.15735168      -0.31992007      -2.00939759
C       -0.30825958      -2.55343969       1.81997900
C       -2.58542209      -0.53072706       0.36435523
C        4.45170635       0.22407820      -0.04266216
C        0.39933564      -0.95357264      -3.14224135
C        1.49105271      -2.98176615      -1.31137080
C        0.53310387       0.62476959       2.21534030
C       -1.31027442       1.81909334      -1.95974074
C        3.40561462       0.69236707       2.11686856
C       -0.41677002      -1.94520303      -2.54787071
C       -1.42536543      -1.80646584       1.46233122
C        1.28816692       1.82830786       2.27900815
C        3.24361274       2.97413656       1.90308763
C        4.14330618       2.50904421       0.90358577
C       -0.27224676      -3.90861347       1.39411833
C       -1.94899478      -2.55377113      -0.91342831
C        4.36112836       0.77609447      -1.35845283
C        3.09313843      -1.50633697       1.05039345
C        1.73487058      -3.44197664       0.03563974
C       -2.48438847       0.28210293      -0.75519191
C       -0.15806745       0.35110161      -3.32504431
C        1.80113389      -1.08095314      -2.93312672
C        3.97759332       3.02692586      -0.38730006
C       -1.44294003       0.64262866      -2.77431115
C        2.74120840       2.37542284      -2.22118387
C        3.79835398      -0.21369380      -2.20494428
C        0.67521774       1.49641649      -3.07087707
C        2.17364599       3.80664457       1.42745623
C        0.14005092      -3.01669097      -1.75966257
C        2.72294924      -0.51585202       2.01670408
C      -23.79519318       3.51125999       3.36106553
C        2.89362061       3.98081848      -0.54353268
C        0.63428072       3.05047174      -1.11455699
C        2.41282456       4.75924495       0.47700842
60
Properties=species:S:1:pos:R:3 entry_id=82 rank=65 energy=-495.5692443847656 pbc="F F F"
C        2.40136950      -3.22062187      -1.09608357
C        2.37151261       0.85025095      -2.19145029
C        1.67523578       1.92728501       2.22427804
C        3.13005531      -2.24134368      -0.34616969
C       -1.79343312       0.65183590       2.74645950
C        2.84958844       1.29972518       0.18160104
C       -0.46446832      -3.56364974      -0.91746255
C        0.85859747      -1.67798779       1.84609584
C       -2.96003534       1.99970346      -1.96287433
C       -0.00821298       1.08918595      -0.59066376
C        0.37357532       0.54636845       3.47317474
C        0.27925900       3.61260101       0.56248766
C        1.56699667      -2.78481507      -2.12912538
C       -1.89885056       2.87317037       0.71995530
C       -0.51022440       2.26311679      -1.31713613
C        0.88542941       0.34502324      -0.20472570
C        0.78322996       2.51076264      -2.05056236
C       -2.99189897      -1.03117328      -0.39023070
C       -3.23054721       1.38096030      -0.66385423
C        2.73033703       1.74530450      -1.16268194
C       -3.87265718       1.48130503      -2.92064616
C       -0.49281677      -1.95089372      -2.70331249
C       -1.44759342      -3.00993634       0.77973741
C       -2.50026988       0.52762210       1.51231796
C       -1.61904732      -1.80853204       1.48835238
C       -2.52266805      -0.82294361       0.95500883
C       -1.82422653      -1.57035438      -2.44588956
C        1.02764297      -2.84570804       1.03965593
C       -1.81575487      -3.13530069      -0.59205180
C        2.23604439       2.29113656       0.99713796
C        0.16162555       0.39038287      -3.14055017
C        2.60903776      -0.53044400      -1.97071371
C       -0.49573686      -1.37755029       2.26196632
C       -3.50468247       0.07883888      -1.07567091
C        1.51912338       0.56853633       2.62633693
C        0.48114161      -0.96817828      -3.05099397
C       -0.11177711      -3.44819432       0.47797541
C       -0.71088895      -0.22394860       3.02822663
C       -0.12335249       1.87425941       3.64393275
C        0.61461537       2.70650249       2.77877314
C        2.18749502      -3.06555658       0.28861355
C        0.18011186      -3.01515559      -2.02986596
C        1.55602719       3.18530954       0.16325562
C        2.17607168      -0.05276660       0.33170768
C        2.95153847      -0.88132718      -0.63083212
C       -2.41445303      -2.03541217      -1.23130655
C       -1.23965479       0.72485422      -3.00669542
C        1.17381754       1.31990004      -2.77456932
C       -0.10228864       3.55242947       1.93450977
C       -2.22505008      -0.30428838      -2.96310947
C       -0.83231509       3.18286033      -0.19832372
C        1.83707102       2.83217457      -1.17371120
C       -1.57053399       1.89412379      -2.29037464
C       -1.54182599       1.88608334       3.42852325
C        1.75015830      -1.44417024      -2.61210268
C        1.78359590      -0.52619883       1.75777939
C       -3.50380201       0.18719324      -2.52648450
C       -1.53598112       3.40479217       1.99657020
C       -2.68607286       1.67197244       0.61378779
C       -2.20222956       3.04202719       3.13706463
60
Properties=species:S:1:pos:R:3 entry_id=79 rank=66 energy=-495.27001953125 pbc="F F F"
C        2.37684570      -3.27558043      -1.10558556
C        2.34806534       0.79246119      -2.15596729
C        1.74588317       1.94199370       2.21309016
C        3.14642031      -2.31078768      -0.37397627
C       -1.77960906       0.68374591       2.69178440
C        2.93853749       1.30529354       0.19368967
C       -0.49996631      -3.58098093      -0.90590953
C        0.89865642      -1.65195983       1.82991143
C       -3.03857535       2.01780490      -1.99216588
C        0.05574961       0.96687031       0.40492996
C        0.39965564       0.57808868       3.39840461
C        0.29816414       3.60249684       0.48964742
C        1.52489006      -2.83176107      -2.11882341
C       -1.90054748       2.90312615       0.61062806
C       -0.62345347       2.70455417      -1.63025441
C        0.99823622       0.27855103      -0.07247784
C        0.72936348       2.44080613      -1.98513287
C       -3.00933869      -1.01544624      -0.39123050
C       -3.26778169       1.39324363      -0.69110818
C        2.75044290       1.71586880      -1.16189197
C       -3.94507815       1.47107671      -2.94078830
C       -0.54250310      -2.00680306      -2.71177658
C       -1.44711651      -2.97341949       0.78146898
C       -2.50317105       0.56786967       1.47617401
C       -1.58976447      -1.75118246       1.45345206
C       -2.51442701      -0.78498930       0.93640377
C       -1.86727678      -1.59456494      -2.44187741
C        1.03155696      -2.81627478       1.01495166
C       -1.84595963      -3.13563419      -0.57497317
C        2.31552447       2.30644567       1.00078209
C        0.09201062       0.33616981      -3.03378931
C        2.60181973      -0.59331602      -1.96246953
C       -0.45486477      -1.32614995       2.20082340
C       -3.55210577       0.08391627      -1.07464219
C        1.58338969       0.58081880       2.62087627
C        0.43394589      -1.02558727      -3.03023364
C       -0.11942143      -3.41894133       0.47613301
C       -0.67800453      -0.17619186       2.94637850
C       -0.09951062       1.89853004       3.56207778
C        0.64622796       2.71623750       2.70609861
C        2.18674981      -3.09443683       0.27992707
C        0.13303104      -3.06826724      -2.03615601
C        1.58099615       3.17382592       0.15271372
C        2.36063802      -0.08103399       0.37533894
C        3.02396345      -0.94486550      -0.64276170
C       -2.44301250      -2.03747769      -1.22017623
C       -1.28690131       0.71892962      -2.91797771
C        1.08841179       1.23765767      -2.64058205
C       -0.08689531       3.52502187       1.84183600
C       -2.26680968      -0.30533163      -2.92877805
C       -0.83680490       3.24968048      -0.32747778
C        1.80565545       2.77050073      -1.15659786
C       -1.63261965       1.96575578      -2.32615611
C       -1.52019714       1.91500781       3.36099804
C        1.71041655      -1.49465522      -2.58726477
C        1.88103619      -0.53544325       1.79150228
C       -3.55304902       0.18966675      -2.52568573
C       -1.51650665       3.39813106       1.89450657
C       -2.68282837       1.70145064       0.55443486
C       -2.18523246       3.06063188       3.04078716
60
Properties=species:S:1:pos:R:3 entry_id=83 rank=67 energy=-495.1431579589844 pbc="F F F"
C        1.89108684      -3.24993599      -1.32055038
C        2.42781461       0.84283726      -2.13547096
C        2.02170095       1.73511767       2.35545734
C        2.79403049      -2.45719381      -0.53379348
C       -2.02395978       0.77741509       2.90839329
C        3.02581038       1.07733946       0.23527835
C       -1.04744564      -3.02943096      -1.24301427
C        0.58113505      -1.66614527       1.72460777
C       -3.71739601      -1.30718987      -2.40400399
C        0.21628934       1.25893483      -0.31385549
C        0.33066542       0.60524255       3.39139983
C        0.79297030       3.68616795       0.82856217
C        1.14066880      -2.61845024      -2.31587515
C       -1.42999784       3.00178488       1.07891577
C       -0.21796257       2.45847713      -0.99993318
C        0.99650578       0.33276753      -0.15511776
C        1.01687943       2.65351229      -1.82893289
C       -3.37384796      -0.53844809      -0.26091296
C       -2.53430247       1.69839586      -0.74088707
C        2.91992234       1.62073213      -1.07312318
C       -3.08358517      -1.95874972      -3.44246152
C       -0.65392994      -1.58567348      -3.28630457
C       -1.87822079      -2.68618202       0.60593494
C       -2.55845648       0.81812941       1.56415276
C       -1.91071937      -1.54743308       1.43307514
C       -2.76107911      -0.48328230       1.00887621
C       -1.94768007      -1.14036257      -3.56748742
C        0.59372536      -2.77172946       0.80795213
C       -2.39189270      -2.64196877      -0.74755729
C        2.57120069       2.08749580       1.12304943
C        0.17309091       0.72825206      -3.08903773
C        2.51821403      -0.56949121      -2.01174351
C       -0.72464006      -1.21122335       2.17632219
C       -3.37665000       0.60594850      -1.08995848
C        1.53037297       0.42271491       2.62101334
C        0.42168323      -0.64456118      -3.26459993
C       -0.60079860      -3.14197007       0.15504628
C       -0.83545639      -0.05455677       2.99049711
C        0.22056570       1.96131888       3.76583965
C        1.20049561       2.68180940       3.02164429
C        1.72979472      -3.14002629       0.07372938
C       -0.28708767      -2.66686889      -2.39106971
C        1.98456535       3.11446039       0.36652829
C        2.23319205      -0.21449570       0.33471421
C        2.86028082      -1.06944581      -0.71247867
C       -3.37104641      -1.69869411      -1.07682022
C       -1.19952892       1.10882550      -2.77627220
C        1.27537512       1.49238034      -2.64002915
C        0.50114272       3.58019834       2.20468018
C       -2.22659881       0.21091328      -3.14649971
C       -0.40222449       3.38013087       0.12867611
C        2.15425694       2.80146321      -0.99632077
C       -1.45856568       1.96464125      -1.66302232
C       -1.07864565       2.53879414       3.54556946
C        1.55126017      -1.30729161      -2.71218251
C        1.68207871      -0.67614715       1.72683738
C       -3.42829791       0.12952618      -2.42312777
C       -0.88212361       3.28453723       2.35050790
C       -2.33871362       1.94246607       0.69648780
C       -2.21898070       1.83536623       3.77374861
60
Properties=species:S:1:pos:R:3 entry_id=152 rank=68 energy=-494.77435302734375 pbc="F F F"
C        1.89814238      -3.25145576      -1.32261315
C        2.41814905       0.83770658      -2.09616317
C        2.03976369       1.79092765       2.35282041
C        2.78424696      -2.45439417      -0.52580649
C       -2.05430895       0.77602992       2.91310990
C        3.13389114       1.14691398       0.24170199
C       -1.06423222      -3.02964709      -1.25810010
C        0.52869896      -1.61995864       1.63341755
C       -3.72692544      -1.32041771      -2.41949679
C        0.31663686       1.19503827      -0.27970625
C        0.31980295       0.64279695       3.33941905
C        0.78831085       3.66651055       0.83773498
C        1.14189217      -2.62877451      -2.32000794
C       -1.42845783       2.95506614       1.09780540
C       -0.18453289       2.36296006      -0.95461796
C        1.06267085       0.31247055       0.18576159
C        1.01009859       2.64234616      -1.81705201
C       -3.41608557      -0.55598443      -0.26449690
C       -2.52614168       1.65731053      -0.72511605
C        2.93512682       1.64348316      -1.06847863
C       -3.08374898      -1.97393837      -3.45269198
C       -0.64915302      -1.60283972      -3.30901951
C       -1.90369036      -2.68970465       0.59075623
C       -2.61925634       0.80104103       1.57895178
C       -1.95273542      -1.55360021       1.42325284
C       -2.82065234      -0.50045335       1.01519293
C       -1.94661268      -1.15779149      -3.58209310
C        0.56919938      -2.76707966       0.78595870
C       -2.41177631      -2.64580224      -0.76190040
C        2.62166226       2.14111447       1.13128506
C        0.17863584       0.70867817      -3.09703233
C        2.50034574      -0.56767393      -1.98529943
C       -0.75741592      -1.19648964       2.14177427
C       -3.38877121       0.58596138      -1.09492091
C        1.49401969       0.50830738       2.54708272
C        0.42741380      -0.66306423      -3.28780192
C       -0.62573414      -3.14886925       0.13972694
C       -0.84991655      -0.02968069       2.95069969
C        0.22151752       1.98300253       3.76540731
C        1.20776548       2.72274734       3.03748374
C        1.71956588      -3.14264244       0.06803130
C       -0.28958385      -2.67594766      -2.40191652
C        1.99712499       3.13414093       0.37112320
C        2.51522211      -0.17261092       0.35132743
C        2.91729289      -1.06719038      -0.71899865
C       -3.40204421      -1.71400090      -1.08768387
C       -1.19217342       1.07499715      -2.76512697
C        1.27584914       1.47476845      -2.62176568
C        0.49275919       3.59792893       2.21300727
C       -2.22483195       0.19144869      -3.15092583
C       -0.39236318       3.30369601       0.15268855
C        2.15562168       2.80857275      -0.98985593
C       -1.43215952       1.89283749      -1.62285911
C       -1.08163971       2.55619432       3.56580865
C        1.55006198      -1.31558697      -2.70340309
C        1.49491449      -0.45875281       1.46770634
C       -3.42939608       0.11352309      -2.43099575
C       -0.89100175       3.28565571       2.36215922
C       -2.35806511       1.91307383       0.71268037
C       -2.21605671       1.83825025       3.77712657
60
Properties=species:S:1:pos:R:3 entry_id=80 rank=69 energy=-494.5835876464844 pbc="F F F"
C        2.34501845      -3.15816374      -1.09542267
C        2.36336777       0.84383926      -2.17268591
C        1.70087152       1.96244890       2.25616023
C        3.14730510      -2.22773292      -0.38600357
C       -1.78082023       0.69083661       2.74322129
C        2.85744907       1.31576487       0.19780696
C       -0.46012038      -3.51311082      -0.92950533
C        0.88762011      -1.64045850       1.88581578
C       -3.04967105       2.04328754      -1.94896312
C        0.24478075      -0.67039758      -1.04858455
C        0.38505501       0.58854218       3.48346958
C        0.28333958       3.63226695       0.55156151
C        1.53747041      -2.76268699      -2.14094704
C       -1.89386578       2.90003024       0.67603455
C       -0.62420538       2.69984614      -1.57476828
C        1.03912520      -0.09367552      -0.26986317
C        0.73115518       2.48461196      -1.97066890
C       -2.99593198      -1.00109667      -0.38122745
C       -3.27189439       1.40754200      -0.65061551
C        2.72705865       1.74243887      -1.14713551
C       -3.96473955       1.51265738      -2.89822663
C       -0.57095192      -1.99246708      -2.73619698
C       -1.42118581      -2.94099597       0.76947687
C       -2.48800870       0.56508402       1.51079787
C       -1.59258902      -1.75392214       1.48910634
C       -2.50649688      -0.78436279       0.95448281
C       -1.90868212      -1.58693875      -2.48306149
C        1.03945241      -2.78492761       1.05237967
C       -1.80527147      -3.07950372      -0.59085652
C        2.26051798       2.31101546       1.02414856
C        0.08885405       0.44079666      -3.07199439
C        2.70292249      -0.53010461      -2.00586339
C       -0.47164121      -1.33026728       2.26813977
C       -3.54917257       0.10271347      -1.05010393
C        1.54657832       0.60185153       2.65709292
C        0.37898372      -0.88702208      -2.61382189
C       -0.08902115      -3.36709077       0.45733332
C       -0.69474853      -0.17798765       3.02923943
C       -0.11742646       1.91614379       3.65243839
C        0.62401562       2.74713174       2.78782369
C        2.17794877      -2.97507395       0.27876642
C        0.14027441      -3.06246231      -2.09745074
C        1.57494943       3.22879886       0.18603678
C        2.33031812      -0.07579334       0.36621114
C        3.14009440      -0.86597457      -0.66252532
C       -2.44258798      -2.00979658      -1.23228443
C       -1.30103522       0.78302702      -2.94312314
C        1.10910511       1.31980936      -2.68722435
C       -0.10467624       3.57219668       1.91828463
C       -2.26816902      -0.26439157      -2.92435305
C       -0.83207646       3.23169203      -0.25821608
C        1.81114462       2.83281025      -1.14315031
C       -1.64369949       1.99921785      -2.29706906
C       -1.53823420       1.92473060       3.42649381
C        1.74052458      -1.42091244      -2.55800357
C        1.84642758      -0.51076390       1.81132323
C       -3.54900018       0.23189602      -2.49784687
C       -1.53758410       3.42686448       1.96506199
C       -2.68129812       1.69989819       0.59997476
C       -2.20997040       3.06943887       3.10414348
60
Properties=species:S:1:pos:R:3 entry_id=155 rank=70 energy=-494.57196044921875 pbc="F F F"
C        2.02661766      -2.98735213      -1.45445308
C        2.48862296       0.92447331      -2.43422570
C        1.95301130       1.66363587       2.66227779
C        2.82912597      -2.10450910      -0.67724079
C       -2.15848422       0.88482234       3.00678754
C        3.18700101       0.32051193      -0.34965401
C       -1.00952446      -2.73604613      -1.72221779
C        0.41100030      -1.45335712       1.62865587
C       -3.30965593      -1.58034766      -1.91657680
C       -0.17041014       0.70865336      -0.64242109
C        0.15508861       0.64580660       3.59236642
C        0.86138481       3.47788330       0.86836706
C        1.41463259      -2.55424331      -2.63290156
C       -1.36794762       2.91692947       1.05376445
C       -0.23817818       2.78743822      -1.22416353
C        0.90250519       0.52150891      -0.09099207
C        1.06397888       2.58806439      -1.77366159
C       -3.67546536      -0.47730228      -0.01392327
C       -2.42595577       1.54168314      -0.66047570
C        2.99541383       1.44574361      -1.23214319
C       -2.17764788      -2.21207079      -2.42825511
C       -0.38151429      -1.61712405      -3.67687173
C       -2.04531084      -2.52890651       0.52351619
C       -2.71179366       0.90340651       1.68179640
C       -2.03394232      -1.42209517       1.44659080
C       -2.99770671      -0.41278258       1.20422348
C       -1.71044587      -1.32229594      -3.47171375
C        0.38890445      -2.34049905       0.46855485
C       -3.30810876      -2.89053248       0.05490886
C        2.34855928       1.71411912       1.33035176
C        0.24298125       0.72272824      -3.29787059
C        2.67332828      -0.47165523      -2.42325166
C       -0.85465098      -1.05002748       2.16069718
C       -3.31805455       0.49589229      -0.98686945
C        1.39000266       0.38561823       2.94597348
C        0.60755244      -0.60988607      -3.68164781
C       -0.84199050      -2.66192853      -0.26071658
C       -0.98997527       0.04179523       3.07159767
C        0.09082082       2.02313144       3.90844826
C        1.14563796       2.68225373       3.19662721
C        1.62246268      -2.62844376      -0.15885283
C        0.01679449      -2.63159646      -2.74004239
C        2.02681374       2.80223581       0.48206948
C        2.08188111       0.36708550       0.67919337
C        3.22349694      -0.84909780      -1.17330896
C       -3.77610715      -1.78947671      -0.60340576
C       -1.09281192       0.94143680      -2.81544764
C        1.27060448       1.53382283      -2.73904417
C        0.50982482       3.49508005       2.24316558
C       -2.10707992       0.00153748      -3.11699770
C       -0.31433900       3.27507812       0.10412294
C        2.17864155       2.54565995      -0.88994632
C       -1.10282935       1.55061715      -1.42032228
C       -1.16780259       2.63131259       3.58153363
C        1.76419625      -1.25242462      -3.11357486
C        1.53555298      -0.54229292       1.86760017
C       -3.18323488      -0.19428879      -2.20713268
C       -0.87811212       3.25771067       2.33690191
C       -2.32960131       1.90607847       0.73295315
C       -2.33081857       1.97797931       3.83233040
60
Properties=species:S:1:pos:R:3 entry_id=71 rank=71 energy=-494.43255615234375 pbc="F F F"
C        2.30390095      -3.28348298      -1.15663299
C        2.42360454       0.82026900      -2.03536050
C        1.82669055       1.81615745       2.37428255
C        3.09650459      -2.37998141      -0.37630909
C       -1.76360519       0.71074350       2.68274794
C        3.02222361       1.21654047       0.33781519
C       -0.58239752      -3.48504622      -1.02348704
C        0.83827674      -1.72468409       1.82532227
C       -4.64141305       0.57716958      -3.42843260
C        0.14788418       0.99111035       0.51354079
C        0.38849300       0.46165364       3.46553418
C        0.49923272       3.64652240       0.72102257
C        1.49163821      -2.77133374      -2.16961864
C       -1.72150879       3.03681586       0.76123649
C       -0.47637269       2.74835407      -1.36551370
C        1.05361516       0.26947953       0.01552405
C        0.85146007       2.50409662      -1.79557128
C       -2.95237163      -0.78172148      -0.50843168
C       -2.59396039       1.55030192      -0.87709029
C        2.85455927       1.68765638      -1.00306341
C       -5.62898861       0.85588740      -4.15170278
C       -0.53069367      -1.86942256      -2.78883943
C       -1.53437267      -2.87994326       0.65914125
C       -2.43666884       0.68995000       1.42487111
C       -1.63946430      -1.66956318       1.35554053
C       -2.48784484      -0.63511774       0.83533036
C       -1.84729304      -1.43999942      -2.54408334
C        0.94082432      -2.85891879       0.96242776
C       -1.91224090      -2.98638141      -0.70270275
C        2.43090214       2.20630975       1.18349477
C        0.15565208       0.47462538      -2.95088444
C        2.63373168      -0.57944034      -1.89937257
C       -0.51320514      -1.34344377       2.16234023
C       -3.33683369       0.38517245      -1.22598259
C        1.59623412       0.44562079       2.72130783
C        0.47060528      -0.89439227      -3.03015134
C       -0.22335655      -3.38638941       0.37291444
C       -0.71073110      -0.21300606       2.94196655
C       -0.05586589       1.79393835       3.67772539
C        0.75200239       2.61673717       2.88620969
C        2.09622067      -3.15053290       0.23189980
C        0.09351542      -2.97238471      -2.12904536
C        1.74994977       3.14282359       0.36596105
C        2.39686424      -0.15627568       0.46014504
C        3.03405248      -1.00099939      -0.59183616
C       -2.45417765      -1.84635118      -1.33118868
C       -1.21079185       0.85601355      -2.76113335
C        1.18080917       1.32384382      -2.50653776
C        0.08085543       3.51614577       2.06263033
C       -2.21673467      -0.13281647      -2.99235757
C       -0.63412333       3.38246169      -0.11350176
C        1.94731644       2.77393488      -0.96072949
C       -1.52517309       1.86556313      -1.78956714
C       -1.46798074       1.88792090       3.42993361
C        1.72562979      -1.42170791      -2.57902930
C        1.87059699      -0.64951672       1.85392424
C       -3.56889020       0.24474091      -2.64967791
C       -1.36190757       3.44814836       2.08031084
C       -2.45033637       1.84473831       0.52203349
C       -2.07760535       3.08256020       3.18576929
60
Properties=species:S:1:pos:R:3 entry_id=69 rank=72 energy=-494.42974853515625 pbc="F F F"
C        2.27456181      -3.29346728      -1.16828244
C        2.43424490       0.81258272      -2.03075949
C        1.84152094       1.79687666       2.38261463
C        3.07559913      -2.40043434      -0.38452591
C       -1.76099154       0.72517733       2.68111625
C        3.03338477       1.19300894       0.34441729
C       -0.61364900      -3.46905997      -1.03830013
C        0.81885755      -1.73208291       1.81846497
C       -4.68725125       0.43978180      -3.41733419
C        0.15875686       0.99570944       0.51445559
C        0.38720319       0.45247642       3.46516870
C        0.53576433       3.64790767       0.73478680
C        1.46843136      -2.76996123      -2.18023315
C       -1.68989813       3.05637041       0.76913612
C       -0.44676574       2.76646499      -1.35727539
C        1.05599203       0.26482336       0.01401848
C        0.87910856       2.51105432      -1.78668442
C       -2.95967655      -0.74509294      -0.51589234
C       -2.57584030       1.58511497      -0.87618102
C        2.87267137       1.67170668      -0.99456450
C       -5.71886152       0.57522255      -4.11953319
C       -0.54463280      -1.84628367      -2.79662813
C       -1.56224701      -2.86119028       0.64545849
C       -2.43210350       0.71497343       1.42239224
C       -1.65872354      -1.65299689       1.34698108
C       -2.49622313      -0.60794055       0.82906232
C       -1.85712250      -1.40536377      -2.55079185
C        0.91307314      -2.86316180       0.95069490
C       -1.93965492      -2.95993565      -0.71690538
C        2.45104031       2.18490265       1.19362997
C        0.16428400       0.49152945      -2.94957486
C        2.63171121      -0.58968635      -1.90120417
C       -0.53010343      -1.34056344       2.15632084
C       -3.33026316       0.42954668      -1.23030883
C        1.59611048       0.42735344       2.72314541
C        0.46635401      -0.87996162      -3.03413248
C       -0.25535571      -3.37823984       0.35877450
C       -0.71804057      -0.21066099       2.93901657
C       -0.04396447       1.78820524       3.68150713
C        0.77471096       2.60681932       2.89662464
C        2.06666701      -3.16247020       0.22051727
C        0.06833464      -2.95759036      -2.14069626
C        1.78145635       3.13241645       0.37943168
C        2.39476224      -0.17418734       0.45965617
C        3.02680723      -1.02013622      -0.59490592
C       -2.47013725      -1.81211316      -1.34118573
C       -1.19839105       0.88533461      -2.76013630
C        1.19723087       1.32993590      -2.50154244
C        0.11435608       3.51683035       2.07554876
C       -2.21382585      -0.09221907      -2.99402021
C       -0.59891167       3.39686466      -0.10255656
C        1.97624823       2.76668165      -0.94896688
C       -1.50382496       1.89484730      -1.78598685
C       -1.45445266       1.89770113       3.43144722
C        1.71603062      -1.42101670      -2.58463190
C        1.86091499      -0.66665095       1.85148678
C       -3.56726975       0.28153493      -2.65252158
C       -1.32907774       3.46125485       2.08959301
C       -2.43084686       1.87264882       0.52358956
C       -2.05114902       3.09995565       3.19227161
60
Properties=species:S:1:pos:R:3 entry_id=68 rank=73 energy=-494.4279479980469 pbc="F F F"
C        2.26913073      -3.29322448      -1.17253754
C        2.43849209       0.81456730      -2.02999056
C        1.84347446       1.79099285       2.38521157
C        3.07110397      -2.40287274      -0.38689737
C       -1.76153412       0.72694791       2.68231216
C        3.03566237       1.18922505       0.34671931
C       -0.62002186      -3.46337623      -1.04403999
C        0.81407256      -1.73331679       1.81429088
C       -4.69717775       0.38750577      -3.41271545
C        0.16015546       0.99554639       0.51053462
C        0.38673464       0.44773175       3.46561318
C        0.54153185       3.64722977       0.74062483
C        1.46504896      -2.76619732      -2.18434613
C       -1.68556486       3.06172090       0.77321735
C       -0.44063278       2.77276331      -1.35366421
C        1.05764963       0.26472825       0.01192112
C        0.88519491       2.51535522      -1.78328008
C       -2.96154875      -0.73514130      -0.51853031
C       -2.57183589       1.59391299      -0.87518192
C        2.87707517       1.67072806      -0.99153386
C       -5.73547264       0.47380797      -4.11283414
C       -0.54570455      -1.83677501      -2.79857852
C       -1.56929731      -2.85694145       0.64042770
C       -2.43212673       0.72066310       1.42300495
C       -1.66278706      -1.64865387       1.34270473
C       -2.49871065      -0.60126342       0.82718334
C       -1.85780545      -1.39392978      -2.55365097
C        0.90589996      -2.86379916       0.94598788
C       -1.94529314      -2.95203163      -0.72262703
C        2.45432933       2.18036061       1.19745418
C        0.16791322       0.49967328      -2.94954326
C        2.63321579      -0.58850635      -1.90220751
C       -0.53378380      -1.33912727       2.15191816
C       -3.32967900       0.44161974      -1.23171875
C        1.59548394       0.42168140       2.72289579
C        0.46729441      -0.87237285      -3.03482221
C       -0.26336238      -3.37679923       0.35367613
C       -0.72007647      -0.21087794       2.93768211
C       -0.04188301       1.78380203       3.68514766
C        0.77753660       2.60142984       2.90005541
C        2.05928905      -3.16293327       0.21587529
C        0.06446433      -2.95054719      -2.14440460
C        1.78696283       3.13014727       0.38438930
C        2.39495707      -0.17716864       0.45877959
C        3.02673722      -1.02224322      -0.59629303
C       -2.47242141      -1.80154297      -1.34501583
C       -1.19429757       0.89563358      -2.76009206
C        1.20236215       1.33528226      -2.50033821
C        0.11912381       3.51382630       2.08065186
C       -2.21138530      -0.07933380      -2.99578285
C       -0.59286633       3.40061632      -0.09768155
C        1.98218394       2.76708791      -0.94390798
C       -1.49894832       1.90357030      -1.78423723
C       -1.45254715       1.89653557       3.43643662
C        1.71570089      -1.41694751      -2.58652635
C        1.85880986      -0.67100804       1.84929718
C       -3.56552112       0.29138446      -2.65385574
C       -1.32443140       3.46255883       2.09502018
C       -2.42763549       1.87923175       0.52524707
C       -2.04630842       3.10021096       3.19762448
60
Properties=species:S:1:pos:R:3 entry_id=81 rank=74 energy=-494.31103515625 pbc="F F F"
C        2.50583949      -2.91472095      -0.91701829
C        2.35383351       0.91478848      -2.31530397
C        1.74533189       1.74646291       2.15997069
C        3.18350165      -1.95274175      -0.10315630
C       -1.77708910       0.63940033       2.75315768
C        3.06635346       1.16268833      -0.06580619
C       -0.43227703      -3.55698782      -0.89190683
C        0.74039252      -1.81544716       1.96771288
C       -2.98770628       2.00802228      -1.99139824
C       -0.19241290       1.14813394      -0.74625646
C        0.37038224       0.46010214       3.49081948
C        0.36397049       3.50375608       0.54663260
C        1.63162729      -2.63637389      -1.97053169
C       -1.84419045       2.87978244       0.70470009
C       -0.55472727       2.36947074      -1.43382462
C        0.67405675       0.40988288      -0.29657697
C        0.77032723       2.55185450      -2.10752663
C       -2.97294374      -1.03173897      -0.38353800
C       -3.18791425       1.38528904      -0.67806484
C        2.75450174       1.76118832      -1.29394867
C       -3.91689310       1.45316294      -2.91291650
C       -0.44627393      -1.90810566      -2.65302377
C       -1.45647341      -3.04048774       0.78789763
C       -2.46456945       0.52661430       1.50670140
C       -1.67744661      -1.85991630       1.52471284
C       -2.52031455      -0.83225310       0.96349971
C       -1.78776048      -1.54601681      -2.42718883
C        1.01224569      -2.92742886       1.13828777
C       -1.79180165      -3.13513399      -0.59234196
C        2.32617336       2.03660596       0.89594631
C        0.13565273       0.43171969      -3.19086344
C        2.59079654      -0.39038698      -1.91915585
C       -0.59922064      -1.48494855       2.37292344
C       -3.47553713       0.08282053      -1.07048394
C        1.47955004       0.43102174       2.60194729
C        0.49577937      -0.90943960      -3.01871040
C       -0.10632074      -3.49211729       0.51369686
C       -0.75833593      -0.28759396       3.09285938
C       -0.05397934       1.81038703       3.62458861
C        0.71921402       2.58598076       2.73181223
C        2.24344580      -2.89105578       0.44219300
C        0.24723824      -2.94382109      -1.94583870
C        1.61289793       3.00602219       0.14414829
C        1.63393831      -0.31801411       0.27560976
C        2.89345052      -0.46994294      -0.45111066
C       -2.38711907      -2.02901086      -1.22386471
C       -1.27057441       0.75935263      -3.06735413
C        1.13774740       1.37913436      -2.86151268
C       -0.00138355       3.44337057       1.90776798
C       -2.21841139      -0.29370847      -2.95995887
C       -0.79137137       3.20933391      -0.23066945
C        1.83422433       2.80162785      -1.21253484
C       -1.61979062       1.97227390      -2.39672016
C       -1.47421995       1.87515114       3.41819900
C        1.76398932      -1.33243184      -2.50560564
C        1.55960812      -0.64944186       1.69791396
C       -3.50474137       0.17425378      -2.51924022
C       -1.43755060       3.36597752       1.98859329
C       -2.63179239       1.67711401       0.59822011
C       -2.10797169       3.04766608       3.13850105
60
Properties=species:S:1:pos:R:3 entry_id=154 rank=75 energy=-494.2633056640625 pbc="F F F"
C        1.96073599      -3.02721504      -1.33794290
C        2.42744726       0.85559734      -2.42555593
C        1.96244565       1.71088465       2.68814013
C        2.89365537      -2.16771058      -0.67167520
C       -2.12032339       0.83961649       2.91020370
C        3.23784475       0.28230978      -0.35321056
C       -0.96060022      -2.95392407      -1.21688216
C        0.59085223      -1.53011173       1.83974162
C       -3.71203501      -1.36411916      -2.37338730
C        0.10410608       1.08340105      -0.44744025
C        0.17505281       0.66752350       3.63224891
C        0.85765367       3.44761458       0.86847350
C        1.17734062      -2.57829429      -2.40761169
C       -1.41862533       2.95954138       1.04648152
C       -0.22738536       2.38073181      -1.04306140
C        1.02780330       0.43605018       0.03254690
C        1.05768482       2.53917642      -1.77407823
C       -3.36035676      -0.55668693      -0.25324383
C       -2.55761345       1.68875446      -0.78041227
C        2.96978543       1.38733036      -1.23926740
C       -3.10250463      -2.01729182      -3.42182838
C       -0.68058286      -1.59888452      -3.34386448
C       -1.78795549      -2.63812200       0.64028249
C       -2.60368921       0.83890163       1.54791320
C       -1.89169216      -1.50566223       1.47057781
C       -2.76655450      -0.47567775       1.01952995
C       -1.98846893      -1.17761469      -3.58851373
C        0.69185144      -2.55780618       0.82891912
C       -2.31807886      -2.63443624      -0.71013594
C        2.39607983       1.72454247       1.36282069
C        0.11824000       0.73736680      -3.19775768
C        2.55882617      -0.54189061      -2.37896882
C       -0.74276443      -1.12196591       2.25060792
C       -3.38121974       0.57607773      -1.09937220
C        1.44136890       0.43267288       3.02491306
C        0.37514470      -0.64008734      -3.41867924
C       -0.48404165      -3.00350620       0.18093013
C       -0.93744440       0.02128026       3.08139176
C        0.06691244       2.04989938       3.91391458
C        1.11886841       2.71330173       3.19978143
C        1.84312601      -2.76725774       0.03810659
C       -0.25827741      -2.63333957      -2.41122117
C        2.03879092       2.77487766       0.48244217
C        2.23071254       0.33292124       0.77840679
C        3.21361173      -0.89747204      -1.17423402
C       -3.33494186      -1.73101368      -1.04648339
C       -1.25368871       1.10091822      -2.84674612
C        1.23343232       1.50817992      -2.75302169
C        0.48432400       3.49607770       2.23102984
C       -2.27221839       0.17835426      -3.17751544
C       -0.33227289       3.22284516       0.14089362
C        2.20320813       2.51563004      -0.89389160
C       -1.49589020       1.96835894      -1.72865761
C       -1.19996550       2.62972031       3.56045503
C        1.54140596      -1.30172809      -2.93184133
C        1.66513608      -0.54538151       2.01992317
C       -3.45084667       0.07815761      -2.42114065
C       -0.91095191       3.28010675       2.33033821
C       -2.36201739       1.93853650       0.65596221
C       -2.35349959       1.93109140       3.72572047
60
Properties=species:S:1:pos:R:3 entry_id=85 rank=76 energy=-494.2032165527344 pbc="F F F"
C        2.02433418      -3.21886691      -1.38357362
C        2.46197544       0.87736533      -2.13169792
C        2.02799961       1.71211394       2.35410688
C        2.83334591      -2.41876757      -0.52592811
C       -2.02959593       0.78092436       2.92073691
C        3.05232646       1.09899695       0.23658224
C       -0.64022213      -3.27521042      -1.41086523
C        0.53917585      -1.64333564       1.61382250
C       -3.80654416      -1.28708494      -2.31564952
C        0.23978736       1.27662248      -0.27330576
C        0.32389774       0.57268374       3.35963985
C        0.80491631       3.68894914       0.85830031
C        1.36042452      -2.64970765      -2.47555198
C       -1.41863597       3.01223645       1.10774510
C       -0.20404128       2.46870869      -0.97308611
C        1.02870440       0.34720233      -0.17625515
C        1.02496216       2.66232273      -1.80682182
C       -3.55984419      -0.43859615      -0.18079319
C       -2.51669778       1.70717221      -0.71302086
C        2.94723572       1.65559892      -1.06644252
C       -3.05702280      -1.99473577      -3.23835135
C       -0.56423872      -1.63844960      -3.30809488
C       -1.99618448      -2.62173263       0.42975119
C       -2.59247789       0.85688704       1.59664554
C       -1.94376530      -1.49643536       1.32061223
C       -2.85418113      -0.43188455       1.03789377
C       -1.90189213      -1.21625612      -3.44756918
C        0.52425623      -2.71405661       0.66053171
C       -3.08373411      -2.72826459      -0.42283085
C        2.58559400       2.09241617       1.13364702
C        0.19840293       0.70957457      -3.04795688
C        2.58417173      -0.53372220      -2.02625764
C       -0.75604443      -1.18234493       2.07281699
C       -3.38889270       0.64034856      -1.06208778
C        1.52354804       0.39773901       2.58991582
C        0.46496567      -0.66359270      -3.23945070
C       -0.68418843      -3.08051284      -0.06248275
C       -0.85006089      -0.06238678       2.94121989
C        0.22973004       1.92131693       3.76822349
C        1.21197948       2.65054340       3.03586377
C        1.69130434      -3.06828563      -0.02574794
C       -0.07144406      -2.82129201      -2.54820060
C        1.99548490       3.12401541       0.38721897
C        2.26287926      -0.19524854       0.31149304
C        2.91064008      -1.03274143      -0.72436790
C       -3.76417367      -1.65665516      -0.90589933
C       -1.17163002       1.07555450      -2.73073299
C        1.28914230       1.50048555      -2.61695084
C        0.51659208       3.56479563       2.23380610
C       -2.18418313       0.14784807      -3.07150919
C       -0.39134830       3.39247624       0.15585863
C        2.16459279       2.82425544      -0.97951236
C       -1.43783562       1.95596394      -1.63299111
C       -1.06437351       2.51681063       3.56928261
C        1.65013740      -1.28721899      -2.75864625
C        1.66676751      -0.68094854       1.67193132
C       -3.40036887       0.10792108      -2.36733610
C       -0.86818107       3.27616249       2.38134086
C       -2.33500267       1.96386618       0.72265066
C       -2.20553168       1.81960205       3.81338266
60
Properties=species:S:1:pos:R:3 entry_id=72 rank=77 energy=-494.1686706542969 pbc="F F F"
C        2.40307065      -3.26285095      -1.14783939
C        2.69195109       0.86907875      -1.85598632
C        1.61423832       1.72482620       2.48525177
C        3.13284963      -2.40181693      -0.26411122
C       -1.98813936       0.67168906       2.27674462
C        3.02886310       1.16623995       0.58190294
C       -0.47168029      -3.48380547      -1.27316436
C        0.66931195      -1.78559446       1.71695661
C       -5.31615389       0.27058769      -1.29255753
C        0.16709754       1.02449024       0.35459270
C        0.03606462       0.36345138       3.34152881
C        0.53573459       3.65528856       0.77035993
C        1.68281849      -2.69597354      -2.20143139
C       -1.68477959       3.05040536       0.49596506
C       -0.16753824       2.93796995      -1.47465632
C        1.10470045       0.26601312      -0.00734269
C        1.18680945       2.62498923      -1.75030301
C       -3.18140964      -1.05431678      -0.82731465
C       -2.37340037       1.77794801      -1.34678991
C        3.03344136       1.68652464      -0.74899529
C       -6.52892903       0.54434784      -1.13249440
C       -0.28761114      -1.70281788      -2.87981509
C       -1.58157727      -2.94149243       0.32419068
C       -2.53661523       0.66710737       0.94998595
C       -1.74616853      -1.72291731       0.99571169
C       -2.59918688      -0.70968463       0.43564452
C       -1.61702233      -1.26434838      -2.65204568
C        0.85987028      -2.90501463       0.85082586
C       -1.84566227      -3.05365407      -1.06178589
C        2.36402125       2.14049625       1.39043730
C        0.52541427       0.62416647      -3.00766926
C        2.84728282      -0.54134491      -1.75464966
C       -0.70664133      -1.39829848       1.89985946
C       -2.94978171       0.68775342      -2.06115684
C        1.32664277       0.34977368       2.75144094
C        0.77390703      -0.76104177      -3.05418054
C       -0.24157613      -3.42397695       0.14943313
C       -0.99210256      -0.27201822       2.65424776
C       -0.41844812       1.69142085       3.54396849
C        0.49874440       2.52671683       2.89716324
C        2.07667232      -3.18271259       0.22290886
C        0.28054186      -2.86224719      -2.26881127
C        1.81049081       3.12961814       0.53958891
C        2.37485328      -0.19670479       0.58030329
C        3.11081585      -1.01591584      -0.42886104
C       -2.39713106      -1.92333203      -1.67625373
C       -0.82290194       1.04733014      -2.89568120
C        1.53385954       1.43649573      -2.45333710
C       -0.05551059       3.46866181       2.03700943
C       -1.89392264       0.11085140      -2.83797738
C       -0.48872634       3.46416920      -0.20680472
C        2.16911030       2.80743429      -0.76827049
C       -1.16651987       2.13469898      -2.05051150
C       -1.78124356       1.81818469       3.10203787
C        1.97598168      -1.33713406      -2.53535896
C        1.69447159      -0.72108717       1.88916772
C       -4.00294178      -0.07719493      -1.49517473
C       -1.49081289       3.40176253       1.86540091
C       -2.42130988       1.88567401       0.08326713
C       -2.35723953       3.03228803       2.86049709
60
Properties=species:S:1:pos:R:3 entry_id=156 rank=78 energy=-494.166259765625 pbc="F F F"
C        1.98144319      -2.84728934      -1.37750092
C        2.52623638       0.98879941      -2.54778785
C        1.91815148       1.68057239       2.54882917
C        2.71092116      -1.89313343      -0.60970271
C       -2.29776529       0.87147764       3.09562834
C        3.48099684       0.53019163      -0.55340100
C       -1.08187534      -2.73144494      -1.73787373
C        0.13653672      -1.49169515       1.61649996
C       -3.35297291      -1.59296527      -1.94651291
C        0.39468173       0.51717411      -0.62994969
C        0.06140287       0.67305887       3.49156394
C        0.87908150       3.47504400       0.86799778
C        1.39945174      -2.50610309      -2.59589002
C       -1.32430709       2.80994600       1.12410413
C       -0.18478579       2.61347691      -1.13909793
C        1.28468898       0.27529323       0.32915678
C        1.08193562       2.56843714      -1.78119418
C       -3.78275149      -0.50305746      -0.00739369
C       -2.18025276       1.26549214      -0.50536833
C        3.09192221       1.58853018      -1.40718796
C       -2.23380537      -2.24539436      -2.47770917
C       -0.38607944      -1.62292118      -3.68128606
C       -2.20587752      -2.53540536       0.50287805
C       -2.86129332       0.85756281       1.76802290
C       -2.24738595      -1.46657975       1.48736965
C       -3.21456052      -0.45827278       1.27870215
C       -1.72720410      -1.33957169      -3.50470865
C        0.20961492      -2.36524268       0.46782498
C       -3.45332810      -2.91743661       0.00690378
C        2.58518347       1.90127754       1.31823894
C        0.27486879       0.70738514      -3.33117830
C        2.67215008      -0.41081615      -2.47155909
C       -1.08656597      -1.10607508       2.22357768
C       -3.20933106       0.40419255      -0.92182773
C        1.21530639       0.46109609       2.70004306
C        0.62150942      -0.61890917      -3.73424558
C       -0.99193965      -2.67145217      -0.27605549
C       -1.13377720       0.02616109       3.11442621
C        0.07274462       2.02477834       3.88153223
C        1.14824502       2.67931938       3.17071882
C        1.50314935      -2.49987819      -0.12201437
C       -0.00490126      -2.58855300      -2.70711173
C        2.09401038       2.91210339       0.43125272
C        2.69142361       0.69427150       0.57066557
C        3.23142380      -0.72869062      -1.22414785
C       -3.88053708      -1.80009026      -0.64697155
C       -0.98578375       0.80974302      -2.69078484
C        1.29396226       1.56554831      -2.81441523
C        0.53039739       3.53163658       2.24793365
C       -2.05860032      -0.02642216      -3.06954573
C       -0.28979725       3.17231990       0.15215786
C        2.22695128       2.62278780      -0.96038683
C       -0.84365049       1.25631958      -1.24500392
C       -1.17050514       2.67743277       3.61403883
C        1.76506175      -1.23047265      -3.13128858
C        1.09686013      -0.44467334       1.61801820
C       -3.14158404      -0.21864060      -2.17481926
C       -0.86833131       3.28032074       2.36350557
C       -2.24333149       1.75048818       0.83121317
C       -2.34049287       2.03009987       3.83616916
60
Properties=species:S:1:pos:R:3 entry_id=73 rank=79 energy=-494.0875549316406 pbc="F F F"
C        2.37705031      -3.18838854      -1.11474983
C        2.71009101       0.90986050      -1.85968467
C        1.57869945       1.75411881       2.50913767
C        3.12241705      -2.34062213      -0.23951817
C       -1.98221066       0.69014130       2.32556311
C        2.97555463       1.18869155       0.57812171
C       -0.45455287      -3.40826411      -1.26782520
C        0.64160771      -1.76693984       1.76657724
C       -5.30330453       0.24899317      -1.31488872
C        0.02437137      -0.47331373      -0.61169382
C        0.02110689       0.38751742       3.41554646
C        0.54495707       3.68899992       0.82054202
C        1.67155896      -2.61651277      -2.17158101
C       -1.64906441       3.01921356       0.55075306
C       -0.13811298       2.91793172      -1.42427304
C        1.04804008       0.08432037      -0.13978074
C        1.21413931       2.65786118      -1.74005463
C       -3.13558385      -1.00903505      -0.81932796
C       -2.33346059       1.76188453      -1.31985178
C        3.05006860       1.72198833      -0.74075637
C       -6.52878297       0.46131293      -1.16767536
C       -0.27856814      -1.66195418      -2.94283800
C       -1.58197235      -2.91077030       0.34154899
C       -2.52261760       0.66251584       0.99009213
C       -1.77768626      -1.73089468       1.06031547
C       -2.61306699      -0.70913703       0.47777284
C       -1.60739471      -1.22719909      -2.70136556
C        0.84364874      -2.86730469       0.88967454
C       -1.81615528      -2.97831849      -1.05332817
C        2.33060047       2.15952986       1.40020602
C        0.55193561       0.67064033      -3.04849758
C        2.86005660      -0.49383795      -1.75627986
C       -0.73839060      -1.39614534       1.96823002
C       -2.92124715       0.70638750      -2.06092479
C        1.29521180       0.38113167       2.78085823
C        0.79279523      -0.71240819      -3.10118153
C       -0.23853106      -3.37493478       0.15941224
C       -1.00915406      -0.25942007       2.72523631
C       -0.43120640       1.72314764       3.61975014
C        0.48632620       2.56517165       2.96276719
C        2.05879053      -3.10509657       0.25175281
C        0.28292259      -2.79957342      -2.27860866
C        1.83331985       3.18887685       0.56349672
C        2.30882708      -0.15893820       0.57143273
C        3.12432192      -0.96060890      -0.41534420
C       -2.35775857      -1.86127395      -1.67693897
C       -0.80209763       1.07867795      -2.91913309
C        1.55887955       1.47513267      -2.46581583
C       -0.05547611       3.52364046       2.10152702
C       -1.87533350       0.14565299      -2.87411837
C       -0.46110674       3.42555587      -0.14658655
C        2.21146403       2.87442887      -0.76322614
C       -1.13214055       2.12981041      -2.02261131
C       -1.78717059       1.84527643       3.15111826
C        1.97845335      -1.27655099      -2.52979034
C        1.65375542      -0.68650167       1.90305713
C       -3.97751247      -0.05255830      -1.49199922
C       -1.49146391       3.42550411       1.91586272
C       -2.38338080       1.85923525       0.11724304
C       -2.36951887       3.05450924       2.89771415
60
Properties=species:S:1:pos:R:3 entry_id=78 rank=80 energy=-494.0811462402344 pbc="F F F"
C        1.92268142      -3.23220573      -1.21828696
C        2.43710315       0.86188526      -2.09041595
C        1.92627736       1.72037386       2.41051401
C        2.78055825      -2.41009840      -0.41506167
C       -1.61030355       1.25507502       2.24550867
C        2.95472130       1.12141308       0.29688865
C       -1.01934413      -3.02862098      -1.25735239
C        0.49161649      -1.60388803       1.73510615
C       -3.64976721      -1.41002828      -2.60968974
C        0.05625057       1.23542338      -0.35257821
C        0.34409438       0.52910443       3.49733668
C        0.53899442       3.52707381       0.85641680
C        1.21164912      -2.62861601      -2.25778880
C       -1.69463516       3.03303459       0.75220973
C       -0.32239245       2.43198645      -1.11607376
C        0.91244018       0.38167797      -0.13504678
C        0.96579858       2.62165399      -1.84785221
C       -3.40425277      -0.50310915      -0.49479246
C       -2.67432255       1.73968522      -1.12290426
C        2.86274266       1.66663981      -1.01339095
C       -2.94364292      -2.09374334      -3.57617766
C       -0.54263576      -1.65340706      -3.33587109
C       -1.91867526      -2.59434688       0.54573893
C       -2.54828365       0.96606930       1.19633344
C       -1.96964534      -1.40706303       1.30883841
C       -2.78981896      -0.36005751       0.78257563
C       -1.82679507      -1.24893416      -3.69567189
C        0.53281172      -2.73336460       0.85091255
C       -2.37739741      -2.61635761      -0.82828893
C        2.45155016       2.11189676       1.17855968
C        0.23778741       0.67960213      -3.16713326
C        2.54777284      -0.55034160      -1.95090054
C       -0.81265380      -1.05955732       2.08884331
C       -3.44716052       0.58356476      -1.41141386
C        1.50875213       0.39649583       2.67054942
C        0.51597445      -0.69353018      -3.29903345
C       -0.63655617      -3.10050890       0.16270648
C       -0.83865639       0.19419278       2.79542116
C        0.39088800       1.81594727       4.16221340
C        1.00952311       2.58156407       3.09566233
C        1.70108311      -3.09698502       0.16488150
C       -0.20988694      -2.69538404      -2.38387726
C        1.78638775       3.08262379       0.41810224
C        2.14644101      -0.16586213       0.36734524
C        2.83123901      -1.02611148      -0.63313827
C       -3.34936540      -1.70518688      -1.24451683
C       -1.15747795       1.04447677      -2.96299913
C        1.29312585       1.47528363      -2.65181349
C        0.11520071       3.12230261       2.16207733
C       -2.15094255       0.11219411      -3.35460564
C       -0.57867989       3.41622268      -0.03621643
C        2.03759608       2.80881110      -0.94705149
C       -1.49675766       1.95279429      -1.91486145
C       -0.32304342       2.24004265       5.25892916
C        1.62719168      -1.32370373      -2.67696549
C        1.62644492      -0.66134530       1.74079889
C       -3.39842048       0.02867585      -2.70640544
C       -1.17847964       2.59156437       2.02361101
C       -2.57466933       2.04303109       0.26958841
C       -0.92310536       2.59112341       6.30557114
60
Properties=species:S:1:pos:R:3 entry_id=77 rank=81 energy=-493.65777587890625 pbc="F F F"
C        1.92484167      -3.22086224      -1.30091948
C        2.41906428       0.89406684      -2.06135366
C        2.01349933       1.62840484       2.47668347
C        2.80019153      -2.42300080      -0.49094074
C       -1.48940503       1.17129407       2.28982221
C        3.00310824       1.08539562       0.32109184
C       -1.01423217      -3.01254697      -1.27638392
C        0.56594255      -1.66813714       1.72778237
C       -3.67844061      -1.34632450      -2.53390924
C        0.08505129       1.20329208      -0.29128473
C        0.43374089       0.42770639       3.57342850
C        0.57388134       3.43120771       0.98673324
C        1.19261662      -2.58901285      -2.30835470
C       -1.71419945       3.07513611       0.95005698
C       -0.32823215       2.42515158      -0.98979192
C        0.94322598       0.35655452      -0.07171435
C        0.95123281       2.64893927      -1.74018860
C       -3.36287817      -0.49412737      -0.41127693
C       -2.67998067       1.77774056      -0.98112766
C        2.87344360       1.66516781      -0.97418084
C       -2.99426360      -2.00651627      -3.53265936
C       -0.58514812      -1.58163378      -3.32259525
C       -1.87365176      -2.62124530       0.55127726
C       -2.44554507       0.93061298       1.27622899
C       -1.89248894      -1.44610178       1.33288637
C       -2.70855891      -0.38628018       0.84149870
C       -1.87570884      -1.16390174      -3.64479576
C        0.58239989      -2.77162814       0.80939816
C       -2.36206129      -2.60724284      -0.81351328
C        2.51502087       2.04693446       1.24135041
C        0.19879623       0.74561576      -3.09769720
C        2.52850053      -0.51934610      -1.95830842
C       -0.72345442      -1.12136766       2.10016084
C       -3.44963995       0.61968105      -1.28713736
C        1.61266242       0.29936700       2.73691462
C        0.47383076      -0.62273582      -3.27410062
C       -0.60056568      -3.12085945       0.13233466
C       -0.72615199       0.13058331       2.82092729
C        0.40690751       1.72230792       4.17974711
C        1.07790657       2.47101709       3.16290669
C        1.73289723      -3.12642084       0.09006254
C       -0.23089293      -2.65400937      -2.41186430
C        1.82461939       3.02706831       0.51500336
C        2.19062389      -0.19831086       0.38566632
C        2.84284793      -1.03222397      -0.66196242
C       -3.33546431      -1.67804580      -1.18818602
C       -1.19196439       1.10665251      -2.86037337
C        1.26499838       1.52555943      -2.58280409
C        0.19656374       3.07736813       2.29135822
C       -2.19201604       0.18855558      -3.26220914
C       -0.57210366       3.34681858       0.14824909
C        2.04585620       2.80207931      -0.85795278
C       -1.51287639       1.98807493      -1.78465936
C       -0.78621048       2.29599823       4.60632212
C        1.59675474      -1.27070544      -2.69202445
C        1.70774286      -0.72848097       1.76465776
C       -3.42982386       0.09575351      -2.59792424
C       -1.22303765       2.69565758       2.34635663
C       -2.56013652       2.05812554       0.42323061
C       -1.64270192       2.80832432       3.81512643
60
Properties=species:S:1:pos:R:3 entry_id=84 rank=82 energy=-493.63592529296875 pbc="F F F"
C        1.98309346      -3.09700849      -1.33991980
C        2.50005687       0.92913632      -2.19347928
C        1.98276088       1.71104419       2.27774915
C        2.78701027      -2.27700348      -0.52744728
C       -2.17301465       0.80680080       3.00181445
C        3.32486784       1.28977969       0.11982699
C       -0.71397704      -3.15597590      -1.44533807
C        0.28983637      -1.62601429       1.65424267
C       -3.77682360      -1.33125086      -2.30856425
C        0.60160388       0.97821788      -0.26759841
C        0.20378679       0.62668042       3.34281283
C        0.82722062       3.64883811       0.86022949
C        1.36790000      -2.60378023      -2.49158503
C       -1.35308034       2.86026362       1.16199024
C       -0.03828062       2.14051002      -0.83913031
C        1.41262890       0.07785120       0.21962657
C        1.02047490       2.62895772      -1.79561127
C       -3.68675428      -0.46860249      -0.15387311
C       -2.43773497       1.56265824      -0.63972211
C        3.01911697       1.77161943      -1.17058330
C       -3.01164195      -2.03470099      -3.22321969
C       -0.53475517      -1.62441889      -3.38932948
C       -2.13157723      -2.62820230       0.45942652
C       -2.75177392       0.82729510       1.67492365
C       -2.13605250      -1.51712924       1.38736894
C       -3.04906383      -0.46201344       1.10838483
C       -1.88353137      -1.22742007      -3.49926640
C        0.37750405      -2.64745016       0.65632817
C       -3.23422250      -2.76893377      -0.36868251
C        2.65401491       2.13595019       1.08829661
C        0.23161832       0.71268042      -3.13088156
C        2.64427526      -0.48200818      -2.13808641
C       -0.97247436      -1.18725472       2.16041725
C       -3.37750979       0.57543442      -1.03774293
C        1.36466784       0.44135792       2.53296996
C        0.50263937      -0.64996723      -3.34644585
C       -0.80539319      -3.00576742      -0.09390259
C       -1.00133428      -0.03153091       3.00313710
C        0.18565689       1.96838153       3.73941292
C        1.19545902       2.65956547       2.99668808
C        1.60642234      -2.84112553      -0.01244286
C       -0.07062436      -2.76019596      -2.56574124
C        2.05189896       3.16358844       0.36621476
C        2.88973571      -0.04053064       0.11529764
C        3.19997445      -0.97311176      -0.90463023
C       -3.86573990      -1.69010677      -0.89596455
C       -1.13063377       1.01055097      -2.71465413
C        1.31580351       1.51463271      -2.66845507
C        0.53344553       3.63841260       2.24469054
C       -2.16697392       0.12170560      -3.08398615
C       -0.29657549       3.11815268       0.23616113
C        2.18708286       2.88518844      -1.02083174
C       -1.31883921       1.72919103      -1.50551225
C       -1.08474002       2.61126914       3.60360764
C        1.68005755      -1.25297535      -2.81445830
C        1.26112058      -0.57445113       1.55587833
C       -3.36342931       0.05556843      -2.34492681
C       -0.87366009       3.33757767       2.40020026
C       -2.33181363       1.86291918       0.78893779
C       -2.23277110       1.91829754       3.81043004
60
Properties=species:S:1:pos:R:3 entry_id=70 rank=83 energy=-493.3985900878906 pbc="F F F"
C        1.90737082      -3.22772558      -1.36497397
C        2.42358279       0.87552759      -2.04879394
C        1.90590078       1.68592094       2.39022766
C        2.78575102      -2.43112861      -0.54634753
C       -1.77887098       0.77706241       2.76995124
C        3.02402068       1.08285938       0.33995047
C       -1.01777073      -3.08711188      -1.23787145
C        0.62198197      -1.75362641       1.70247647
C       -3.66147035      -1.94147227      -2.45033446
C        0.22711892       1.44340783       0.41230772
C        0.38117023       0.38506366       3.45193229
C        0.80115196       3.64386358       0.89155954
C        1.12801797      -2.58791538      -2.33302942
C       -1.47755479       2.99396828       0.97510969
C       -0.28576953       2.82566219      -1.24212596
C        0.92211253       0.49993752      -0.00216218
C        1.02533580       2.67309619      -1.75174541
C       -3.28526803      -0.56935480      -0.37668544
C       -2.48608479       1.71387243      -0.77004857
C        2.91224819       1.64170658      -0.96698649
C       -3.12092115      -1.92481486      -3.59726978
C       -0.69840331      -1.51950182      -3.24256699
C       -1.83208193      -2.77279518       0.61771825
C       -2.49090132       0.80452212       1.53402710
C       -1.87327573      -1.59441919       1.37932234
C       -2.67876080      -0.49616075       0.92111642
C       -1.97177226      -1.04403940      -3.58734658
C        0.64219319      -2.85150055       0.78649927
C       -2.34200367      -2.74655412      -0.71337806
C        2.58472094       2.09152875       1.24450187
C        0.18119772       0.76884384      -3.05150981
C        2.48302190      -0.53736565      -1.96685988
C       -0.69091776      -1.33226627       2.13762992
C       -3.34045288       0.62343987      -1.17977382
C        1.56166092       0.32400271       2.67275119
C        0.40331831      -0.60659943      -3.24721353
C       -0.55278715      -3.22305775       0.15172163
C       -0.78146617      -0.21746391       2.96392389
C        0.03542961       1.73323949       3.70297591
C        0.90750458       2.53206370       2.95846679
C        1.77261868      -3.20127093       0.03582066
C       -0.30390605      -2.64091836      -2.38848324
C        2.05379643       3.16272427       0.49229172
C        2.18025367      -0.17968419       0.38473448
C        2.77467013      -1.03638588      -0.67575816
C       -3.30908171      -1.80168693      -1.11139966
C       -1.16369823       1.17960403      -2.79074439
C        1.26224780       1.51519332      -2.52916950
C        0.35457770       3.58596701       2.24392874
C       -2.24204867       0.31622815      -3.19825081
C       -0.22810541       2.83433559       0.21675068
C        2.14370440       2.81126544      -0.87408807
C       -1.40860562       2.06228056      -1.70003800
C       -1.36719820       1.92939708       3.51539128
C        1.53317594      -1.27099779      -2.70521229
C        1.70134133      -0.72817710       1.73518288
C       -3.46490727       0.50522402      -2.56221530
C       -1.11463594       3.51605548       2.23143541
C       -2.40714002       1.96275457       0.65857927
C       -1.86840225       3.18452196       3.32916472
60
Properties=species:S:1:pos:R:3 entry_id=75 rank=84 energy=-492.1251525878906 pbc="F F F"
C        1.87874618      -3.21160573      -1.29814160
C        2.42200200       0.89667731      -2.05991924
C        2.02095030       1.62899468       2.48374570
C        2.78513516      -2.42693192      -0.50738586
C       -1.48400105       1.16056836       2.26393008
C        3.00842548       1.07975772       0.32664097
C       -1.02635447      -3.07068264      -1.19050144
C        0.58090938      -1.66946350       1.74370651
C       -3.64222047      -2.04278404      -2.51339661
C        0.10694332       1.22482256      -0.30170673
C        0.43351790       0.43082477       3.57332298
C        0.59141323       3.43794768       0.99442851
C        1.11783971      -2.56663451      -2.27630831
C       -1.69954405       3.07587847       0.94202809
C       -0.29808221       2.45244391      -0.99040751
C        0.94574479       0.36592321      -0.06276252
C        0.98193692       2.67176256      -1.73808385
C       -3.29130166      -0.53226953      -0.53456466
C       -2.64049676       1.79054911      -0.99644476
C        2.88569199       1.66041056      -0.96895512
C       -3.08287904      -1.94022748      -3.63933175
C       -0.69236061      -1.50761000      -3.21085375
C       -1.85364997      -2.68190610       0.64516040
C       -2.41059676       0.91189239       1.21985689
C       -1.86986795      -1.44733688       1.32114765
C       -2.65031405      -0.39935264       0.74237246
C       -1.94732015      -1.05137325      -3.63140950
C        0.60574810      -2.78777870       0.84944350
C       -2.35355407      -2.71997019      -0.69544818
C        2.52677690       2.04423960       1.24875422
C        0.19841827       0.78756886      -3.09821942
C        2.50289094      -0.51886800      -1.95916242
C       -0.71263135      -1.11775495       2.09899282
C       -3.44058858       0.63875113      -1.37356987
C        1.61805748       0.30138089       2.74305347
C        0.41007242      -0.59189117      -3.21075943
C       -0.57962567      -3.17127461       0.20795257
C       -0.72202448       0.13221963       2.81440446
C        0.40453973       1.72384789       4.18118311
C        1.08211803       2.47116201       3.16752030
C        1.73944917      -3.13720586       0.10085686
C       -0.30983743      -2.62343132      -2.34233849
C        1.84472874       3.03163110       0.52390369
C        2.19205532      -0.19994051       0.39035960
C        2.83248978      -1.03550140      -0.66680096
C       -3.30856690      -1.80414932      -1.18246813
C       -1.17131961       1.19110442      -2.88856054
C        1.28284699       1.54843863      -2.58708401
C        0.20263278       3.07355768       2.29221292
C       -2.23368394       0.32076177      -3.32679546
C       -0.55174598       3.36024642       0.15196373
C        2.07411949       2.80929230      -0.85004546
C       -1.47742219       2.02607630      -1.78759222
C       -0.79227410       2.29764267       4.60005731
C        1.53263773      -1.25515689      -2.66083321
C        1.71840451      -0.72749300       1.77281554
C       -3.49161915       0.50833792      -2.75364757
C       -1.22077038       2.68316924       2.33559755
C       -2.53182297       2.05387143       0.40012723
C       -1.64383270       2.80798519       3.80302699
60
Properties=species:S:1:pos:R:3 entry_id=66 rank=85 energy=-492.093505859375 pbc="F F F"
C        1.83226738      -3.21128630      -1.36830186
C        2.66671222       0.83451058      -1.89727417
C        1.72016298       1.50697575       2.54762852
C        2.65840090      -2.53221541      -0.43749487
C       -1.99347294       0.96885219       2.47351327
C        2.97734715       0.90502804       0.53792234
C       -0.82880430      -3.19226360      -1.47998514
C        0.26319167      -1.77067123       1.57428097
C       -4.02641300      -3.22865146      -1.52726725
C       -0.20033583      -0.28313204      -0.68216841
C        0.00022414       0.29959625       3.39803789
C        0.93701911       3.68939333       1.03272742
C        1.22313756      -2.50974808      -2.40818232
C       -1.33150890       3.36780403       0.80740808
C        0.09284869       3.14304059      -1.22676453
C        0.92042797       0.09222899      -0.26739931
C        1.39311271       2.73868298      -1.61262426
C       -3.21821752      -0.01866578      -0.91956180
C       -2.17966293       2.17156869      -1.05552092
C        3.11901783       1.51941213      -0.73587887
C       -2.96180395      -2.49493039      -1.03534289
C       -0.61414462      -1.29138927      -3.10562933
C       -2.24802693      -2.64890678       0.23104722
C       -2.57340404       1.16759051       1.17641143
C       -2.00052915      -1.26760138       0.74381591
C       -2.92707470      -0.05730537       0.49795688
C       -1.86778535      -0.73502807      -2.82881750
C        0.26842899      -2.82577897       0.63006750
C       -1.36756419      -0.85909148      -0.58897377
C        2.49464912       1.88849638       1.44525021
C        0.47011270       0.93346923      -3.02613969
C        2.65385298      -0.58256187      -1.88223278
C       -1.02258987      -1.20624148       1.82336761
C       -2.79177339       1.08062614      -1.68127964
C        1.24714930       0.16948765       2.72268894
C        0.54868256      -0.46262426      -3.17983427
C       -0.91359722      -3.17514275      -0.12455957
C       -1.13969353      -0.14332937       2.71001920
C       -0.24127207       1.66612968       3.72435331
C        0.76414368       2.42338829       3.09270076
C        1.45694475      -3.13674070      -0.02502241
C       -0.20214308      -2.54336672      -2.47687192
C        2.13421173       3.03574686       0.69762774
C        2.11470600      -0.32753819       0.43897519
C        2.85960404      -1.15813729      -0.57080275
C       -2.47380801      -1.16144246      -1.54816558
C       -0.81671723       1.48496712      -2.81049200
C        1.57695615       1.57335752      -2.42431439
C        0.35379037       3.51753231       2.32505867
C       -1.96277917       0.65881338      -2.77223567
C       -0.11905601       3.63506245       0.08377925
C        2.43545553       2.76751265      -0.66012864
C       -1.00559201       2.48842822      -1.81497166
C       -1.58532112       2.01388332       3.35776132
C        1.66578527      -1.19718457      -2.67548576
C        1.42782116      -0.85762996       1.74747458
C       -5.00730661      -3.79998321      -2.05484303
C       -1.08328627       3.65622623       2.18858757
C       -2.20702404       2.33054240       0.36223548
C       -1.96852443       3.31138246       3.16893712
60
Properties=species:S:1:pos:R:3 entry_id=67 rank=86 energy=-491.9151306152344 pbc="F F F"
C        2.05022012      -3.16302583      -1.13229784
C        2.50727861       0.84798812      -2.05233422
C        1.71985818       1.73213945       2.43141571
C        2.91276169      -2.39206021      -0.32534385
C       -1.81736093       0.86566968       2.67875559
C        2.62814900       1.03355872       0.30536946
C       -0.58880136      -3.23501280      -1.14593419
C        0.55849968      -1.77617921       1.90622420
C       -4.30509401      -0.70197919      -2.85505802
C       -0.46324499      -1.03347431      -0.65304482
C        0.24498148       0.46002307       3.56318610
C        0.68452843       3.75598778       0.82217033
C        1.42723058      -2.64217437      -2.25309590
C       -1.54180858       3.20535048       0.79150543
C       -0.25862297       2.90483829      -1.31899983
C        0.66373919      -0.59984075      -0.35360338
C        1.05298303       2.64695935      -1.77967064
C       -2.96482019      -0.43100884      -0.60539857
C       -2.44889687       1.83194497      -0.93259745
C        2.87550841       1.62245496      -0.93904486
C       -3.95175956      -1.79909057      -2.29711874
C       -0.50005778      -1.64515721      -2.98726039
C       -1.67978617      -2.66567191       0.57822873
C       -2.39272465       0.89674591       1.37206182
C       -1.86677239      -1.55229821       1.41247745
C       -2.54890627      -0.40512649       0.77426265
C       -1.78584783      -1.10447667      -2.76090942
C        0.68196611      -2.89085860       1.02261725
C       -1.54846511      -2.20815077      -0.77901651
C        2.29716828       2.05493851       1.20850417
C        0.27451208       0.66771780      -3.03724254
C        2.66873754      -0.55284567      -1.91847907
C       -0.76583924      -1.32217669       2.25824512
C       -3.26898860       0.73611586      -1.31272299
C        1.40903467       0.37582832       2.74957865
C        0.54671028      -0.71711741      -3.16033642
C       -0.43709394      -3.39011637       0.33439151
C       -0.89290894      -0.15465583       3.02796444
C       -0.10959894       1.83466814       3.77870670
C        0.76164495       2.61911303       2.99262856
C        1.80334525      -3.06107335       0.22654178
C        0.05836898      -2.83227311      -2.32462326
C        1.91522420       3.19345683       0.44761057
C        1.93801851      -0.31746178       0.35797497
C        2.95711318      -1.01385592      -0.56466708
C       -2.60957913      -1.55595836      -1.57329237
C       -1.07294860       1.12490182      -2.83731148
C        1.31906371       1.44776752      -2.52812646
C        0.20852643       3.61824633       2.17095075
C       -2.11926322       0.20057513      -3.12579651
C       -0.41808382       3.50286607      -0.04397630
C        2.16531749       2.87616036      -0.92083745
C       -1.33797201       2.09166830      -1.80597070
C       -1.49874086       2.02141967       3.46306095
C        1.74244912      -1.31734048      -2.64479752
C        1.56474136      -0.71288645       1.82295743
C       -3.47724131       0.44790942      -2.70694981
C       -1.23739575       3.62094109       2.13181026
C       -2.31501492       2.06061024       0.48843770
C       -2.01710836       3.25592889       3.19328762
60
Properties=species:S:1:pos:R:3 entry_id=57 rank=87 energy=-491.6269836425781 pbc="F F F"
C        1.67978941      -3.45343233      -0.83842541
C        2.14722907       0.43509166      -2.15002263
C        2.01821245       1.79756811       2.25484224
C        2.59837747      -2.62833173      -0.15529339
C       -1.57782373       1.32955111       2.93155962
C        2.73126584       0.85364976       0.13802503
C       -0.86347663      -3.63730876      -0.66714443
C        0.47521420      -1.59515091       2.09418977
C       -1.80330676      -2.33609033      -4.10342467
C       -0.61230899      -0.61145274      -0.48299778
C        0.52373456       0.76123270       3.60579151
C        0.99349748       3.77846496       0.58255124
C        0.93364760      -2.99118103      -1.92258195
C       -1.28059343       3.49935697       0.80986447
C       -0.24727256       2.89776845      -1.36902299
C        0.54248450      -0.34359778      -0.14605036
C        0.93291389       2.37190261      -1.92144481
C       -2.93233540      -0.13519087      -0.12916336
C       -2.45565422       2.05661702      -0.67960938
C        2.76926826       1.28101156      -1.20136364
C       -2.83825149      -1.33440751      -4.14282852
C       -1.13442674      -2.21219112      -2.76629605
C       -1.86702834      -2.05551430       0.63466599
C       -2.30228280       1.36293995       1.70396007
C       -1.91089618      -1.12688077       1.70502858
C       -2.61991876       0.05568641       1.23786218
C       -2.21980908      -1.59506251      -1.97682022
C        0.36845502      -2.74343204       1.25070844
C       -1.95894383      -1.16756646      -0.60644469
C        2.52533598       1.97873914       0.96450237
C       -0.24566424       0.32389693      -2.84568970
C        2.23581588      -0.94506091      -1.90006482
C       -0.76324892      -0.98442116       2.50635402
C       -3.18334458       0.89009969      -1.04498763
C        1.60918345       0.50740151       2.72495356
C       -0.04095228      -1.10585906      -2.87978188
C       -0.86094731      -3.06509069       0.57589951
C       -0.71603067       0.22844295       3.22123222
C        0.33679710       2.17631055       3.75204801
C        1.18975223       2.80744055       2.82129476
C        1.47613348      -3.17232637       0.51556433
C       -0.45048084      -3.26213758      -1.88537422
C        2.10470314       3.04855517       0.12788666
C        1.89855723      -0.37612741       0.39544551
C        2.64983631      -1.28694440      -0.55378993
C       -2.96592646      -0.77590016      -2.85822205
C       -1.46034331       1.06905837      -2.55420078
C        0.94886322       1.06830047      -2.54411247
C        0.64919347       3.78836112       1.97609962
C       -2.78003880       0.53668083      -2.40389975
C       -0.21661073       3.61779445      -0.14864047
C        2.14963609       2.56891810      -1.21775278
C       -1.42578427       2.19162702      -1.65179191
C       -1.05279199       2.48931256       3.58097479
C        1.17817948      -1.70417419      -2.42685757
C        1.59465715      -0.65957527       1.89408647
C       -2.62148054      -2.22442688      -5.20882616
C       -0.78642595       3.95327571       2.07887123
C       -2.19890078       2.42000416       0.69135698
C       -1.47051827       3.74491836       3.24232428
60
Properties=species:S:1:pos:R:3 entry_id=61 rank=88 energy=-491.6243591308594 pbc="F F F"
C        1.67022135      -3.46009197      -0.83227064
C        2.14440113       0.42692865      -2.15046987
C        2.02058202       1.79639782       2.25183595
C        2.58963280      -2.63485582      -0.15066110
C       -1.57408534       1.33367020       2.93142310
C        2.72821592       0.84853481       0.13612640
C       -0.87271442      -3.64021165      -0.66016425
C        0.47258013      -1.59677613       2.09917267
C       -1.79787924      -2.32963576      -4.10596893
C       -0.61699698      -0.61806549      -0.48031204
C        0.52721175       0.76320561       3.60586078
C        0.99504343       3.77601206       0.57763357
C        0.92458383      -2.99720462      -1.91698940
C       -1.28063410       3.50344021       0.80739658
C       -0.24734908       2.89420466      -1.37035841
C        0.53810324      -0.35052398      -0.14361889
C        0.93235397       2.36630632      -1.92270898
C       -2.93518170      -0.13536557      -0.12620946
C       -2.45655905       2.05634910      -0.67901856
C        2.76833451       1.27380989      -1.20377681
C       -2.82716231      -1.32543183      -4.14487137
C       -1.14093852      -2.21561409      -2.76177016
C       -1.87229131      -2.05513654       0.64046074
C       -2.30037468       1.36650469       1.70450124
C       -1.91206919      -1.12362412       1.70869941
C       -2.61927520       0.05883216       1.23975751
C       -2.22741402      -1.59881445      -1.97414108
C        0.36154236      -2.74722792       1.25848995
C       -1.96538260      -1.17090227      -0.60343960
C        2.52542929       1.97535307       0.96061377
C       -0.24887923       0.31881259      -2.84605877
C        2.23111318      -0.95336753      -1.89875458
C       -0.76424564      -0.98243297       2.51015143
C       -3.18507568       0.88956628      -1.04244259
C        1.61129015       0.50668632       2.72420191
C       -0.04635672      -1.11131621      -2.87662395
C       -0.86864838      -3.06698176       0.58295644
C       -0.71362606       0.23184064       3.22242945
C        0.34173026       2.17893489       3.75065004
C        1.19297258       2.80761778       2.81690941
C        1.46755402      -3.17637236       0.52129377
C       -0.45990169      -3.26564556      -1.87915158
C        2.10594888       3.04504313       0.12318448
C        1.89496593      -0.38086678       0.39631317
C        2.64402993      -1.29429564      -0.55177950
C       -2.96917774      -0.77704972      -2.85699569
C       -1.46230102       1.06551487      -2.55321814
C        0.94657579       1.06185233      -2.54373096
C        0.65190807       3.78776026       1.97114409
C       -2.78220977       0.53455675      -2.40130297
C       -0.21621170       3.61717830      -0.15186296
C        2.15071144       2.56331608      -1.22178388
C       -1.42653684       2.18873196      -1.65140906
C       -1.04761565       2.49333104       3.57997473
C        1.17243656      -1.71187777      -2.42439666
C        1.59318298      -0.66211032       1.89561801
C       -2.52095738      -2.11746913      -5.26340210
C       -0.78330465       3.95719618       2.07578930
C       -2.19970098       2.42373558       0.69117079
C       -1.46468286       3.74918810       3.24092511
60
Properties=species:S:1:pos:R:3 entry_id=65 rank=89 energy=-491.5364074707031 pbc="F F F"
C        1.95812884      -3.13392484      -1.08483587
C        2.52868226       0.84806921      -2.03381505
C        1.92748126       1.80917991       2.45311259
C        2.86303922      -2.39093823      -0.29676142
C       -1.67829476       1.08629539       2.89997771
C        2.83610453       1.07222710       0.33030522
C       -0.57342261      -3.38683379      -1.04728061
C        0.56685826      -1.62815029       1.93728655
C       -5.18398144      -3.16334459      -3.79865400
C       -0.37163775      -0.61490829      -0.57499225
C        0.42547074       0.60406382       3.63655081
C        0.91197541       3.85087909       0.86782269
C        1.27006881      -2.57999218      -2.15341148
C       -1.34015580       3.35752920       0.90354961
C       -0.10876519       3.05154212      -1.24254343
C        0.78283363      -0.27705840      -0.28649059
C        1.17060453       2.71070282      -1.74340739
C       -2.73853443      -0.30868268      -0.26802832
C       -2.26718638       1.92020634      -0.76434265
C        2.98844391       1.62485018      -0.94911510
C       -4.10981505      -2.44466775      -3.55678898
C       -0.65259216      -1.53828300      -2.89920526
C       -1.67015035      -2.19811675       0.51949295
C       -2.34441225       1.13889854       1.63688673
C       -1.89175557      -1.35823360       1.64824735
C       -2.64164205      -0.16753471       1.15261960
C       -1.99011898      -1.01904075      -2.95778498
C        0.58487836      -2.73618822       1.02987199
C       -1.62642080      -1.17314974      -0.47776920
C        2.51163845       2.11287754       1.22483320
C        0.25210373       0.74225818      -2.95334697
C        2.62834110      -0.55916307      -1.90191416
C       -0.71686580      -1.14507636       2.39863049
C       -2.81364034       0.69578327      -1.24631304
C        1.55599697       0.46796602       2.78348544
C        0.43860116      -0.65305271      -3.05274987
C       -0.59368344      -3.11732510       0.30684352
C       -0.76390733       0.02707004       3.17305502
C        0.14509729       1.99198474       3.86428758
C        1.01550876       2.73351049       3.03829302
C        1.72717004      -3.00366626       0.27882054
C       -0.14996695      -2.73932491      -2.15513346
C        2.10979307       3.23810732       0.45663145
C        2.07262304      -0.23104708       0.40335405
C        2.95912064      -1.01909821      -0.55667344
C       -3.09530419      -1.79923071      -3.24144641
C       -1.03831499       1.22122747      -2.61723666
C        1.35413899       1.49226955      -2.49182167
C        0.46887627       3.74167752       2.22817378
C       -2.12796274       0.33940151      -2.49195607
C       -0.22602256       3.64269622       0.03981345
C        2.30611268       2.89005820      -0.91295789
C       -1.20399216       2.26773958      -1.65700225
C       -1.24893780       2.23804964       3.62914443
C        1.62259664      -1.28700250      -2.56463117
C        1.64426507      -0.62730777       1.86007940
C       -6.18902650      -3.74718088      -4.29050370
C       -0.98102173       3.78712179       2.22732095
C       -2.16461693       2.22184815       0.64663232
C       -1.72747452       3.48257915       3.32885784
60
Properties=species:S:1:pos:R:3 entry_id=64 rank=90 energy=-491.3312683105469 pbc="F F F"
C        2.03283289      -3.14108989      -1.13118589
C        2.52036783       0.87189187      -2.02444809
C        1.91418303       1.77509255       2.47006471
C        2.89078045      -2.37728067      -0.30939250
C       -1.68914303       1.05660361       2.86171699
C        2.83201494       1.07327718       0.34089919
C       -0.51681509      -3.43000172      -1.14228078
C        0.57325232      -1.66044727       1.89027019
C       -5.10065266      -3.16889779      -3.73913420
C       -0.41600488      -0.47224244      -0.58506730
C        0.39840803       0.54439748       3.61291973
C        0.89486775       3.83785118       0.90039944
C        1.35257905      -2.58383924      -2.20624877
C       -1.36162481       3.38257645       0.91976840
C       -0.12587633       3.06159373      -1.22129715
C        0.74909911      -0.23187487      -0.26442204
C        1.15120660       2.71502281      -1.71501913
C       -2.79743102      -0.23140043      -0.32460826
C       -2.30981481       1.99252885      -0.77700004
C        2.98152689       1.64147744      -0.93456486
C       -4.04906387      -2.49555438      -3.28771584
C       -0.60667964      -1.58040232      -2.86313028
C       -1.66314457      -2.13716061       0.28821434
C       -2.34773885       1.14839788       1.59935645
C       -1.84257448      -1.32944881       1.45926347
C       -2.61121515      -0.14292204       1.06646546
C       -1.93027848      -1.13360822      -2.39403799
C        0.58781465      -2.73532379       0.94641730
C       -1.70849948      -1.10369891      -0.79805301
C        2.50320808       2.10166355       1.24812628
C        0.23272012       0.74005180      -2.91637965
C        2.63379564      -0.53219743      -1.90212589
C       -0.72307392      -1.16853300       2.29562316
C       -2.88914015       0.79363134      -1.26438931
C        1.54550014       0.42713657       2.78158065
C        0.43613808      -0.65317303      -3.03877712
C       -0.57877735      -3.05601901       0.17286557
C       -0.78365042      -0.01873026       3.11049327
C        0.11959438       1.92920831       3.86869613
C        0.99168572       2.68582785       3.05784370
C        1.75299247      -3.02089484       0.23070641
C       -0.05615619      -2.77135479      -2.22708287
C        2.09243719       3.23014634       0.48734572
C        2.05598951      -0.22472445       0.39829660
C        2.94487386      -1.00077237      -0.55906674
C       -3.08770526      -1.90882842      -2.78526429
C       -1.06567600       1.21972518      -2.59838596
C        1.33094639       1.49921507      -2.46469383
C        0.44850825       3.70259924       2.25671441
C       -2.16244781       0.35799968      -2.45692148
C       -0.24219668       3.65749386       0.06213415
C        2.28763676       2.89716740      -0.88549306
C       -1.22422817       2.28874098      -1.65345231
C       -1.27135022       2.18405431       3.63085054
C        1.65019531      -1.26665254      -2.58287976
C        1.64737317      -0.65408599       1.84491395
C       -6.05813530      -3.68818899      -4.36180293
C       -0.99826195       3.76781575       2.25617661
C       -2.19466579       2.26167742       0.64071063
C       -1.74357544       3.43560387       3.35054030
60
Properties=species:S:1:pos:R:3 entry_id=63 rank=91 energy=-491.3282165527344 pbc="F F F"
C        1.93924368      -3.17461334      -1.13428989
C        2.49351087       0.82393797      -2.05344712
C        1.96373449       1.76158246       2.44473940
C        2.82199786      -2.42393490      -0.32730995
C       -1.64947693       1.11703342       2.88195760
C        2.84148458       1.03087596       0.30709766
C       -0.61648187      -3.41096899      -1.11222546
C        0.54733256      -1.64892621       1.89742127
C       -4.95025627      -3.35836432      -3.79319609
C       -0.44954600      -0.45072896      -0.57167331
C        0.43678462       0.56726975       3.61111528
C        0.96361603       3.83429178       0.87595942
C        1.25593081      -2.60886063      -2.20331052
C       -1.30130979       3.42557162       0.92512318
C       -0.09871088       3.06918144      -1.22931728
C        0.72413522      -0.23364847      -0.26577011
C        1.16514137       2.69536864      -1.73696917
C       -2.82392838      -0.16443123      -0.28387649
C       -2.29812959       2.04617122      -0.75274582
C        2.98376235       1.58976476      -0.97351576
C       -4.00369322      -2.58013770      -3.28631157
C       -0.69043037      -1.56898447      -2.84083716
C       -1.71763602      -2.08777883       0.32467406
C       -2.32317232       1.21514759       1.62793620
C       -1.86717157      -1.27153385       1.49379529
C       -2.61867790      -0.07295606       1.10444894
C       -1.99786871      -1.09392091      -2.35573535
C        0.52900459      -2.72797451       0.95846776
C       -1.75642412      -1.05835574      -0.76514469
C        2.54423838       2.07000281       1.21368522
C        0.19277298       0.73298624      -2.91610869
C        2.57993185      -0.58146561      -1.92505957
C       -0.73404129      -1.12857336       2.31484516
C       -2.90875298       0.85733726      -1.22777796
C        1.57191474       0.42268702       2.76744131
C        0.36845040      -0.66384847      -3.03533847
C       -0.65314296      -3.02825292       0.20101816
C       -0.76185746       0.02588997       3.12457527
C        0.18835083       1.95851707       3.86341370
C        1.06544762       2.69334967       3.03814820
C        1.67938636      -3.04264408       0.23020603
C       -0.15635599      -2.76850972      -2.20674669
C        2.14409324       3.20169009       0.45159033
C        2.03932559      -0.25063683       0.38050797
C        2.89952730      -1.04967850      -0.58410142
C       -3.15517162      -1.87515106      -2.73423475
C       -1.09241208       1.23839322      -2.58387988
C        1.31147710       1.47273276      -2.48263334
C        0.53168441       3.71599945       2.23820398
C       -2.20570184       0.40101263      -2.42689422
C       -0.18712139       3.67303919       0.05261696
C        2.31500406       2.85872624      -0.92202166
C       -1.21718184       2.31533284      -1.64300165
C       -1.20006365       2.23972692       3.63997409
C        1.57415681      -1.29956429      -2.59006352
C        1.64060202      -0.66450677       1.83431147
C       -5.75399927      -4.03288701      -4.48141519
C       -0.91357260       3.81010896       2.25486836
C       -2.16053663       2.32049468       0.66202863
C       -1.65229398       3.49875446       3.35982447
60
Properties=species:S:1:pos:R:3 entry_id=74 rank=92 energy=-491.25823974609375 pbc="F F F"
C        2.57286100      -3.09791642      -1.08362606
C        2.49885863       0.98256193      -1.95390608
C        1.36128415       1.83490387       2.40655374
C        3.24916519      -2.15825957      -0.24886754
C       -2.03439084       0.41142442       2.48568308
C        2.78273168       1.36416547       0.46821611
C       -0.23625280      -3.55810026      -1.19185225
C        0.77053106      -1.76273410       1.79694922
C       -4.15293832       2.43159073      -1.10588597
C        0.05332231      -0.68085207      -0.64653911
C        0.02044041       0.35004343       3.46141901
C        0.06200248       3.54842783       0.65075634
C        1.80888234      -2.62953898      -2.14658737
C       -2.25442826       2.99738211       0.37168389
C       -0.52135717       2.77696826      -1.55568873
C        0.96181956       0.05793730      -0.17827050
C        0.84851277       2.58963067      -1.86889942
C       -2.84925732      -1.13837704      -0.85539467
C       -2.35579004       1.27707155      -1.18100671
C        2.77740029       1.85861445      -0.86812810
C       -3.60664262       3.30055525      -0.29826426
C       -0.20846415      -1.90420071      -2.96777377
C       -1.37223895      -3.11266715       0.43250539
C       -2.43628128       0.38406552       1.10779141
C       -1.64731718      -1.93851727       1.13429953
C       -2.49218302      -0.95580411       0.51074771
C       -1.55385639      -1.58863034      -2.72952904
C        1.04714909      -2.85653182       0.93270280
C       -1.62532288      -3.22585046      -0.95952358
C        2.03884291       2.28116576       1.26714872
C        0.36940023       0.49289316      -3.11897853
C        2.79511677      -0.39383556      -1.81370574
C       -0.62751378      -1.52463282       2.04931167
C       -3.00332253       0.00576291      -1.78842773
C        1.24750906       0.45691422       2.74743493
C        0.75856757      -0.85539186      -3.14708869
C        0.00072529      -3.46746346       0.23088745
C       -0.96654515      -0.43419555       2.85434559
C       -0.57044000       1.64573254       3.63163556
C        0.18774335       2.52596879       2.84311186
C        2.26950889      -3.00237603       0.28393285
C        0.44630511      -2.95369657      -2.24535600
C        1.40436281       3.20169139       0.40364049
C        2.25677577      -0.04223123       0.51867413
C        3.12481031      -0.79119736      -0.46552048
C       -2.21115803      -2.15424617      -1.60808069
C       -1.02553024       0.76735658      -2.97836611
C        1.28674728       1.41109888      -2.55350842
C       -0.49599129       3.33657055       1.93099457
C       -2.00043354      -0.26628127      -2.87777163
C       -0.92391908       3.37762695      -0.33123027
C        1.82252720       2.91480790      -0.90925879
C       -1.36704861       1.78357102      -2.05627709
C       -1.95571392       1.60730563       3.25443075
C        1.99019410      -1.28209322      -2.55383348
C        1.67985271      -0.59222365       1.88072804
C       -3.78537792       1.26221413      -1.67200206
C       -1.92645061       3.28587207       1.83469229
C       -2.27189928       1.46874331       0.24377202
C       -2.61892816       2.73836882       2.86015659
60
Properties=species:S:1:pos:R:3 entry_id=62 rank=93 energy=-491.0406188964844 pbc="F F F"
C        1.97628062      -3.33196921      -0.90622566
C        2.22324633       0.59611643      -2.15513265
C        2.00095051       1.85313450       2.28348661
C        2.84538757      -2.47325320      -0.20235244
C       -1.56260328       1.16570016       2.96561851
C        2.75340421       0.99280492       0.14399383
C       -0.57787220      -3.69543746      -0.71952140
C        0.65166839      -1.61386382       2.05817788
C       -3.71754306      -2.43085842      -4.91600768
C       -0.51823067      -0.65009554      -0.47513429
C        0.57292454       0.70642183       3.61738646
C        0.86682439       3.80644835       0.65632162
C        1.21106397      -2.89031978      -1.97902690
C       -1.38617167       3.38780415       0.88291816
C       -0.32055643       2.88462340      -1.30723379
C        0.64283459      -0.36152971      -0.18439740
C        0.88837937       2.44987315      -1.87610564
C       -2.85957761      -0.32220480      -0.11790209
C       -2.47382665       1.90721873      -0.62924507
C        2.78496430       1.45535673      -1.18285784
C       -3.47238397      -1.36850008      -4.02772679
C       -0.83542023      -2.11211014      -2.60611990
C       -1.66226662      -2.18394043       0.59954395
C       -2.29171967       1.17946243       1.73942137
C       -1.76341682      -1.28112820       1.69383669
C       -2.54784250      -0.13481088       1.25418028
C       -2.05585960      -1.71451644      -2.02868174
C        0.61717124      -2.74948865       1.19460324
C       -1.83496545      -1.28405745      -0.61947942
C        2.49251787       2.08658692       0.99643444
C       -0.16171067       0.35421976      -2.82370146
C        2.39450363      -0.78337344      -1.93180320
C       -0.62024104      -1.08801299       2.49042995
C       -3.13969091       0.71312863      -1.01189568
C        1.66481316       0.53349315       2.72438523
C        0.11166295      -1.06547270      -2.88972084
C       -0.59720070      -3.13083489       0.52415117
C       -0.63778253       0.11031372       3.23149067
C        0.30710910       2.10519442       3.79186191
C        1.12104320       2.80342317       2.87386811
C        1.74851564      -3.09109589       0.45114904
C       -0.16089875      -3.18047740      -1.89151605
C        2.01856379       3.15254519       0.18520103
C        1.99330815      -0.29150857       0.36968509
C        2.82251528      -1.12676321      -0.58544535
C       -2.91225316      -0.92577298      -2.83190487
C       -1.42011536       0.99810753      -2.50859681
C        0.98169226       1.16225010      -2.52567989
C        0.52546164       3.77146775       2.05086382
C       -2.71220272       0.39285883      -2.37099826
C       -0.33264525       3.58451864      -0.07510284
C        2.09302086       2.70773698      -1.17205813
C       -1.45371503       2.11108708      -1.59738390
C       -1.09870138       2.34219984       3.63211625
C        1.38925820      -1.59207451      -2.47725611
C        1.71002298      -0.61239053       1.86685522
C       -4.14017271      -1.15537949      -5.23934082
C       -0.91751110       3.85012734       2.15835318
C       -2.24063792       2.25955322       0.74666570
C       -1.58645924       3.57860799       3.31757829
60
Properties=species:S:1:pos:R:3 entry_id=56 rank=94 energy=-490.7119445800781 pbc="F F F"
C        1.84251348      -3.10409603      -0.47012656
C        2.12246999       0.49987422      -2.29714862
C        2.03949098       1.70470519       2.09957503
C        2.64655610      -2.13487564       0.16691128
C       -1.52511670       1.28518965       2.88261472
C        3.00990423       0.75488017      -0.14362064
C       -0.45754477      -4.30069655       0.14149287
C        0.50236019      -1.65489149       2.42902855
C       -1.81318732      -1.56419454      -4.64903138
C       -1.06875247      -2.08816570      -0.39350043
C        0.55068979       0.77879484       3.62371169
C        1.07015792       3.71057736       0.50396780
C        0.87169449      -2.98512771      -1.48991909
C       -1.21125186       3.45677926       0.76226634
C       -0.22637563       2.95741745      -1.45550065
C        0.14363402      -1.17481624      -0.44936476
C        0.96172854       2.45770985      -2.02806220
C       -2.72973537      -0.29306522      -0.31057326
C       -2.40009300       2.03706296      -0.71744305
C        2.86416280       1.34325332      -1.42900771
C       -3.06369142      -0.80918132      -4.50720310
C       -1.26072026      -1.69816420      -3.34869663
C       -1.44574988      -2.38413704       0.97264536
C       -2.13739526       1.22406401       1.59512255
C       -1.73858193      -1.24773831       1.74267431
C       -2.33306942      -0.11516168       1.06589799
C       -2.35899610      -1.45843217      -2.43955923
C        0.65269550      -2.89355064       1.77327143
C       -2.20091216      -1.38048378      -1.05496141
C        2.57993184       1.79709842       0.78706360
C       -0.27354271       0.46366753      -2.91160812
C        2.04312190      -0.75205516      -1.71211550
C       -0.78058922      -1.07021516       2.76537957
C       -3.07376741       0.84239728      -1.09540634
C        1.52963236       0.50106771       2.63191258
C       -0.12123440      -0.98456369      -2.90807727
C       -0.52920142      -3.44963935       1.27671391
C       -0.72648173       0.20933680       3.36097099
C        0.39511534       2.19271289       3.66152408
C        1.27054895       2.76329064       2.70342307
C        1.73945183      -2.97465906       0.89277683
C       -0.35179126      -3.35966145      -0.84943352
C        2.14887108       2.92976039       0.02874204
C        1.05234579      -0.59996149       0.40240489
C        2.42397490      -0.64516405      -0.28233166
C       -3.20045676      -0.52707082      -3.13720347
C       -1.49236057       1.18796206      -2.67711482
C        0.93667325       1.18148818      -2.65175662
C        0.73956130       3.76839406       1.89154306
C       -2.83022772       0.67084949      -2.51801664
C       -0.15631789       3.60203198      -0.20637160
C        2.20474078       2.59891141      -1.34467911
C       -1.42992846       2.28172017      -1.73289806
C       -0.99770828       2.49589230       3.46676209
C        0.79642915      -1.51154294      -1.82634625
C        1.22768019      -0.60244119       1.82070027
C       -2.81448613      -1.61295498      -5.60446387
C       -0.70202767       3.93327821       2.01294109
C       -2.10349061       2.34655343       0.64608903
C       -1.41443272       3.76112409       3.16842190
60
Properties=species:S:1:pos:R:3 entry_id=55 rank=95 energy=-490.70220947265625 pbc="F F F"
C        1.83559764      -3.06530487      -0.50807414
C        2.13104220       0.50977267      -2.30803669
C        2.05080789       1.68913785       2.12128152
C        2.63847189      -2.12348585       0.15238060
C       -1.51948175       1.28177731       2.87221402
C        2.99259095       0.73189940      -0.15075247
C       -0.45822802      -4.18401169       0.04832134
C        0.49918172      -1.66546038       2.43943919
C       -1.81053684      -1.62752714      -4.62345879
C       -1.02728690      -1.96252420      -0.39141240
C        0.55510412       0.76866874       3.63940979
C        1.06911514       3.69491709       0.51300766
C        0.89861885      -2.89851044      -1.54545591
C       -1.21305962       3.44412181       0.76841722
C       -0.22481321       2.94183736      -1.44564074
C       -0.03597913      -0.99959669      -0.09376360
C        0.96380312       2.45293156      -2.02392591
C       -2.77726445      -0.28070485      -0.29605533
C       -2.40780585       2.03451151      -0.71825555
C        2.87089402       1.34148207      -1.42967639
C       -3.05509512      -0.85241715      -4.49986164
C       -1.24701702      -1.73824423      -3.32270426
C       -1.51512357      -2.38641418       0.96265606
C       -2.16082082       1.22303110       1.59805104
C       -1.79078896      -1.25583171       1.76847014
C       -2.39119385      -0.11282665       1.08794413
C       -2.34931969      -1.45486201      -2.42157293
C        0.61453684      -2.87538173       1.73590678
C       -2.21032862      -1.34616038      -1.04024755
C        2.56962183       1.77070892       0.79523194
C       -0.25232243       0.42759668      -2.88087089
C        2.04260563      -0.76325898      -1.75629401
C       -0.77794727      -1.06732243       2.73087692
C       -3.09757398       0.85031637      -1.09631319
C        1.57798240       0.48455539       2.69612648
C       -0.06708857      -1.02433097      -2.92979601
C       -0.57417446      -3.43791626       1.25188890
C       -0.71230967       0.20876387       3.32533262
C        0.39575916       2.18136924       3.67129802
C        1.27074962       2.74602063       2.71090885
C        1.70213185      -2.95528925       0.85787149
C       -0.33916421      -3.21030059      -0.92632281
C        2.14426739       2.90944062       0.03996744
C        1.05792602      -0.56820977       0.45128247
C        2.39134756      -0.66426143      -0.31241486
C       -3.18942894      -0.54165092      -3.13680610
C       -1.47598435       1.15060579      -2.65211452
C        0.94281036       1.17484603      -2.64844383
C        0.73842501       3.74878233       1.89871506
C       -2.82754546       0.66143628      -2.51662122
C       -0.15822850       3.58946297      -0.19877393
C        2.20487191       2.59290652      -1.33643024
C       -1.42190244       2.25649786      -1.72256384
C       -0.99582298       2.48547092       3.46956464
C        1.03192284      -1.63085691      -2.19843772
C        1.32580685      -0.63611604       1.89864872
C       -2.80642614      -1.67234031      -5.58408223
C       -0.70190547       3.91562736       2.02047190
C       -2.11425046       2.34165555       0.64679087
C       -1.41285971       3.75210400       3.17770937
60
Properties=species:S:1:pos:R:3 entry_id=54 rank=96 energy=-490.7000732421875 pbc="F F F"
C        1.83906608      -3.06584334      -0.50655871
C        2.12417321       0.50775095      -2.30948375
C        2.05140059       1.69327588       2.11610181
C        2.64126715      -2.12251690       0.15249060
C       -1.51528118       1.27973178       2.87487063
C        2.98979782       0.73455515      -0.15505129
C       -0.45297644      -4.18761106       0.05408319
C        0.50717992      -1.66570101       2.44276127
C       -1.80860311      -1.60351074      -4.62606611
C       -1.02543763      -1.96792578      -0.38874266
C        0.56106422       0.77299410       3.63783996
C        1.06227011       3.69566323       0.50586468
C        0.90035208      -2.90219948      -1.54293440
C       -1.21880436       3.44160543       0.76662998
C       -0.23321164       2.93795110      -1.44872977
C       -0.03523390      -1.00355081      -0.08988133
C        0.95555853       2.45089555      -2.02933066
C       -2.77538746      -0.28979878      -0.29054563
C       -2.41223387       2.02637864      -0.71297770
C        2.86525598       1.34180334      -1.43509743
C       -3.05367291      -0.83580208      -4.49569776
C       -1.25079042      -1.73899010      -3.32515624
C       -1.50863578      -2.39104052       0.96808925
C       -2.15735597       1.21727814       1.60163544
C       -1.78341905      -1.26035530       1.77419577
C       -2.38545243      -0.11956292       1.09246330
C       -2.35276016      -1.46247993      -2.42010312
C        0.62208250      -2.87637158       1.73960343
C       -2.20966725      -1.35445000      -1.03796868
C        2.56560236       1.77392418       0.78856711
C       -0.25929477       0.42270661      -2.87889755
C        2.03887109      -0.76440330      -1.75530580
C       -0.76988933      -1.06854492       2.73512856
C       -3.10107751       0.84100598      -1.08777937
C        1.58301363       0.48824122       2.69425601
C       -0.07106039      -1.02849981      -2.92647101
C       -0.56615396      -3.44079444       1.25742215
C       -0.70534681       0.20889661       3.32785938
C        0.39911883       2.18548115       3.66815737
C        1.27151769       2.75046153       2.70552668
C        1.70753975      -2.95554271       0.85925788
C       -0.33581405      -3.21505782      -0.92177747
C        2.13750504       2.91087556       0.03215730
C        1.05835109      -0.56969476       0.45369752
C        2.39064189      -0.66342000      -0.31244772
C       -3.19791097      -0.54762570      -3.12958899
C       -1.48402232       1.14347540      -2.64853601
C        0.93545278       1.17143126      -2.65075163
C        0.73472893       3.74999990       1.89221103
C       -2.83471656       0.65350699      -2.50800932
C       -0.16633617       3.58847811      -0.20354245
C        2.19794949       2.59310941      -1.34388590
C       -1.42956430       2.24968984      -1.72006948
C       -0.99331755       2.48630295       3.46811952
C        1.02934942      -1.63389622      -2.19578606
C        1.33091751      -0.63516479       1.89996643
C       -2.77391288      -1.58837058      -5.61920426
C       -0.70543640       3.91512214       2.01673829
C       -2.11632273       2.33566969       0.65028457
C       -1.41401211       3.75160194       3.17540580
60
Properties=species:S:1:pos:R:3 entry_id=86 rank=97 energy=-490.41851806640625 pbc="F F F"
C        1.72174269      -2.88320814      -1.04540754
C        2.31204339       0.92512341      -2.27793790
C        2.08143075       1.52761358       2.30182046
C        2.76696631      -2.17856353      -0.34201224
C       -1.99176094       0.69768883       2.88145155
C        3.16598787       0.89087809      -0.05933555
C       -0.53549910      -4.79286919      -0.09821377
C        0.58046362      -1.85489062       1.95091062
C       -3.59453715      -1.18870764      -2.52062198
C       -0.17052185       1.31043266      -0.70427005
C        0.33470417       0.47498883       3.41648565
C        0.88332468       3.55659518       0.84674640
C        0.75192836      -2.33229267      -1.91216379
C       -1.36298956       3.00249860       1.09117612
C       -0.22604139       2.78395301      -1.13762140
C        0.63749690       0.51037813      -0.20666825
C        1.01722199       2.78768758      -1.89763344
C       -3.15478690      -0.51914865      -0.40047116
C       -2.54196978       1.78299968      -0.71631624
C        2.88609695       1.62103496      -1.22689970
C       -3.17983266      -1.72939359      -3.70831214
C       -0.84539027      -1.39133545      -3.26780349
C       -1.43403949      -2.58359291       0.22082273
C       -2.45809790       0.77332906       1.52011080
C       -1.69388991      -1.57186674       1.19684130
C       -2.55655382      -0.49187140       0.86341478
C       -2.05377569      -0.89773518      -3.75475676
C        0.72587321      -3.01764581       1.18962490
C       -1.79784980      -2.36923679      -1.16678079
C        2.61677570       1.79690106       1.00627792
C        0.09741488       0.88440577      -3.24082188
C        2.30667180      -0.41842791      -1.94612170
C       -0.73790812      -1.35370324       2.23221890
C       -3.35276189       0.67724756      -1.11203604
C        1.51264485       0.27630945       2.63019530
C        0.27640463      -0.50751538      -3.25804804
C       -0.45024001      -3.62156295       0.56068373
C       -0.85356221      -0.17854016       3.02761223
C        0.28303649       1.83815793       3.75157867
C        1.29646534       2.50811507       2.99325393
C        1.82884483      -3.02187383       0.32137037
C       -0.72445661      -2.30430358      -2.16346151
C        2.00918986       2.90260413       0.34737645
C        1.51412188      -0.35238323       0.29572733
C        2.70102382      -0.63937061      -0.52208146
C       -2.99867455      -1.60796576      -1.29411950
C       -1.24527762       1.27350900      -2.87121064
C        1.19638806       1.63614385      -2.76148518
C        0.60991997       3.44692806       2.21800565
C       -2.30206851       0.43656332      -3.26758703
C       -0.33789562       3.43498134       0.13946322
C        2.13620088       2.77369541      -1.02890865
C       -1.33375866       1.87772159      -1.55505423
C       -0.99991357       2.45659028       3.54592460
C        1.27253850      -1.15041632      -2.49292429
C        1.49691689      -0.77198662       1.68576733
C       -3.43693285       0.26442558      -2.46624099
C       -0.78416098       3.22049231       2.36776614
C       -2.31061104       1.96979404       0.71786660
C       -2.15714411       1.77176641       3.73788457
60
Properties=species:S:1:pos:R:3 entry_id=34 rank=98 energy=-490.1414489746094 pbc="F F F"
C        4.12041848      -4.45781201      -2.14307906
C        1.82351863      -0.48845646      -2.25942458
C        1.37493156       1.83724065       3.14277325
C        2.67479513      -2.59718820      -2.13455553
C       -2.33270868       2.01876685       1.64748184
C        1.92081026      -1.47703897      -0.04157600
C        1.61835878      -5.10338521      -0.64473722
C        1.63147527       1.34423461       4.43921433
C       -3.41315599       2.59304419      -3.74007501
C       -0.75343050      -2.70012593      -0.42944039
C       -1.31599971       1.28653967       3.65784840
C        1.01327881       2.97872749       0.67745749
C        3.99261411      -5.55348915      -1.40830941
C       -0.91584191       4.01465402       0.00005461
C        0.25690634       2.64830705      -1.63778856
C       -0.37277704      -1.99146121       0.75453255
C        1.13450077       1.56849498      -1.70113159
C       -2.54506294      -1.38704383       0.18437495
C       -2.07084106       3.37799205      -1.92947678
C        2.08919284      -0.33152434      -0.86261270
C       -2.71848404       1.41657291      -3.28720803
C       -2.06091735      -1.47432233      -2.08822062
C        0.93069666      -0.40335205       2.10445592
C       -2.59990320       2.19708784       0.21050763
C       -0.22408988      -0.49397180       2.97565691
C       -1.57365425      -1.33647626       1.19449290
C       -3.16972172      -0.58003679      -1.85400668
C        2.22577382      -2.68744280      -0.72738596
C       -1.98626507      -2.17352492      -0.86069301
C        1.47333165       0.95831658       1.99965295
C       -0.40717255       0.21915835      -3.01932295
C        1.63918181      -1.78081373      -2.74736078
C       -1.46521730      -0.44202877       2.23775277
C       -3.07937762       1.10427277      -0.63616029
C       -0.40549634       0.31361687       4.12419912
C       -0.79361855      -1.15488908      -2.68780571
C        1.28571434      -3.78020007      -0.83834309
C       -2.00500768       0.85195876       2.46782642
C       -0.95852990       2.62026465       3.43037427
C        0.36742077       2.85967581       2.98806009
C        3.71312138      -3.34612914      -2.61752952
C        2.78085261      -5.58168383      -0.87328191
C        1.57996797       1.66271693       0.72802476
C        0.91197828      -1.40573724       1.02436580
C        0.14013610      -3.09293233      -1.41674283
C       -3.16981324       0.81117383      -2.09518366
C       -1.28092654       1.38562869      -3.10848038
C        0.92981989       0.54062936      -2.64599566
C        0.41375470       3.58843819       1.78863861
C       -3.27450780      -0.34047547      -0.40974515
C        0.27923761       3.41260597      -0.46527120
C        1.75335627       1.03108886      -0.53374803
C       -0.94696399       2.56356991      -2.37581829
C       -1.97252141       3.13841801       2.49040759
C        0.28056466      -2.12652147      -2.45805317
C        0.69322924       0.63239362       4.91259304
C       -3.07567654       3.49174458      -2.88651034
C       -0.75279552       4.32429502       1.37450185
C       -2.11982254       3.40261208      -0.48627735
C       -1.89175357       4.45494970       2.13113772
60
Properties=species:S:1:pos:R:3 entry_id=53 rank=99 energy=-490.0546875 pbc="F F F"
C        1.83150818      -3.06454208      -0.54986246
C        2.14773018       0.53106206      -2.30893158
C        2.07340449       1.69771458       2.12888501
C        2.62062796      -2.14036659       0.14271081
C       -1.51224435       1.28147073       2.86885149
C        3.02955049       0.74948970      -0.15478351
C       -0.64109869      -4.02866459      -0.04882683
C        0.49273656      -1.65312427       2.40056940
C       -1.80470408      -1.64176052      -4.61399828
C       -0.84728626      -1.75288874      -0.59414467
C        0.57556535       0.77567605       3.63926234
C        1.05442572       3.68562073       0.51293246
C        0.93295250      -2.88374438      -1.61492594
C       -1.22468715       3.41754541       0.77391071
C       -0.23704934       2.92280580      -1.44207089
C        0.02038513      -0.94295134      -0.03278679
C        0.95818111       2.45545158      -2.02396678
C       -2.79008840      -0.31777044      -0.26197682
C       -2.41120362       1.99760754      -0.70818263
C        2.88104697       1.36172329      -1.42892488
C       -3.06678036      -0.90392132      -4.46967501
C       -1.21749945      -1.74296706      -3.31875833
C       -1.80815723      -2.57119412       1.33707190
C       -2.18305483       1.20457747       1.61042672
C       -1.85677810      -1.29159167       1.82376384
C       -2.44149817      -0.13451663       1.11971850
C       -2.32154267      -1.49337121      -2.40245371
C        0.54264302      -2.84496446       1.66600133
C       -2.14511414      -1.36006580      -1.00822774
C        2.58785712       1.78092410       0.79850442
C       -0.23341756       0.41852357      -2.89078315
C        2.08152153      -0.75179445      -1.77736258
C       -0.75818514      -1.04262232       2.70522725
C       -3.09433587       0.80764423      -1.07683468
C        1.61709175       0.49039412       2.71626823
C       -0.02351569      -1.02058118      -2.96676674
C       -0.69447556      -3.38689416       1.22866903
C       -0.68643799       0.22249641       3.30199353
C        0.40368772       2.18537044       3.66926378
C        1.27788193       2.75161300       2.71046205
C        1.64738501      -2.96766091       0.81326472
C       -0.33317933      -3.08464672      -0.99490619
C        2.13698306       2.91055618       0.04347429
C        1.15032003      -0.52396550       0.46694466
C        2.43418694      -0.66366221      -0.32457076
C       -3.19214697      -0.59344625      -3.10623281
C       -1.47138202       1.11202032      -2.63749501
C        0.95366590       1.18141693      -2.65364456
C        0.72996492       3.74455252       1.89665613
C       -2.81975737       0.61233626      -2.49500073
C       -0.17390223       3.56666584      -0.19466677
C        2.19669013       2.60084709      -1.33145016
C       -1.42659675       2.22257650      -1.71290549
C       -0.99052340       2.48442808       3.46564669
C        1.10852297      -1.62525881      -2.27177373
C        1.39007619      -0.63181145       1.91349590
C       -2.81515754      -1.71609413      -5.55872213
C       -0.71183251       3.90022741       2.02115493
C       -2.12611866       2.31552559       0.65357522
C       -1.41992553       3.74911767       3.18191385
60
Properties=species:S:1:pos:R:3 entry_id=35 rank=100 energy=-489.9490966796875 pbc="F F F"
C        4.03901866      -4.56394637      -2.00528393
C        1.95426411      -0.44791159      -2.27744512
C        1.49445208       1.84956694       3.15416859
C        2.72928877      -2.60699708      -2.10201818
C       -2.38996816       2.21701128       2.03150500
C        1.95163932      -1.42862458      -0.05274763
C        1.41528435      -5.01961459      -0.63245931
C        1.77653373       1.30267877       4.42504209
C       -3.61416759       1.28732611      -3.39503997
C       -0.77532161      -2.35423678      -0.59078289
C       -1.19857806       1.34175734       3.83494851
C        1.03329714       2.98035147       0.69968418
C        3.78999375      -5.63652260      -1.26819315
C       -1.00503120       3.89435532       0.08603888
C        0.24855036       2.59190458      -1.56736056
C       -0.39777586      -1.73751347       0.62999421
C        1.22020578       1.59820848      -1.70520630
C       -2.55143724      -1.01643994       0.02781371
C       -2.20265636       2.84782430      -1.75008183
C        2.17879111      -0.29579015      -0.87238678
C       -2.36867375       1.74065123      -3.83473094
C       -1.97863859      -1.36540196      -2.44469897
C        0.98046859      -0.34738919       2.08426928
C       -2.86008753       2.37282495       0.67270744
C       -0.18842867      -0.39696047       2.93386628
C       -1.56061094      -1.02526047       1.06884741
C       -3.16097388      -0.88373441      -2.94304593
C        2.18858325      -2.65761204      -0.72740755
C       -1.96864334      -1.75041795      -1.06160873
C        1.58018575       0.98700457       1.99550692
C       -0.19508235       0.28872157      -3.23845907
C        1.78208959      -1.73947420      -2.78138033
C       -1.43681283      -0.23716882       2.20864377
C       -3.58093800       1.23047470       0.26594488
C       -0.28542506       0.31877640       4.14863137
C       -0.61740558      -1.08105752      -2.96046734
C        1.17437801      -3.68095310      -0.84747415
C       -1.98249209       0.99998729       2.67071390
C       -0.80488787       2.68264998       3.63945512
C        0.47730109       2.86601407       3.04731919
C        3.73967981      -3.43291173      -2.51469605
C        2.55274834      -5.57683514      -0.79866430
C        1.66231035       1.69226404       0.72452767
C        0.92096687      -1.30713153       0.98250939
C        0.11549568      -2.91923396      -1.49818091
C       -4.04339352      -0.05057429      -3.30452282
C       -1.07677136       1.44654356      -3.30037672
C        1.09828636       0.59819129      -2.70154061
C        0.43785449       3.56336437       1.82924057
C       -3.50139735       0.00379147       0.03104865
C        0.22162624       3.35920102      -0.40425141
C        1.85164655       1.06857747      -0.54116634
C       -0.94639550       2.41057920      -2.25856307
C       -1.87273203       3.29543004       2.83289210
C        0.39370813      -2.04090438      -2.58534981
C        0.85929860       0.56674322       4.90082448
C       -3.16882286       2.46306543      -2.76259173
C       -0.75480409       4.28733588       1.44264252
C       -2.21801005       3.24431434      -0.32989487
C       -1.76469701       4.56426639       2.32431656
60
Properties=species:S:1:pos:R:3 entry_id=76 rank=101 energy=-489.8727722167969 pbc="F F F"
C        1.44478084      -3.40835566      -0.19971257
C        2.21401974       0.72751624      -2.47117981
C        1.89885793       1.79999173       1.97777083
C        2.70086054      -3.62408529       0.35321894
C       -1.34079374       1.05251258       2.44626482
C        2.82903392       0.94247835      -0.25146820
C       -0.86695766      -4.48239536       1.03559346
C        0.61974539      -1.70532844       2.66628668
C       -2.40824185       0.02544202      -4.26695946
C       -0.24239313      -1.94698735      -1.19413276
C        0.53482124       0.87737559       3.58508549
C        0.94929307       3.82548818       0.31078972
C        0.21889622      -3.34797727      -0.86813741
C       -1.28833982       3.33929984       0.34407914
C       -0.14429387       3.11309929      -1.79208210
C       -0.10263239      -1.11875185       0.09039057
C        1.12546622       2.73055522      -2.28136416
C       -2.08882073      -0.56721525      -0.85183025
C       -2.15192548       1.76683126      -1.27184849
C        2.92732038       1.53949409      -1.54536831
C       -3.72328997      -0.25204995      -3.75863050
C       -1.51330057      -0.87120671      -3.61990853
C       -1.42117174      -3.49817262       3.29260184
C       -1.51246265       0.93249295       1.03611389
C       -1.42464213      -2.30844234       3.74816706
C       -1.24919631      -0.30876827       0.27619555
C       -2.21168735      -1.77931721      -2.81918431
C        0.65875374      -3.02662665       2.15914911
C       -1.71709343      -1.73643358      -1.51299315
C        2.46316542       1.96203474       0.68337108
C        0.02784074       0.95438944      -3.49276007
C        1.71424048      -0.41054842      -1.78518510
C       -0.54463474      -1.27609412       3.34570986
C       -2.79806426       0.46697980      -1.49358726
C        1.55356400       0.57629965       2.63080241
C       -0.23791274      -0.41266039      -3.21974723
C       -0.53041010      -3.83782218       2.23013201
C       -0.66495393       0.14397430       3.35958764
C        0.21268013       2.26213170       3.48760168
C        1.06562718       2.82832955       2.51685672
C        1.63731789      -3.32181722       1.19590000
C       -0.62215638      -4.22051974      -0.17253008
C        2.09365042       3.10449458      -0.08492355
C        1.20949186      -0.76227520       0.57799605
C        2.07778894      -0.25168649      -0.41895481
C       -3.58816680      -1.38943880      -2.85768564
C       -1.15613187       1.79707413      -3.56429298
C        1.21298144       1.53762475      -3.03604627
C        0.49406403       3.77219402       1.65982949
C       -3.77505640      -0.04567899      -2.35148049
C       -0.20027249       3.67669461      -0.51181402
C        2.28017686       2.80695121      -1.45729537
C       -1.31133123       2.41093094      -2.24340094
C       -1.16526129       2.34699397       3.08139359
C        0.52800650      -1.06297442      -2.20019363
C        1.40261225      -0.68132734       1.99235668
C       -2.13407751       1.33355435      -4.38944011
C       -0.95306100       3.78929034       1.66534340
C       -1.85148079       2.04865438       0.13244950
C       -1.75791984       3.52491491       2.73810532
60
Properties=species:S:1:pos:R:3 entry_id=39 rank=102 energy=-489.81353759765625 pbc="F F F"
C        3.95140077      -4.64016420      -1.86985376
C        1.99690508      -0.43511524      -2.20018583
C        1.41933385       1.70670852       3.28120678
C        2.75510229      -2.61217087      -2.02374874
C       -2.40032138       2.40383355       2.00301357
C        1.90507804      -1.44050072       0.00125456
C        1.23675269      -4.98138365      -0.64398319
C        1.56685211       1.07997203       4.53785781
C       -3.54679352       1.24223975      -3.19811169
C       -0.78808832      -2.12564358      -0.77575419
C       -1.36032895       1.35617592       3.79578786
C        1.12592382       2.94352806       0.82140057
C        3.60938866      -5.70577106      -1.16092804
C       -0.66665992       4.22560018       0.18219664
C        0.31702091       2.65073652      -1.47035185
C       -0.51018632      -1.51380111       0.45651649
C        1.25189972       1.61163242      -1.59508771
C       -2.45566121      -0.52956699      -0.45925750
C       -2.06404176       2.81250630      -1.33458408
C        2.20132095      -0.30847364      -0.79414252
C       -3.99305674       0.37040887      -2.18295795
C       -1.86496586      -1.42336708      -2.79757736
C        0.84235770      -0.38792473       2.10258069
C       -2.59849100       2.69603540       0.63840272
C       -0.40770372      -0.37161631       2.82694704
C       -1.63395927      -0.65548981       0.75580276
C       -3.18678043      -1.52372429      -3.18944506
C        2.11920909      -2.66142951      -0.68979567
C       -1.87067100      -1.44341593      -1.36502465
C        1.53251965       0.89804159       2.08971383
C       -0.10677578       0.32636439      -3.19801537
C        1.88017412      -1.70925274      -2.75742001
C       -1.57026795      -0.04804704       2.01569386
C       -2.91619380       1.90467346      -0.59850894
C       -0.53734873       0.25394012       4.08854253
C       -0.49651818      -1.07390723      -3.22347361
C        1.06671393      -3.63222869      -0.86701102
C       -2.10815344       1.13417043       2.58278197
C       -0.84582315       2.67024085       3.68298776
C        0.47046563       2.77787067       3.15342062
C        3.74130030      -3.49035916      -2.38148364
C        2.35352142      -5.59113298      -0.75596991
C        1.68403870       1.63123990       0.83756946
C        0.80248783      -1.27848652       0.95999582
C        0.10134860      -2.81796162      -1.59374994
C       -4.23303507      -0.92513303      -2.76836955
C       -1.08091383       1.41605494      -3.12958514
C        1.13914409       0.61761905      -2.59911288
C        0.56108699       3.52855502       1.96538599
C       -3.29227192       0.55108179      -0.93454592
C        0.42094286       3.44345533      -0.30975827
C        1.87868501       1.05267633      -0.44332050
C       -0.92928763       2.43802372      -2.12050964
C       -1.83519848       3.40632611       2.87071318
C        0.48315624      -2.01995389      -2.71824674
C        0.57480216       0.38715140       4.91322393
C       -2.38371003       1.41117107      -3.63076313
C       -0.47619334       4.44517743       1.58629173
C       -1.89515660       3.65337341      -0.15264859
C       -1.53745326       4.66056608       2.41900047
60
Properties=species:S:1:pos:R:3 entry_id=33 rank=103 energy=-489.38299560546875 pbc="F F F"
C        3.58576787      -5.01369353      -3.73303571
C        1.95008565      -0.64724932      -1.95482518
C        1.21314812       2.11871602       3.29575939
C        2.62614777      -2.73414246      -3.30282208
C       -2.40537976       2.12614606       1.58453835
C        2.01557911      -1.43162468       0.46015159
C        2.15937023      -4.90307257      -1.00388574
C        1.38974064       1.73171029       4.64053614
C       -3.25155819       2.30800584      -3.85595362
C       -0.55506814      -2.61591679      -0.11198945
C       -1.50343977       1.56705187       3.70008199
C        0.96637746       3.02424270       0.72097388
C        3.42349176      -5.97913582      -2.86787944
C       -0.92251558       4.00968040      -0.13015834
C        0.32865773       2.52992658      -1.59687534
C       -0.31117645      -1.86812120       1.08722906
C        1.20304928       1.44899865      -1.52876231
C       -2.45253343      -1.37266120       0.34916744
C       -1.98109602       3.23814314      -2.06045594
C        2.13152847      -0.39685086      -0.54392688
C       -2.56015621       1.17475733      -3.29861129
C       -1.91331503      -1.60287677      -1.89678134
C        0.85147859      -0.19016203       2.44717197
C       -2.60050177       2.19404277       0.12833851
C       -0.35832585      -0.24390578       3.23967244
C       -1.56008864      -1.23920686       1.42096653
C       -3.05927805      -0.73475715      -1.75622242
C        2.25466064      -2.72474667       0.13664898
C       -1.79946405      -2.18278988      -0.61701910
C        1.38668981       1.15270087       2.23819046
C       -0.25024954       0.04612020      -2.88363435
C        1.78874774      -1.88921692      -2.66254119
C       -1.54273811      -0.27449500       2.41054591
C       -3.02286928       1.03221481      -0.65553440
C       -0.61741636       0.65009544       4.30340207
C       -0.66742548      -1.29894835      -2.52728290
C        1.63919550      -3.68821866      -0.56742747
C       -2.10995176       1.02741923       2.50665206
C       -1.14350734       2.88350420       3.38989762
C        0.20350658       3.10392525       3.00209230
C        3.21331360      -3.74384283      -3.77850509
C        2.75525221      -5.74752317      -1.70756463
C        1.53800897       1.71843228       0.90133589
C        0.91182284      -1.23555261       1.44507877
C        0.38325433      -3.03269391      -1.06789332
C       -3.05672360       0.63863404      -2.09045823
C       -1.12823665       1.18883858      -3.07152124
C        1.06033859       0.36908004      -2.41870150
C        0.31305629       3.72400486       1.74822355
C       -3.20409376      -0.39760921      -0.33256199
C        0.29177067       3.37135250      -0.48338966
C        1.76541652       0.98239813      -0.30629810
C       -0.83234884       2.40647260      -2.39701392
C       -2.10687427       3.31224244       2.35771782
C        0.42000477      -2.22741010      -2.22715657
C        0.43241605       1.05165818       5.12073320
C       -2.94935194       3.26957098      -3.06083814
C       -0.82955485       4.42370696       1.22117951
C       -2.10067348       3.35611984      -0.62728543
C       -2.00908046       4.59764561       1.90355309
60
Properties=species:S:1:pos:R:3 entry_id=32 rank=104 energy=-489.3415832519531 pbc="F F F"
C        3.91294901      -5.05723705      -3.18297631
C        2.00566946      -0.61128490      -2.04648452
C        1.37614447       2.06449094       3.24428587
C        2.84561147      -2.77923260      -3.09380774
C       -2.45271833       2.36296248       1.92296569
C        2.00782688      -1.41825891       0.32884280
C        1.92962794      -4.98617119      -0.85573086
C        1.58390336       1.59498614       4.55916007
C       -4.37692720       2.86759267      -3.05499953
C       -0.65319974      -2.38643221      -0.34070566
C       -1.35067085       1.59505371       3.82149403
C        1.00982368       3.01611301       0.69002569
C        3.59922937      -6.03190745      -2.37548110
C       -0.97335537       3.95576907      -0.04736470
C        0.27373328       2.49234665      -1.57102589
C       -0.37713410      -1.67281929       0.85851005
C        1.21653801       1.46547841      -1.59193569
C       -2.50131731      -1.04616983       0.09379538
C       -2.14488820       2.85257656      -1.82531661
C        2.20024185      -0.36651795      -0.64207834
C       -2.56083892       1.11069675      -3.32197302
C       -1.87049473      -1.68672546      -2.31607019
C        0.89532015      -0.18406077       2.31716711
C       -2.85271692       2.44030197       0.54208734
C       -0.31594721      -0.19749998       3.09801814
C       -1.57374605      -0.96146041       1.18885307
C       -2.93752934      -1.24133951      -3.10045832
C        2.15903398      -2.72380942       0.01788923
C       -1.87144224      -1.88824217      -0.90015505
C        1.50773085       1.13123850       2.15049221
C       -0.19144805       0.04061168      -3.00971961
C        1.91106794      -1.89022539      -2.69103371
C       -1.51694233      -0.09100534       2.28353907
C       -3.47921168       1.24614098       0.13837072
C       -0.46618536       0.59483322       4.25536032
C       -0.53049778      -1.33205337      -2.77889162
C        1.46251123      -3.70308518      -0.58247304
C       -2.07459134       1.17986746       2.64165466
C       -0.94002717       2.92078181       3.56629977
C        0.36896480       3.06927879       3.02441344
C        3.52869468      -3.80446004      -3.35375059
C        2.67630105      -5.83335418      -1.39758829
C        1.62496453       1.72684063       0.82455543
C        0.88868431      -1.18369014       1.27906683
C        0.30504509      -2.97511600      -1.19105379
C       -3.18804477      -0.09560308      -3.57846271
C       -1.16085344       1.11521297      -3.03793084
C        1.10762821       0.39806022      -2.51243970
C        0.39146107       3.68422419       1.76145464
C       -3.41049756       0.00673259      -0.03453012
C        0.24317293       3.33891488      -0.46572618
C        1.83693833       1.00994913      -0.39444040
C       -0.92255432       2.28287590      -2.26069052
C       -1.96881506       3.48722538       2.68120102
C        0.51917361      -2.22123152      -2.36213280
C        0.64437926       0.89293756       5.04093805
C       -3.19421166       2.33523869      -2.72964493
C       -0.76711055       4.40922873       1.29258358
C       -2.19302977       3.31729305      -0.45235787
C       -1.81853652       4.72427986       2.11142801
60
Properties=species:S:1:pos:R:3 entry_id=45 rank=105 energy=-489.2558898925781 pbc="F F F"
C        3.55771125      -3.89244523      -2.15165689
C        2.02314712      -0.58667617      -2.10080154
C        1.31577251       1.80833039       3.28194268
C        3.08896029      -2.60845529      -2.46245996
C       -2.41180399       2.42665499       1.97187644
C        1.94093127      -1.51351366       0.21341065
C        1.63956094      -4.91393446      -1.20050818
C        1.48398776       1.24776748       4.57014901
C       -3.24393082       2.00614630      -2.62935873
C       -0.69773272      -2.22509206      -0.65751243
C       -1.41585059       1.43715293       3.79095496
C        0.98620784       2.88874512       0.76518442
C        2.83152869      -5.03348199      -1.95067827
C       -0.79479661       4.16702351       0.00126569
C        0.22925996       2.46637971      -1.48216575
C       -0.48635407      -1.59526275       0.58207796
C        1.20323394       1.45400790      -1.55498809
C       -2.41114484      -0.70609734      -0.41282872
C       -2.26104346       2.64264574      -1.57790113
C        2.17637321      -0.44172712      -0.68403741
C       -3.66480674       0.67910263      -2.15243271
C       -1.78550727      -1.62558303      -2.73438523
C        0.79851210      -0.36969931       2.21824509
C       -2.55707668       2.63893410       0.59682251
C       -0.46036578      -0.34575356       2.92108927
C       -1.63742814      -0.77267266       0.83913214
C       -2.92107267      -1.39197219      -3.48730708
C        2.29044419      -2.81967342      -0.23884875
C       -1.81548769      -1.63893919      -1.29823364
C        1.44529227       0.93471561       2.14463440
C       -0.10211406       0.10036182      -3.12345202
C        1.98292422      -1.82226062      -2.78030179
C       -1.59878819      -0.05795979       2.05517705
C       -2.72457151       1.70957470      -0.43732529
C       -0.60294315       0.34933920       4.14425621
C       -0.40737332      -1.29589307      -3.11410250
C        1.24885816      -3.67396929      -0.70877865
C       -2.11226011       1.17020702       2.56345544
C       -0.93864651       2.77241829       3.67671796
C        0.36170879       2.86568719       3.10387686
C        3.40242191      -2.87698449      -1.11723661
C        2.12112121      -6.16088350      -1.56837228
C        1.58463455       1.59133346       0.85606081
C        0.79812834      -1.30582525       1.11996519
C        0.28225120      -2.89644214      -1.41576785
C       -3.19500702      -0.10369399      -3.27045216
C       -1.10342343       1.14638411      -3.05395411
C        1.14146589       0.44374362      -2.52953240
C        0.40597429       3.52771874       1.86136146
C       -3.12330950       0.44188144      -0.84638049
C        0.29809907       3.33722203      -0.39125041
C        1.81293839       0.94154295      -0.38404191
C       -0.97454010       2.20868223      -2.14547494
C       -1.92584022       3.46426353       2.82534972
C        0.61125657      -2.21717263      -2.63019952
C        0.50591350       0.54339637       4.96096288
C       -2.45572527       1.12135555      -3.47238194
C       -0.62549031       4.42246922       1.41396949
C       -2.06010829       3.61344216      -0.34285061
C       -1.65715541       4.68456640       2.26502767
60
Properties=species:S:1:pos:R:3 entry_id=37 rank=106 energy=-489.15008544921875 pbc="F F F"
C        4.03516214      -4.82426304      -2.54979847
C        1.84364687      -0.63432195      -2.12554222
C        1.42516047       1.73391478       3.32502852
C        2.74478499      -2.71816437      -3.12610992
C       -2.38467012       2.45933331       2.01185744
C        2.00546045      -1.47990464       0.25442386
C        2.12219882      -4.19773989      -0.35688809
C        1.54081028       1.13410475       4.59794573
C       -3.63611646       1.16889766      -3.11717648
C       -0.70566242      -2.01778963      -0.79100338
C       -1.36845868       1.43118669       3.82348493
C        1.13759271       2.87925087       0.81503295
C        3.65285577      -5.35340842      -1.42402417
C       -0.62994348       4.19296184       0.15251410
C        0.28078496       2.53806953      -1.45051030
C       -0.44910258      -1.44643188       0.47365253
C        1.16063341       1.45409205      -1.52966130
C       -2.42659783      -0.48528228      -0.41251378
C       -2.08667752       2.80051174      -1.32795803
C        2.16121327      -0.45792103      -0.72963653
C       -4.06817784       0.33538855      -2.06608806
C       -1.97362288      -1.46004179      -2.75720658
C        0.82755642      -0.37326145       2.22379538
C       -2.59821159       2.73696417       0.64857686
C       -0.43406184      -0.32890747       2.91117315
C       -1.58905035      -0.60485175       0.79009764
C       -3.31828911      -1.60774370      -3.04671881
C        2.05919665      -2.81096513      -0.20074080
C       -1.83812129      -1.37747049      -1.33564419
C        1.53988067       0.89110306       2.15953640
C       -0.22040603       0.23662311      -3.17920892
C        1.76808884      -1.79125621      -2.96414503
C       -1.56104503      -0.00220156       2.05739320
C       -2.94557423       1.92538192      -0.56196117
C       -0.57079339       0.32412501       4.15635492
C       -0.65295524      -1.14152248      -3.31992545
C        1.14324879      -3.44923063      -1.01086481
C       -2.10134907       1.19344885       2.60303798
C       -0.83021199       2.73420848       3.68866801
C        0.48937230       2.80769367       3.15887295
C        3.49281965      -3.71603768      -3.02993820
C        2.90833410      -5.34263986      -0.35619710
C        1.68457837       1.55755504       0.86630260
C        0.82006806      -1.25510941       1.09114847
C        0.07646911      -2.79683973      -1.66371697
C       -4.32924235      -0.98337658      -2.58165082
C       -1.16523667       1.33950423      -3.09394191
C        0.98521077       0.43421918      -2.48631807
C        0.59376361       3.51396325       1.94495152
C       -3.32104155       0.56042552      -0.85157396
C        0.42558670       3.35911716      -0.31917979
C        1.83850818       0.92466877      -0.40121616
C       -0.96979514       2.37114078      -2.10747076
C       -1.80419359       3.46857024       2.85969329
C        0.33632227      -2.09519750      -2.88243241
C        0.53744575       0.46646201       4.98582940
C       -2.47820632       1.32810081      -3.56539479
C       -0.42372722       4.44491028       1.54692697
C       -1.88236248       3.66310909      -0.16660715
C       -1.47694889       4.70401452       2.37770316
60
Properties=species:S:1:pos:R:3 entry_id=24 rank=107 energy=-489.1381530761719 pbc="F F F"
C        3.51323365      -3.88362138      -2.20235796
C        2.01682346      -0.58539508      -2.06705262
C        1.35695012       1.78547943       3.35133373
C        3.07325341      -2.58572145      -2.49771285
C       -2.42203421       2.44673907       1.94114540
C        1.97853604      -1.51017513       0.24237302
C        1.55174238      -4.85198410      -1.28512457
C        1.46795281       1.21001103       4.63733456
C       -3.49866128       1.07040842      -3.23052641
C       -0.61229880      -2.01163111      -0.71882805
C       -1.43682601       1.45960342       3.79835089
C        1.11620088       2.90103149       0.82853439
C        2.74567160      -5.00122593      -2.02467051
C       -0.64589024       4.18453352       0.09987505
C        0.34384217       2.52983671      -1.45883875
C       -0.43356177      -1.44023145       0.54148141
C        1.25430960       1.46875310      -1.50413270
C       -2.36708397      -0.52287971      -0.45084668
C       -2.03151910       2.73600966      -1.39978248
C        2.21273952      -0.44414312      -0.65824593
C       -3.94623146       0.23542950      -2.18233178
C       -1.76546925      -1.53580683      -2.75937718
C        0.82688494      -0.35886658       2.26224183
C       -2.60060416       2.69542084       0.56451023
C       -0.45665449      -0.30618589       2.92459938
C       -1.57999699      -0.60777646       0.79332018
C       -3.09283802      -1.70310993      -3.11863089
C        2.27423143      -2.81195613      -0.26429967
C       -1.71534982      -1.41181236      -1.33723877
C        1.50521779       0.92640576       2.20202749
C       -0.04087035       0.17408696      -3.15796569
C        1.98070834      -1.77974057      -2.81175876
C       -1.57760078       0.00453029       2.05322364
C       -2.90789122       1.86586931      -0.65048528
C       -0.62804728       0.36658533       4.15594454
C       -0.41478382      -1.22645416      -3.24744225
C        1.20370598      -3.60828860      -0.76951080
C       -2.13998016       1.19803646       2.56772216
C       -0.91540735       2.76845768       3.65593647
C        0.41388314       2.84851724       3.15323199
C        3.37763307      -2.87686499      -1.15506899
C        1.99672059      -6.11035084      -1.66132293
C        1.66937276       1.58473762       0.91194938
C        0.83381273      -1.26743455       1.14354809
C        0.28154042      -2.78188908      -1.47434196
C       -4.13121259      -1.09364719      -2.69802718
C       -1.02426592       1.25204007      -3.11028193
C        1.14830744       0.45460069      -2.47271597
C        0.53514031       3.54171279       1.93417572
C       -3.26036338       0.49580680      -0.94012693
C        0.43737985       3.36461169      -0.33191517
C        1.87070060       0.94182261      -0.33987155
C       -0.88482205       2.31172736      -2.14001043
C       -1.87884292       3.47689470       2.78945607
C        0.59437946      -2.15750445      -2.72837530
C        0.46132024       0.53373363       5.00342108
C       -2.31822314       1.21857212      -3.62135079
C       -0.48299088       4.45459747       1.49735286
C       -1.87510205       3.61848932      -0.24528760
C       -1.55984957       4.71073805       2.29777659
60
Properties=species:S:1:pos:R:3 entry_id=25 rank=108 energy=-489.13714599609375 pbc="F F F"
C        3.52003896      -3.88323308      -2.19449107
C        2.02119383      -0.58554385      -2.06227167
C        1.35077788       1.79424669       3.35442463
C        3.08217561      -2.58462916      -2.48951121
C       -2.42967298       2.44548161       1.93571741
C        1.98216746      -1.50714706       0.24879582
C        1.55445413      -4.84947012      -1.28516694
C        1.45780843       1.21898851       4.64048559
C       -3.48990157       1.05287519      -3.23540025
C       -0.60365046      -2.00720025      -0.71577742
C       -1.44389143       1.46428721       3.79760502
C        1.11056358       2.90293867       0.82873200
C        2.74645556      -4.99853127      -2.02568264
C       -0.65215868       4.18215555       0.09449978
C        0.34174073       2.52741363      -1.45998042
C       -0.42859953      -1.43735387       0.54570684
C        1.25441588       1.46789555      -1.50273279
C       -2.36263453      -0.52369255      -0.44999360
C       -2.03407011       2.73069143      -1.40706206
C        2.21504110      -0.44209323      -0.65345189
C       -3.94193088       0.22497097      -2.18538062
C       -1.75777465      -1.54017609      -2.75698854
C        0.82758623      -0.35348979       2.26849928
C       -2.60637292       2.69222405       0.55755730
C       -0.45721658      -0.30137136       2.92891658
C       -1.57728526      -0.60755903       0.79588808
C       -3.08543837      -1.71635367      -3.11293948
C        2.27796640      -2.80949313      -0.25797698
C       -1.70683445      -1.40998947      -1.33559831
C        1.50227444       0.93341648       2.20646790
C       -0.03417343       0.17109389      -3.16044888
C        1.98931765      -1.78036421      -2.80687073
C       -1.57714959       0.00574377       2.05493483
C       -2.91136591       1.86174542      -0.65713253
C       -0.63281755       0.37407514       4.15831700
C       -0.40721463      -1.23015351      -3.24573717
C        1.20918078      -3.60716071      -0.76384301
C       -2.14351515       1.19903643       2.56572391
C       -0.92520070       2.77405178       3.65369783
C        0.40531432       2.85487741       3.15342655
C        3.38354591      -2.87651497      -1.14628301
C        1.97652990      -6.10430736      -1.69737460
C        1.66677236       1.58826205       0.91457602
C        0.83727276      -1.26366221       1.15052138
C        0.28876021      -2.78060519      -1.46962386
C       -4.12460667      -1.10721922      -2.69412963
C       -1.01903747       1.24804707      -3.11667741
C        1.15219800       0.45289879      -2.47064096
C        0.52665173       3.54450754       1.93239686
C       -3.25995192       0.49040593      -0.94226663
C        0.43293051       3.36339396      -0.33382643
C        1.87045171       0.94391183      -0.33676006
C       -0.88497551       2.30666749      -2.14444294
C       -1.88864858       3.47805554       2.78287508
C        0.60287418      -2.15914157      -2.72461288
C        0.45266687       0.54327153       5.01127335
C       -2.31221790       1.20891179      -3.63145939
C       -0.49179465       4.45530214       1.49157288
C       -1.88031994       3.61470548      -0.25285881
C       -1.57178268       4.71103856       2.28779390
60
Properties=species:S:1:pos:R:3 entry_id=41 rank=109 energy=-489.1321716308594 pbc="F F F"
C        4.08377141      -5.05040644      -0.74073649
C        1.94775595      -0.38191183      -2.37732801
C        1.44023697       1.57019170       3.23487047
C        3.69199555      -3.29045881      -2.48664662
C       -2.40997448       2.29879594       2.04624588
C        1.75760128      -1.49332720      -0.21612554
C        1.81773954      -3.97612307      -0.24117347
C        1.60625171       0.90205090       4.46753961
C       -3.63263098       1.28739528      -3.16990260
C       -0.76158016      -2.06099174      -0.91356889
C       -1.33800116       1.20345755       3.79216930
C        1.09705639       2.86665606       0.81275502
C        2.89811536      -4.88562618      -0.09282267
C       -0.70625082       4.17209526       0.24793205
C        0.24913984       2.65574871      -1.46951267
C       -0.56058932      -1.54625141       0.36683436
C        1.18249395       1.62184178      -1.64522338
C       -2.50351079      -0.57403712      -0.51554835
C       -2.13076523       2.80946928      -1.28607205
C        2.11151176      -0.35616689      -0.95036210
C       -4.06214229       0.38256201      -2.18141189
C       -1.92616546      -1.35028180      -2.90303272
C        0.83233859      -0.47891593       2.00939278
C       -2.62758669       2.62564206       0.69207652
C       -0.40541929      -0.49257109       2.75652095
C       -1.68847545      -0.73200564       0.70373642
C       -3.25853447      -1.47122899      -3.25816568
C        2.54740741      -2.61279309      -2.29439099
C       -1.88940234      -1.43195086      -1.47162256
C        1.52984623       0.79705826       2.01867098
C       -0.19190719       0.43165926      -3.29736646
C        1.84749870      -1.59582346      -3.06315377
C       -1.59523616      -0.15660115       1.98124670
C       -2.96172677       1.86967176      -0.56456941
C       -0.50967423       0.09370543       4.03856588
C       -0.59266485      -0.95784902      -3.39367032
C        1.61816031      -2.77365288      -1.05542030
C       -2.11271478       1.01355016       2.58906848
C       -0.82222119       2.51848397       3.70309891
C        0.48524394       2.64019948       3.15410729
C        4.17362134      -4.23518297      -1.74853936
C        1.71436867      -4.96153243       0.69874025
C        1.65472629       1.55245357       0.77610932
C        0.75631995      -1.31456604       0.83259949
C        0.27809097      -2.49899932      -1.70890762
C       -4.30371014      -0.90098178      -2.79707846
C       -1.17100233       1.50400904      -3.15635491
C        1.06658394       0.68238862      -2.69959454
C        0.55479804       3.42044006       1.98409817
C       -3.34359078       0.52557230      -0.93984901
C        0.37230219       3.40541364      -0.28547349
C        1.81553756       1.00509556      -0.52730257
C       -1.00750188       2.47321792      -2.10601783
C       -1.82558528       3.27717514       2.92952223
C        0.43500841      -1.86280738      -2.94115879
C        0.61985841       0.20103618       4.84331500
C       -2.48590304       1.49209972      -3.62879437
C       -0.48803319       4.35002345       1.65301156
C       -1.94206747       3.61090064      -0.08085659
C       -1.53388171       4.54410488       2.51054315
60
Properties=species:S:1:pos:R:3 entry_id=28 rank=110 energy=-489.1190490722656 pbc="F F F"
C        4.20238663      -4.16377543      -1.19288245
C        1.95349185      -0.50361948      -2.20253663
C        1.40619059       1.66051346       3.28864848
C        2.96245510      -2.55247604      -2.64506149
C       -2.39745233       2.39434459       1.98111114
C        1.93166611      -1.50414368       0.04444007
C        1.26667875      -4.97479407      -0.92197839
C        1.53062750       1.03061423       4.54604560
C       -3.55149300       1.23266611      -3.21936247
C       -0.73965379      -2.06575882      -0.83642767
C       -1.38153202       1.33374087       3.78036204
C        1.13137708       2.88584334       0.81991012
C        3.55769271      -5.23581125      -0.92112628
C       -0.64060786       4.19557730       0.17234320
C        0.32114066       2.60316030      -1.47106235
C       -0.49749266      -1.49848000       0.42159556
C        1.23456923       1.54740977      -1.58228977
C       -2.43677134      -0.51194057      -0.49992967
C       -2.05439797       2.80715997      -1.35462560
C        2.17956023      -0.39176046      -0.80439357
C       -3.99964773       0.36427610      -2.20229270
C       -1.86596360      -1.42105644      -2.84819517
C        0.82496429      -0.42821635       2.11595695
C       -2.59236546       2.69345740       0.61719905
C       -0.43549627      -0.40140993       2.82008934
C       -1.62634685      -0.64939359       0.72179159
C       -3.19539229      -1.54156492      -3.21499923
C        2.19045992      -2.77934558      -0.51013506
C       -1.83085854      -1.39887560      -1.41883539
C        1.52480495       0.84901761       2.10060085
C       -0.11821163       0.30653416      -3.23097960
C        1.89759202      -1.74556793      -2.89639785
C       -1.58032006      -0.06175759       1.99169672
C       -2.91898361       1.90923162      -0.62194472
C       -0.57265311       0.22355911       4.08042628
C       -0.50989236      -1.08865944      -3.31460685
C        1.09477918      -3.61220059      -0.95468655
C       -2.11707195       1.12105512       2.55823280
C       -0.85377639       2.64333226       3.67445019
C        0.46692148       2.73786344       3.15211003
C        3.32710827      -3.04849150      -1.44619414
C        2.31557499      -5.71833955      -0.81701199
C        1.67851681       1.56692308       0.84001075
C        0.79492876      -1.30623299       0.97192982
C        0.13482259      -2.77744930      -1.65896143
C       -4.22969914      -0.93722981      -2.77569192
C       -1.08407388       1.39654250      -3.14643016
C        1.10544042       0.56230179      -2.58601975
C        0.57071860       3.48169985       1.96091567
C       -3.29492029       0.55541382      -0.95754803
C        0.43467947       3.39343180      -0.31194319
C        1.86101573       0.98057333      -0.44022963
C       -0.92203172       2.41454280      -2.13498165
C       -1.83017765       3.38946541       2.85570679
C        0.47294883      -2.04015400      -2.82372416
C        0.53245932       0.34556604       4.91797317
C       -2.38652386       1.39748142      -3.64685193
C       -0.45294218       4.41186678       1.57687725
C       -1.87708228       3.64463973      -0.17037124
C       -1.51481904       4.63983657       2.40529715
60
Properties=species:S:1:pos:R:3 entry_id=31 rank=111 energy=-488.90350341796875 pbc="F F F"
C        3.78745280      -4.97940480      -3.59152841
C        2.02689473      -0.64955123      -1.89728917
C        1.29134463       1.99052792       3.42717310
C        2.92551290      -2.65785879      -3.22951857
C       -2.47123388       2.56899654       1.93488714
C        1.95003719      -1.44937484       0.50465715
C        1.84983550      -4.79969827      -1.14225409
C        1.37461257       1.47423219       4.73907990
C       -3.47801667       0.95251403      -3.16020412
C       -0.60549579      -2.04342112      -0.49076051
C       -1.51243827       1.67747678       3.84837972
C        1.08026280       2.97214776       0.84437936
C        3.33863569      -5.92386467      -2.80948411
C       -0.67381513       4.22068158       0.03551561
C        0.33626784       2.49999032      -1.43477473
C       -0.45784975      -1.39304137       0.75128819
C        1.24723615       1.43791555      -1.42394957
C       -2.39042582      -0.54233647      -0.29263857
C       -2.04140429       2.70812604      -1.40925598
C        2.19697220      -0.42656474      -0.48480447
C       -3.94152405       0.17133527      -2.08272050
C       -1.78623415      -1.62028251      -2.54834080
C        0.76393426      -0.19368616       2.44595034
C       -2.63017953       2.75179388       0.54788570
C       -0.52467473      -0.12677982       3.08743072
C       -1.62002502      -0.56714396       0.95844323
C       -3.11127120      -1.80474927      -2.90170970
C        2.03296297      -2.76237848       0.19580747
C       -1.72853849      -1.47569945      -1.12810867
C        1.45433658       1.07864531       2.32258991
C       -0.04263027       0.09574768      -3.03772113
C        1.98077874      -1.85186478      -2.69422982
C       -1.63329605       0.12457865       2.18040642
C       -2.91004752       1.85853338      -0.62386156
C       -0.71243238       0.60619490       4.27977234
C       -0.44884749      -1.29302174      -3.05859197
C        1.37358682      -3.58984857      -0.63275286
C       -2.19839097       1.34971389       2.62225017
C       -0.98845929       2.97796949       3.64952589
C        0.34818735       3.03794188       3.16281439
C        3.54623071      -3.67487686      -3.64754213
C        2.48307974      -5.65886900      -1.79136942
C        1.63319549       1.66175187       0.99594192
C        0.78124057      -1.13170999       1.36758406
C        0.29100962      -2.79072377      -1.26772263
C       -4.16035575      -1.18036376      -2.53376710
C       -1.01529339       1.17865036      -3.05874464
C        1.15465743       0.37672027      -2.34939408
C        0.48692977       3.66802090       1.91160505
C       -3.25744669       0.47277020      -0.84869856
C        0.41471181       3.38100310      -0.34370668
C        1.84790731       0.95766688      -0.22790956
C       -0.88498850       2.26547592      -2.12331997
C       -1.94111367       3.64130548       2.73850979
C        0.55244438      -2.18829337      -2.52054029
C        0.36538070       0.81891413       5.13325727
C       -2.30892843       1.10782527      -3.57868343
C       -0.52630855       4.55809943       1.41946863
C       -1.90239991       3.64343254      -0.29577719
C       -1.61468381       4.84984220       2.19209213
60
Properties=species:S:1:pos:R:3 entry_id=30 rank=112 energy=-488.8402099609375 pbc="F F F"
C        4.09390942      -4.82323846      -2.36461502
C        1.98238400      -0.54350594      -2.06736501
C        1.34751128       1.79857086       3.36698567
C        2.91495345      -2.67025785      -2.89364815
C       -2.43325367       2.49502442       1.96845405
C        1.91568282      -1.47984616       0.23457454
C        1.45690147      -5.00968619      -0.88274347
C        1.45471774       1.20878758       4.64666958
C       -3.51100431       1.18061833      -3.20370733
C       -0.71664608      -2.06122627      -0.69507734
C       -1.45397248       1.48982458       3.81528347
C        1.11744996       2.93726769       0.85207331
C        3.66765015      -5.83119300      -1.66238201
C       -0.63940275       4.23417538       0.13634804
C        0.34282781       2.59152085      -1.44165438
C       -0.50849827      -1.44751695       0.55483914
C        1.24970186       1.52701207      -1.50397232
C       -2.43886175      -0.50305318      -0.41842117
C       -2.03434530       2.80793091      -1.37034715
C        2.19353846      -0.38450247      -0.66202691
C       -3.97411261       0.34343120      -2.16743146
C       -1.84953523      -1.46684403      -2.72948144
C        0.77440747      -0.31896280       2.25805899
C       -2.60181573       2.75137215       0.59390298
C       -0.49855999      -0.27552020       2.93318591
C       -1.65017093      -0.60236449       0.81752178
C       -3.17492153      -1.59136843      -3.10512270
C        1.99133177      -2.76436458      -0.19420029
C       -1.81641278      -1.41974663      -1.30004168
C        1.48430420       0.95062886       2.20852114
C       -0.08477031       0.25627769      -3.14308708
C        1.91173824      -1.76757504      -2.80098834
C       -1.62551537       0.03316677       2.06757254
C       -2.90483034       1.92612831      -0.62250712
C       -0.65530715       0.38899675       4.16950673
C       -0.49659183      -1.13273433      -3.19721884
C        1.17262019      -3.63682805      -0.82396575
C       -2.16726653       1.23798572       2.58642922
C       -0.91933041       2.79371921       3.67881194
C        0.41100231       2.86932374       3.17772926
C        3.70060285      -3.64675902      -2.79476832
C        2.44066865      -5.76694937      -1.10234952
C        1.66082494       1.61792116       0.92268634
C        0.75672292      -1.20903438       1.13518151
C        0.15825813      -2.79484628      -1.51122448
C       -4.21552928      -0.97291038      -2.70308044
C       -1.04342381       1.35453689      -3.10875741
C        1.13098713       0.51291490      -2.47853537
C        0.53962329       3.57212740       1.96463610
C       -3.27906359       0.56155081      -0.92181000
C        0.44083720       3.41360719      -0.30497693
C        1.86255468       0.98644888      -0.33821363
C       -0.89052715       2.39577456      -2.12233411
C       -1.87873440       3.51634854       2.82103520
C        0.48346472      -2.07298812      -2.69119521
C        0.44117599       0.54227299       5.01004414
C       -2.34113649       1.33591161      -3.62173435
C       -0.47404046       4.49355013       1.53573526
C       -1.87386523       3.67941591      -0.20933613
C       -1.54999003       4.75080881       2.33753649
60
Properties=species:S:1:pos:R:3 entry_id=36 rank=113 energy=-488.8346252441406 pbc="F F F"
C        4.13688444      -4.68897702      -2.26476017
C        1.94052618      -0.50406893      -2.13810181
C        1.41231287       1.81501235       3.31335298
C        2.89660962      -2.61445544      -2.91983119
C       -2.41502368       2.44929108       2.01639999
C        1.95494948      -1.45101500       0.15537884
C        1.46298009      -4.99811884      -0.87304343
C        1.56058124       1.22397951       4.58795570
C       -3.60659158       1.12648731      -3.13045108
C       -0.69479759      -2.06923320      -0.70469962
C       -1.36919273       1.45725406       3.83384563
C        1.09605088       2.95572815       0.80829327
C        3.75277341      -5.69566963      -1.53884646
C       -0.70276068       4.22254859       0.14211938
C        0.26408292       2.59773424      -1.46306974
C       -0.46129793      -1.45556129       0.54058552
C        1.18829629       1.55047914      -1.55117499
C       -2.43217187      -0.53970653      -0.37846710
C       -2.11284403       2.77631260      -1.33102849
C        2.19011404      -0.34524269      -0.74029038
C       -4.02803138       0.28062871      -2.08381156
C       -1.88903548      -1.49211053      -2.70681213
C        0.84908891      -0.31095106       2.21210885
C       -2.62664090       2.70614346       0.64774175
C       -0.40645844      -0.28945439       2.92118908
C       -1.60823564      -0.62839465       0.83545970
C       -3.22179217      -1.64024911      -3.04677701
C        2.04676166      -2.73452579      -0.28260242
C       -1.81977745      -1.44430038      -1.27863134
C        1.53490578       0.97202547       2.14950726
C       -0.16597586       0.25998530      -3.15914815
C        1.87362322      -1.73120779      -2.86317080
C       -1.56054246       0.00299211       2.08661916
C       -2.94801021       1.87910752      -0.56259564
C       -0.54274331       0.36924932       4.16333722
C       -0.55358682      -1.13637698      -3.20922234
C        1.20195705      -3.61610060      -0.87373953
C       -2.11013544       1.19595714       2.62371510
C       -0.86157279       2.77088704       3.68694200
C        0.45352194       2.87071719       3.15110642
C        3.71755418      -3.55510431      -2.76865560
C        2.50557495      -5.69530737      -1.03429485
C        1.66588124       1.64652880       0.86235317
C        0.81593454      -1.20015232       1.08738783
C        0.16687690      -2.79050616      -1.54425864
C       -4.26054827      -1.03921884      -2.61430921
C       -1.14234363       1.34100968      -3.09757707
C        1.06092624       0.53721150      -2.52483103
C        0.53761890       3.57881674       1.93699516
C       -3.30548076       0.50931869      -0.85603626
C        0.37842238       3.42039003      -0.32871673
C        1.84385054       1.01982115      -0.40406370
C       -0.98240147       2.38263505      -2.11280702
C       -1.85578702       3.47827342       2.85646969
C        0.45467741      -2.06142246      -2.72969402
C        0.57077674       0.53775024       4.97908796
C       -2.45155116       1.30311776      -3.57980898
C       -0.50339977       4.48296198       1.53687238
C       -1.93691508       3.64870558      -0.17245501
C       -1.56157878       4.71950785       2.36797761
60
Properties=species:S:1:pos:R:3 entry_id=38 rank=114 energy=-488.83343505859375 pbc="F F F"
C        4.09558150      -4.74335951      -2.16018785
C        1.97598454      -0.52449503      -2.09695992
C        1.35737498       1.76603416       3.35810462
C        2.91345913      -2.64948136      -2.85844634
C       -2.42750773       2.47147300       1.97768641
C        1.92046579      -1.48976709       0.18857986
C        1.37754684      -5.02347827      -0.85916636
C        1.46726758       1.16450575       4.63172875
C       -3.51735033       1.20097564      -3.20476566
C       -0.71620282      -2.05442933      -0.73711764
C       -1.43915749       1.45016858       3.81066604
C        1.11847138       2.92885961       0.85560828
C        3.68029964      -5.74657140      -1.44659004
C       -0.64324926       4.22853680       0.15757838
C        0.33768476       2.60278462      -1.43921676
C       -0.50218632      -1.45520893       0.51874685
C        1.24497839       1.53926918      -1.51270853
C       -2.43605550      -0.50099969      -0.43940292
C       -2.03899025       2.81367938      -1.35837374
C        2.19144280      -0.38102657      -0.69234306
C       -3.97901591       0.35547814      -2.17513054
C       -1.85294193      -1.44449105      -2.76304969
C        0.78749529      -0.34482592       2.22959353
C       -2.60380610       2.74100389       0.60634930
C       -0.48418026      -0.30678405       2.90883943
C       -1.64210000      -0.61183448       0.79290306
C       -3.17976554      -1.57291441      -3.13469413
C        2.00461046      -2.77201936      -0.25738371
C       -1.81656407      -1.40707157      -1.33305671
C        1.49264249       0.92871673       2.19160075
C       -0.09069062       0.28293835      -3.16270799
C        1.90643379      -1.74607973      -2.83094490
C       -1.61291797       0.01085519       2.04913857
C       -2.90845185       1.92639314      -0.61719850
C       -0.63862540       0.34661003       4.15167478
C       -0.50023318      -1.10679240      -3.23122711
C        1.15390530      -3.63412280      -0.87093099
C       -2.15534970       1.20919671       2.58176348
C       -0.90818943       2.75685168       3.68653571
C        0.42082342       2.83942937       3.18272302
C        3.71074979      -3.60509848      -2.68051896
C        2.41722663      -5.73483909      -0.98465770
C        1.66336190       1.60908240       0.91273575
C        0.76582413      -1.22592828       1.09771810
C        0.15172474      -2.78526801      -1.56142099
C       -4.21790818      -0.95731736      -2.72056330
C       -1.05114956       1.37885576      -3.11480788
C        1.12512961       0.53552283      -2.49758623
C        0.54399529       3.55363832       1.97573954
C       -3.28177897       0.56476737      -0.92895676
C        0.43702780       3.41434606      -0.29491289
C        1.86027498       0.98748881      -0.35347311
C       -0.89739813       2.40999177      -2.11801568
C       -1.87145777       3.48545873       2.83792443
C        0.47999646      -2.05219040      -2.73390228
C        0.45818800       0.49141215       4.99438528
C       -2.35025044       1.36505156      -3.62594831
C       -0.47364925       4.47651576       1.55839720
C       -1.87790340       3.67597854      -0.19056570
C       -1.54801824       4.72565162       2.36521872
60
Properties=species:S:1:pos:R:3 entry_id=29 rank=115 energy=-488.8008728027344 pbc="F F F"
C        3.69977053      -4.42654631      -1.26464803
C        1.97206614      -0.49319352      -2.18563803
C        1.39111891       1.68917816       3.29614856
C        2.99840910      -2.52877082      -2.61841296
C       -2.41415883       2.41246611       1.97339676
C        1.92185830      -1.49568740       0.05816065
C        1.32088701      -4.98887632      -0.99165240
C        1.51507912       1.06509366       4.55695453
C       -3.55081004       1.22588425      -3.22920991
C       -0.74210387      -2.07094327      -0.80711995
C       -1.40128540       1.36287829       3.78121504
C        1.12375467       2.90323700       0.82062631
C        3.94740929      -5.72407844      -1.00693918
C       -0.65137700       4.20368486       0.16151687
C        0.32041455       2.60649658      -1.47052476
C       -0.50563407      -1.48970397       0.44463715
C        1.23784148       1.55378657      -1.57308658
C       -2.43992978      -0.51343268      -0.49360401
C       -2.05623275       2.80463306      -1.36238955
C        2.18292602      -0.38124941      -0.78384615
C       -3.99315702       0.35545321      -2.20812707
C       -1.85110836      -1.43493813      -2.83125357
C        0.81481223      -0.40477390       2.12910843
C       -2.60460821       2.70225643       0.60674798
C       -0.44830677      -0.37345753       2.83002281
C       -1.63641086      -0.64061378       0.73366838
C       -3.17723143      -1.55181945      -3.21073786
C        2.17248888      -2.77235382      -0.48918787
C       -1.82989585      -1.41062098      -1.40140164
C        1.51506418       0.87267064       2.11212166
C       -0.10658443       0.29612254      -3.21337903
C        1.91372290      -1.73720552      -2.86820439
C       -1.59265251      -0.04096602       1.99824104
C       -2.92259034       1.90898280      -0.62955257
C       -0.59035937       0.25571853       4.08763200
C       -0.49084074      -1.10048399      -3.28346287
C        1.09812529      -3.63204696      -0.91871674
C       -2.13425018       1.14282635       2.55820193
C       -0.87300076       2.67162350       3.66833664
C        0.44980362       2.76405244       3.15052431
C        3.27126648      -3.09494964      -1.42936045
C        2.57595163      -5.37800442      -1.01958492
C        1.67309536       1.58534385       0.84972616
C        0.78720806      -1.28870346       0.98950407
C        0.15321226      -2.77665393      -1.61542757
C       -4.21456079      -0.94677183      -2.77991769
C       -1.07773485       1.38308584      -3.13977416
C        1.11715934       0.56616601      -2.57430929
C        0.55753101       3.50346351       1.95679765
C       -3.29400075       0.55250063      -0.96188648
C        0.42788970       3.40284897      -0.31536029
C        1.85984692       0.99126955      -0.42624053
C       -0.92043650       2.40911238      -2.13562953
C       -1.84751257       3.41270424       2.84250470
C        0.49559562      -2.04967516      -2.78595261
C        0.51303816       0.38287738       4.92547972
C       -2.37795263       1.37997112      -3.64145529
C       -0.46704348       4.42999031       1.56476376
C       -1.88609869       3.64964910      -0.18275315
C       -1.53255679       4.66163196       2.38772232
60
Properties=species:S:1:pos:R:3 entry_id=51 rank=116 energy=-488.69598388671875 pbc="F F F"
C        1.83321607      -3.05087070      -0.50298744
C        2.30515399       0.44457012      -2.31058622
C        1.93215868       1.72607942       2.11429411
C        2.57081411      -2.06357084       0.16395986
C       -1.46092505       1.18614790       2.49699290
C        2.90205119       0.68760432      -0.07391374
C       -0.48333782      -4.21439965       0.27447605
C        0.58106645      -1.71600512       2.54903047
C       -2.25831812      -0.31427033      -4.14832675
C       -0.97498624      -2.05243907      -0.43016225
C        0.41886143       0.82432886       3.60597066
C        1.04180876       3.66446255       0.34538772
C        0.82785966      -2.87513148      -1.48267473
C       -1.24725291       3.48608912       0.33246641
C       -0.05413632       2.94928735      -1.74168173
C       -0.40836334      -0.94538203       0.26955426
C        1.20033720       2.45461645      -2.17722792
C       -2.39696741      -0.32467281      -0.68489166
C       -2.26991774       1.94451982      -1.25357823
C        2.98767296       1.26607732      -1.37413084
C       -3.64810755      -0.33857490      -3.76493754
C       -1.51609971      -1.22479148      -3.31910567
C       -1.48610325      -3.47118800       2.48304210
C       -1.72753417       1.19226571       1.10022388
C       -1.60904758      -2.36099966       3.09976343
C       -1.53461419      -0.03294925       0.39815173
C       -2.43593365      -1.86484247      -2.46269841
C        0.72580159      -2.92811065       1.83677269
C       -2.14599037      -1.62638154      -1.11342542
C        2.49896824       1.76155418       0.80966696
C        0.05943956       0.53961848      -3.16520871
C        1.90431503      -0.74891478      -1.70367797
C       -0.67513731      -1.30070453       3.08538600
C       -2.98816808       0.66525081      -1.46560046
C        1.50466480       0.53525516       2.74618395
C       -0.16166828      -0.85798995      -2.96700516
C       -0.40646637      -3.75626009       1.58792036
C       -0.78513465       0.13464530       3.26033558
C        0.18776603       2.23425586       3.54664284
C        1.08458991       2.77339033       2.59285500
C        1.75473542      -2.96375966       0.88416282
C       -0.31021166      -3.27603296      -0.71881771
C        2.15875745       2.88311793      -0.00421958
C        0.94868557      -0.59888448       0.59748494
C        2.18433361      -0.63763721      -0.24171001
C       -3.74639415      -1.31888299      -2.71464439
C       -1.05913307       1.44725374      -3.36659045
C        1.24280699       1.19205917      -2.81367968
C        0.56689247       3.69546348       1.68278085
C       -3.84396223       0.08950424      -2.41708931
C       -0.09596612       3.60890660      -0.50441376
C        2.35992800       2.54724691      -1.35938621
C       -1.24856613       2.30522458      -2.19610702
C       -1.17982615       2.43052968       3.17134443
C        0.87226399      -1.58744223      -2.16831850
C        1.31828663      -0.62405616       1.98689069
C       -1.90523987       0.97009318      -4.30981233
C       -0.86367132       3.87124535       1.66723523
C       -1.99433551       2.28861854       0.15136785
C       -1.65479886       3.63699325       2.75127118
60
Properties=species:S:1:pos:R:3 entry_id=40 rank=117 energy=-488.66351318359375 pbc="F F F"
C        4.56379086      -5.01320554      -0.57531655
C        1.96373745      -0.27570963      -2.36343833
C        1.50093865       1.60298487       3.15738870
C        3.52660125      -2.81980502      -1.31374911
C       -2.38846764       2.28958664       2.06160877
C        1.86910433      -1.30772260      -0.30772509
C        1.32969819      -4.76124112      -0.83920234
C        1.70742412       0.90850276       4.36808616
C       -3.66474778       1.36764693      -3.15205251
C       -0.92602027      -2.21525267      -0.92652018
C       -1.25512999       1.17140391       3.75234228
C        1.11597950       2.98575570       0.78999061
C        3.49563738      -5.72660847      -0.35621614
C       -0.73981789       4.22704323       0.27253223
C        0.22908023       2.75163121      -1.48494994
C       -0.53779285      -1.56621359       0.25998653
C        1.19013319       1.74649713      -1.70022702
C       -2.52583791      -0.55496080      -0.52310970
C       -2.15301723       2.85434634      -1.26054201
C        2.26235065      -0.12091557      -0.96514731
C       -4.08952867       0.44890275      -2.17107863
C       -2.00309397      -1.32421922      -2.89628994
C        0.89601164      -0.41952059       1.85559441
C       -2.63151953       2.63907444       0.71850413
C       -0.31216919      -0.47420512       2.64541970
C       -1.64421363      -0.71216345       0.64100235
C       -3.33011111      -1.39218326      -3.27420567
C        2.12137851      -2.41899712      -1.38822806
C       -2.00571883      -1.47393265      -1.46510619
C        1.58691706       0.86845333       1.91349761
C       -0.23047293       0.47197156      -3.25332977
C        1.65249676      -1.60971509      -2.58940186
C       -1.52313672      -0.14160230       1.91428490
C       -2.96820585       1.89728544      -0.54434141
C       -0.39971914       0.07246731       3.94849111
C       -0.64404184      -0.92148994      -3.30744418
C        1.07795212      -3.52418518      -1.29265835
C       -2.05638201       0.99795889       2.56514600
C       -0.76702842       2.49813076       3.68531901
C        0.52865827       2.66299151       3.12192411
C        4.29862870      -3.75007752      -1.01157145
C        2.18474639      -5.63126960      -0.45395017
C        1.71727460       1.69883249       0.72052789
C        0.81632443      -1.26877112       0.66380848
C       -0.08046869      -2.85295480      -1.83183762
C       -4.37079946      -0.81185978      -2.81362641
C       -1.20082955       1.55712480      -3.13777973
C        1.05858373       0.76000686      -2.72080304
C        0.56706392       3.48784597       1.98020264
C       -3.35020239       0.56002450      -0.93714534
C        0.35246680       3.50189530      -0.29500534
C        1.90559824       1.20409579      -0.59130413
C       -1.03550984       2.53962881      -2.09564830
C       -1.80030096       3.25743721       2.95322869
C        0.30565987      -1.89035517      -2.82835990
C        0.74008146       0.17747961       4.73634691
C       -2.51518574       1.56015085      -3.61028548
C       -0.50753037       4.39033152       1.67909651
C       -1.96574259       3.64361543      -0.04772539
C       -1.54464859       4.53916874       2.55600371
60
Properties=species:S:1:pos:R:3 entry_id=21 rank=118 energy=-488.6192932128906 pbc="F F F"
C        3.02555555      -4.02378968      -2.05184867
C        2.03391891      -0.55339678      -2.16182978
C        1.40179547       1.72393271       3.28856717
C        2.91945567      -2.67626132      -2.43484610
C       -2.39768574       2.34808175       1.91202678
C        2.11712509      -1.45412866       0.19043642
C        1.50972358      -4.61560097      -0.27413759
C        1.51789573       1.12027021       4.56058653
C       -3.49321523       1.08250958      -3.25618863
C       -0.57676941      -2.14765707      -0.83921920
C       -1.38866569       1.33739379       3.73702905
C        1.13204564       2.88814221       0.78996399
C        1.96139482      -4.85283485      -1.69928538
C       -0.66024483       4.15171995       0.09883551
C        0.34450389       2.53947039      -1.49686079
C       -0.35968463      -1.53968051       0.42307533
C        1.27167601       1.49435013      -1.57494257
C       -2.30388195      -0.59749230      -0.52730349
C       -2.03216449       2.71754893      -1.41995368
C        2.30107242      -0.39836538      -0.76116202
C       -3.91317368       0.21515464      -2.22327541
C       -1.76176470      -1.52816988      -2.86224876
C        0.88297664      -0.39195315       2.15045233
C       -2.58532817       2.62495901       0.54498710
C       -0.38845059      -0.38913520       2.82835350
C       -1.50550945      -0.70459417       0.69958362
C       -3.09079259      -1.67971375      -3.20235612
C        2.68726689      -2.72252318       0.05169611
C       -1.67777259      -1.49030375      -1.42688509
C        1.56392111       0.89545177       2.11820284
C       -0.04014352       0.21813292      -3.23581384
C        1.94421170      -1.76944069      -2.86350677
C       -1.51225486      -0.09073351       1.96201391
C       -2.87316892       1.80754612      -0.67733100
C       -0.56290414       0.25278741       4.07485612
C       -0.42416190      -1.17729321      -3.36394641
C        2.07217751      -3.83670849       0.63214473
C       -2.09134459       1.08762517       2.50205701
C       -0.88814397       2.65726953       3.62323707
C        0.43736663       2.77209131       3.11661210
C        3.36982871      -2.94586647      -1.16856881
C        0.81486428      -4.11504924      -1.41818594
C        1.71861245       1.58480510       0.84000096
C        0.90769011      -1.28722924       1.03318956
C        0.22507011      -2.92877850      -1.74962475
C       -4.13798320      -1.09951502      -2.76369654
C       -1.02411260       1.29145611      -3.16878010
C        1.15997005       0.48661526      -2.55304515
C        0.54262863       3.49281992       1.91228738
C       -3.20037528       0.43669064      -0.99056437
C        0.43219839       3.35640626      -0.35582075
C        1.92748737       0.97287243      -0.42840464
C       -0.88490309       2.32814557      -2.17709511
C       -1.86800473       3.36836051       2.78004612
C        0.56502275      -2.14677516      -2.92443648
C        0.52589219       0.42123893       4.92413724
C       -2.32402264       1.25663426      -3.66984601
C       -0.49345551       4.39622542       1.50027524
C       -1.88637518       3.58121789      -0.25047412
C       -1.56996935       4.61619073       2.31184015
60
Properties=species:S:1:pos:R:3 entry_id=42 rank=119 energy=-488.4351806640625 pbc="F F F"
C        4.13910256      -4.77102667      -3.06709770
C        1.53596955      -0.99758479      -2.06229591
C        1.27410726       1.45978931       3.37094584
C        2.24246766      -3.09473002      -3.26097332
C       -2.32181106       2.74141496       1.92451247
C        1.55971498      -1.82162620       0.42561286
C        4.21594390      -4.55158445       0.13545548
C        1.25554006       0.87111123       4.65382762
C       -3.59609927       1.58969653      -3.23194290
C       -1.16863332      -1.92809127      -0.82062636
C       -1.54117396       1.59177161       3.78147369
C        1.23743314       2.60156625       0.84638314
C        4.80735847      -5.30303035      -2.10363692
C       -0.27126390       4.17432178       0.11281330
C        0.42515659       2.37885928      -1.44891943
C       -0.91502203      -1.37813747       0.46915977
C        1.12612122       1.16992645      -1.49055273
C       -2.70523572      -0.17901586      -0.49191117
C       -1.87624244       3.00288891      -1.40843564
C        1.81200205      -0.85496014      -0.64413273
C       -4.17920064       0.84654749      -2.18509756
C       -2.34759634      -1.22530107      -2.81631804
C        0.41905120      -0.56485881       2.28148418
C       -2.44727492       3.03584627       0.55318921
C       -0.85000252      -0.30479558       2.91805540
C       -1.92460232      -0.40292793       0.73952039
C       -3.69558799      -1.20450080      -3.12916263
C        2.43197498      -2.82810163       0.70466043
C       -2.21776355      -1.14478694      -1.39506659
C        1.30342392       0.59064095       2.22028487
C       -0.35156646       0.15883240      -3.18855332
C        1.33330959      -2.15367674      -2.91530433
C       -1.87153917       0.18751113       2.01582784
C       -2.87721843       2.27434031      -0.66338180
C       -0.93142242       0.38083809       4.14995615
C       -0.98756718      -1.12223427      -3.36356517
C        3.33947579      -3.68675504       0.56088011
C       -2.24931070       1.45385079       2.53219712
C       -0.80938518       2.79923152       3.66101405
C        0.51928101       2.66069435       3.16721578
C        3.18044781      -3.92371172      -3.34713268
C        4.82085103      -5.20014126      -0.78700178
C        1.56921444       1.21164000       0.92630236
C        0.32054050      -1.44731864       1.15589881
C       -0.47517588      -2.73648829      -1.66030578
C       -4.60785321      -0.42877485      -2.68914557
C       -1.12568476       1.39356543      -3.12948889
C        0.84246501       0.16946832      -2.44611003
C        0.76442505       3.32642953       1.95167953
C       -3.43833663       0.97664534      -0.95508280
C        0.65506376       3.17824416      -0.31610100
C        1.66581527       0.55470274      -0.33472677
C       -0.81308858       2.39665561      -2.14617153
C       -1.63269957       3.66229077       2.79202846
C       -0.14910353      -2.21853312      -2.88144962
C        0.15440676       0.36546892       5.02221603
C       -2.41246935       1.56322893      -3.63631088
C       -0.07951209       4.40162245       1.51429147
C       -1.57893443       3.83765068      -0.24581788
C       -1.10538515       4.82652844       2.30995261
60
Properties=species:S:1:pos:R:3 entry_id=26 rank=120 energy=-488.3346862792969 pbc="F F F"
C        3.55536033      -3.87963518      -2.19100804
C        2.03140085      -0.57595555      -2.11904076
C        1.35198041       1.84001945       3.26692384
C        3.08015880      -2.59787606      -2.50018854
C       -2.40908596       2.40390953       1.98822926
C        1.96691409      -1.49587583       0.19876425
C        1.64229648      -4.89363393      -1.22222897
C        1.53236669       1.28480766       4.55458169
C       -3.13433228       1.76120645      -2.68559799
C       -0.66898312      -2.20282322      -0.64071425
C       -1.37890349       1.44465021       3.80933358
C        1.00095971       2.90725361       0.75040970
C        2.82893687      -5.01912215      -1.98021806
C       -0.81113655       4.14721783      -0.01130951
C        0.24150712       2.47124175      -1.48912210
C       -0.45679453      -1.58390557       0.60121848
C        1.22180952       1.46460936      -1.57299083
C       -2.43487442      -0.74480096      -0.34163439
C       -2.27520321       2.55907491      -1.57795922
C        2.19552169      -0.42682767      -0.70341887
C       -3.73844054       0.57894564      -2.09930753
C       -1.78251012      -1.57671185      -2.68888568
C        0.83957714      -0.34384278       2.21549012
C       -2.56062265       2.60209291       0.61122819
C       -0.40998476      -0.32981756       2.93632831
C       -1.62365293      -0.78656585       0.88122685
C       -3.05078641      -1.34353408      -3.20664915
C        2.31013139      -2.80121726      -0.26525899
C       -1.79646328      -1.62616566      -1.25812648
C        1.48091090       0.96208337       2.13091940
C       -0.05289971       0.13587744      -3.20446142
C        1.97546251      -1.80608962      -2.80788759
C       -1.57076431      -0.06840447       2.09251202
C       -2.75976301       1.67632021      -0.42244738
C       -0.54587968       0.36995054       4.15748977
C       -0.42372720      -1.26360144      -3.14454405
C        1.26327941      -3.65029388      -0.73156380
C       -2.09481150       1.15662536       2.59640103
C       -0.91355230       2.78131465       3.67193181
C        0.38267147       2.88467739       3.09169610
C        3.41249979      -2.86038090      -1.15738097
C        2.12392813      -6.14399192      -1.57985101
C        1.60963542       1.61298307       0.83733551
C        0.83308391      -1.28433602       1.11998218
C        0.29266490      -2.86585388      -1.42537220
C       -3.98961390      -0.55180658      -2.91942790
C       -1.03581737       1.22633672      -3.19467088
C        1.15629279       0.45816896      -2.55224241
C        0.41366276       3.54251871       1.84699499
C       -3.18182397       0.39451501      -0.79098894
C        0.30176139       3.34533069      -0.40077533
C        1.83591566       0.95777786      -0.40274046
C       -0.94989529       2.20447409      -2.14844063
C       -1.91636042       3.45518377       2.82395803
C        0.59653343      -2.18307691      -2.64596001
C        0.56722815       0.57454057       4.96646236
C       -2.30740187       1.41145063      -3.74583138
C       -0.63841717       4.41643770       1.39995148
C       -2.06539489       3.56075002      -0.33902884
C       -1.66963325       4.67493558       2.25291329
60
Properties=species:S:1:pos:R:3 entry_id=43 rank=121 energy=-488.2902526855469 pbc="F F F"
C        3.98370143      -4.82204130      -2.75612687
C        1.41182002      -1.00410751      -2.03240179
C        1.30693464       1.39215995       3.34615751
C        1.95558122      -3.29432425      -2.96831860
C       -2.30844690       2.69266320       1.94686777
C        1.66821025      -1.80567577       0.37683717
C        4.44684996      -4.43981072       0.31768876
C        1.28716506       0.76693271       4.61162308
C       -3.66402830       1.63921340      -3.19614707
C       -1.02889745      -1.76687332      -1.02823466
C       -1.50986375       1.48728370       3.75797487
C        1.24842856       2.59014755       0.84412199
C        4.78639805      -5.26297721      -1.87349446
C       -0.27912691       4.16421129       0.15627222
C        0.38564667       2.38370329      -1.43673114
C       -0.77688874      -1.29445726       0.28254326
C        1.05943921       1.15952934      -1.49926761
C       -2.63805157      -0.13124113      -0.57713298
C       -1.90514940       3.03618897      -1.37351244
C        1.85409277      -0.82883046      -0.68994506
C       -4.22837040       0.87796693      -2.15065551
C       -2.40043385      -1.11727835      -2.93553282
C        0.47832462      -0.61441185       2.20545314
C       -2.45695932       3.03131560       0.58901438
C       -0.79678993      -0.37307623       2.83021583
C       -1.82218331      -0.37004932       0.62388530
C       -3.76698922      -1.15884242      -3.13743813
C        2.59087864      -2.74309240       0.72582616
C       -2.13486921      -1.04583713      -1.53252213
C        1.35065394       0.55252425       2.17522592
C       -0.41657288       0.22946304      -3.24459292
C        1.01825465      -2.29147488      -2.63160649
C       -1.80410774       0.14864605       1.93270178
C       -2.90227831       2.29950097      -0.63742157
C       -0.89129754       0.26945410       4.08392591
C       -1.09856146      -0.99866776      -3.61167891
C        3.53370931      -3.57437527       0.65681227
C       -2.21254092       1.38461634       2.50256705
C       -0.78597661       2.70396362       3.67354151
C        0.54149528       2.58945686       3.17048049
C        2.93733828      -4.04663132      -3.00323325
C        5.04610363      -5.16159006      -0.56877504
C        1.59903550       1.20445087       0.89535400
C        0.40372536      -1.45089585       1.04556061
C       -0.33675417      -2.57023252      -1.94243266
C       -4.66094805      -0.40008932      -2.63327399
C       -1.18265879       1.45071883      -3.11539449
C        0.73256893       0.15173957      -2.44199181
C        0.77732593       3.28563769       1.96898667
C       -3.44395096       0.99857248      -0.94842644
C        0.64028308       3.17378903      -0.30102010
C        1.67656297       0.56967216      -0.37454667
C       -0.85388828       2.43293698      -2.12427857
C       -1.61640840       3.58913845       2.83485943
C       -0.35280973      -2.15273638      -3.25856987
C        0.19164578       0.23692027       4.95891299
C       -2.47837507       1.61114494      -3.59172435
C       -0.07490389       4.36479149       1.56022059
C       -1.59190158       3.84648352      -0.19861349
C       -1.09429549       4.76580984       2.37643813
60
Properties=species:S:1:pos:R:3 entry_id=23 rank=122 energy=-488.19647216796875 pbc="F F F"
C        2.90002796      -4.02618120      -1.93427620
C        1.96831209      -0.57661157      -2.20545841
C        1.41614783       1.65881491       3.25411380
C        2.81406554      -2.72022605      -2.45576710
C       -2.37943845       2.35941307       1.91291802
C        2.12217104      -1.48063657       0.15181141
C        2.15896836      -4.84742714       0.20670164
C        1.52714782       1.03819051       4.51731438
C       -3.54221953       1.14021071      -3.26190439
C       -0.65576600      -2.11470304      -0.89190468
C       -1.37396075       1.31285707       3.72246286
C        1.13972978       2.85375142       0.77084451
C        1.87112152      -4.76580573      -1.20944961
C       -0.63487367       4.15391796       0.10478803
C        0.32893900       2.53941360      -1.51451548
C       -0.39321518      -1.51248485       0.35537892
C        1.24001209       1.48207601      -1.60848524
C       -2.34752840      -0.54736453      -0.55710818
C       -2.04329178       2.75530618      -1.41876408
C        2.26159931      -0.42071439      -0.81462005
C       -3.96948194       0.27826591      -2.22700958
C       -1.84197965      -1.49734301      -2.90059127
C        0.87257280      -0.44627909       2.10639481
C       -2.57970448       2.65403996       0.55053730
C       -0.40097387      -0.41962160       2.78632145
C       -1.52305750      -0.66744764       0.65346861
C       -3.17734981      -1.63519197      -3.22822032
C        2.89870661      -2.63240504       0.08130330
C       -1.74566335      -1.44939609      -1.46800187
C        1.56136459       0.83947023       2.07573183
C       -0.09995808       0.23397112      -3.26502822
C        1.85786104      -1.78990921      -2.89492007
C       -1.51856482      -0.08353395       1.92839299
C       -2.89559174       1.85508114      -0.67812639
C       -0.56156417       0.21176371       4.04027378
C       -0.49921483      -1.15918025      -3.40084926
C        2.60298069      -3.81357670       0.80675739
C       -2.08511555       1.08982622       2.48794391
C       -0.85446314       2.62628383       3.61843492
C        0.46808927       2.72487358       3.10150850
C        3.41626135      -2.89592865      -1.22560387
C        0.79086668      -4.04428644      -1.41968239
C        1.70745487       1.54232757       0.80480193
C        0.88673882      -1.33281430       0.97820001
C        0.15113282      -2.94410766      -1.77580566
C       -4.20362626      -1.03270745      -2.76907144
C       -1.06992677       1.31880032      -3.18256395
C        1.10633812       0.47913779      -2.58810838
C        0.57220830       3.45714483       1.90357140
C       -3.24310490       0.49103348      -0.99935124
C        0.43926795       3.34389641      -0.36587426
C        1.89872750       0.94597183      -0.47178889
C       -0.90861332       2.34984235      -2.18646022
C       -1.82865950       3.36115662       2.78817132
C        0.47836981      -2.12892265      -2.96416141
C        0.53187312       0.34967102       4.89126794
C       -2.37247923       1.30255673      -3.67726583
C       -0.45247243       4.38094960       1.50770188
C       -1.87215590       3.60591487      -0.24194600
C       -1.51812223       4.61000596       2.33057358
60
Properties=species:S:1:pos:R:3 entry_id=52 rank=123 energy=-487.8182373046875 pbc="F F F"
C        1.86634224      -3.03215978      -0.47777582
C        2.35107531       0.45715758      -2.32542477
C        1.96695192       1.74290520       2.11076934
C        2.55986716      -2.03718185       0.21242145
C       -1.46343190       1.20626595       2.64716259
C        2.92646755       0.70912806      -0.08111215
C       -0.46971719      -4.19538017       0.14695160
C        0.53677995      -1.66797875       2.53477856
C       -2.28249253      -0.34751182      -4.03113456
C       -0.87186846      -2.03906277      -0.51637934
C        0.49400123       0.84750296       3.65575481
C        1.04749858       3.67106815       0.35622231
C        0.94066818      -2.89577741      -1.54157133
C       -1.21564288       3.29854689       0.43034314
C       -0.07803720       2.85187050      -1.68845021
C       -0.34324409      -0.93382592       0.16258739
C        1.18514451       2.42774890      -2.16700888
C       -2.60206935      -0.58305726      -0.38890318
C       -2.18613029       1.67650814      -1.09996010
C        3.00562540       1.29028713      -1.38082956
C       -3.66208737      -0.38423441      -3.62026883
C       -1.50743630      -1.25733098      -3.22376906
C       -1.70224974      -2.77742963       1.58161437
C       -1.82892436       1.04136095       1.30858652
C       -1.73623109      -1.45806144       1.89955406
C       -1.76172080      -0.35464629       0.81921392
C       -2.42377426      -1.92642387      -2.37808360
C        0.63655357      -2.86686557       1.80101563
C       -2.16648937      -1.76014646      -1.00930911
C        2.52022439       1.78225326       0.80234814
C        0.09402848       0.50330064      -3.18294774
C        1.97880305      -0.74555249      -1.71757710
C       -0.73418971      -1.12881647       2.86921013
C       -3.00254065       0.47210413      -1.24395098
C        1.52769371       0.55059493       2.73449172
C       -0.11702779      -0.89356818      -2.96268479
C       -0.55316722      -3.51306621       1.40522374
C       -0.72759105       0.20363776       3.32599126
C        0.26243728       2.25898997       3.58178037
C        1.14091370       2.79636836       2.60916178
C        1.69408275      -2.92850813       0.89819866
C       -0.22969198      -3.25881352      -0.83373168
C        2.16872165       2.90189946      -0.00787426
C        0.92522399      -0.53328063       0.54552274
C        2.20994745      -0.61531245      -0.24722894
C       -3.75117362      -1.41717231      -2.62153559
C       -1.06080126       1.38213270      -3.33021717
C        1.26497532       1.17634706      -2.82804264
C        0.60488220       3.72095175       1.70917082
C       -3.84443142      -0.02809216      -2.25385118
C       -0.11392567       3.50454435      -0.44865011
C        2.35280523       2.55767187      -1.36543779
C       -1.25366955       2.14415294      -2.10222619
C       -1.11694093       2.46881940       3.24694104
C        0.97253018      -1.60163255      -2.20781748
C        1.26743920      -0.58353375       1.95472757
C       -1.93297431       0.92882189      -4.26485946
C       -0.83893607       3.81675404       1.71844130
C       -1.91512697       2.06663644       0.28289932
C       -1.61102871       3.66922338       2.83253463
60
Properties=species:S:1:pos:R:3 entry_id=44 rank=124 energy=-487.4007873535156 pbc="F F F"
C        4.02598122      -3.83398826      -1.74081220
C        2.06884021      -0.77815806      -2.03890368
C        1.33614127       1.80015310       3.28340357
C        3.70892520      -2.46017023      -2.03584933
C       -2.37137275       2.52441915       1.96308764
C        1.87814591      -1.62768660       0.33336779
C        1.74828346      -4.65365885      -1.77910416
C        1.47451299       1.26969246       4.58759552
C       -3.28937871       1.99617318      -2.61333093
C       -0.70126330      -2.04702304      -0.71631361
C       -1.39822769       1.53877672       3.79413644
C        1.01356854       2.79728831       0.72656404
C        3.13028032      -4.82041532      -2.04970844
C       -0.71062957       4.12182011      -0.07223097
C        0.19095236       2.29490294      -1.48504282
C       -0.51803109      -1.50069833       0.57145949
C        1.09038483       1.21411442      -1.52673280
C       -2.47818473      -0.61087972      -0.36903358
C       -2.27849384       2.62223313      -1.58551791
C        2.10575953      -0.59104922      -0.58020354
C       -3.80368992       0.73110027      -2.07116290
C       -2.05530801      -1.60424966      -2.69808005
C        0.75725183      -0.40301430       2.29634057
C       -2.54787156       2.71886323       0.58942781
C       -0.51090971      -0.30828242       2.97528237
C       -1.66237388      -0.68241947       0.86066464
C       -3.26935501      -1.45350034      -3.33411480
C        2.21992945      -2.92963519      -0.19444606
C       -1.88231459      -1.50608297      -1.27866384
C        1.43004968       0.88462450       2.17785703
C       -0.23529445      -0.06554484      -3.12090709
C        2.95606564      -1.57973933      -2.66671799
C       -1.62086755       0.01560153       2.08589112
C       -2.79604211       1.77440427      -0.41160229
C       -0.63458243       0.42678522       4.17811744
C       -0.69591494      -1.43877959      -3.29383272
C        1.28614630      -3.56678892      -1.04720708
C       -2.09718362       1.26982669       2.57072870
C       -0.87578504       2.85537218       3.65057316
C        0.42430693       2.88757306       3.06999872
C        3.54708760      -2.97283470      -0.69445554
C        2.23840349      -5.84199536      -2.30524873
C        1.55895838       1.48717761       0.86800699
C        0.73513406      -1.34851892       1.21069952
C        0.16086989      -2.81399992      -1.55536295
C       -3.39714021      -0.12691879      -3.15121522
C       -1.20208102       0.99528371      -2.99632887
C        1.01246866       0.15843972      -2.47231403
C        0.48153178       3.50438998       1.80295361
C       -3.24515260       0.50917658      -0.76753835
C        0.32918555       3.21632775      -0.44105116
C        1.72536781       0.77747172      -0.34494676
C       -1.02467175       2.07983458      -2.12814957
C       -1.84045747       3.56215738       2.78653361
C        0.03586187      -2.53433985      -2.89578827
C        0.47633856       0.60526363       4.99599235
C       -2.55780298       1.01782035      -3.40525172
C       -0.51624297       4.42304624       1.32928034
C       -2.00644283       3.62956830      -0.38848832
C       -1.52674576       4.75182784       2.18270374
60
Properties=species:S:1:pos:R:3 entry_id=50 rank=125 energy=-487.3462829589844 pbc="F F F"
C        1.89448740      -2.70982024      -0.13845570
C        2.38425185       0.52234090      -2.44693333
C        2.03948248       1.67947308       1.98333121
C        2.46704698      -1.98584735       1.03037729
C       -1.44988903       1.15549638       2.49196255
C        2.81468012       0.85755366      -0.21178413
C       -0.50695381      -4.23355785       0.24776881
C        0.52989899      -1.84679187       2.49631409
C       -2.22827767      -0.35981349      -4.13407944
C       -1.01620852      -2.05561337      -0.40060932
C        0.54645196       0.70552396       3.38744805
C        1.05459686       3.72005780       0.30158868
C        0.97087694      -2.67839241      -1.21705822
C       -1.23081058       3.44605784       0.36540029
C       -0.08683392       2.94617538      -1.74167645
C       -0.50649795      -0.94021272       0.31978844
C        1.16759314       2.47384924      -2.20563346
C       -2.47665520      -0.35794591      -0.66687799
C       -2.29607362       1.92317093      -1.24099472
C        3.04045603       1.39530863      -1.52014818
C       -3.62700934      -0.38176673      -3.78247540
C       -1.49916023      -1.25135155      -3.27578069
C       -1.67856044      -3.46019037       2.40644385
C       -1.81009683       1.17755365       1.11893590
C       -1.71013361      -2.32459478       2.99084516
C       -1.64647016      -0.05225730       0.43073758
C       -2.44141675      -1.89647476      -2.44629358
C        0.58867058      -3.10977478       1.92815155
C       -2.19476313      -1.66173935      -1.08934901
C        2.58326992       1.90239977       0.70508949
C        0.06056630       0.53845283      -3.14685323
C        1.91201507      -0.60693756      -1.71094956
C       -0.69504611      -1.34151455       2.98866051
C       -3.02209029       0.64162080      -1.47005678
C        1.65265851       0.40231355       2.54831117
C       -0.15056307      -0.86062841      -2.90528869
C       -0.56949481      -3.84447681       1.58724509
C       -0.69806263       0.07628692       3.13652393
C        0.31599293       2.11500393       3.44222513
C        1.18300565       2.70370149       2.51246597
C        1.74757192      -3.21417923       1.13659381
C       -0.23552180      -3.22390634      -0.65266589
C        2.20289255       3.01601102      -0.09560355
C        0.85623612      -0.57544511       0.56715613
C        1.87659820      -0.17997749      -0.37981180
C       -3.74568805      -1.35332757      -2.72819371
C       -1.07363921       1.43089557      -3.34889633
C        1.24450599       1.22982219      -2.86268987
C        0.63243637       3.66914287       1.65780851
C       -3.85151232       0.05894132      -2.44287526
C       -0.11224986       3.61003535      -0.50517096
C        2.35748958       2.65602113      -1.46542793
C       -1.27916681       2.29081990      -2.18690909
C       -1.06818845       2.36651753       3.16506123
C        0.92198861      -1.53061554      -2.11873957
C        1.51874456      -0.92486101       1.85725870
C       -1.89165584       0.92845699      -4.30148047
C       -0.80442306       3.81728144       1.69342072
C       -2.01498618       2.27366884       0.16576877
C       -1.54944348       3.59319102       2.81208562
60
Properties=species:S:1:pos:R:3 entry_id=153 rank=126 energy=-487.30657958984375 pbc="F F F"
C        1.98392235      -3.83003747      -1.40514815
C        2.04889644      -0.27694079      -2.12337173
C        1.87832203       2.08167522       3.10659212
C        2.53346906      -2.64728806      -1.95593119
C       -1.70260874       1.95662888       2.81457055
C        2.00604911      -1.00351087       0.09974691
C        0.39686499      -3.47653355       0.87701437
C        0.99049371      -1.15218384       3.55929693
C       -2.30444985      -0.33333786      -4.58182047
C       -1.55407426      -1.44588463      -0.81845702
C        0.00095854       1.48214360       4.25379668
C        1.07949138       3.25343545       0.69645421
C        0.77485795      -4.39926047      -1.28928640
C       -1.14516922       3.69876614       0.40588026
C        0.06805320       2.62102636      -1.43994719
C       -1.90463796      -0.29129537      -0.00745917
C        1.19366178       1.78805957      -1.60965111
C       -3.12074562      -0.19273224      -1.94190006
C       -2.20081226       1.95167386      -0.92156891
C        2.44768294       0.03535040      -0.78357703
C       -3.67132000      -0.74866344      -4.17726982
C       -1.52053536      -1.34672964      -3.98554537
C        0.32833264      -2.07502527       1.40183137
C       -1.96309671       1.67116182       1.46350268
C        0.01334413      -1.28323835       2.58630205
C       -1.60532457       0.26206611       1.26692992
C       -2.49382985      -2.02949372      -3.20347275
C        2.52388126      -2.27452910       0.48585308
C       -2.47405207      -1.41085970      -1.92147284
C        2.49930123       1.79403712       1.92485336
C       -0.08693879       0.39727875      -3.13922693
C        1.77991186      -1.61119071      -2.49111904
C       -0.88049352      -0.18230354       2.45458609
C       -2.65172961       0.59184054      -0.86612025
C        1.36563937       1.10454501       4.07380919
C       -0.33947153      -0.96650613      -3.35779583
C        1.60762575      -2.96365990       1.35269181
C       -0.94459095       0.90315793       3.38261158
C       -0.12739690       2.90785119       4.01921281
C        0.92111220       3.18806287       3.12146430
C        2.84003644      -2.98535588      -0.65778687
C        0.13621111      -3.46602498      -0.52449229
C        2.06784076       2.19791580       0.67345304
C        0.65505296      -1.33478280       0.09651512
C       -0.11698533      -2.01382722      -0.99708861
C       -3.74972927      -2.04088774      -3.82219401
C       -1.17975244       1.28308418      -3.07907726
C        1.13732147       0.72833811      -2.51399235
C        0.56169081       3.75254449       1.90715729
C       -3.51586048       0.32801739      -3.18729449
C        0.07725923       3.40555471      -0.28487077
C        2.09606577       1.44870824      -0.56546631
C       -1.20522760       2.18066827      -1.94174549
C       -1.41419085       3.18782288       3.43809767
C        0.37856156      -1.80123731      -2.42392487
C        1.65029315      -0.26121396       4.17742131
C       -2.32135343       0.84634099      -3.78113517
C       -0.77720245       4.24117966       1.68946964
C       -2.03411415       2.57679046       0.36344874
C       -1.63959157       4.33993647       2.74165344
60
Properties=species:S:1:pos:R:3 entry_id=16 rank=127 energy=-486.6654357910156 pbc="F F F"
C        2.67392069      -3.92097488      -1.19600794
C        2.02793731      -0.47126649      -2.22721006
C        2.25200910       2.48055022       2.73663631
C        2.73536072      -2.69174527      -1.88279586
C       -1.68478217       1.91175990       2.60392253
C        2.00362724      -0.95116965       0.10637376
C        1.07367935      -3.71602626       0.62643761
C        0.30364929      -1.57361410       4.32903713
C       -3.47418732       1.03756777      -4.35604463
C       -0.98749764      -1.36828939      -0.91757393
C       -0.19698291       1.50575233       4.36055124
C        1.07880422       3.19380584       0.41933376
C        1.47759705      -4.34507471      -0.60138349
C       -1.15317790       3.53658359       0.18782152
C        0.05293150       2.43363581      -1.64616975
C       -0.61060205      -0.64566738       0.24124590
C        1.17310517       1.62200011      -1.85244253
C       -3.17053379      -0.38637231      -1.58374903
C       -2.30231256       1.94323628      -1.19704200
C        2.41023812      -0.04133147      -0.92304916
C       -4.38976033       0.13200056      -3.73980368
C       -1.80610888      -1.55799386      -3.19113260
C        0.79846619      -1.77251476       1.86634442
C       -1.83664277       1.48673565       1.26586119
C        0.01061068      -1.34647323       2.97164011
C       -1.33306544       0.08101987       1.25886176
C       -2.93975749      -1.73762742      -3.96108295
C        2.64813344      -2.11467037       0.49919565
C       -2.05499273      -1.19220220      -1.82458239
C        2.75972174       2.10550109       1.61488375
C       -0.07509470       0.11384533      -3.34918179
C        1.88657052      -1.83473995      -2.58016112
C       -0.88012591      -0.24883975       2.60916018
C       -3.35743364       1.00181619      -1.40984074
C        0.36686524       0.72834063       5.35036745
C       -0.38190130      -1.27388124      -3.46137167
C        1.77104545      -2.79956771       1.44903162
C       -1.03766045       0.91012622       3.36127307
C       -0.06644573       2.87729513       3.83344153
C        0.98184081       3.12789356       2.88832294
C        3.25532167      -2.74121244      -0.59510921
C        0.43674284      -3.38576735      -0.55531804
C        2.14048367       2.24404965       0.34268549
C        0.72536455      -0.94099708       0.72326658
C       -0.07253990      -2.41089784      -1.38125878
C       -4.05817190      -1.19985392      -4.14713022
C       -1.15954088       1.08388301      -3.26971727
C        1.09471850       0.48224635      -2.68560456
C        0.56108229       3.65031105       1.64683159
C       -4.06813346       0.27299298      -2.37134660
C        0.04997652       3.27977065      -0.53495668
C        2.11548300       1.39061617      -0.81089325
C       -1.20083764       1.92942606      -2.09845506
C       -1.34321833       3.17593159       3.16072001
C        0.47696837      -2.12223351      -2.66266235
C        0.39270797      -0.56310204       5.12949219
C       -2.27004637       1.11953122      -4.05295571
C       -0.78477580       4.10983855       1.45624405
C       -2.01857246       2.40189748       0.15166560
C       -1.62313545       4.34527625       2.51039228
60
Properties=species:S:1:pos:R:3 entry_id=48 rank=128 energy=-485.9822082519531 pbc="F F F"
C        1.71013932      -3.20470370      -0.73633837
C        2.27514848       0.29183456      -2.28459402
C        1.77511682       1.55056633       2.21664140
C        2.58064694      -2.18066287      -0.28887783
C       -1.71403204       1.65318454       2.74865260
C        2.67702227       0.46079213       0.01897143
C       -0.44065276      -3.47169191       0.68134354
C        1.94551243      -2.05462557       2.57616260
C       -2.37863131      -0.30548308      -4.11453072
C       -1.46488499      -1.79274847      -0.57008091
C        0.17086856       0.94364615       3.74237908
C        1.20689594       3.62465109       0.39950310
C        0.51417915      -2.84019536      -1.43111175
C       -1.08357521       3.56418979       0.38970691
C        0.08590716       2.94034212      -1.68435106
C       -0.76821298      -0.76078953       0.17210610
C        1.30107637       2.36626752      -2.11624213
C       -3.34723813      -0.39501408      -1.57086917
C       -2.06784564       1.89008352      -1.09157653
C        2.93523871       1.03065115      -1.25977184
C       -3.75638236      -0.70576180      -3.99926553
C       -1.54541498      -1.28458006      -3.48871611
C       -0.81349861      -2.98841788       2.01269522
C       -1.81411065       1.41272292       1.35839501
C       -1.22388506      -1.93923069       2.66085347
C       -1.51092010      -0.00370570       1.20856784
C       -2.41420000      -2.14925203      -2.75831164
C        1.78310938      -3.24086014       1.87847266
C       -2.52330372      -1.59228185      -1.44890658
C        2.36583576       1.54062195       0.91449670
C        0.03266406       0.53408094      -3.16887669
C        1.76466269      -0.87778967      -1.73988531
C       -1.36337992      -0.61642251       2.51716690
C       -2.85777604       0.80527320      -1.34717884
C        1.35217537       0.45054807       3.05911700
C       -0.24115802      -0.87236658      -3.04485214
C        0.44040597      -3.60299265       1.67783295
C       -1.12710491       0.50680528       3.38370839
C        0.13683323       2.37558617       3.61918857
C        1.06916977       2.72766611       2.63656372
C        2.26178404      -3.25385736       0.53968066
C       -0.61297864      -2.97538372      -0.61728774
C        2.22679526       2.71064081       0.09799617
C        0.57167454      -0.86334465       0.33384184
C        1.89071508      -0.80392972      -0.19722508
C       -3.74487671      -1.94953196      -3.28244022
C       -1.06157447       1.46064910      -3.26882083
C        1.25566938       1.11357181      -2.78383666
C        0.72294932       3.73151137       1.73168834
C       -4.27286615      -0.72181081      -2.66745062
C        0.07384354       3.61983562      -0.45544493
C        2.43642811       2.36351769      -1.25768403
C       -1.11748379       2.32493659      -2.10251043
C       -1.18828071       2.83652192       3.32116572
C        0.69304112      -1.63811826      -2.22454070
C        1.74248371      -0.88220586       2.91957045
C       -2.14313482       0.99611629      -3.95048646
C       -0.68454648       4.06190599       1.68929707
C       -1.84870777       2.37703135       0.28048912
C       -1.47041162       4.06313369       2.80081799
60
Properties=species:S:1:pos:R:3 entry_id=11 rank=129 energy=-485.7164611816406 pbc="F F F"
C        2.30365078      -4.01415033      -1.26736450
C        2.06559871      -0.50761835      -2.10461041
C        1.73972428       2.04268240       3.06917705
C        2.70557941      -2.78408726      -1.87867402
C       -1.75514756       1.90395840       2.63048134
C        1.99333947      -1.06623084       0.20532296
C        0.52428865      -3.37467952       0.90125130
C        0.86399063      -1.13942482       3.91224744
C       -3.34220894       1.13298105      -4.36827316
C       -1.02447029      -1.40613684      -0.87875239
C       -0.16068784       1.56817961       4.24402411
C        1.08945478       3.15866926       0.58317365
C        1.11541003      -4.54394871      -1.03549583
C       -1.11645091       3.58729172       0.21193723
C        0.13733998       2.43097298      -1.53935846
C       -0.60259724      -0.60083033       0.20236147
C        1.23723068       1.58325059      -1.68846212
C       -3.14428730      -0.32589861      -1.59745459
C       -2.24674006       2.00564994      -1.18856873
C        2.43411442      -0.12201210      -0.77689398
C       -4.29388253       0.24272150      -3.78518634
C       -1.77474410      -1.51021929      -3.17929620
C        0.49687631      -2.08977355       1.69096884
C       -1.84927936       1.52859320       1.26994748
C       -0.03744365      -1.35917324       2.88146338
C       -1.32235142       0.12623502       1.23583026
C       -2.88323454      -1.65789962      -3.99165660
C        2.58490058      -2.29757954       0.54334786
C       -2.06095718      -1.18095901      -1.81653268
C        2.39187113       1.69328667       1.91514253
C       -0.00205290       0.13062569      -3.25363208
C        1.88553549      -1.84711447      -2.50511848
C       -0.88395217      -0.23368244       2.57689584
C       -3.29905585       1.06750402      -1.42956906
C        1.20999257       1.17267741       4.13106086
C       -0.34108482      -1.24596863      -3.38329272
C        1.73371896      -2.99058723       1.47286778
C       -1.06295999       0.91346731       3.38290678
C       -0.27506771       2.96058602       3.87248727
C        0.80652523       3.15977932       2.99724840
C        3.03932437      -2.98211280      -0.56373448
C        0.34850356      -3.50782126      -0.48165732
C        2.04955082       2.07303649       0.62424729
C        0.69416790      -1.02526242       0.67998327
C       -0.09232486      -2.45973508      -1.30923134
C       -3.98325803      -1.09106429      -4.20044706
C       -1.05990570       1.12700414      -3.21588914
C        1.15641572       0.46936348      -2.55262231
C        0.52166720       3.69768952       1.75673777
C       -4.00178599       0.35946449      -2.40877497
C        0.12255825       3.27787668      -0.43168768
C        2.11487095       1.29415116      -0.60957668
C       -1.11369460       1.97295800      -2.04657646
C       -1.52828158       3.17936727       3.19940635
C        0.47653816      -2.11985570      -2.57322971
C        1.49434155      -0.16222593       4.42319789
C       -2.14528929       1.18843235      -4.03310248
C       -0.80338597       4.18066755       1.47962891
C       -2.00557419       2.46657420       0.16516167
C       -1.72800310       4.31148102       2.47122257
60
Properties=species:S:1:pos:R:3 entry_id=47 rank=130 energy=-485.4912109375 pbc="F F F"
C        1.90987371      -3.26231339      -0.54301387
C        2.25379550       0.19939104      -2.28707661
C        1.75929418       1.62396134       2.16205633
C        2.73198246      -2.18895714      -0.13081243
C       -1.72859227       1.61265697       2.72836159
C        2.71137296       0.49502821      -0.00372646
C       -0.24832699      -3.54466437       0.85842586
C        2.06379522      -1.96375518       2.71059369
C       -3.44389703       1.00620156      -4.37700921
C       -1.28197902      -1.94833739      -0.47925302
C        0.19315518       1.01253107       3.72914899
C        1.06588801       3.59257246       0.27965505
C        0.71105968      -2.99186092      -1.27069350
C       -1.22502180       3.46944633       0.32922067
C       -0.07318505       2.71184841      -1.70330256
C       -0.64999796      -0.85884316       0.25226276
C        1.14328619       2.18789464      -2.16355736
C       -3.06336857      -0.63596325      -1.50014813
C       -2.28327990       1.82897896      -1.09011340
C        2.89567409       1.02256404      -1.31515103
C       -4.14286651      -0.08077102      -3.74531719
C       -1.50171487      -1.75374937      -2.91847114
C       -0.65812057      -3.01657130       2.15660513
C       -1.85338110       1.32186886       1.34885003
C       -1.10830493      -1.95734618       2.75870675
C       -1.45651258      -0.08351275       1.23633681
C       -2.48699799      -1.79470012      -3.89995427
C        1.94958778      -3.18669384       2.07025139
C       -2.07185694      -1.63002666      -1.59805384
C        2.33533158       1.58942477       0.85038767
C       -0.03108532       0.23015531      -3.14844590
C        1.86593066      -0.97507781      -1.67084413
C       -1.28826624      -0.64477726       2.56636792
C       -3.21008708       0.75517403      -1.35445739
C        1.38893297       0.54347907       3.05566446
C       -0.13421927      -1.19980595      -2.93960660
C        0.62339616      -3.60290340       1.86669339
C       -1.08871910       0.51399303       3.39323792
C        0.10318894       2.43544012       3.55600806
C        1.01081672       2.78750535       2.55006797
C        2.44822137      -3.23382817       0.73928561
C       -0.42115511      -3.11356136      -0.46352034
C        2.11828794       2.71259915      -0.01140047
C        0.69210236      -0.90347584       0.40696702
C        2.00543706      -0.83125639      -0.13907204
C       -3.61230348      -1.33344627      -4.19357807
C       -1.17587410       1.13344341      -3.21755532
C        1.15325733       0.91315806      -2.78742589
C        0.61060243       3.74376662       1.61673658
C       -3.86552672       0.04390736      -2.36708788
C       -0.08849312       3.49243965      -0.53880538
C        2.31116135       2.31586930      -1.35718584
C       -1.26286985       2.01896113      -2.04896282
C       -1.24315502       2.83323055       3.26013315
C        0.85294806      -1.81900290      -2.10869730
C        1.82758996      -0.77850573       2.98060462
C       -2.25084871       1.19563839      -4.03799622
C       -0.80821505       4.02639520       1.59581198
C       -2.00751773       2.28553960       0.26416533
C       -1.57331084       4.03977173       2.72269993
60
Properties=species:S:1:pos:R:3 entry_id=20 rank=131 energy=-484.85760498046875 pbc="F F F"
C        3.06312766      -4.00904197      -2.26223432
C        1.95040121      -0.58473205      -2.07977422
C        1.25667433       1.88331738       3.45002221
C        2.91069346      -2.64146550      -2.53709662
C       -2.24449405       2.36438043       1.84885387
C        2.10876914      -1.70305658       0.13128013
C        1.63538352      -4.70249356      -0.45843742
C        1.48372690       1.30313756       4.72785057
C       -3.46986443       1.07795715      -3.23025625
C       -0.61851069      -2.24739727      -0.90336275
C       -1.37282967       1.44747848       3.78604059
C        0.99329995       2.89238971       0.86350141
C        2.00675146      -4.84801087      -1.90590883
C       -0.68788726       4.22450727       0.06772845
C        0.30587707       2.52388488      -1.43926905
C       -0.36118901      -1.70596957       0.35764099
C        1.15661815       1.41716962      -1.42824199
C       -2.21479046      -0.58345083      -0.52178213
C       -2.04364411       2.77017970      -1.46500017
C        2.16985928      -0.51486492      -0.66952795
C       -3.87361797       0.22826418      -2.18477428
C       -1.79442614      -1.53473546      -2.87669205
C        0.98110556      -1.34600268       2.32313128
C       -2.51854617       2.64787210       0.50155236
C        0.32808187      -0.13957566       2.34116000
C       -1.32988546      -0.71553158       0.67309949
C       -3.12987607      -1.68417979      -3.19217332
C        2.83302336      -2.86914644      -0.06145672
C       -1.69160525      -1.51945381      -1.44114584
C        1.21273405       1.03704142       2.30745284
C       -0.07523044       0.22526191      -3.20870981
C        1.90134812      -1.74621025      -2.87540392
C       -1.05661753       0.06058511       1.82860478
C       -2.81253018       1.82611727      -0.69407783
C       -0.91086599       0.58289041       4.75428593
C       -0.46351728      -1.17017688      -3.37739639
C        2.28025055      -4.04928058       0.49303449
C       -1.75775611       1.14838070       2.42340171
C       -0.97662921       2.82738278       3.65305754
C        0.35490232       2.98624331       3.20949629
C        3.45978830      -2.98034701      -1.32834539
C        0.86983979      -4.13872767      -1.51960616
C        1.49847536       1.56047875       0.99026055
C        0.91272255      -1.76594509       1.02869512
C        0.19795079      -2.98739115      -1.83065119
C       -4.15072148      -1.07853488      -2.72196429
C       -1.03051528       1.32070385      -3.17511985
C        1.08475901       0.45836521      -2.45279236
C        0.45422462       3.59718232       1.94488082
C       -3.11367878       0.45056544      -0.97640743
C        0.37538646       3.36549289      -0.31971285
C        1.71609159       0.84567216      -0.25045715
C       -0.88371101       2.36600787      -2.19548654
C       -1.92934141       3.43923856       2.73494415
C        0.53168746      -2.14906326      -2.97341872
C        0.34118459       0.78043181       5.03456844
C       -2.32804297       1.29217812      -3.69778102
C       -0.56272799       4.48822914       1.46931849
C       -1.90819651       3.64808332      -0.29896800
C       -1.66656756       4.68883991       2.24458171
60
Properties=species:S:1:pos:R:3 entry_id=49 rank=132 energy=-484.8567810058594 pbc="F F F"
C        1.81884057      -2.69902096      -0.16181646
C        2.40764281       0.58612291      -2.54023013
C        2.05109561       1.68234173       1.90960407
C        2.37879826      -1.99994750       1.02440000
C       -1.45777823       1.34360744       2.92558968
C        2.87085429       0.88432250      -0.30586500
C       -0.72301693      -3.98182927       0.09487524
C        0.35926511      -1.68651698       2.34360906
C       -2.28078049      -0.48218021      -4.02345065
C       -1.10642592      -1.75490194      -0.61529399
C        0.61723503       0.76828101       3.44395080
C        1.16535848       3.79007550       0.34127827
C        0.94704970      -2.59612017      -1.27735827
C       -1.08476591       3.37168347       0.58106852
C       -0.05809126       2.91286861      -1.60548599
C       -0.50282603      -0.74330868       0.15159929
C        1.16552273       2.49561578      -2.17672120
C       -3.23039930      -0.60173292      -1.45571473
C       -2.11079166       1.72004978      -0.88660564
C        3.07162277       1.44997032      -1.60154951
C       -3.63395982      -0.96589188      -3.88370653
C       -1.35866352      -1.40004145      -3.42047635
C       -1.92301601      -3.16287840       2.21268272
C       -1.67812631       1.14453868       1.53875776
C       -1.96764569      -2.03145920       2.76888020
C       -1.24450119      -0.19965488       1.28073299
C       -2.18472512      -2.29095321      -2.66383577
C        0.35996764      -2.94789831       1.82100326
C       -2.28634713      -1.69607765      -1.37084184
C        2.61020543       1.90229370       0.63525465
C        0.04490928       0.54880709      -3.12811848
C        2.01006842      -0.58927312      -1.83117093
C       -0.91343519      -0.95362428       2.58827305
C       -2.88797539       0.62895223      -1.13467574
C        1.59054728       0.43229230       2.46391199
C       -0.06729243      -0.87728359      -3.00729450
C       -0.81615425      -3.61471799       1.42197375
C       -0.68561482       0.23494043       3.41755266
C        0.48341526       2.19119764       3.49688664
C        1.31748664       2.74849014       2.52258587
C        1.56382653      -3.16581709       1.11166044
C       -0.32390572      -2.98496209      -0.76996895
C        2.27517917       3.05208417      -0.11984852
C        0.89138681      -0.52891180       0.37973816
C        1.97591295      -0.18380351      -0.49562615
C       -3.53371437      -2.19427693      -3.15988483
C       -1.14785300       1.36321582      -3.12582602
C        1.22702335       1.27108048      -2.87630177
C        0.81458432       3.78843564       1.73090184
C       -4.13796022      -1.00248766      -2.54326196
C       -0.03867144       3.58181276      -0.37150420
C        2.38662438       2.70726261      -1.50338039
C       -1.22937426       2.20326927      -1.94791892
C       -0.89692225       2.55594306       3.42143539
C        1.00571278      -1.50268837      -2.22166839
C        1.42323754      -0.85071579       1.74030283
C       -2.17187173       0.83249474      -3.83755302
C       -0.62596892       3.91626096       1.83476812
C       -1.81610538       2.16192636       0.49400930
C       -1.31176912       3.77986748       3.00067495
60
Properties=species:S:1:pos:R:3 entry_id=10 rank=133 energy=-484.77960205078125 pbc="F F F"
C        2.22384616      -3.88172782      -1.11717578
C        2.11569280      -0.42449130      -2.08059579
C        1.83471828       2.18452442       3.03360318
C        2.67676928      -2.68736758      -1.74412914
C       -1.67843460       1.81345239       2.65779789
C        1.88420420      -0.96582898       0.23500036
C        0.45728917      -3.41611855       1.00549083
C        1.13543037      -1.03375530       3.80738902
C       -3.28869726       1.18679874      -4.46595312
C       -1.30994968      -1.57130292      -0.85366775
C       -0.01422872       1.55543592       4.21251821
C        1.03763988       3.22369114       0.57137622
C        1.05904119      -4.52322241      -0.96017336
C       -1.20753227       3.49633585       0.25262370
C        0.08094193       2.43119747      -1.52288483
C       -0.80540428      -0.74788054       0.18165569
C        1.22168153       1.63682811      -1.68290769
C       -3.24570349      -0.42421957      -1.72264762
C       -2.28928061       1.89500810      -1.16588072
C        2.44454057      -0.03221804      -0.72825112
C       -4.24342040       0.25954603      -3.94553484
C       -1.75459300      -1.55028114      -3.24338886
C        0.43978668      -2.56453855       2.13331489
C       -1.85358356       1.41959211       1.31150959
C        0.13456231      -1.39085579       2.90471836
C       -1.31905727       0.02202234       1.28179786
C       -2.79422961      -1.62884013      -4.15631692
C        2.53893059      -2.13856758       0.73255671
C       -2.20213340      -1.34209921      -1.90310846
C        2.48082658       1.86689966       1.87043842
C        0.00475899       0.13635905      -3.20035674
C        1.91831204      -1.76057102      -2.46005640
C       -0.73537541      -0.29581120       2.56347094
C       -3.34064075       0.96764728      -1.49740636
C        1.37345596       1.25084087       4.06288627
C       -0.31289138      -1.24233022      -3.30871781
C        1.65163180      -2.92614898       1.51935389
C       -0.90085878       0.86624687       3.36866250
C       -0.22827122       2.94563666       3.87583886
C        0.82685300       3.24023443       2.99055108
C        2.88630664      -2.84361146      -0.40955544
C        0.24597546      -3.57064632      -0.38162967
C        2.05955772       2.20020845       0.59418315
C        0.54584476      -1.15737396      -0.11109820
C        0.03113721      -2.25921896      -1.07654329
C       -3.88203999      -1.05072249      -4.39305802
C       -1.06219261       1.12593984      -3.21608416
C        1.17848300       0.51975816      -2.53610577
C        0.46978356       3.74499342       1.75279773
C       -4.01911175       0.33056647      -2.54982682
C        0.03451730       3.26692762      -0.41242506
C        2.12039522       1.39001453      -0.61500808
C       -1.15712903       1.93922562      -2.02455693
C       -1.50898163       3.09463521       3.23328165
C        0.52791831      -2.05500923      -2.48814097
C        1.77938834      -0.06577201       4.30578043
C       -2.10588044       1.22338241      -4.07763142
C       -0.89871675       4.12103302       1.50579299
C       -2.05809380       2.34163961       0.20243826
C       -1.80686845       4.21503696       2.51899615
60
Properties=species:S:1:pos:R:3 entry_id=46 rank=134 energy=-484.7256164550781 pbc="F F F"
C        1.81902039      -3.63452798      -0.69023578
C        2.24248713       0.20645688      -2.23082681
C        1.61003258       1.69740354       2.26055967
C        2.85287389      -2.71424650      -0.32370230
C       -1.76931362       1.61205807       2.68804180
C        2.34365556       0.55554948       0.14602687
C       -0.39539038      -3.49443256       0.71347404
C        1.88462520      -1.91479959       2.53352076
C       -3.46032911       0.74516292      -4.20883613
C       -0.79191860      -1.51613731      -0.52082808
C        0.07030186       1.04381399       3.78817671
C        0.99006911       3.66375802       0.33534917
C        0.71091016      -3.09393218      -1.46773432
C       -1.28900642       3.58995503       0.30720551
C       -0.08982024       2.74001269      -1.66454366
C       -0.02669823      -0.58040808       0.23608995
C        1.12743855       2.20377140      -2.09229038
C       -2.94318451      -0.54036235      -1.33526998
C       -2.30916281       1.90439431      -1.07605183
C        2.74711925       0.98922264      -1.15573902
C       -4.21283844      -0.25453709      -3.51471594
C       -1.45067957      -1.70065748      -2.85153622
C       -0.86316442      -2.99240506       2.01187814
C       -1.61880399       1.39462372       1.30207969
C       -1.29585985      -1.92635963       2.61760645
C       -0.94245184       0.08215685       1.19682755
C       -2.54292487      -1.95562631      -3.66270758
C        1.75273208      -3.17418822       1.93386942
C       -1.80128770      -1.32362493      -1.50652079
C        2.18640332       1.69856243       0.97130083
C        0.00856937       0.22019003      -3.13086145
C        2.05329317      -1.15222383      -1.93621954
C       -1.18724711      -0.60328913       2.47577616
C       -3.24732870       0.83310632      -1.24907305
C        1.25977589       0.57960350       3.10277627
C       -0.05917715      -1.22441217      -3.07133997
C        0.41761691      -3.59499572       1.77684213
C       -1.17700141       0.51083114       3.39638760
C       -0.05286465       2.46757284       3.62377983
C        0.84769276       2.83568229       2.62441373
C        2.27029853      -3.50526486       0.65121427
C       -0.28320021      -2.86384983      -0.54063668
C        2.06109224       2.80016500       0.07628840
C        1.46839249      -0.59562616       0.16646815
C        2.36608463      -1.42711820      -0.58830977
C       -3.70910742      -1.54460219      -3.87039088
C       -1.16811378       1.07806828      -3.13372344
C        1.15152459       0.91182153      -2.70884204
C        0.48390745       3.78293334       1.66617176
C       -3.89131210      -0.00536068      -2.16063269
C       -0.12764680       3.57748973      -0.53006309
C        2.27119032       2.33086897      -1.25512489
C       -1.26409179       2.01481937      -2.01692009
C       -1.39324280       2.84007733       3.29155922
C        0.97149271      -1.93427775      -2.37101334
C        1.65988818      -0.75628464       2.94066249
C       -2.27312485       0.99403624      -3.91603791
C       -0.91330955       4.09814388       1.60594189
C       -1.98250466       2.35579204       0.26453407
C       -1.69946186       4.02657550       2.71091520
60
Properties=species:S:1:pos:R:3 entry_id=12 rank=135 energy=-484.7106628417969 pbc="F F F"
C        2.13439808      -3.79865139      -1.29975726
C        2.11160304      -0.28292660      -2.11092726
C        1.78414919       2.08816332       3.09115609
C        2.57128937      -2.57132837      -1.86414358
C       -1.72183857       1.79249425       2.58757071
C        1.77632163      -0.93763882       0.16448264
C        0.34747588      -3.43430801       0.82326538
C        0.98686736      -1.16000985       3.72565471
C       -2.48176868       0.01237814      -4.12058990
C       -1.47354446      -1.65081130      -0.85706854
C       -0.11522633       1.44884146       4.18507319
C        1.11461656       3.28068373       0.65125193
C        0.98434470      -4.47796795      -1.18923454
C       -1.10752177       3.56904874       0.25803575
C        0.25628217       2.69754555      -1.56940749
C       -0.90539797      -0.77234326       0.09314338
C        1.36317296       1.84097525      -1.68888318
C       -3.34561156      -0.35187214      -1.36657283
C       -2.06095038       1.99198381      -1.27493787
C        2.39019718       0.03275915      -0.73449635
C       -3.82858025      -0.35729232      -3.70140815
C       -1.72181343      -1.05632986      -3.59812249
C        0.30690987      -2.61193540       1.97462559
C       -1.84770537       1.44089396       1.22062176
C       -0.00398652      -1.46942798       2.79222289
C       -1.39070682       0.02121818       1.18856238
C       -2.68979409      -1.89670287      -2.96449958
C        2.42548118      -2.13151816       0.62576928
C       -2.67731433      -1.59608098      -1.55285587
C        2.46262128       1.81033519       1.93756535
C        0.10453146       0.46568626      -3.25989676
C        1.82704563      -1.59702501      -2.52770263
C       -0.84270693      -0.34407364       2.47368829
C       -3.00154635       0.97554467      -1.61717174
C        1.26911214       1.11983778       4.06230791
C       -0.35830293      -0.86562774      -3.27714564
C        1.52903841      -2.94981531       1.36661141
C       -0.99484386       0.80475852       3.29850776
C       -0.29260936       2.85377710       3.89209533
C        0.79975875       3.16565002       3.06033018
C        2.79024730      -2.79259964      -0.53935668
C        0.16465981      -3.55092889      -0.57581881
C        2.09385455       2.22156234       0.66678803
C        0.44745985      -1.12858981      -0.21549040
C       -0.08828506      -2.22802119      -1.20920180
C       -3.92250196      -1.73863895      -3.64852057
C       -0.89810949       1.51178092      -3.38337755
C        1.29623120       0.75927968      -2.58772092
C        0.50024350       3.73908006       1.83662325
C       -3.95252364       0.31776505      -2.44779958
C        0.16345107       3.41525781      -0.37958436
C        2.16078485       1.46747665      -0.57457685
C       -0.97541554       2.28314427      -2.15951469
C       -1.54563715       3.05116080       3.20878250
C        0.42794640      -1.84530397      -2.56958480
C        1.63626261      -0.21522871       4.25976163
C       -2.00568800       1.26997196      -4.14352660
C       -0.85606482       4.13404256       1.55311943
C       -1.91653430       2.38840021       0.11729565
C       -1.80690955       4.20262838       2.52898877
60
Properties=species:S:1:pos:R:3 entry_id=8 rank=136 energy=-484.5567321777344 pbc="F F F"
C        2.30182329      -3.93176544      -1.08381116
C        2.08867068      -0.24175014      -1.93521379
C        1.57005507       1.80796423       2.61690942
C        2.65513983      -2.58409499      -1.31582620
C       -1.73462453       1.75908827       2.66300581
C        1.86739051       0.18255935       0.50572780
C        0.40024158      -3.36958854       0.84108155
C        1.01847887      -1.19571783       3.72456891
C       -3.35119714       1.11994748      -4.39335829
C       -1.16749340      -1.65767635      -0.77289735
C       -0.02842586       1.41903195       4.13286777
C        1.09786517       3.49413808       0.41359825
C        1.18315453      -4.61727383      -1.05698687
C       -1.18863486       3.53186294       0.24814880
C        0.06780591       2.58876934      -1.61746201
C       -0.63009422      -0.70206681       0.16188779
C        1.24789718       1.89940641      -1.91010136
C       -3.16301799      -0.40526892      -1.58852704
C       -2.26076158       1.94716670      -1.16379112
C        2.55545631       0.46074112      -0.77301526
C       -4.25512782       0.17828518      -3.80909920
C       -1.71834349      -1.54512500      -3.12575395
C        0.34387701      -2.61333264       1.99247163
C       -1.85112151       1.40563815       1.30349510
C       -0.00755608      -1.51018286       2.84987435
C       -1.35893316      -0.01159683       1.25369410
C       -2.77367141      -1.66442139      -4.00881480
C        2.89556351      -3.13858757       1.24828640
C       -2.11727717      -1.31635941      -1.76255663
C        2.01573093       1.45247247       1.30526137
C        0.00068403       0.18308032      -3.17305423
C        1.87062790      -1.64128713      -2.00783259
C       -0.88196201      -0.38919775       2.56195586
C       -3.29514921       0.98973137      -1.43320490
C        1.29827464       1.00155493       3.77972924
C       -0.28179285      -1.19924533      -3.21730339
C        1.58744195      -3.19171965       1.58382421
C       -1.02373216       0.76041966       3.38322037
C       -0.16430607       2.81385284       3.77032077
C        0.82213543       3.01427226       2.77728221
C        3.03255985      -3.12296700      -0.09254707
C        0.26428613      -3.69269023      -0.50407150
C        2.05841900       2.46779248       0.30622892
C        0.70243399      -0.46161212       0.29056060
C       -0.20888947      -2.62500522      -1.28288930
C       -3.88797259      -1.13563184      -4.24449210
C       -1.07949554       1.16181239      -3.22283187
C        1.16685699       0.62709145      -2.53063114
C        0.51459338       3.80408560       1.67892546
C       -3.98698006       0.29240418      -2.42733503
C        0.02194328       3.43984972      -0.50686384
C        2.30072449       1.86780354      -0.96197852
C       -1.16346686       2.02079156      -2.05607105
C       -1.46956126       3.03569729       3.21193707
C        0.51928290      -2.01094505      -2.34746201
C        1.76968254      -0.26883772       4.15193399
C       -2.15589439       1.20081956      -4.04850347
C       -0.87137423       4.13486402       1.50992368
C       -2.00256958       2.36265175       0.20223875
C       -1.76275020       4.17943148       2.54033749
60
Properties=species:S:1:pos:R:3 entry_id=15 rank=137 energy=-484.2773742675781 pbc="F F F"
C        2.35988160      -3.76706306      -1.12585176
C        2.10463067      -0.35822608      -2.21842204
C        2.33434642       2.65289122       2.69172554
C        2.74021613      -2.57424243      -1.80172882
C       -1.53561847       1.83238769       2.61149796
C        1.93401864      -0.80950678       0.10699266
C        0.60189205      -3.32802871       0.98632988
C        0.40515959      -1.53469955       4.34629208
C       -3.42750223       1.09926890      -4.41612695
C       -1.26075888      -1.61396408      -0.84295218
C        0.01384447       1.49111651       4.31355123
C        1.05596647       3.27368652       0.40888847
C        1.23107882      -4.46720680      -0.94291310
C       -1.20628610       3.48055425       0.22846820
C        0.01846491       2.44882620      -1.62118286
C       -0.75711801      -0.74473464       0.15584237
C        1.17529765       1.69197153      -1.84146053
C       -3.23362492      -0.50890832      -1.66418991
C       -2.31475137       1.84579096      -1.16101353
C        2.48514601       0.08374855      -0.89726455
C       -4.32851806       0.14383663      -3.85120165
C       -1.77236439      -1.61886622      -3.22337580
C        0.50909974      -2.50240399       2.11913721
C       -1.76597410       1.40773810       1.29062095
C       -0.03762816      -1.52599212       3.01930525
C       -1.25988561       0.01013383       1.26470745
C       -2.83784996      -1.70827306      -4.10544112
C        2.61779707      -1.94282229       0.65809842
C       -2.18590135      -1.41658826      -1.87099017
C        2.83353765       2.28742736       1.56350890
C       -0.06546804       0.11762842      -3.26130706
C        1.93241070      -1.71031276      -2.54290216
C       -0.71107263      -0.32676013       2.56936236
C       -3.34935962       0.88238064      -1.44068431
C        0.62728346       0.75665810       5.30005660
C       -0.34224479      -1.27147869      -3.33507627
C        1.74152434      -2.70936174       1.47268553
C       -0.81166353       0.86137380       3.32211047
C        0.02886525       2.88382234       3.82987680
C        1.03651829       3.22994653       2.87356003
C        2.97699328      -2.67453812      -0.46603803
C        0.38423847      -3.52878091      -0.38882509
C        2.16389664       2.38061737       0.31343895
C        0.59834074      -1.07877256      -0.20188498
C        0.10293516      -2.23915233      -1.10506961
C       -3.94520644      -1.15644157      -4.30946265
C       -1.15455808       1.08448483      -3.25315050
C        1.12280655       0.54835468      -2.65688167
C        0.54781670       3.72044822       1.64230291
C       -4.05289513       0.22544669      -2.46518143
C       -0.00501199       3.28944212      -0.51140883
C        2.15490879       1.51294169      -0.82765392
C       -1.22219789       1.91294819      -2.06738175
C       -1.27703131       3.10612125       3.18872720
C        0.55106298      -2.04651270      -2.53141574
C        0.62586760      -0.54991144       5.14080242
C       -2.22976292       1.16368442      -4.07491305
C       -0.83591304       4.07879619       1.48569669
C       -2.03150824       2.31054704       0.19146586
C       -1.66124554       4.25965974       2.56330765
60
Properties=species:S:1:pos:R:3 entry_id=58 rank=138 energy=-484.2012939453125 pbc="F F F"
C        2.23658273      -3.71259618      -1.28267667
C        2.10307660      -0.23824730      -2.24278371
C        2.30033176       2.55522977       2.77954638
C        2.61798225      -2.49271677      -1.90095187
C       -1.57249764       1.83769151       2.53376032
C        1.83314457      -0.79750341       0.05284135
C        0.46648175      -3.34317941       0.83329435
C        0.24190474      -1.62474475       4.23851142
C       -2.56408605      -0.09606603      -4.09286406
C       -1.41532542      -1.67437773      -0.83463918
C       -0.09870316       1.41374964       4.28501937
C        1.14173779       3.32646845       0.47404962
C        1.11553358      -4.43735441      -1.14156154
C       -1.09897572       3.56498977       0.20804632
C        0.19435715       2.70735642      -1.68816925
C       -0.84601189      -0.75086595       0.07101820
C        1.31948903       1.88107932      -1.85623869
C       -3.32295636      -0.42459954      -1.30762383
C       -2.08998324       1.95278682      -1.29096336
C        2.43774145       0.12999317      -0.89370417
C       -3.88775750      -0.48209513      -3.61950719
C       -1.76323116      -1.14033179      -3.58030753
C        0.36034398      -2.53630666       1.98182596
C       -1.75250298       1.44904515       1.19103540
C       -0.18006104      -1.57435215       2.90590402
C       -1.32309372       0.03178696       1.17126329
C       -2.69343892      -1.98688160      -2.89900718
C        2.49787546      -1.95907198       0.57465261
C       -2.63991970      -1.65885559      -1.49459776
C        2.83055583       2.21778506       1.65711748
C        0.03108104       0.42987250      -3.32743541
C        1.83597738      -1.57216152      -2.59857917
C       -0.81873020      -0.34746401       2.48204906
C       -3.01897208       0.90776301      -1.58026112
C        0.47446311       0.63654663       5.26300748
C       -0.39362591      -0.91315736      -3.30830334
C        1.60076917      -2.74197671       1.34863630
C       -0.90642050       0.82975086       3.25157640
C       -0.03496234       2.81857567       3.84174716
C        1.01597619       3.16792818       2.93485298
C        2.86187801      -2.65619407      -0.57226464
C        0.27524111      -3.51025192      -0.55536792
C        2.21288770       2.39368473       0.38934574
C        0.50496087      -1.05191698      -0.29177285
C       -0.02463819      -2.21115012      -1.22042083
C       -3.95255547      -1.86408403      -3.54131385
C       -0.99758985       1.45307555      -3.43345981
C        1.23926101       0.76798564      -2.71238672
C        0.58772154       3.71939363       1.70640386
C       -3.98045233       0.21616667      -2.37519600
C        0.13231762       3.43659442      -0.50080027
C        2.20494667       1.57509414      -0.78503682
C       -1.04731050       2.25020091      -2.22325574
C       -1.30868169       3.08901584       3.15554114
C        0.44228997      -1.85532688      -2.60296320
C        0.45719045      -0.66406737       5.06383886
C       -2.12137994       1.17247435      -4.15366428
C       -0.78279288       4.10568507       1.50718637
C       -1.88929556       2.37278267       0.08740636
C       -1.65122528       4.26847901       2.55360744
60
Properties=species:S:1:pos:R:3 entry_id=9 rank=139 energy=-484.1525573730469 pbc="F F F"
C        2.42320456      -3.61653380      -0.91170695
C        2.14299467      -0.32456062      -2.19242870
C        1.46707509       1.42440707       2.60673454
C        2.81212684      -2.45216894      -1.61924036
C       -1.73110160       1.85623750       2.72198338
C        1.93429090      -0.37791759       0.37789921
C        0.56781837      -3.25672842       1.05757987
C        0.60453743      -1.38333998       4.13245452
C       -3.38526600       1.11879418      -4.37953619
C       -1.19679554      -1.50970554      -0.76720813
C       -0.08118138       1.36522076       4.22330615
C        1.14496151       3.18014044       0.42283304
C        1.29731082      -4.34160863      -0.84147081
C       -1.09725333       3.54273579       0.22080104
C        0.09990606       2.50039046      -1.65272387
C       -0.75749287      -0.61181633       0.23334014
C        1.26371720       1.77940756      -1.96556836
C       -3.16873743      -0.44764552      -1.60122592
C       -2.22939103       1.90774352      -1.12976222
C        2.53157196       0.17815467      -0.92823498
C       -4.27672732       0.17037108      -3.78759266
C       -1.72023222      -1.60439335      -3.14440713
C        0.34889081      -2.39909858       2.14042546
C       -1.79187765       1.50901086       1.35992524
C       -0.29184740      -1.52030939       3.04651775
C       -1.35328048       0.09424650       1.32956518
C       -2.79161902      -1.69507995      -4.02122786
C        2.52593298      -1.70321349       0.82673843
C       -2.13045104      -1.36734869      -1.79866101
C        1.89665358       1.00281603       1.28425684
C       -0.02084208       0.13099525      -3.25264302
C        2.00057130      -1.68160960      -2.46337231
C       -0.99584670      -0.33860260       2.65136908
C       -3.27444289       0.94532297      -1.39416806
C        1.17897669       0.77587208       3.86741440
C       -0.28955081      -1.26406349      -3.27835847
C        1.61943624      -2.50124066       1.55667894
C       -1.12885261       0.80678481       3.47277470
C       -0.06668894       2.74669450       3.80797921
C        0.86143760       2.72404197       2.74778828
C        2.93615949      -2.46113708      -0.26062888
C        0.42041021      -3.40546071      -0.32687577
C        1.96975926       2.04201011       0.32653346
C        0.60486269      -0.86027453      -0.10770246
C        0.19773069      -2.07416890      -0.99277647
C       -3.89568118      -1.13702665      -4.22454449
C       -1.10630429       1.10434898      -3.22990258
C        1.18207152       0.58277427      -2.70181648
C        0.60632864       3.54192544       1.66905011
C       -3.98955662       0.27780969      -2.40564175
C        0.11023855       3.33001110      -0.52650711
C        2.24384797       1.57471588      -0.96602452
C       -1.14775293       1.95040359      -2.04842189
C       -1.35567986       3.10383852       3.27050449
C        0.61267104      -1.99412827      -2.44231868
C        1.46169081      -0.48418662       4.40859998
C       -2.18589734       1.18809857      -4.04499994
C       -0.71158365       4.07459202       1.50482085
C       -1.94783957       2.40007153       0.21488149
C       -1.55048973       4.24451020       2.55994849
60
Properties=species:S:1:pos:R:3 entry_id=59 rank=140 energy=-483.9486389160156 pbc="F F F"
C        2.20494395      -3.71591764      -1.21149648
C        2.10165815      -0.25403861      -2.21285854
C        2.29577594       2.50087214       2.80802881
C        2.59566152      -2.50830662      -1.84751643
C       -1.75200615       1.83528075       2.54036467
C        1.80330124      -0.79011704       0.09038370
C        0.43996695      -3.28045309       0.90292784
C        0.54470718      -1.08475566       4.07172981
C       -2.53849246      -0.07953209      -4.11834044
C       -1.44471458      -1.64988920      -0.84613312
C       -0.17796332       1.26264894       4.15158806
C        1.14426613       3.30545539       0.50229787
C        1.07738874      -4.42337266      -1.04675062
C       -1.09633261       3.56472861       0.22642897
C        0.20556831       2.70323885      -1.66871454
C       -0.89221524      -0.71550096       0.05221956
C        1.33150320       1.87601135      -1.83939473
C       -3.33755402      -0.39323345      -1.34622910
C       -2.09873983       1.98457226      -1.30781111
C        2.42624399       0.11873879      -0.86425572
C       -3.87380321      -0.44939829      -3.66546836
C       -1.75506501      -1.13049611      -3.59155847
C        0.36486200      -2.47017604       2.05668617
C       -1.87297054       1.46953148       1.17813665
C       -0.13268505      -1.41422727       2.87762346
C       -1.43274089       0.05261113       1.13788050
C       -2.70161888      -1.96761297      -2.92226531
C        2.47461445      -1.94332647       0.61960678
C       -2.66292980      -1.63536283      -1.51849496
C        2.82543361       2.18079978       1.68156054
C        0.04440257       0.42565949      -3.31143607
C        1.82632499      -1.58862428      -2.55949479
C       -0.98450010      -0.35282512       2.44615569
C       -3.02774622       0.94018150      -1.60868186
C        0.60144240       0.23290383       4.66812920
C       -0.38892820      -0.91467193      -3.29364185
C        1.59749961      -2.72421861       1.41716303
C       -1.13225901       0.78782069       3.24151303
C       -0.07123188       2.67710497       3.80558886
C        1.00199542       3.09310215       2.95567451
C        2.84160968      -2.65319297      -0.51697636
C        0.24012252      -3.48023029      -0.48097394
C        2.21224511       2.37221899       0.41520755
C        0.47253131      -1.03291949      -0.26101302
C       -0.04985905      -2.19922317      -1.18929979
C       -3.94946858      -1.83098203      -3.58195216
C       -0.97437648       1.45789868      -3.42942886
C        1.25074055       0.75919797      -2.69222261
C        0.58580806       3.67933396       1.73792913
C       -3.97428963       0.24988150      -2.42258537
C        0.13816274       3.42577619      -0.47632230
C        2.21040084       1.56454191      -0.76485513
C       -1.03319922       2.25996290      -2.22151387
C       -1.35659907       3.05001876       3.16723119
C        0.43113387      -1.86182002      -2.57159029
C        1.24415265      -0.85429062       5.24271294
C       -2.08547448       1.18584454      -4.17136901
C       -0.77907002       4.08266911       1.53653264
C       -1.92443879       2.40400487       0.07490347
C       -1.63627300       4.25723744       2.58944724
60
Properties=species:S:1:pos:R:3 entry_id=18 rank=141 energy=-483.54901123046875 pbc="F F F"
C        2.47706168      -4.09692653      -1.36552344
C        2.06063932      -0.58476241      -2.32486147
C        1.66038944       1.72790469       3.22079650
C        2.64113373      -2.87472142      -2.04968530
C       -1.84247239       1.82293599       2.59271863
C        2.09911766      -1.21304875      -0.08996778
C        1.01469359      -3.69167242       0.55511452
C        2.13419539       1.29076813       4.46007873
C       -3.37487022       1.15106281      -4.40778918
C       -0.94067836      -1.22223596      -1.06406997
C       -0.67244237       1.41557662       4.57378372
C        0.88763061       2.62965211       0.75590471
C        1.28662981      -4.37044547      -0.67437013
C       -1.13344468       3.54057845       0.23312155
C        0.07563535       2.26569102      -1.47399384
C       -0.43766631      -0.51415379       0.06325372
C        1.15919049       1.41943846      -1.67491435
C       -3.17590709      -0.28458019      -1.69164501
C       -2.31823183       2.00760978      -1.21441246
C        2.48872810      -0.26156822      -1.01249532
C       -4.35022816       0.27513930      -3.85207991
C       -1.82023434      -1.46847370      -3.29679387
C        1.04807297      -1.66501272       1.74121302
C       -1.80910476       1.52445874       1.20566516
C        0.96044501      -0.39941647       2.43056708
C       -1.01199547       0.31128035       1.11340628
C       -2.95339364      -1.63817831      -4.06798056
C        2.73637330      -2.34415184       0.33857934
C       -2.04657503      -1.06339532      -1.93935865
C        1.75888413       0.82643763       2.06897360
C       -0.04437606       0.12204916      -3.36686921
C        1.85533643      -1.93557528      -2.72025791
C       -0.41939805       0.07332393       2.40918949
C       -3.38434131       1.09645515      -1.48039232
C       -0.01379888       0.82225834       5.63674478
C       -0.38798964      -1.24654517      -3.57516769
C        1.85675522      -2.87703938       1.38148654
C       -1.10650504       0.86685380       3.32465045
C       -0.47533541       2.76350919       4.06842226
C        0.63125357       2.73595224       3.16224598
C        3.24090465      -3.01255804      -0.79395174
C        0.33737616      -3.33266470      -0.60839046
C        1.69417322       1.47118728       0.74428784
C        0.79801255      -1.08483685       0.49747793
C       -0.10958222      -2.34900898      -1.49058578
C       -4.04943070      -1.05922304      -4.26252731
C       -1.10584795       1.10961762      -3.23806955
C        1.11225717       0.40151685      -2.64979028
C        0.34583527       3.20035710       1.89581159
C       -4.06805193       0.38608098      -2.47256169
C        0.08458277       3.03568851      -0.32171913
C        1.99954405       1.04165931      -0.60557245
C       -1.16575350       1.90082703      -2.03659426
C       -1.68127712       3.07424002       3.26609524
C        0.43007463      -2.14933630      -2.78630788
C        1.25001152       0.96210984       5.32497157
C       -2.18212412       1.20169307      -4.06409702
C       -0.82412105       3.94390637       1.57227310
C       -2.07814325       2.47062222       0.13989778
C       -1.74469062       4.21221384       2.53107640
60
Properties=species:S:1:pos:R:3 entry_id=14 rank=142 energy=-483.51776123046875 pbc="F F F"
C        2.49938753      -3.56095936      -0.99604795
C        2.13277768      -0.29950851      -2.39964186
C        1.50793518       1.28893100       2.27722535
C        2.82469696      -2.41127531      -1.76326703
C       -1.62903880       1.89041677       2.67702414
C        2.05205956      -0.31284329       0.13986109
C        0.74125049      -3.10249732       1.05124854
C        0.04775915      -1.63851426       4.46808488
C       -3.50902327       1.05730444      -4.30424461
C       -1.12822180      -1.49537838      -0.76199054
C       -0.20008934       1.37774347       4.44540420
C        1.21364899       3.17746013       0.30142490
C        1.39323321      -4.29764613      -0.81010451
C       -1.02520784       3.54644691       0.20066324
C        0.09067005       2.51442689      -1.73995936
C       -0.63516547      -0.56794367       0.18985242
C        1.23868593       1.80404015      -2.13460203
C       -3.14564775      -0.45598772      -1.51659441
C       -2.21442657       1.91828473      -1.13107487
C        2.59922994       0.23201792      -1.18119723
C       -4.36468294       0.11196158      -3.65761453
C       -1.76630572      -1.62909841      -3.10933341
C        0.56466405      -2.29264005       2.17455398
C       -1.67916974       1.51954955       1.32575821
C       -0.18588741      -1.49900365       3.09418319
C       -1.19169994       0.13578727       1.29824443
C       -2.87747150      -1.74543128      -3.93106233
C        2.68538060      -1.57886045       0.66065171
C       -2.11117156      -1.37117237      -1.74865861
C        1.98590082       1.00488824       1.01815435
C       -0.09471709       0.11950615      -3.32305768
C        1.98229026      -1.67023703      -2.60616592
C       -0.83648052      -0.28987569       2.63725855
C       -3.25724632       0.93945920      -1.33127407
C        0.24841207       0.63004387       5.50483860
C       -0.34632971      -1.27946033      -3.31574149
C        1.78901863      -2.30662432       1.47943899
C       -1.06293274       0.83636741       3.43925162
C        0.08898040       2.66613274       3.82098641
C        0.94832402       2.49956067       2.65569858
C        3.03630152      -2.38363958      -0.41774315
C        0.52357603      -3.34597119      -0.30822304
C        2.06263832       2.08357087       0.09162266
C        0.70180390      -0.81462690      -0.24288512
C        0.25585957      -2.05523985      -1.04763243
C       -3.99555527      -1.20009699      -4.09106171
C       -1.17940870       1.09156577      -3.25898469
C        1.13130064       0.59392550      -2.85269734
C        0.70929285       3.41371893       1.60082311
C       -4.01531971       0.24534225      -2.29192251
C        0.14650103       3.34119824      -0.60196321
C        2.29519527       1.63355465      -1.21174722
C       -1.16781638       1.95685653      -2.08789335
C       -1.17194428       3.12228341       3.22798401
C        0.60004635      -1.99749636      -2.51574725
C        0.19855681      -0.66925154       5.29599091
C       -2.29785188       1.15165124      -4.02338608
C       -0.57627408       4.01458882       1.49618716
C       -1.87980151       2.41063679       0.19672831
C       -1.35356560       4.30318819       2.57938451
60
Properties=species:S:1:pos:R:3 entry_id=7 rank=143 energy=-483.43878173828125 pbc="F F F"
C        2.21998418      -3.80917254      -1.09639215
C        2.15913308      -0.26035222      -2.10474614
C        1.42210895       1.58926147       2.56630846
C        2.75075319      -2.56822492      -1.48773746
C       -1.73509424       1.82333179       2.74672826
C        1.74429022      -0.06747077       0.34434734
C        0.39939473      -3.33138646       1.00966154
C        1.01903452      -1.11870291       3.82982664
C       -3.34042796       1.14123017      -4.43178489
C       -1.22867213      -1.48403467      -0.77111985
C       -0.03715144       1.42957951       4.23738276
C        1.10130813       3.35374922       0.40871697
C        1.03575836      -4.39684451      -1.01113622
C       -1.17606592       3.50985888       0.24012558
C        0.06911928       2.52780996      -1.63010422
C       -0.80859210      -0.67756903       0.30423416
C        1.26014445       1.86213160      -1.96076118
C       -3.19895298      -0.45055346      -1.65491718
C       -2.25791834       1.88037063      -1.12957943
C        2.47509508       0.31755202      -0.84761810
C       -4.23608700       0.17715221      -3.87166265
C       -1.67609015      -1.57049931      -3.15873762
C        0.38715102      -2.56665067       2.15446504
C       -1.85131549       1.46010043       1.38952511
C        0.00500455      -1.43408815       2.95719354
C       -1.38902054       0.04975636       1.37556548
C       -2.72187291      -1.66658857      -4.06614774
C        2.87191026      -2.89235723       1.16272190
C       -2.13071358      -1.34038422      -1.82400414
C        1.79588273       1.17433027       1.23468092
C        0.01813788       0.17833017      -3.24416412
C        2.03431760      -1.64689984      -2.29379960
C       -0.88869640      -0.33220321       2.66265153
C       -3.31007375       0.93957496      -1.43941426
C        1.24616780       0.92498288       3.83628602
C       -0.24467066      -1.21672681      -3.26620252
C        1.63656149      -3.05877418       1.66270250
C       -1.05276938       0.81272562       3.48202366
C       -0.11236045       2.81444746       3.81185350
C        0.81072067       2.86677637       2.74244744
C        2.97451762      -2.94921351      -0.16880675
C        0.28322734      -3.40928973      -0.37112668
C        1.96825760       2.24643607       0.30872813
C        0.60470368      -0.88638889       0.05150437
C        0.15418289      -2.04659700      -0.98095361
C       -3.82750652      -1.12569478      -4.30362003
C       -1.08477636       1.13463758      -3.23333760
C        1.20829230       0.63021824      -2.65598925
C        0.53347554       3.68639385       1.66474881
C       -3.99232206       0.28092108      -2.48045736
C        0.03332057       3.37353378      -0.51683151
C        2.26955647       1.73848083      -0.96961001
C       -1.16432331       1.95120896      -2.03425970
C       -1.42212803       3.09472293       3.27884968
C        0.63185283      -1.91795604      -2.38551276
C        1.82011718      -0.26915028       4.33614535
C       -2.14931378       1.21437673      -4.06728116
C       -0.82663253       4.10322237       1.50404327
C       -2.00278308       2.35065753       0.23140286
C       -1.68022850       4.21704292       2.55795083
60
Properties=species:S:1:pos:R:3 entry_id=13 rank=144 energy=-483.1253967285156 pbc="F F F"
C        2.53454550      -3.52880190      -0.81468286
C        2.13828704      -0.31568418      -2.39402887
C        1.52060772       1.29403525       2.27050955
C        2.74026408      -2.46127581      -1.70318591
C       -1.62490166       1.82858216       2.69679356
C        2.04817278      -0.27859875       0.13326477
C        0.90943057      -3.19271260       0.97820483
C        0.06326609      -1.70531838       4.45358354
C       -3.47952304       1.09926584      -4.35416425
C       -1.14478609      -1.40391868      -0.85000008
C       -0.16927175       1.31830281       4.44118759
C        1.20718934       3.18995831       0.30770279
C        1.38454354      -4.09792702      -0.24351659
C       -1.04538444       3.49739153       0.22615446
C        0.07749379       2.48578670      -1.71801230
C       -0.65330553      -0.58298113       0.19483727
C        1.23048560       1.79250699      -2.12701970
C       -3.19352708      -0.43125385      -1.58904674
C       -2.23799222       1.89788061      -1.12796841
C        2.60588027       0.24080190      -1.18619077
C       -4.36529967       0.16105785      -3.74007470
C       -1.77544807      -1.59804807      -3.17758737
C        0.67345314      -2.34086740       2.18298472
C       -1.70334621       1.46623076       1.34484598
C       -0.15303863      -1.57059194       3.07240554
C       -1.21749640       0.08505561       1.31162104
C       -2.88262309      -1.70999904      -4.00715485
C        2.70448393      -1.50439621       0.67367805
C       -2.12918155      -1.30759741      -1.82376867
C        1.99028778       1.03005652       1.00623599
C       -0.08711254       0.12055185      -3.34301788
C        1.98660909      -1.69345642      -2.61258908
C       -0.82507010      -0.35458797       2.63575775
C       -3.30723386       0.95836855      -1.37164948
C        0.28817491       0.56310313       5.49104345
C       -0.34627508      -1.27590951      -3.38597874
C        1.83723428      -2.23515882       1.49137580
C       -1.03461984       0.77284071       3.44083134
C        0.09118913       2.62320660       3.83336778
C        0.95142757       2.49213275       2.66455413
C        3.08547780      -2.32296149      -0.38580465
C        0.36290609      -3.18778201      -0.33212843
C        2.07233831       2.10859203       0.08416987
C        0.69534873      -0.79239245      -0.24825371
C        0.22958177      -1.95374470      -1.12204959
C       -3.99237803      -1.14944824      -4.17100617
C       -1.17411050       1.08747469      -3.25829312
C        1.13301606       0.57807928      -2.84405657
C        0.70121279       3.41118749       1.61413440
C       -4.04769166       0.28458509      -2.36460084
C        0.12425735       3.31498712      -0.58223635
C        2.30023372       1.64539714      -1.22009850
C       -1.17799697       1.92650228      -2.07143427
C       -1.17937628       3.06217637       3.25047837
C        0.59283045      -1.99507289      -2.56533057
C        0.22507837      -0.73605030       5.27894466
C       -2.27418091       1.16851063      -4.04411262
C       -0.60055928       3.97723597       1.51742482
C       -1.90401967       2.36503502       0.21406749
C       -1.38263456       4.24078849       2.60389072
60
Properties=species:S:1:pos:R:3 entry_id=60 rank=145 energy=-482.7237854003906 pbc="F F F"
C        1.67109779      -3.79646620      -1.00576747
C        2.30402580      -0.21201728      -2.01153724
C        1.59026774       1.30974065       2.45925950
C        2.70227027      -2.78740715      -1.17804572
C       -2.42109132       1.85482775       2.63262771
C        2.13928694       0.29492196       0.34075517
C       -0.08055545      -2.80121612       1.01207925
C        2.97115454      -2.00655708       2.18254402
C       -3.20802486       0.77621999      -4.39841037
C       -1.06389855      -1.34704963      -0.57153615
C       -0.82353264       1.62522384       4.46816646
C        1.08028136       3.32395649       0.54453249
C        0.38731798      -3.34327718      -1.56285360
C       -1.19275429       3.46506463       0.34729442
C        0.06926939       2.48500774      -1.52927170
C       -0.57246050      -0.30220686       0.27198379
C        1.27308540       1.87347821      -1.90051312
C       -3.10021007      -0.45755017      -1.52467930
C       -2.31456135       1.95235454      -1.19731024
C        2.77355452       0.57009287      -0.90933628
C       -4.15288123      -0.10350623      -3.79247063
C       -1.58535654      -1.72908872      -2.92709039
C        0.14721578      -2.05261016       2.20765063
C       -2.19353565       1.50486138       1.26728903
C        0.17025500      -0.76787945       2.85217289
C       -1.33854408       0.33651167       1.29624942
C       -2.64637672      -1.96984899      -3.78744884
C        2.41554074      -3.07377532       1.45140710
C       -1.99671631      -1.31744062      -1.61237409
C        2.20653673       1.40406840       1.19631871
C        0.08240339       0.02700136      -3.02894042
C        1.91010630      -1.59494289      -1.73184194
C       -1.01400780       0.02353334       2.63191046
C       -3.29964145       0.93604512      -1.45049279
C        1.44713996      -0.09977345       2.92404813
C       -0.14689319      -1.38839396      -3.11123091
C        1.05017042      -3.00466617       1.74421477
C       -1.61728916       1.01430337       3.46372276
C        0.17772339       2.30237492       4.10512713
C        0.86548981       2.46864917       2.89162366
C        2.50144589      -3.40258883       0.06912549
C       -0.03902713      -2.44054656      -0.46399185
C        2.16919896       2.49400687       0.29530731
C        0.91356857      -0.42223847       0.23356493
C        1.05311092      -1.49715643      -0.56271939
C       -3.74954006      -1.44386104      -4.07583424
C       -1.02357565       0.97030492      -3.09342324
C        1.26587437       0.58335543      -2.52635402
C        0.49986927       3.42013648       1.86879525
C       -3.93583817       0.14042688      -2.41469019
C        0.01967844       3.29860159      -0.38307790
C        2.38783023       1.95526916      -1.02726296
C       -1.14687269       1.91521880      -2.00219143
C       -2.63971441       3.19393416       2.98117757
C        0.80147215      -2.23174913      -2.51379929
C        2.54447267      -0.96972812       2.73207691
C       -2.04475569       0.93605608      -3.98854870
C       -0.82995263       3.91546287       1.67961443
C       -2.17116559       2.44995146       0.15837148
C       -1.84502152       4.10371197       2.60904020
60
Properties=species:S:1:pos:R:3 entry_id=19 rank=146 energy=-482.6517639160156 pbc="F F F"
C        2.54576537      -4.11815325      -1.95202358
C        2.04232280      -0.57216529      -2.19271960
C        1.59113218       2.02023255       3.38416437
C        2.73119660      -2.79734479      -2.37330863
C       -1.90540344       1.90841516       2.53680273
C        1.99125720      -1.58233290       0.01354364
C        1.15832364      -4.27791451      -0.01012779
C        2.04312704       1.63934816       4.65745440
C       -3.35848901       1.08153120      -4.33067643
C       -0.77547512      -1.29679367      -0.98975588
C       -0.82023886       1.59500775       4.58825830
C        0.85354199       2.72177904       0.83321690
C        1.34039600      -4.60016066      -1.44399696
C       -1.15626420       3.59617646       0.21770378
C        0.10206925       2.29346466      -1.40072131
C       -0.41201440      -0.73305698       0.27422943
C        1.12878222       1.36796570      -1.48810886
C       -3.04413355      -0.30786588      -1.59030489
C       -2.29463389       2.04911334      -1.22836467
C        2.28190289      -0.46353385      -0.79792581
C       -4.30050049       0.19064630      -3.74486816
C       -1.73948616      -1.43168416      -3.23223873
C        1.18445671      -1.38358443       2.14343889
C       -1.81429361       1.53978301       1.16835219
C        0.95409501      -0.11417817       2.60773313
C       -0.99706702       0.27327474       1.16288922
C       -2.88272119      -1.67183273      -3.95955987
C        2.70198744      -2.76909559       0.10910783
C       -1.90205659      -1.08032332      -1.84375614
C        1.72814055       1.08192297       2.28450479
C        0.01465989       0.20858555      -3.32592792
C        1.90234342      -1.80526621      -2.86255658
C       -0.45203681       0.20307462       2.49716222
C       -3.30534287       1.07143243      -1.43611931
C       -0.16240288       1.03540404       5.66646448
C       -0.34549364      -1.14590745      -3.57810876
C        2.05225618      -3.79459385       0.84437455
C       -1.20136225       1.00594009       3.34486801
C       -0.65117647       2.93867526       4.06317283
C        0.50858260       2.95252854       3.23223676
C        3.24018406      -3.13111158      -1.14818930
C        0.43484993      -3.60397089      -1.03560388
C        1.62845282       1.53834460       0.91094435
C        0.78596845      -1.37478067       0.83689464
C        0.03458840      -2.40123795      -1.57143118
C       -4.00602672      -1.14754915      -4.15711463
C       -1.05782101       1.17791317      -3.21859974
C        1.13524811       0.43982018      -2.53280468
C        0.27792366       3.35167858       1.92938770
C       -3.98114927       0.30708988      -2.37736074
C        0.08683327       3.09927072      -0.27962233
C        1.83813948       0.87975114      -0.36358815
C       -1.12655312       1.96796241      -2.02823348
C       -1.82272254       3.18366674       3.18623116
C        0.49999433      -2.07122101      -2.89266942
C        1.10594012       1.25423545       5.44124673
C       -2.16144286       1.19368767      -4.02091082
C       -0.90015699       4.05427668       1.54292787
C       -2.07143222       2.49799385       0.11941081
C       -1.87963976       4.31679224       2.44558830
60
Properties=species:S:1:pos:R:3 entry_id=17 rank=147 energy=-482.56719970703125 pbc="F F F"
C        2.51155093      -4.06640386      -1.37996209
C        2.06100382      -0.56680329      -2.38959017
C        1.76496730       1.73856482       3.22367383
C        2.61814469      -2.86950887      -2.10898511
C       -2.07678315       1.89125309       2.52596985
C        1.92322164      -1.22573069      -0.13878936
C        1.14428377      -3.65460544       0.62212921
C        2.06104612       1.17438311       4.46648396
C       -3.39521063       1.17823206      -4.39055312
C       -1.04426095      -1.42929829      -0.89636550
C       -0.89495141       1.30265638       4.44050003
C        1.08971487       2.78485640       0.69641957
C        1.37919629      -4.38628222      -0.60903678
C       -1.00228861       3.53292953       0.23150461
C        0.18468552       2.39030887      -1.56283253
C       -0.66554870      -0.81768233       0.33379768
C        1.23864565       1.50147586      -1.77001426
C       -3.16258632      -0.24682258      -1.58108563
C       -2.21586035       2.07759844      -1.26005784
C        2.36655449      -0.27069108      -1.03362923
C       -4.34393250       0.30845802      -3.77275143
C       -1.86003805      -1.46645284      -3.18279997
C        1.44556481      -1.51355083       1.86543181
C       -1.95168900       1.52122216       1.17630013
C        2.05240340      -0.37893205       2.32922304
C       -1.53421979       0.03014704       1.23763398
C       -2.98974770      -1.61128664      -3.95835085
C        2.74127451      -2.27747391       0.21788345
C       -2.09232996      -1.12940194      -1.79981742
C        2.08308610       0.96317323       2.00166400
C       -0.05292557       0.15062254      -3.37442875
C        1.81643606      -1.92914730      -2.75351720
C       -1.59282654      -0.32791462       2.58740502
C       -3.28604598       1.15739483      -1.47069348
C       -0.16525027       0.67290223       5.43420696
C       -0.43798400      -1.22150237      -3.45815114
C        2.06278521      -2.83196935       1.36151864
C       -1.74238964       0.78118447       3.38771376
C       -0.50975492       2.58672430       3.87669781
C        0.67501217       2.68732496       3.11641035
C        3.29451084      -2.94905647      -0.88709138
C        0.40040513      -3.38052822      -0.52657884
C        1.88082276       1.60977278       0.66986894
C        0.69464316      -1.11357053       0.68434337
C       -0.12474871      -2.43470775      -1.41049045
C       -4.08736736      -1.04248516      -4.17730838
C       -1.07868943       1.18292013      -3.29318552
C        1.15654636       0.46205067      -2.74245277
C        0.51989735       3.31324209       1.86952978
C       -4.01851101       0.43406803      -2.40595501
C        0.22384899       3.13387225      -0.37850725
C        2.04110555       1.08556263      -0.66542276
C       -1.08120403       2.02017364      -2.11217288
C       -1.66093380       3.10523263       3.12761987
C        0.39513805      -2.13408498      -2.70027267
C        1.12678844       0.82670924       5.28064273
C       -2.19337034       1.24757865      -4.07608468
C       -0.69589124       3.99901273       1.55152811
C       -1.96026214       2.47999990       0.09997575
C       -1.63875647       4.30541006       2.48586798
60
Properties=species:S:1:pos:R:3 entry_id=6 rank=148 energy=-482.5506896972656 pbc="F F F"
C        1.71504702      -3.42127269      -0.78739221
C        2.37974590      -0.01578736      -2.06479384
C        1.82440148       1.89509548       2.38539699
C        2.59642703      -2.30268286      -0.77432299
C       -1.79843189       1.65379317       2.90895725
C        2.21458681       0.56756227       0.33371773
C       -0.52557787      -3.41172074       0.59623807
C        1.08546771      -1.71569796       2.50135277
C       -3.27796820       0.65447747      -4.15125351
C       -0.55504623      -1.32842430      -0.70542606
C        0.19410297       1.17836012       3.83449108
C        1.09973729       3.61898655       0.33920957
C        0.56877088      -3.23840407      -1.63019373
C       -1.19445780       3.37250203       0.38259887
C        0.03570234       2.42943322      -1.52327826
C       -0.47563753      -0.37557899       0.45445878
C        1.26510813       1.99402250      -2.01532708
C       -2.84134391      -0.74151352      -1.45118323
C       -2.25228127       1.67512158      -0.96554290
C        2.81459289       0.80377020      -0.97140792
C       -4.11786690      -0.33513963      -3.56286396
C       -1.34361454      -1.76306633      -3.05061442
C       -0.82040673      -2.97051526       1.94780045
C       -1.97034340       1.35498767       1.54021976
C       -0.35655015      -1.78288297       2.61195004
C       -1.40659082       0.01438406       1.42834676
C       -2.45544935      -2.06029602      -3.83811646
C        1.55375434      -2.87216871       1.71421645
C       -1.66332889      -1.41282634      -1.71892071
C        2.34632419       1.77230032       1.09386747
C        0.19732002       0.07998300      -3.16929672
C        1.89830352      -1.34765845      -1.71406105
C       -1.09739149      -0.56161061       2.69043135
C       -3.19338068       0.61001962      -1.19562633
C        1.38491995       0.72919250       3.14123157
C        0.05618511      -1.36531295      -3.29640112
C        0.38574680      -3.71772295       1.57921068
C       -1.03869657       0.57897323       3.54403337
C        0.05094371       2.58575305       3.63594495
C        1.00606697       3.00932236       2.69533749
C        2.08325919      -2.85459470       0.43765220
C       -0.40479102      -2.85084893      -0.67202100
C        2.21433483       2.79122044       0.11526183
C        0.93912363      -0.04467998       0.15943234
C        0.79217318      -0.83044379      -0.92946357
C       -3.61569600      -1.60388647      -3.97576702
C       -1.00429911       0.87152024      -3.02462833
C        1.35578282       0.73745915      -2.69008437
C        0.60452433       3.86920395       1.66629510
C       -3.82480397      -0.16795807      -2.18835627
C       -0.03313687       3.31657913      -0.44001260
C        2.38896774       2.15923596      -1.16768391
C       -1.13841813       1.71353878      -1.85876231
C       -1.30410044       2.91045163       3.34153555
C        0.97122136      -2.14592847      -2.55072797
C        1.68029643      -0.54726715       2.81528629
C       -2.08980504       0.83596288      -3.83857818
C       -0.82699323       4.05794773       1.59404268
C       -2.05309069       2.24313694       0.37448317
C       -1.62651672       4.06272393       2.69411412
60
Properties=species:S:1:pos:R:3 entry_id=22 rank=149 energy=-482.2051696777344 pbc="F F F"
C        1.75417184      -3.74205874      -1.00928164
C        2.27518396      -0.16204183      -2.02295224
C        2.01782456       1.56815760       2.50354197
C        2.74393901      -2.68628946      -1.13781713
C       -2.47216368       1.82274756       2.65357035
C        2.12508355       0.38971257       0.32576226
C       -0.06931090      -3.01583133       0.86377443
C        2.82244019      -1.94991645       2.25164446
C       -3.25053463       0.80153014      -4.37492979
C       -1.05815987      -1.38297730      -0.56449413
C       -0.77403790       1.51755586       4.26033269
C        1.12457256       3.40556596       0.49376837
C        0.46801605      -3.32773273      -1.61574024
C       -1.16087658       3.43990238       0.37934415
C        0.05583014       2.52034167      -1.54923442
C       -0.62796455      -0.33828066       0.31112251
C        1.25494458       1.92850326      -1.96214099
C       -3.08341540      -0.48213523      -1.50321987
C       -2.30690968       1.93536915      -1.16433160
C        2.73339829       0.63510695      -0.94437061
C       -4.16375271      -0.10478752      -3.75573510
C       -1.57001478      -1.73751843      -2.93013872
C       -0.22325076      -2.41956854       2.18667280
C       -2.20247498       1.48688409       1.29573351
C       -0.80129004      -1.46935975       2.89024654
C       -1.47649692       0.25408991       1.30390070
C       -2.63599405      -1.95618218      -3.79174766
C        2.34877888      -2.98824304       1.50059748
C       -1.98607993      -1.34810178      -1.60772755
C        2.32449002       1.54205155       1.11392726
C        0.06233329       0.04800406      -3.04761799
C        1.90913444      -1.53267999      -1.72042830
C       -1.38712825      -0.26944719       2.65957106
C       -3.28781834       0.91003076      -1.40772738
C        2.35161555       0.38606637       3.13733726
C       -0.13600416      -1.37361608      -3.11868530
C        0.95068060      -3.14836984       1.71028496
C       -1.76854684       0.88817454       3.49203814
C        0.21280984       2.22741265       3.93508842
C        1.06513933       2.61412420       2.88771869
C        2.53078845      -3.32294718       0.09607236
C       -0.00661507      -2.46380346      -0.50319034
C        2.22717811       2.60520729       0.19042701
C        0.89973631      -0.39779940       0.29305480
C        1.05268152      -1.45572188      -0.54183595
C       -3.74539123      -1.43581704      -4.06355974
C       -1.04938559       0.98597989      -3.09858994
C        1.24135962       0.62145247      -2.55821473
C        0.60111847       3.49335907       1.84196686
C       -3.92836533       0.12425700      -2.37890988
C        0.02655976       3.32626732      -0.39507038
C        2.39014304       2.02334814      -1.11526246
C       -1.16027159       1.92500041      -1.99566829
C       -2.63053374       3.17222346       3.01857060
C        0.84585458      -2.19725276      -2.53597047
C        2.71232188      -0.83964050       2.88882099
C       -2.08129033       0.96569201      -3.98054129
C       -0.77260746       3.88790244       1.70394328
C       -2.14251376       2.43048894       0.18741231
C       -1.77201031       4.02673963       2.65389779
60
Properties=species:S:1:pos:R:3 entry_id=5 rank=150 energy=-481.39227294921875 pbc="F F F"
C        1.67588151      -3.58820190      -0.92139034
C        2.29239719      -0.12464752      -2.09500258
C        2.08986079       1.60778000       2.47762010
C        2.62625792      -2.51603239      -1.06817741
C       -2.46865547       1.80813961       2.69043127
C        2.30148773       0.36999590       0.32322809
C       -0.22097831      -3.10918044       0.80791002
C        2.72758143      -1.93132347       2.40015881
C       -3.29650933       0.69469318      -4.27451788
C       -0.66493825      -1.24115957      -0.69968244
C       -0.73974366       1.49851648       4.23358970
C        1.14328600       3.38871594       0.46241233
C        0.42812099      -3.27566949      -1.58476934
C       -1.14307663       3.40370930       0.37533521
C        0.05848476       2.48613708      -1.56238740
C       -0.50643735      -0.31653174       0.48627317
C        1.26565800       1.93188200      -2.00224422
C       -2.92885844      -0.55118769      -1.47479722
C       -2.28479830       1.86343060      -1.13260971
C        2.79350847       0.65122433      -1.00844338
C       -4.17563526      -0.22937186      -3.63714815
C       -1.48899892      -1.72406142      -2.99955500
C       -0.41191611      -2.48213947       2.16511612
C       -2.17149273       1.45854679       1.34335924
C       -1.01029661      -1.59354325       2.93400104
C       -1.44802663       0.21451578       1.39052970
C       -2.60551614      -2.03851670      -3.76633922
C        2.19261792      -2.86036626       1.55845115
C       -1.76730424      -1.27261821      -1.68724423
C        2.44308486       1.56230032       1.09279758
C        0.11275949       0.06989072      -3.18060527
C        1.82224379      -1.46091522      -1.77846610
C       -1.46750049      -0.32921609       2.73781739
C       -3.25290727       0.82358588      -1.33418685
C        2.38859195       0.45022311       3.16100780
C       -0.08772133      -1.37493572      -3.28118597
C        0.79646446      -3.06558048       1.67497766
C       -1.79204542       0.86014416       3.55197365
C        0.23258062       2.20645318       3.87158174
C        1.10124991       2.62246084       2.84783298
C        2.42487836      -3.12691712       0.16248021
C       -0.36851987      -2.75762498      -0.52090288
C        2.25368824       2.60233960       0.15523012
C        1.01319318      -0.29952024       0.28665686
C        0.79729431      -1.00161364      -0.84822796
C       -3.74318581      -1.54877007      -3.96918545
C       -1.03531947       0.95489710      -3.11815033
C        1.28183350       0.66958335      -2.67630975
C        0.63446423       3.49822277       1.81019279
C       -3.88745177      -0.00067191      -2.27115082
C        0.03493424       3.30005108      -0.41358332
C        2.39116757       2.01616411      -1.14874794
C       -1.14624343       1.85481106      -1.98372945
C       -2.60579344       3.16712603       3.03534724
C        0.80683228      -2.19683740      -2.56507933
C        2.69477343      -0.79814335       2.99343557
C       -2.11559198       0.89144366      -3.94060248
C       -0.74693519       3.87283103       1.68873477
C       -2.11040048       2.37757770       0.21242025
C       -1.73545773       3.99903716       2.64852782
60
Properties=species:S:1:pos:R:3 entry_id=3 rank=151 energy=-479.7987365722656 pbc="F F F"
C        1.49697984      -3.54712624      -0.76572113
C        2.25626770      -0.08586743      -2.20105150
C        2.03767142       1.88378296       2.19699861
C        2.60662114      -2.62733763      -1.01286671
C       -2.16761961       1.32309596       3.20741277
C        2.66466136       0.71670601       0.16020184
C       -0.53024152      -3.20758084       1.06540074
C        2.41689609      -1.73692586       2.38640690
C       -2.84414648       0.79317480      -5.45392364
C        0.03617756      -1.35061828      -0.00427563
C       -0.34177954       1.52435791       4.49222309
C        0.56804003       3.18999760       0.15143906
C        0.27232374      -3.18650180      -1.35807610
C       -1.66570315       2.74351760       0.27076635
C       -0.35227423       2.32627325      -1.97625575
C        0.24627875      -0.41035468       1.06928090
C        0.95569527       1.83921860      -2.23345115
C       -2.53575939      -0.86825795      -0.43830802
C       -2.58667809       0.33758372      -0.10258964
C        2.79023887       0.90655614      -1.27727782
C       -3.79189536       0.78658602      -4.36166512
C       -1.68570333      -1.65996386      -2.47234968
C       -0.56254536      -2.78360449       2.46460212
C       -1.69225109       0.94552559       1.93261894
C       -0.89413960      -1.95699973       3.46443307
C       -0.65076445      -0.00396621       2.08447405
C       -2.78737567      -1.09544475      -3.13002120
C        1.98115718      -2.79725518       1.65194359
C       -1.84496500      -1.91000686      -1.05643835
C        2.47947926       1.96691502       0.83144403
C        0.03472830      -0.08604753      -3.39646480
C        1.88174259      -1.46268421      -1.73867894
C       -0.87998642      -0.61303146       3.39749384
C       -2.68263034       2.33397910      -2.99287832
C        2.38109259       0.72866330       2.87132559
C       -0.32713402      -1.39802832      -2.92987843
C        0.62018124      -3.22185711       1.78502242
C       -1.34218917       0.58446968       4.16205330
C        0.30533547       2.32464203       3.77834529
C        0.88187417       2.71128768       2.57339663
C        2.27469386      -3.10444763       0.28135828
C       -0.67534438      -2.58042363      -0.33606675
C        1.85697201       2.77121412      -0.16386418
C        1.53688535      -0.09133197       0.37473510
C        1.16846271      -0.95939896      -0.60927156
C       -3.67357268      -0.42504732      -3.68024395
C       -0.94192345       0.87610790      -3.88903038
C        1.15757308       0.56467501      -2.83411122
C        0.14983962       3.33259101       1.51307489
C       -3.75033601       1.94811080      -3.55550217
C       -0.55842040       2.89838135      -0.67847041
C        2.06166795       2.12847892      -1.42211376
C       -1.35307108       1.90310219      -2.93129829
C       -2.64707523       2.64667517       3.31045690
C        0.67016720      -2.16500199      -2.31758300
C        2.57018825      -0.55376049       2.87294852
C       -1.64303401       0.75367306      -5.07424841
C       -1.27045312       3.50134719       1.48117352
C       -2.15942139       1.43702628       0.63627818
C       -2.12453696       3.52228855       2.56166786
60
Properties=species:S:1:pos:R:3 entry_id=2 rank=152 energy=-478.7847595214844 pbc="F F F"
C        1.64384091      -3.56119699      -0.76530744
C        2.28062947      -0.13848973      -2.21146578
C        1.96169628       1.92922826       2.00920198
C        2.66958068      -2.58024017      -1.03300008
C       -2.85237743       1.09038310       2.33764093
C        2.66687540       0.69858950       0.09752990
C       -0.29819446      -3.37504138       1.15627768
C        2.55897958      -1.62352715       2.35348809
C       -3.21414757       0.79638116      -3.43508799
C        0.06779991      -1.44402650       0.07089760
C       -1.13822653       1.62944591       3.74027224
C        1.05458640       3.49860628      -0.20021004
C        0.38339534      -3.25132359      -1.33556696
C       -1.12431522       3.74303023      -0.94053011
C        0.35958322       2.84239221      -2.43154196
C        0.24417234      -0.36780947       1.00788947
C        1.44419244       1.98251933      -2.51078021
C       -3.01105282      -2.80206226      -0.20160630
C       -3.31205661      -1.70419453       0.37920208
C        2.94313864       0.78625161      -1.31887225
C       -3.68555536       1.73229364      -2.39288026
C       -1.67804453      -1.42443164      -1.78521650
C       -0.45055130      -2.76160813       2.47989915
C       -2.22231247       0.32305669       1.30343748
C       -1.11505420      -1.88072658       3.25115492
C       -0.73228157       0.24934527       1.86766282
C       -2.52804406      -0.36000617      -1.25560992
C        2.14806177      -2.72280545       1.66629134
C       -1.78931271      -2.56488694      -0.90347291
C        2.61912774       1.97481629       0.71621072
C       -0.07523208       0.09896660      -3.06324860
C        1.86387275      -1.47287899      -1.74116439
C       -1.34769250      -0.58924729       3.04937745
C       -1.90621411       3.10078304      -1.99273620
C        2.31109879       0.83429860       2.77920523
C       -0.46753475      -1.23418839      -2.58235616
C        0.81114033      -3.18124690       1.91799447
C       -2.11739372       0.63973930       3.54309376
C       -0.35236884       1.55840721       2.61797105
C        0.60710732       2.44297643       1.99241899
C        2.38942077      -3.05856301       0.28555794
C       -0.50187553      -2.77888179      -0.22016366
C        2.27650239       2.84255235      -0.35565328
C        1.49630610      -0.03716664       0.31420868
C        1.16932315      -1.00514485      -0.57924425
C       -3.32103117       0.40911113      -2.07614209
C       -1.03958724       1.11703439      -3.48642443
C        1.24022048       0.60335072      -2.81720360
C        0.19513792       3.26889248       0.91057145
C       -3.26891054       2.94528151      -2.04669478
C        0.23560389       3.69832353      -1.32742294
C        2.50285366       2.12141779      -1.59244897
C       -0.92894052       2.37795770      -2.80546822
C       -2.99945408       2.41684833       1.93084077
C        0.60442110      -2.14603666      -2.26953897
C        2.59052586      -0.42773452       2.83042404
C       -2.17191092       0.79816841      -4.24162118
C       -1.18584152       3.52197990       0.48783148
C       -2.79683327      -0.41123094       0.22969795
C       -2.30992536       3.19339955       1.22742940
60
Properties=species:S:1:pos:R:3 entry_id=4 rank=153 energy=-478.2655334472656 pbc="F F F"
C        1.79135242      -3.65840788      -0.81155125
C        2.09726797      -0.16518491      -2.12003070
C        2.00029565       1.73818674       2.32773437
C        2.66860331      -2.54673199      -1.06755617
C       -2.39286367       1.46713059       2.86083612
C        2.36568738       0.46469831       0.24573946
C       -0.01942999      -3.42259389       1.09475692
C        2.87328339      -1.76695913       2.36882196
C       -2.83973710       0.81820724      -5.23363731
C       -0.46425996      -1.56485983      -0.27819804
C       -0.64302606       1.41403683       4.33567643
C        0.78371919       3.34930325       0.27607827
C        0.48047105      -3.46016682      -1.37747611
C       -1.46427089       3.15399568       0.28550883
C       -0.29693248       2.52139523      -1.82161947
C       -0.16741385      -0.59973469       0.87280791
C        0.91180821       1.85604522      -2.11029027
C       -2.25768273      -0.16280817      -0.94996148
C       -2.04857863       1.13041255      -0.91659171
C        2.63462727       0.72561726      -1.14761099
C       -3.83716794       0.69859337      -4.16782003
C       -1.72749656      -1.81122693      -2.50709096
C       -0.18684039      -2.73960261       2.44054969
C       -1.95969704       1.10016205       1.55728797
C       -0.82392418      -1.88680563       3.23420829
C       -1.13659637      -0.05288451       1.73016083
C       -2.89050255      -1.36336379      -3.16120721
C        2.39149469      -2.79692715       1.60933227
C       -1.70219286      -1.34533723      -1.13793654
C        2.35211921       1.71065872       0.94253740
C       -0.12488985      -0.15866675      -3.11742467
C        1.75899980      -1.54651143      -1.74329339
C       -1.24810483      -0.60176216       3.05818721
C       -2.91782542       2.40180276      -2.67861599
C        2.41200057       0.62289930       3.02673621
C       -0.35350366      -1.59259643      -2.99080996
C        1.05063287      -3.18387387       1.86949977
C       -1.67462247       0.60761160       3.80503207
C        0.16450795       2.20778011       3.79059980
C        0.90240373       2.64672512       2.68774227
C        2.55826195      -3.10113527       0.21017400
C       -0.25456110      -3.05037584      -0.22899466
C        1.94825161       2.65836087      -0.03010873
C        1.19484041      -0.35485105       0.37798363
C        0.86347032      -1.12495201      -0.68653125
C       -3.75663281      -0.57794295      -3.59318822
C       -1.16272068       0.80055058      -3.39380020
C        0.99981075       0.53361962      -2.66503558
C        0.31933606       3.43706816       1.63878504
C       -3.83042830       1.85514123      -3.34796514
C       -0.33531987       3.24369578      -0.60376002
C        2.05993634       2.02704086      -1.30233985
C       -1.57037630       1.82121724      -2.28600861
C       -2.70787170       2.81220627       3.09306088
C        0.67561015      -2.35778150      -2.38063380
C        2.80159252      -0.61052369       2.91851752
C       -1.71397839       0.80435189      -4.63968787
C       -1.08139723       3.72889437       1.56881625
C       -2.04990696       1.86671410       0.32496959
C       -2.02271033       3.74158004       2.57964041
60
Properties=species:S:1:pos:R:3 entry_id=1 rank=154 energy=-476.79180908203125 pbc="F F F"
C        1.69278259      -3.58420533      -0.70682410
C        2.17523560      -0.14314108      -2.23077394
C        1.96700127       1.91085785       2.00523952
C        2.68909566      -2.57478135      -0.99749148
C       -2.84540114       1.06430778       2.34314495
C        2.64194612       0.67792946       0.07256418
C       -0.26492141      -3.41951258       1.21018811
C        2.59745171      -1.62423567       2.39324723
C       -3.04896282       0.99766945      -3.41454804
C        0.06735473      -1.49311699       0.10036934
C       -1.14241638       1.59007265       3.76293854
C        1.01345493       3.48692562      -0.14371997
C        0.41896623      -3.33141133      -1.26527186
C       -1.14884665       3.87113127      -0.82503192
C        0.25244222       3.00125414      -2.47569662
C        0.25552685      -0.41596713       1.03805452
C        1.26563671       1.98711178      -2.53439150
C       -3.00568732      -2.80827861      -0.15350184
C       -3.28341078      -1.68491544       0.38783437
C        2.83089085       0.78979844      -1.36004022
C       -3.49612045       1.89263407      -2.40164978
C       -1.65451986      -1.49606693      -1.77056837
C       -0.42313965      -2.79144273       2.52275516
C       -2.19341446       0.32947511       1.29881150
C       -1.10683330      -1.90986701       3.27665330
C       -0.72088343       0.21513758       1.89121610
C       -2.43598230      -0.35753519      -1.27104420
C        2.17816553      -2.72122437       1.70858946
C       -1.77787028      -2.60804372      -0.85056997
C        2.59604408       1.95345347       0.69622029
C       -0.07236706      -0.14226019      -3.29501562
C        1.84093720      -1.50632249      -1.73653827
C       -1.34580740      -0.62201220       3.06534578
C       -1.97803187       3.52802078      -1.96498396
C        2.34436596       0.83537848       2.78590776
C       -0.45598182      -1.39590703      -2.58603156
C        0.84600145      -3.19550114       1.96359975
C       -2.12170240       0.60120668       3.55067253
C       -0.34150076       1.52138246       2.65178546
C        0.60659133       2.41737385       2.02838668
C        2.42857459      -3.04768096       0.32872272
C       -0.48337632      -2.84156405      -0.17324775
C        2.20967516       2.81835581      -0.36208864
C        1.49494263      -0.08267778       0.33048376
C        1.14563264      -1.03705746      -0.57430856
C       -3.04515283       0.56498429      -2.09412586
C       -0.99361925       0.36443464      -4.17112881
C        1.13649344       0.57069989      -2.88830703
C        0.17346807       3.27645074       0.98430523
C       -3.32409130       3.15225760      -1.97079152
C        0.18815482       3.72921936      -1.24113709
C        2.33626216       2.10049265      -1.61161777
C       -1.05433847       3.07879914      -2.96564512
C       -3.01164866       2.40009129       1.97757987
C        0.61972410      -2.25745696      -2.22847977
C        2.63359182      -0.42253758       2.85137394
C       -2.17273639       0.74770564      -4.43818876
C       -1.21276300       3.58074546       0.59154438
C       -2.74797906      -0.40263364       0.20906327
C       -2.33998092       3.22313394       1.31115902
60
Properties=species:S:1:pos:R:3 entry_id=27 rank=155 energy=-475.970703125 pbc="F F F"
C        1.79905481      -3.27724572      -0.91179389
C        2.07853988       0.21730973      -2.29381219
C        1.98102136       1.89538677       2.12793925
C        2.52972190      -2.08165998      -1.15689582
C       -3.12615832       0.96599632       2.09501762
C        2.55267122       0.68160096       0.14260280
C        0.13040691      -3.76897122       0.96969344
C        2.62555950      -1.53737749       2.36790326
C       -3.10671223       0.90853405      -2.68906555
C       -0.04524305      -1.45040188       0.13935661
C       -1.37725358       1.72138260       3.62233920
C        1.28231196       3.60858858       0.02364372
C        0.46612775      -3.20090425      -1.37126777
C       -0.76304768       4.07935288      -0.91737173
C        0.90429042       3.63089699      -2.46295535
C        0.27118671      -0.40658455       1.16643039
C        1.81551801       2.52061297      -2.53053746
C       -2.79429159      -3.51497226       0.19760676
C       -3.41064681      -2.55549042       0.77131979
C        2.80169747       0.90516806      -1.25161572
C       -3.21956800       2.32370652      -2.72705203
C       -1.96618485      -1.93649017      -1.48152799
C       -0.13618094      -2.56957655       2.79064910
C       -2.84562345      -0.34083975       1.59911564
C       -1.09104670      -1.81227213       3.07640155
C       -0.46927410       0.19475182       2.16407469
C       -2.88897718      -0.93248698      -0.92696600
C        2.14598203      -2.51267862       1.56143104
C       -1.74173390      -3.03294271      -0.60882181
C        2.67551846       1.91196216       0.86235161
C       -1.47187248      -0.87576102      -3.58553218
C        1.53096348      -1.15011999      -1.89325226
C       -1.69979184      -0.53721237       2.65710304
C       -1.36579563       3.98369972      -2.23949719
C        2.35489025       0.85959777       2.94894266
C       -1.00826729      -1.67477357      -2.52816544
C        0.86000937      -3.12660231       1.92403090
C       -2.31945366       0.76663794       3.32921224
C       -0.34854283       1.50193758       2.69671488
C        0.62459499       2.38500847       2.05607723
C        2.41613356      -2.66520534       0.16211271
C       -0.35069452      -2.94382829      -0.14291607
C        2.48120347       2.91730621      -0.12614120
C        1.35326120       0.00809622       0.31651390
C        0.83501538      -0.79420354      -0.69183898
C       -3.26412608       0.16825302      -1.57526010
C       -1.80193577      -0.32499617      -4.83434665
C        1.59138544       1.24349251      -3.10595589
C        0.29320724       3.25897966       0.99118858
C       -2.59948704       3.37335688      -2.50094578
C        0.62639233       4.05038603      -1.12718717
C        2.66383602       2.30712492      -1.40453738
C       -0.28599932       3.85681285      -3.17026621
C       -2.95310663       2.13712686       1.39152685
C        0.34377603      -2.13760894      -2.32748371
C        2.67314074      -0.38807044       2.92672928
C       -2.38201709       0.17505773      -3.67514956
C       -1.03196816       3.54934910       0.40478988
C       -3.23356822      -1.18469048       0.54324332
C       -2.21192559       2.98763389       0.86709470
60
Properties=species:S:1:pos:R:3 entry_id=0 rank=156 energy=-474.6688232421875 pbc="F F F"
C        1.73505848      -3.37194775      -0.91663009
C        2.04744992       0.15230334      -2.30148105
C        1.91603256       1.86846084       2.12962092
C        2.52768898      -2.20354756      -1.15131832
C       -2.92237813       1.05159753       2.39440398
C        2.47021085       0.67268180       0.13184876
C       -0.04243545      -3.76325587       0.95446138
C        2.54728774      -1.61533567       2.33376807
C       -2.61953758       0.78743253      -3.27550152
C       -0.06791124      -1.52256928       0.06976215
C       -1.20825668       1.61855225       3.80086204
C        1.12496166       3.57701216       0.02865322
C        0.42042828      -3.26601866      -1.41333577
C       -0.98134672       3.98419352      -0.79210690
C        0.59336151       3.46296756      -2.41974180
C        0.13055527      -0.46217594       1.05594008
C        1.59443714       2.43120771      -2.51720140
C       -2.92615697      -2.99397678       0.17432566
C       -3.25062532      -1.87101747       0.68645278
C        2.72861791       0.89572813      -1.26239508
C       -3.00394420       1.85955667      -2.43036097
C       -1.88044857      -1.71912622      -1.63065693
C       -0.05062935      -2.59176410       2.92677868
C       -2.28493102       0.25998299       1.38728070
C       -0.86515704      -1.79322910       3.48764590
C       -0.81808307       0.19250724       1.94130092
C       -2.52660165      -0.54406797      -1.09473282
C        2.06763884      -2.60086510       1.54514667
C       -1.83400839      -2.81582381      -0.70423444
C        2.56960640       1.90584953       0.84565271
C       -1.21402462      -1.07032769      -3.92499378
C        1.56424961      -1.24021768      -1.89656697
C       -1.35658212      -0.55372491       3.18212000
C       -1.67916089       3.77397973      -2.04754540
C        2.27501942       0.79327416       2.90935537
C       -0.89790230      -1.68400895      -2.71095142
C        0.74026397      -3.16557546       1.91191596
C       -2.18707506       0.62028257       3.62281410
C       -0.41474422       1.52249731       2.68427687
C        0.56579178       2.38913758       2.09826142
C        2.35738138      -2.78357361       0.16166679
C       -0.43942093      -2.96622878      -0.22665085
C        2.32798573       2.90086466      -0.14495602
C        1.27810451      -0.03188162       0.29070820
C        0.83758252      -0.87025912      -0.71891413
C       -2.77822161       0.52315491      -1.93695095
C       -1.42449557      -0.70318547      -5.24891167
C        1.46701095       1.14228370      -3.09371941
C        0.19737046       3.27536916       1.06173416
C       -2.91908027       3.15268873      -2.15592847
C        0.38826951       3.94402056      -1.09582933
C        2.49977781       2.28763191      -1.42326201
C       -0.65367218       3.59246905      -3.04106505
C       -2.99043058       2.36867334       1.93381308
C        0.40229142      -2.20459540      -2.38032865
C        2.58063929      -0.45665301       2.87985741
C       -2.02547472       0.05468902      -4.24446136
C       -1.15995691       3.56943080       0.58728178
C       -2.82249133      -0.57710997       0.36652044
C       -2.31296770       3.17271819       1.25149928
