60
Properties=species:S:1:pos:R:3 trajectory=trial0001_proposal001_step004_proposal_relax trajectory_step=0 pbc="F F F"
C        0.51098019       2.69138674       1.56063037
C       -2.53231170       0.56344777       1.48486722
C       -0.30837766      -1.19551421       2.52035956
C        1.38552758      -0.70777773      -3.38067584
C        3.23043679       0.02137499      -2.02157495
C       -0.20727863      -0.29632304       1.21295017
C        1.77657713       2.04478162       1.71730047
C        0.50460444       1.55769684       3.59124402
C       -0.93441112      -3.02968469      -1.95287746
C        0.24293806      -0.32256570      -4.11828281
C        2.19023103      -1.81979432      -0.42708290
C       -2.12056661      -2.91293236       0.13680644
C       -0.16447452       2.92900885       0.31433442
C       -0.29969401      -2.29745023      -3.02942029
C       -2.95938354      -1.65059599      -1.46719779
C        1.81814809      -0.14379804       2.86990913
C       -3.29521080      -1.21892509      -0.09035080
C        0.33325242       1.99644997      -3.22065572
C        1.61114097       1.65850371      -2.69143922
C       -1.63912186       2.32125611       2.87818626
C       -1.68701347       0.84601902      -3.94727131
C       -1.74718125       2.64397799      -2.05566590
C        3.84470205       1.00292141      -1.16698027
C        2.67619285       1.55254180       0.73604899
C        3.23887016       0.28170375       0.98801569
C        2.42582232      -0.67607775       1.70688048
C       -2.23370865       1.59778297      -2.89605359
C        1.69726883       1.25266345       2.90123533
C       -0.35430319       2.77023399      -2.19289220
C       -1.40395430      -0.25611224       1.87171263
C       -3.01825126       1.12425144      -0.72779935
C       -2.14228057       1.97764513       1.59874289
C        3.98042595      -0.06764576      -0.15782956
C       -0.79455624      -1.29021485      -3.87820710
C        0.61966053      -0.70292500       3.52349592
C       -2.35041102       2.41224763      -0.74662439
C        2.85172270       1.91435742      -0.61124201
C        3.22243839      -0.95999176      -0.96632540
C        1.76031628      -1.68946644       0.95425576
C        0.19662543      -1.89938019       1.26932443
C       -0.24199158       2.44327093       2.79405325
C        0.47806925       2.92292321      -1.02566268
C       -3.17133948      -2.28510553       0.83961672
C       -1.42412713       0.54291336       4.65532020
C       -2.83346883       0.81802933       4.92944360
C       -2.63224427       0.62463860      -1.98775549
C        0.01498525      -3.00669167      -0.85427224
C       -3.16931444       0.16109088       0.26372809
C       -0.63819581      -2.74342972       0.37144851
C       -0.27133844       1.00471708      -4.02594611
C       -2.23182549      -2.83153523      -1.35522255
C       -2.12140951       1.58729362       3.97491821
C       -1.98743652      -0.58077533      -3.69863225
C        2.17483140       0.35015766      -2.87883333
C       -1.58713476       2.60913098       0.41462624
C       -0.06883472       0.40316268       4.20339167
C       -2.66712307      -0.67591700      -2.43969998
C        1.23969819      -2.39621094      -1.30609418
C        1.77306014       2.32461279      -1.42155465
C        1.04523764      -1.94175817      -2.65762852
60
Properties=species:S:1:pos:R:3 trajectory=trial0001_proposal001_step004_proposal_relax trajectory_step=1 pbc="F F F"
C        0.51210935       2.69373507       1.56023810
C       -2.53166957       0.56229496       1.48640208
C       -0.31115118      -1.19330444       2.51182596
C        1.38291407      -0.71349697      -3.37413836
C        3.22881373       0.01961960      -2.01927526
C       -0.21472479      -0.30160121       1.21817917
C        1.77515907       2.04077164       1.71632644
C        0.50003760       1.56019602       3.58903204
C       -0.93957195      -3.02224304      -1.95194513
C        0.24540860      -0.32405604      -4.11374960
C        2.18289571      -1.81607784      -0.42251485
C       -2.09991559      -2.91756196       0.14265657
C       -0.16391528       2.92274710       0.31486919
C       -0.30530751      -2.30361964      -3.02984709
C       -2.95989092      -1.64600250      -1.46977245
C        1.81250295      -0.14664056       2.87405239
C       -3.30406052      -1.21622324      -0.09254657
C        0.33864904       1.99202667      -3.21316499
C        1.61173603       1.65797151      -2.68745505
C       -1.63825577       2.32513708       2.87350145
C       -1.68138323       0.85028479      -3.95305852
C       -1.74690662       2.64656698      -2.06147011
C        3.84005530       0.99977904      -1.16016617
C        2.67504225       1.55466841       0.74597335
C        3.23724017       0.28035375       0.99027076
C        2.42303763      -0.67595567       1.70536516
C       -2.23064338       1.58762162      -2.88601528
C        1.69254807       1.24722116       2.90152945
C       -0.35737822       2.77080840      -2.19139601
C       -1.39750714      -0.25339439       1.87309789
C       -2.99439805       1.12617469      -0.75803202
C       -2.14634346       1.97894060       1.60063161
C        3.97951725      -0.06823307      -0.15278852
C       -0.79580887      -1.28875469      -3.88334679
C        0.61494131      -0.70218411       3.52232775
C       -2.34315497       2.41069677      -0.74044122
C        2.85119401       1.91478841      -0.61417413
C        3.22273534      -0.97129925      -0.96396367
C        1.75431102      -1.68761686       0.94805113
C        0.20972492      -1.89205581       1.26707033
C       -0.23680444       2.44044407       2.79274336
C        0.47740169       2.91359682      -1.02182343
C       -3.16139902      -2.28248438       0.83073662
C       -1.42988912       0.55591567       4.64171308
C       -2.81125229       0.81968344       4.92432454
C       -2.65538071       0.63360234      -1.98518529
C        0.00646641      -2.99823834      -0.85501463
C       -3.17411527       0.16447763       0.27541401
C       -0.64737932      -2.74465107       0.36143891
C       -0.28190560       1.00245632      -4.03310623
C       -2.22714766      -2.83841862      -1.34793611
C       -2.12640322       1.57790272       3.98556116
C       -1.98710908      -0.58669917      -3.70817958
C        2.17872343       0.35443845      -2.87588110
C       -1.58471825       2.61588429       0.41460159
C       -0.06366023       0.40565063       4.21188022
C       -2.65981468      -0.67162065      -2.44230081
C        1.24174777      -2.39394258      -1.31092084
C        1.77755245       2.32365667      -1.41748119
C        1.04199041      -1.94014249      -2.65762739
60
Properties=species:S:1:pos:R:3 trajectory=trial0001_proposal001_step004_proposal_relax trajectory_step=2 pbc="F F F"
C        0.51517505       2.69604188       1.56020208
C       -2.53035849       0.56211453       1.48932326
C       -0.31279462      -1.19046946       2.50398397
C        1.38104706      -0.71615739      -3.36423649
C        3.22776282       0.01526407      -2.01271232
C       -0.21959868      -0.30829080       1.22061422
C        1.77107352       2.03535346       1.71823864
C        0.49647772       1.56002022       3.58796276
C       -0.94575691      -3.01274856      -1.95109481
C        0.24624604      -0.32617890      -4.10810960
C        2.17297054      -1.81156573      -0.42024259
C       -2.07722045      -2.92290750       0.14971486
C       -0.16213270       2.91392214       0.31598354
C       -0.31321751      -2.30912081      -3.03424439
C       -2.95732359      -1.64328789      -1.47147661
C        1.80549805      -0.15221092       2.87753970
C       -3.31635537      -1.21035563      -0.09588638
C        0.34027706       1.98396895      -3.20580753
C        1.61363749       1.65657207      -2.68116280
C       -1.63847385       2.32770387       2.87301349
C       -1.68243402       0.85292374      -3.95677835
C       -1.74825153       2.64971827      -2.06691057
C        3.83286915       0.99359570      -1.15077478
C        2.67668776       1.55728579       0.75353584
C        3.23357795       0.27900369       0.99485792
C        2.41734952      -0.67613364       1.70491457
C       -2.22246388       1.57894539      -2.88030496
C        1.68490537       1.24057949       2.90136467
C       -0.35737206       2.77003182      -2.18960336
C       -1.39549707      -0.24820413       1.87749818
C       -2.96918443       1.12537777      -0.76461100
C       -2.15117984       1.98200097       1.60296233
C        3.97660778      -0.07178802      -0.14682651
C       -0.79463724      -1.29154880      -3.89000449
C        0.60595680      -0.70132240       3.52176819
C       -2.33082182       2.41004530      -0.74116010
C        2.85220762       1.91383980      -0.61008202
C        3.22547620      -0.98363105      -0.95996751
C        1.74522964      -1.68275514       0.94263806
C        0.22365252      -1.88427712       1.25997914
C       -0.23561195       2.43851236       2.78938750
C        0.47613231       2.89981532      -1.01627390
C       -3.14447622      -2.27885075       0.81797278
C       -1.41991310       0.56472663       4.62395946
C       -2.79559211       0.81522719       4.92958350
C       -2.68151663       0.63470102      -2.00101704
C       -0.00088619      -2.98492284      -0.86119327
C       -3.18042743       0.17446625       0.27647363
C       -0.65164802      -2.74167382       0.35438398
C       -0.28470279       1.00309095      -4.04018415
C       -2.22652388      -2.84277134      -1.33831574
C       -2.12786322       1.58579086       3.97767764
C       -1.98895201      -0.58953487      -3.72044472
C        2.18253858       0.35586350      -2.87276774
C       -1.58232409       2.62420032       0.41836897
C       -0.05798909       0.40984322       4.22375724
C       -2.65141704      -0.66726249      -2.44545543
C        1.24020985      -2.39200192      -1.31503560
C        1.78083651       2.32313227      -1.41273493
C        1.03600455      -1.94011218      -2.65714449
60
Properties=species:S:1:pos:R:3 trajectory=trial0001_proposal001_step004_proposal_relax trajectory_step=3 pbc="F F F"
C        0.52102959       2.69744879       1.56413303
C       -2.53283694       0.57015048       1.49359814
C       -0.31313474      -1.18290367       2.49818316
C        1.37436865      -0.71329968      -3.34140232
C        3.22632606       0.00004300      -1.99272229
C       -0.22295635      -0.31908423       1.21482511
C        1.76320540       2.02185927       1.72595268
C        0.49345980       1.55926744       3.58656945
C       -0.96175312      -2.99292442      -1.95307744
C        0.24494460      -0.32799827      -4.09597307
C        2.15332782      -1.80251044      -0.42535061
C       -2.05063856      -2.93155092       0.16052418
C       -0.15541840       2.89372936       0.32162133
C       -0.32800285      -2.31725152      -3.05145067
C       -2.94625840      -1.63868296      -1.46835352
C        1.78870909      -0.16773033       2.88272041
C       -3.34280020      -1.19345640      -0.10932960
C        0.33797793       1.96480764      -3.19047968
C        1.61911907       1.65006308      -2.66649899
C       -1.63728411       2.34085850       2.86453974
C       -1.68541774       0.85025866      -3.96847281
C       -1.74726057       2.65345006      -2.07681225
C        3.81609637       0.97445947      -1.12720640
C        2.68348220       1.56040021       0.76897606
C        3.22298612       0.27432876       1.00863086
C        2.39913622      -0.67703731       1.70785641
C       -2.20509948       1.57749485      -2.88814143
C        1.66615189       1.22301450       2.89943288
C       -0.35088502       2.76206414      -2.18692205
C       -1.40154585      -0.23433383       1.89016833
C       -2.92149812       1.12100264      -0.75862665
C       -2.16033288       1.99406312       1.60497528
C        3.96598937      -0.08847076      -0.12838244
C       -0.79639321      -1.29801371      -3.90947039
C        0.58421364      -0.70063391       3.52376896
C       -2.29725693       2.40428589      -0.75077117
C        2.85602070       1.91183256      -0.58949170
C        3.23370673      -1.00703294      -0.94822955
C        1.72519645      -1.66607835       0.93422073
C        0.23627494      -1.86890387       1.23838188
C       -0.23878818       2.43628799       2.78284770
C        0.47278471       2.86538883      -1.00422065
C       -3.09888511      -2.26325978       0.79134547
C       -1.40810301       0.58987037       4.58359387
C       -2.74473388       0.81180920       4.93407208
C       -2.73204054       0.64060242      -2.03152286
C       -0.01043118      -2.95132343      -0.88064827
C       -3.18812791       0.19378129       0.26947486
C       -0.62521339      -2.72355509       0.35019012
C       -0.27634124       1.00347292      -4.05096889
C       -2.23347007      -2.84316053      -1.32024227
C       -2.13784221       1.59300715       3.97476044
C       -1.99289315      -0.59017304      -3.74750015
C        2.19143155       0.34834037      -2.86083960
C       -1.58093145       2.64157298       0.43007466
C       -0.03667492       0.41678760       4.24292423
C       -2.64116621      -0.68169992      -2.46238710
C        1.22578227      -2.38698049      -1.32056311
C        1.78529035       2.32025506      -1.39901744
C        1.02089400      -1.94441409      -2.65819063
60
Properties=species:S:1:pos:R:3 trajectory=trial0001_proposal001_step004_proposal_relax trajectory_step=4 pbc="F F F"
C        0.52331072       2.69358991       1.56945615
C       -2.54128993       0.58191502       1.49314549
C       -0.32000559      -1.17454517       2.49861576
C        1.36374705      -0.71344415      -3.32882725
C        3.22752770      -0.01274732      -1.97925390
C       -0.23455775      -0.31817950       1.21139917
C        1.76267630       2.01318786       1.73181905
C        0.49282977       1.56160397       3.58743598
C       -0.97355248      -2.98306462      -1.95757473
C        0.24554573      -0.32742005      -4.09063139
C        2.14366694      -1.79915827      -0.42877551
C       -2.03709785      -2.93381118       0.16268618
C       -0.15275578       2.88341585       0.32873759
C       -0.33579559      -2.32022138      -3.06652560
C       -2.94151310      -1.63430155      -1.46682903
C        1.77713479      -0.17691755       2.88741469
C       -3.35110168      -1.18320890      -0.11911237
C        0.34445722       1.95335499      -3.18130325
C        1.62350715       1.64177599      -2.65702060
C       -1.64492465       2.34862202       2.86826471
C       -1.67599092       0.84961905      -3.98089038
C       -1.73475605       2.65376309      -2.08493300
C        3.80824788       0.95937538      -1.10760415
C        2.68661469       1.55760849       0.78539290
C        3.21633351       0.26709236       1.02099664
C        2.38606710      -0.67879932       1.71045617
C       -2.21379575       1.57652187      -2.90052067
C        1.65864350       1.21009934       2.89567961
C       -0.34589570       2.75091376      -2.18484083
C       -1.39804207      -0.22754243       1.89210802
C       -2.90256600       1.11820526      -0.77218974
C       -2.16592135       2.00638071       1.60293949
C        3.95835470      -0.10326434      -0.10939020
C       -0.79868618      -1.29849999      -3.92701734
C        0.57843319      -0.70389373       3.52781106
C       -2.27523978       2.39469858      -0.75077343
C        2.85868032       1.91097416      -0.57704936
C        3.23542673      -1.02141687      -0.94005657
C        1.71769730      -1.65519872       0.92399634
C        0.22991373      -1.85377990       1.23204822
C       -0.24046500       2.43572949       2.78467104
C        0.47270725       2.84423183      -0.99691167
C       -3.07525463      -2.23927226       0.78502463
C       -1.36986429       0.58966203       4.56227309
C       -2.73821933       0.80458682       4.95592567
C       -2.74082533       0.64006804      -2.04779594
C       -0.01815872      -2.93262383      -0.88572998
C       -3.18442385       0.19804028       0.27001181
C       -0.60588509      -2.71309180       0.34306653
C       -0.27291458       0.99927845      -4.05297104
C       -2.23526457      -2.84152989      -1.31429251
C       -2.13686923       1.62498275       3.94523890
C       -1.99533555      -0.59338496      -3.76044180
C        2.19431525       0.33980717      -2.84629012
C       -1.58085172       2.65107026       0.43054235
C       -0.03229280       0.42145947       4.25071435
C       -2.64944575      -0.67776053      -2.47524297
C        1.21812877      -2.37701574      -1.32837498
C        1.78826134       2.31233020      -1.38698354
C        1.01281961      -1.94627576      -2.66662164
60
Properties=species:S:1:pos:R:3 trajectory=trial0001_proposal001_step004_proposal_relax trajectory_step=5 pbc="F F F"
C        0.52202348       2.69213880       1.56986114
C       -2.54086804       0.58238591       1.49264135
C       -0.32063209      -1.17499887       2.50203537
C        1.36495985      -0.71244868      -3.33215201
C        3.22846339      -0.01177506      -1.98072081
C       -0.23319073      -0.31467382       1.20942065
C        1.76366451       2.01525982       1.73218757
C        0.49519943       1.56157074       3.58791798
C       -0.96999535      -2.98627615      -1.95848447
C        0.24499049      -0.32719421      -4.09358382
C        2.14677213      -1.80111914      -0.42943223
C       -2.04336543      -2.93056264       0.16071098
C       -0.15340140       2.88680493       0.32810007
C       -0.33404612      -2.31855979      -3.06571258
C       -2.94336066      -1.63438987      -1.46822106
C        1.77976594      -0.17560449       2.88611861
C       -3.34489480      -1.18505807      -0.11695183
C        0.34471833       1.95530636      -3.18482913
C        1.62395867       1.64122974      -2.65800493
C       -1.64384476       2.34978002       2.86667425
C       -1.67803800       0.84930346      -3.97823678
C       -1.73566491       2.65077887      -2.08297324
C        3.81097222       0.96051313      -1.10927588
C        2.68686802       1.55614410       0.78207680
C        3.21739635       0.26694307       1.02090974
C        2.38797116      -0.67960950       1.71040376
C       -2.21648626       1.58023687      -2.90473712
C        1.66086171       1.21293004       2.89671515
C       -0.34398086       2.74985379      -2.18509570
C       -1.40120783      -0.22746445       1.89081223
C       -2.91285278       1.11741824      -0.76601248
C       -2.16501979       2.00614456       1.60131471
C        3.95930272      -0.10271789      -0.11104473
C       -0.79813349      -1.29865273      -3.92503348
C        0.58202871      -0.70514615       3.52871391
C       -2.27946693       2.39436855      -0.75366496
C        2.85920532       1.90979372      -0.57677991
C        3.23467729      -1.01749162      -0.94087030
C        1.71982794      -1.65687871       0.92609300
C        0.22596780      -1.85508211       1.23499535
C       -0.24085467       2.43697026       2.78614623
C        0.47380255       2.84874201      -0.99782375
C       -3.08047683      -2.23899748       0.79069104
C       -1.38343442       0.58997095       4.56954829
C       -2.73743463       0.80921685       4.94983392
C       -2.72854732       0.63756099      -2.04680433
C       -0.01468042      -2.93708319      -0.88590851
C       -3.18165995       0.19682425       0.26575075
C       -0.61055860      -2.71449018       0.34593064
C       -0.27025774       1.00018128      -4.04929906
C       -2.23570963      -2.83941091      -1.31803723
C       -2.13677222       1.61557222       3.95540918
C       -1.99515195      -0.59167442      -3.75665548
C        2.19165028       0.33836810      -2.84662508
C       -1.58060059       2.64800455       0.42996697
C       -0.03124575       0.41973486       4.24512334
C       -2.65366145      -0.67696976      -2.47379467
C        1.21871870      -2.37693597      -1.32807242
C        1.78676769       2.31129822      -1.38844498
C        1.01445135      -1.94648867      -2.66772395
60
Properties=species:S:1:pos:R:3 trajectory=trial0001_proposal001_step004_proposal_relax trajectory_step=6 pbc="F F F"
C        0.52112170       2.68828701       1.57289592
C       -2.54372333       0.58895883       1.49169302
C       -0.32581072      -1.17094889       2.50636461
C        1.36215026      -0.71187337      -3.33085293
C        3.23029565      -0.01683487      -1.97581451
C       -0.23739198      -0.30913049       1.20490143
C        1.76458749       2.01382853       1.73569305
C        0.49789588       1.56246081       3.58945697
C       -0.96998008      -2.98538999      -1.96232976
C        0.24480171      -0.32699718      -4.09578127
C        2.14554823      -1.80223857      -0.43152898
C       -2.04449942      -2.92538782       0.15958196
C       -0.15257483       2.88648518       0.33060355
C       -0.33604284      -2.31883810      -3.07202430
C       -2.94495758      -1.63160373      -1.47088540
C        1.77815001      -0.17872696       2.88656288
C       -3.33902926      -1.18163799      -0.11830708
C        0.34960289       1.95206303      -3.18483937
C        1.62761908       1.63555439      -2.65350153
C       -1.64531720       2.35607424       2.86565311
C       -1.67698566       0.84899537      -3.98112250
C       -1.73187097       2.64504214      -2.08496878
C        3.81115676       0.95383838      -1.10079792
C        2.68882434       1.55259986       0.78628100
C        3.21600936       0.26268237       1.02766140
C        2.38432573      -0.68237207       1.71160056
C       -2.22250869       1.58591460      -2.91686113
C        1.66040925       1.21060842       2.89753129
C       -0.33852831       2.74198866      -2.18408671
C       -1.40580771      -0.22212716       1.89045507
C       -2.91548576       1.11527688      -0.76794615
C       -2.16729945       2.01243669       1.59869181
C        3.95714031      -0.10965645      -0.10341657
C       -0.79930787      -1.29920453      -3.93101949
C        0.58340882      -0.70891220       3.53218904
C       -2.27469325       2.38883719      -0.75889954
C        2.86156806       1.90616517      -0.56988976
C        3.23488434      -1.02023899      -0.93721010
C        1.71646841      -1.65449753       0.92453747
C        0.21932927      -1.84797217       1.23557820
C       -0.24196598       2.43878671       2.78908482
C        0.47595814       2.84402855      -0.99474175
C       -3.07443766      -2.22662617       0.79616190
C       -1.38794869       0.59312441       4.56861149
C       -2.72863170       0.81498440       4.94905430
C       -2.71720495       0.63688296      -2.05144872
C       -0.01407942      -2.93374513      -0.88979127
C       -3.17649542       0.19846228       0.25962466
C       -0.61278020      -2.71162315       0.34561378
C       -0.26587136       0.99960406      -4.04519158
C       -2.23688082      -2.83512746      -1.32066346
C       -2.13628511       1.61296504       3.96033725
C       -1.99588100      -0.59052509      -3.75944465
C        2.18929476       0.33175925      -2.83886159
C       -1.57964750       2.64823157       0.42869204
C       -0.02833335       0.41985235       4.24163670
C       -2.66217813      -0.67610902      -2.47954430
C        1.21580369      -2.37181029      -1.33247853
C        1.78711689       2.30472801      -1.38360839
C        1.01245478      -1.94775721      -2.67379510
60
Properties=species:S:1:pos:R:3 trajectory=trial0001_proposal001_step004_proposal_relax trajectory_step=7 pbc="F F F"
C        0.52007883       2.68146175       1.57894095
C       -2.55035159       0.60358376       1.48909683
C       -0.33761723      -1.16070632       2.51174401
C        1.35597413      -0.71283993      -3.32693312
C        3.23374443      -0.02886556      -1.96332594
C       -0.24909049      -0.29954401       1.19778123
C        1.76550973       2.00909811       1.74316892
C        0.50077551       1.56433970       3.59295143
C       -0.97266256      -2.98054102      -1.97015116
C        0.24510186      -0.32731738      -4.09926636
C        2.13923264      -1.80336038      -0.43465692
C       -2.04272743      -2.91401648       0.15829159
C       -0.14997468       2.88327366       0.33607497
C       -0.34193034      -2.32176008      -3.08676542
C       -2.94887774      -1.62545721      -1.47727921
C        1.77285402      -0.18654102       2.88908415
C       -3.32900884      -1.17169574      -0.12222704
C        0.36155549       1.94342107      -3.18122296
C        1.63615564       1.62263975      -2.64148660
C       -1.64864475       2.36915928       2.86473754
C       -1.67339793       0.84982294      -3.99056338
C       -1.72203362       2.63469769      -2.09205247
C        3.81023292       0.93743004      -1.08041537
C        2.69286454       1.54557869       0.79946426
C        3.21315583       0.25282627       1.04312300
C        2.37530508      -0.68905060       1.71443188
C       -2.23162898       1.59457453      -2.93885160
C        1.65831959       1.20349464       2.90033216
C       -0.32841499       2.72476216      -2.18088865
C       -1.41371208      -0.20901218       1.89090281
C       -2.91011813       1.11295405      -0.77952330
C       -2.17366290       2.02697765       1.59537657
C        3.95262426      -0.12566420      -0.08487233
C       -0.80260216      -1.30031793      -3.94549298
C        0.58186068      -0.71589772       3.53901214
C       -2.26142995       2.37787949      -0.76835182
C        2.86663158       1.89685774      -0.55496016
C        3.23629134      -1.03086774      -0.92753990
C        1.70496084      -1.64920172       0.92009197
C        0.20781884      -1.83045811       1.23333222
C       -0.24341345       2.44183076       2.79457018
C        0.48082034       2.82968732      -0.98697174
C       -3.05592297      -2.19958604       0.80473305
C       -1.38568638       0.59850410       4.56178382
C       -2.71294287       0.82498484       4.95411338
C       -2.70422113       0.63764757      -2.06450383
C       -0.01700054      -2.92301884      -0.89818832
C       -3.16787939       0.20457189       0.24999700
C       -0.61730634      -2.70387427       0.34154441
C       -0.25988367       0.99731549      -4.03967015
C       -2.23859490      -2.82683132      -1.32421835
C       -2.13456658       1.61626820       3.96172236
C       -1.99786800      -0.58908332      -3.77031807
C        2.18660769       0.31811418      -2.82050035
C       -1.57767004       2.65040284       0.42486499
C       -0.02360036       0.42098914       4.23931148
C       -2.67511438      -0.67401767      -2.49441228
C        1.20924397      -2.36117341      -1.34262199
C        1.79055787       2.28964886      -1.37059077
C        1.00676932      -1.95050318      -2.68666053
60
Properties=species:S:1:pos:R:3 trajectory=trial0001_proposal001_step004_proposal_relax trajectory_step=8 pbc="F F F"
C        0.51947124       2.67539988       1.58540605
C       -2.55961797       0.62578989       1.48282166
C       -0.35459352      -1.14381348       2.51326561
C        1.35333867      -0.71828184      -3.32984650
C        3.23906473      -0.04680070      -1.94419732
C       -0.26734056      -0.28641457       1.19358798
C        1.76544218       2.00255416       1.75421472
C        0.50138939       1.56503259       3.59958010
C       -0.97826421      -2.97350376      -1.98017405
C        0.24559355      -0.32965005      -4.10695268
C        2.12651790      -1.80590202      -0.43479009
C       -2.04592458      -2.89102720       0.15218483
C       -0.14632415       2.87918967       0.34048481
C       -0.34832849      -2.32784156      -3.10656436
C       -2.95887914      -1.61791279      -1.49024930
C        1.76626723      -0.19632105       2.89509553
C       -3.30966367      -1.15517651      -0.12566675
C        0.37881644       1.93104341      -3.17397315
C        1.64878859       1.60343273      -2.62187114
C       -1.64987772       2.38443854       2.86573852
C       -1.66929222       0.85474916      -4.00770809
C       -1.70641490       2.62401651      -2.10409778
C        3.81345539       0.91357371      -1.05514303
C        2.69868645       1.53426407       0.82008134
C        3.21380221       0.23760320       1.06458587
C        2.36483599      -0.70231292       1.72062667
C       -2.23365199       1.60249591      -2.96223556
C        1.65785957       1.19659696       2.91024495
C       -0.31386827       2.70117470      -2.17407420
C       -1.42586638      -0.18757980       1.89285678
C       -2.89425500       1.11298367      -0.79991044
C       -2.18272840       2.04731856       1.59276682
C        3.95169157      -0.14816886      -0.06059155
C       -0.80703252      -1.30144539      -3.96271913
C        0.57278580      -0.72222063       3.54493508
C       -2.24596999       2.37140860      -0.78222918
C        2.87420090       1.87604299      -0.53397597
C        3.23975832      -1.04907753      -0.91114920
C        1.68334596      -1.64708794       0.91711044
C        0.18755260      -1.80810969       1.22387089
C       -0.24294360       2.44598506       2.80060514
C        0.49056748       2.81007827      -0.97685484
C       -3.03105350      -2.16427064       0.81888105
C       -1.38231657       0.60271990       4.55725152
C       -2.70103103       0.84408727       4.96534056
C       -2.69860105       0.64060491      -2.08617948
C       -0.02605437      -2.91006111      -0.90720232
C       -3.15833422       0.22041462       0.23699949
C       -0.62600164      -2.68963138       0.33289766
C       -0.25453570       0.99411399      -4.03536286
C       -2.24203241      -2.81287988      -1.33214261
C       -2.13025544       1.62269766       3.96161035
C       -2.00095963      -0.58576144      -3.79153711
C        2.18548655       0.29800652      -2.79564235
C       -1.57500199       2.65051588       0.41716141
C       -0.02418233       0.42049281       4.24128875
C       -2.68188021      -0.67127187      -2.51680486
C        1.19978086      -2.35257736      -1.35376638
C        1.79974836       2.26615577      -1.35005341
C        1.00031913      -1.95628497      -2.70273258
60
Properties=species:S:1:pos:R:3 trajectory=trial0001_proposal001_step004_proposal_relax trajectory_step=9 pbc="F F F"
C        0.52723538       2.66889398       1.59388989
C       -2.58360329       0.68663211       1.47573852
C       -0.39363646      -1.10215564       2.49889203
C        1.35950452      -0.74507100      -3.34597116
C        3.24538331      -0.10565553      -1.90451493
C       -0.30132235      -0.25432927       1.19402400
C        1.77375193       1.98190145       1.77897457
C        0.49513929       1.56319965       3.61871887
C       -1.00397269      -2.95604070      -2.00303103
C        0.25486787      -0.33248624      -4.11858408
C        2.09586980      -1.81497056      -0.42604370
C       -2.03635481      -2.85138458       0.12725902
C       -0.13775604       2.86238662       0.35138861
C       -0.36070116      -2.33910866      -3.13709160
C       -2.97033447      -1.58158451      -1.51678978
C        1.74239610      -0.21377760       2.91863173
C       -3.28172501      -1.10519287      -0.13945162
C        0.41209564       1.88941113      -3.15186141
C        1.66873094       1.55223640      -2.58608942
C       -1.65141459       2.40189532       2.86465797
C       -1.65107938       0.86563553      -4.05569342
C       -1.66577194       2.62760446      -2.12449572
C        3.83460527       0.86119561      -1.00691637
C        2.71596795       1.49412060       0.87128185
C        3.21726288       0.18988676       1.11463935
C        2.33725147      -0.73076172       1.74675606
C       -2.22257788       1.61066325      -3.00219729
C        1.65431168       1.17834545       2.93579455
C       -0.26914195       2.66397878      -2.16572168
C       -1.46467263      -0.13880342       1.89943947
C       -2.86374404       1.13147994      -0.84507876
C       -2.18933122       2.09164488       1.58735865
C        3.96300778      -0.20155340      -0.00794988
C       -0.80473125      -1.29975105      -4.00168840
C        0.54271373      -0.72357262       3.54309012
C       -2.21842925       2.37294085      -0.81641555
C        2.89061086       1.82662740      -0.48955388
C        3.23947930      -1.09815043      -0.86788106
C        1.64372062      -1.64225980       0.91465404
C        0.14138779      -1.76485105       1.20470879
C       -0.24060409       2.44343365       2.81429052
C        0.51377458       2.76915671      -0.95282626
C       -3.00349014      -2.07568494       0.83405779
C       -1.40256544       0.60890969       4.56767867
C       -2.69094458       0.89686421       5.00009984
C       -2.69634300       0.64417829      -2.13747023
C       -0.04689825      -2.88820894      -0.93512586
C       -3.13597384       0.24844567       0.20765985
C       -0.65899502      -2.65405763       0.30690067
C       -0.22585698       0.98827368      -4.04012987
C       -2.26674718      -2.78903646      -1.35086309
C       -2.12180601       1.65019957       3.94909311
C       -2.00450601      -0.58042274      -3.84454303
C        2.19581073       0.25169009      -2.76010095
C       -1.56106147       2.66600914       0.41076405
C       -0.02946548       0.42040213       4.25345024
C       -2.69555487      -0.65652329      -2.55964277
C        1.17710237      -2.34938280      -1.36766202
C        1.81990743       2.21789790      -1.30895791
C        0.99471306      -1.97776865      -2.72845408
60
Properties=species:S:1:pos:R:3 trajectory=trial0001_proposal001_step004_proposal_relax trajectory_step=10 pbc="F F F"
C        0.53208515       2.66492389       1.60113777
C       -2.59167861       0.69922594       1.46802182
C       -0.40570420      -1.08785643       2.49352373
C        1.36900066      -0.75488128      -3.35553286
C        3.25023572      -0.11881930      -1.89008563
C       -0.31527677      -0.24195324       1.20003087
C        1.77404503       1.97671817       1.78800825
C        0.49333213       1.56119993       3.62472637
C       -1.00945676      -2.95227544      -2.01049030
C        0.26166432      -0.33895117      -4.12478238
C        2.08587745      -1.82123574      -0.41904724
C       -2.06171494      -2.82863931       0.12192600
C       -0.13235544       2.86005854       0.35131836
C       -0.36299163      -2.33949709      -3.14619989
C       -2.97682983      -1.57638498      -1.52299104
C        1.73963077      -0.21886097       2.92395794
C       -3.27073753      -1.09439742      -0.14445862
C        0.42417291       1.87940750      -3.14558407
C        1.67783801       1.53612865      -2.57230846
C       -1.64453898       2.40705367       2.86623975
C       -1.64544833       0.87225732      -4.06714924
C       -1.65502635       2.62582836      -2.13721598
C        3.84112701       0.84143428      -0.99828994
C        2.72221074       1.48073942       0.88085940
C        3.22359774       0.17574943       1.12706468
C        2.33260670      -0.74310410       1.75501971
C       -2.20611459       1.61579383      -3.01055544
C        1.65422504       1.17982592       2.94790131
C       -0.26146680       2.65724540      -2.16038903
C       -1.47360868      -0.12517981       1.89821582
C       -2.85690824       1.13233153      -0.85972622
C       -2.19149679       2.10486945       1.58335215
C        3.96760148      -0.21827606       0.00397335
C       -0.80436745      -1.30005268      -4.00599621
C        0.52606857      -0.72268105       3.54231906
C       -2.20994783       2.38597509      -0.81771767
C        2.89737813       1.80415091      -0.47732878
C        3.24141889      -1.10937524      -0.85470084
C        1.62581935      -1.64543349       0.92102751
C        0.12666685      -1.75647210       1.19502769
C       -0.23700302       2.44451446       2.81313349
C        0.52412131       2.76063327      -0.94951016
C       -2.99362113      -2.06152257       0.83371094
C       -1.40066623       0.60901391       4.57339697
C       -2.70119263       0.92291715       5.00903085
C       -2.69675393       0.65942324      -2.14576688
C       -0.06148046      -2.88791920      -0.93567091
C       -3.12924954       0.27675729       0.19929902
C       -0.66275954      -2.64242165       0.29615002
C       -0.22377888       0.98646090      -4.04473944
C       -2.27419634      -2.77909431      -1.35989150
C       -2.12318409       1.64931451       3.95586370
C       -2.00296096      -0.57695938      -3.86073849
C        2.20045030       0.23399269      -2.75428599
C       -1.56253176       2.66679081       0.40025336
C       -0.04897687       0.41806991       4.26231876
C       -2.69094503      -0.65498908      -2.57764532
C        1.17557028      -2.35209777      -1.37062105
C        1.82926588       2.20008001      -1.29764671
C        0.99444919      -1.98595973      -2.73464647
60
Properties=species:S:1:pos:R:3 trajectory=trial0001_proposal001_step004_proposal_relax trajectory_step=11 pbc="F F F"
C        0.53739809       2.66407422       1.60181023
C       -2.59554372       0.70496078       1.46390106
C       -0.41045305      -1.08096441       2.48654672
C        1.38049266      -0.76522614      -3.36300509
C        3.25073789      -0.12672123      -1.88672702
C       -0.31888838      -0.23434251       1.20714313
C        1.77829285       1.97174895       1.79078533
C        0.48790040       1.55845581       3.62973576
C       -1.01630897      -2.95114045      -2.01240101
C        0.26886085      -0.34360462      -4.12729563
C        2.08199890      -1.82661531      -0.41098230
C       -2.07722388      -2.82136574       0.11731831
C       -0.12628872       2.85816398       0.35084046
C       -0.36210862      -2.33731875      -3.14429503
C       -2.97633114      -1.56984984      -1.52611195
C        1.73566660      -0.21875433       2.92960704
C       -3.27305861      -1.08273243      -0.14896879
C        0.42729550       1.87358340      -3.14158389
C        1.68060746       1.52583392      -2.56843348
C       -1.63868983       2.40269262       2.86640015
C       -1.63880079       0.87525808      -4.07219617
C       -1.64965980       2.63418958      -2.14073432
C        3.84637775       0.83145360      -0.99949765
C        2.72487111       1.47098891       0.88388973
C        3.22918741       0.16651328       1.13059830
C        2.33182439      -0.74915118       1.76171741
C       -2.18717188       1.61741951      -3.00717715
C        1.65415060       1.17984894       2.95581997
C       -0.25754321       2.66229517      -2.16070078
C       -1.48062482      -0.12092893       1.89619094
C       -2.85394763       1.14620026      -0.86308276
C       -2.18849684       2.10906484       1.58230229
C        3.97321572      -0.22708426       0.00656195
C       -0.79991224      -1.29858340      -4.00353500
C        0.51103170      -0.71711187       3.53878510
C       -2.21129372       2.39994533      -0.82000340
C        2.90097022       1.79047585      -0.47610250
C        3.23951401      -1.11585884      -0.84723409
C        1.61766645      -1.64907306       0.92849979
C        0.12192005      -1.75848967       1.18944928
C       -0.23335796       2.44097546       2.81107827
C        0.52984147       2.76050392      -0.94982538
C       -3.00047260      -2.06028597       0.82342516
C       -1.40945026       0.61004316       4.58401484
C       -2.71583080       0.94078273       5.01493953
C       -2.70030541       0.66669195      -2.15054360
C       -0.06933528      -2.89205388      -0.93602285
C       -3.13032560       0.28916858       0.19702327
C       -0.66804225      -2.63670980       0.29073303
C       -0.21875465       0.98449676      -4.05258130
C       -2.28211787      -2.77663255      -1.36508778
C       -2.12687901       1.65042970       3.95773428
C       -1.99897381      -0.57406938      -3.86700903
C        2.21060878       0.22491073      -2.76014777
C       -1.56033184       2.67205378       0.39770327
C       -0.06304623       0.41637409       4.26897734
C       -2.68395476      -0.64845810      -2.58252339
C        1.17489766      -2.36203060      -1.36685906
C        1.83573636       2.19176048      -1.29556711
C        0.99794865      -1.99260622      -2.73220092
60
Properties=species:S:1:pos:R:3 trajectory=trial0001_proposal001_step004_proposal_relax trajectory_step=12 pbc="F F F"
C        0.55450952       2.65394371       1.60596535
C       -2.60856530       0.73002472       1.45403354
C       -0.43182387      -1.05967861       2.47132245
C        1.40601114      -0.79432198      -3.37841220
C        3.25707134      -0.16014196      -1.87078535
C       -0.33113066      -0.20743102       1.21821253
C        1.78884012       1.95482088       1.80463246
C        0.47847817       1.55162765       3.64386382
C       -1.03501398      -2.94570237      -2.02115757
C        0.29070506      -0.35618215      -4.13610022
C        2.06697494      -1.84449956      -0.39263475
C       -2.10173601      -2.80625426       0.09920280
C       -0.10918372       2.85183754       0.35140832
C       -0.36366275      -2.33442091      -3.14436256
C       -2.97625749      -1.54205519      -1.54212195
C        1.71819280      -0.22643879       2.94625219
C       -3.27764137      -1.04755509      -0.16715125
C        0.44337480       1.85189326      -3.13138887
C        1.69087312       1.49004837      -2.55398669
C       -1.62886193       2.39728042       2.86455720
C       -1.61623848       0.88320491      -4.08876172
C       -1.62893875       2.65597546      -2.15138473
C        3.85889641       0.79396153      -0.98819256
C        2.73624184       1.43974946       0.89610218
C        3.23932737       0.13646213       1.15027156
C        2.32216082      -0.76718401       1.78398540
C       -2.14686278       1.62373590      -3.01505907
C        1.65060316       1.17339761       2.97778473
C       -0.23432201       2.66614651      -2.16088831
C       -1.50596483      -0.10354898       1.88966996
C       -2.84853791       1.17698521      -0.87906028
C       -2.18367999       2.12848762       1.57712744
C        3.98388021      -0.26137654       0.02431766
C       -0.78863548      -1.29467657      -4.00512443
C        0.47309408      -0.70726895       3.53640930
C       -2.20298007       2.43546563      -0.83150638
C        2.91360437       1.74999325      -0.46307524
C        3.23301066      -1.13996172      -0.82478578
C        1.59302956      -1.65572184       0.94278755
C        0.10079622      -1.75253991       1.17817508
C       -0.22628573       2.43129179       2.81101826
C        0.55000684       2.75174460      -0.94712112
C       -3.02159121      -2.03436796       0.80147135
C       -1.43780493       0.61981436       4.60983604
C       -2.74664289       0.99170757       5.03665915
C       -2.69641294       0.69495972      -2.16529879
C       -0.09113561      -2.89581207      -0.94179066
C       -3.13240273       0.32771125       0.17911815
C       -0.69070578      -2.61971043       0.27673013
C       -0.19250871       0.97813331      -4.06645472
C       -2.30619528      -2.76369728      -1.38053949
C       -2.13611529       1.66257384       3.95608029
C       -1.98766758      -0.56287992      -3.88554035
C        2.23590488       0.19543687      -2.76679091
C       -1.54961695       2.69025716       0.39225752
C       -0.09487210       0.41458050       4.28319629
C       -2.67459336      -0.63057530      -2.60048921
C        1.16853713      -2.38332456      -1.36031183
C        1.85193596       2.15978330      -1.28579292
C        1.00401728      -2.01211298      -2.73128366
60
Properties=species:S:1:pos:R:3 trajectory=trial0001_proposal001_step004_proposal_relax trajectory_step=13 pbc="F F F"
C        0.57802519       2.62577462       1.61427454
C       -2.63824106       0.78264402       1.42700555
C       -0.47964694      -1.02326903       2.45347983
C        1.44425797      -0.84322091      -3.39291895
C        3.27140419      -0.22695847      -1.84604820
C       -0.35759550      -0.15564412       1.22786953
C        1.81413174       1.91422126       1.82779888
C        0.46160689       1.54259533       3.67072492
C       -1.06827218      -2.93245111      -2.03787193
C        0.33388291      -0.38006229      -4.15266068
C        2.03926699      -1.87832043      -0.36610644
C       -2.15661402      -2.77420942       0.07398689
C       -0.07193929       2.84044567       0.35636344
C       -0.37022780      -2.33269082      -3.15022872
C       -2.97778726      -1.49130754      -1.57245701
C        1.67817021      -0.24820069       2.97852564
C       -3.29075190      -0.98071326      -0.20862916
C        0.48651162       1.81239986      -3.11378892
C        1.71489801       1.42107123      -2.52640555
C       -1.61711817       2.40078912       2.85461655
C       -1.55842166       0.89465388      -4.11844502
C       -1.57594068       2.69226788      -2.17848536
C        3.87768340       0.71616314      -0.95076740
C        2.75142535       1.38605820       0.93433368
C        3.24726647       0.07871885       1.19432653
C        2.29497742      -0.80258774       1.81982344
C       -2.08916714       1.65702948      -3.03668754
C        1.64590528       1.14631471       3.01166488
C       -0.18863966       2.66222905      -2.16329728
C       -1.54566663      -0.07353965       1.87044819
C       -2.83113128       1.25361190      -0.91501302
C       -2.17971077       2.17046758       1.56280105
C        3.99068470      -0.33533637       0.07108526
C       -0.77092854      -1.28846566      -4.01429954
C        0.40725344      -0.70283853       3.54222082
C       -2.17686098       2.48855472      -0.85151686
C        2.93395053       1.68120718      -0.44090512
C        3.21719158      -1.19742557      -0.78318421
C        1.54915653      -1.66312461       0.96131528
C        0.05485097      -1.73047858       1.16695396
C       -0.21466453       2.41485494       2.81282098
C        0.59208451       2.72597330      -0.94025275
C       -3.05105106      -1.97949097       0.75195814
C       -1.48504965       0.65549308       4.64212046
C       -2.78279397       1.08563625       5.07081985
C       -2.67841407       0.72763401      -2.20639521
C       -0.12750401      -2.89237554      -0.95115051
C       -3.14548175       0.38865479       0.15036161
C       -0.72472787      -2.59163821       0.25628869
C       -0.13985230       0.96218731      -4.08207234
C       -2.34215726      -2.73326296      -1.41001355
C       -2.16137866       1.68595472       3.95960114
C       -1.96201076      -0.53977813      -3.91064432
C        2.27897442       0.13540938      -2.76503147
C       -1.52408214       2.72579473       0.38179699
C       -0.14977610       0.41896875       4.30566949
C       -2.66412728      -0.57275476      -2.63324482
C        1.14882883      -2.41473968      -1.35425024
C        1.88284389       2.09206687      -1.26184324
C        1.00798909      -2.04736518      -2.73134662
60
Properties=species:S:1:pos:R:3 trajectory=trial0001_proposal001_step004_proposal_relax trajectory_step=14 pbc="F F F"
C        0.59118310       2.60546422       1.61800757
C       -2.65115960       0.80802058       1.41244503
C       -0.50588932      -1.00887249       2.45012776
C        1.46054489      -0.86869483      -3.39419504
C        3.28288236      -0.26455055      -1.83207147
C       -0.36728285      -0.12905478       1.22586049
C        1.82117165       1.89322854       1.84361728
C        0.45728504       1.53748989       3.68213227
C       -1.08227697      -2.92575324      -2.04372877
C        0.35709659      -0.39326723      -4.16085472
C        2.02436337      -1.89835751      -0.35500331
C       -2.17637478      -2.76288420       0.06029992
C       -0.05108270       2.83555971       0.35834412
C       -0.37380618      -2.33213746      -3.15277638
C       -2.97848801      -1.45994425      -1.59239681
C        1.65492830      -0.26518565       2.99328841
C       -3.30234036      -0.94576530      -0.23386543
C        0.51118657       1.79385106      -3.10899533
C        1.73073673       1.38527109      -2.51405031
C       -1.61603028       2.40374888       2.84986888
C       -1.52748795       0.90416154      -4.12345044
C       -1.54930345       2.71084819      -2.18804997
C        3.88340689       0.67225261      -0.92835787
C        2.76269252       1.35830349       0.94657236
C        3.24545438       0.04877621       1.21855061
C        2.27754782      -0.82066686       1.83698460
C       -2.06326503       1.67578815      -3.05822829
C        1.63981788       1.12912319       3.02866473
C       -0.15579784       2.65709453      -2.16637346
C       -1.57013496      -0.05732588       1.85661987
C       -2.82973780       1.28514720      -0.93028417
C       -2.17751481       2.19249487       1.55332237
C        3.98563045      -0.37700799       0.09583782
C       -0.76019785      -1.28703420      -4.01793143
C        0.37264757      -0.70398944       3.55096237
C       -2.15634842       2.51647702      -0.86832687
C        2.94665344       1.64505458      -0.42289191
C        3.20959494      -1.22686326      -0.76530584
C        1.52713371      -1.66642680       0.96958986
C        0.03409033      -1.71906290       1.16621565
C       -0.21171571       2.40612856       2.81381480
C        0.61429992       2.71176387      -0.93678362
C       -3.07382667      -1.94886715       0.72442778
C       -1.51038783       0.67992461       4.65623565
C       -2.79837496       1.13234760       5.08795080
C       -2.66156288       0.76719006      -2.21896973
C       -0.14406112      -2.88954100      -0.95558196
C       -3.15698780       0.42332551       0.12571276
C       -0.75035414      -2.58123816       0.25315242
C       -0.10458243       0.95274896      -4.08434364
C       -2.35898954      -2.71298143      -1.42498604
C       -2.17630675       1.70691676       3.95401559
C       -1.94336808      -0.52330476      -3.91721000
C        2.29908272       0.10469860      -2.76173917
C       -1.50546859       2.74570281       0.37912848
C       -0.17282614       0.42223746       4.31241988
C       -2.66102839      -0.55185836      -2.64790819
C        1.13765727      -2.42902970      -1.35067099
C        1.89527218       2.05602247      -1.25295581
C        1.00748882      -2.06390164      -2.73078929
60
Properties=species:S:1:pos:R:3 trajectory=trial0001_proposal001_step004_proposal_relax trajectory_step=15 pbc="F F F"
C        0.61339793       2.55833446       1.62762602
C       -2.67758215       0.86089455       1.37568064
C       -0.56494745      -0.98149206       2.44578559
C        1.48364645      -0.91622259      -3.38622278
C        3.31021316      -0.34525531      -1.80186892
C       -0.39106311      -0.08414765       1.21869715
C        1.83125927       1.84597688       1.87499016
C        0.45152317       1.52922063       3.70032388
C       -1.10471393      -2.90841124      -2.05368054
C        0.40391166      -0.42120397      -4.17450160
C        1.99134046      -1.93840331      -0.33806603
C       -2.20856022      -2.73688956       0.03417545
C       -0.00909363       2.82547756       0.36160217
C       -0.38271020      -2.33673220      -3.16071725
C       -2.98291490      -1.39607844      -1.63461917
C        1.60321623      -0.30973402       3.02111841
C       -3.33006533      -0.87945489      -0.29026122
C        0.57335758       1.75678514      -3.10356456
C        1.76980945       1.31608141      -2.48929315
C       -1.61938905       2.42066689       2.83542610
C       -1.45693399       0.92396130      -4.12704842
C       -1.48118088       2.74381463      -2.21177196
C        3.89068313       0.57782407      -0.87251242
C        2.78183385       1.30503636       0.98165672
C        3.23066598      -0.01347591       1.27091191
C        2.23348115      -0.85778364       1.86890978
C       -2.02162038       1.72917697      -3.10681207
C        1.62379821       1.08657047       3.05904087
C       -0.08622336       2.63742847      -2.17215157
C       -1.61204230      -0.02381439       1.82127494
C       -2.82531412       1.34849075      -0.96613850
C       -2.17426304       2.23955749       1.52916795
C        3.96105592      -0.46663742       0.15219045
C       -0.73958893      -1.28564482      -4.03009259
C        0.30526608      -0.71537928       3.57434424
C       -2.09992421       2.56612006      -0.89673409
C        2.97021347       1.57469229      -0.38524131
C        3.19486384      -1.29460256      -0.73219523
C        1.48210885      -1.67344177       0.97819977
C       -0.01002565      -1.69239895       1.17211602
C       -0.21117354       2.38957057       2.81628358
C        0.66261531       2.67444273      -0.92924966
C       -3.11831859      -1.87950816       0.66797158
C       -1.55603500       0.74241635       4.66987617
C       -2.81007114       1.22482355       5.11360468
C       -2.63113025       0.83973161      -2.25150649
C       -0.18002069      -2.87787360      -0.95601317
C       -3.18540708       0.49527206       0.07236668
C       -0.80026479      -2.56634423       0.25206494
C       -0.03026722       0.93444108      -4.07952658
C       -2.38596151      -2.66320167      -1.45239310
C       -2.20938197       1.75478906       3.94414991
C       -1.90068717      -0.48578919      -3.92055340
C        2.33325260       0.03989719      -2.74194994
C       -1.46466671       2.78298397       0.36807067
C       -0.21327150       0.43365855       4.32254677
C       -2.65562804      -0.49174637      -2.67543445
C        1.11222629      -2.44918064      -1.34590621
C        1.92288144       1.98068323      -1.22835749
C        0.99930990      -2.09437629      -2.73069616
60
Properties=species:S:1:pos:R:3 trajectory=trial0001_proposal001_step004_proposal_relax trajectory_step=16 pbc="F F F"
C        0.62105670       2.52812579       1.63274539
C       -2.69388082       0.90271782       1.34179083
C       -0.60755283      -0.96082200       2.44233778
C        1.49902292      -0.94788696      -3.37961084
C        3.32893606      -0.40647574      -1.77948954
C       -0.40635964      -0.06593576       1.21425058
C        1.83464263       1.80862395       1.89736238
C        0.44163705       1.52274597       3.71078327
C       -1.12048645      -2.89282688      -2.05727315
C        0.43517881      -0.43864329      -4.18146055
C        1.96637044      -1.96503330      -0.32676279
C       -2.24362322      -2.70046278       0.01507298
C        0.02146863       2.81638347       0.36232618
C       -0.38729006      -2.34293189      -3.16766992
C       -2.99073138      -1.34861955      -1.66472952
C        1.56349616      -0.34124762       3.04260247
C       -3.35057800      -0.83101327      -0.33001857
C        0.62888139       1.73377370      -3.09855684
C        1.80672409       1.27043557      -2.47048294
C       -1.62242182       2.43897301       2.82056141
C       -1.40272559       0.94138551      -4.12523590
C       -1.42315538       2.76298506      -2.22698698
C        3.89842261       0.51037174      -0.83105922
C        2.79243668       1.26409798       1.01436015
C        3.21331792      -0.06237467       1.30870339
C        2.19674174      -0.89051304       1.88886025
C       -1.99069409       1.77480535      -3.13725248
C        1.61200985       1.05234124       3.07866300
C       -0.02813209       2.61850350      -2.17597014
C       -1.64646401       0.00534164       1.79217538
C       -2.81881070       1.40256730      -0.99946631
C       -2.16832241       2.27182277       1.50623979
C        3.93795401      -0.53129033       0.19439511
C       -0.72582645      -1.28578836      -4.03872843
C        0.25337565      -0.72609336       3.58548923
C       -2.05888856       2.59352970      -0.92015493
C        2.98750142       1.51917004      -0.35421792
C        3.18406279      -1.35238440      -0.70704521
C        1.44734421      -1.68367448       0.98459661
C       -0.04708414      -1.68108591       1.17631702
C       -0.21268982       2.37875826       2.81530029
C        0.70025868       2.64419590      -0.92286078
C       -3.14916236      -1.83103552       0.63062308
C       -1.57949978       0.78500028       4.67281958
C       -2.81676314       1.29768489       5.12699664
C       -2.62160293       0.89863655      -2.28040715
C       -0.20117113      -2.87188884      -0.95483768
C       -3.20538738       0.54410612       0.03436272
C       -0.83291876      -2.55641149       0.25926916
C        0.02135596       0.92133829      -4.07586877
C       -2.39857077      -2.62140860      -1.47347313
C       -2.22926012       1.79529567       3.93465402
C       -1.86471401      -0.45416462      -3.91695755
C        2.35411813      -0.01120893      -2.71918036
C       -1.43156891       2.80345111       0.35679018
C       -0.24442058       0.44340461       4.32891705
C       -2.64633611      -0.44455000      -2.69675745
C        1.08751318      -2.46198462      -1.33904078
C        1.94698928       1.92837868      -1.20641588
C        0.99176574      -2.11759881      -2.72630151
60
Properties=species:S:1:pos:R:3 trajectory=trial0001_proposal001_step004_proposal_relax trajectory_step=17 pbc="F F F"
C        0.64476384       2.45724112       1.64624257
C       -2.73094942       1.00911006       1.24541774
C       -0.71531735      -0.90512463       2.42305698
C        1.53652734      -1.03492737      -3.36109999
C        3.37389865      -0.56391131      -1.71186660
C       -0.45583727      -0.04323428       1.21607595
C        1.83268045       1.71700153       1.94723772
C        0.41274710       1.50353835       3.72738897
C       -1.15609952      -2.84983661      -2.06295389
C        0.51303538      -0.48446957      -4.19181168
C        1.89420395      -2.03278077      -0.28883979
C       -2.32140283      -2.59505774      -0.03498919
C        0.09655749       2.78889352       0.35827134
C       -0.39635722      -2.35984956      -3.18057818
C       -3.00984498      -1.22690748      -1.74500470
C        1.46397009      -0.42541661       3.09110950
C       -3.40754680      -0.70254962      -0.42590064
C        0.77551443       1.67789315      -3.09177814
C        1.91283571       1.16102425      -2.42173701
C       -1.62666879       2.48578718       2.77988382
C       -1.26658068       0.99464309      -4.11195288
C       -1.26138172       2.80735016      -2.26239106
C        3.92096492       0.33769888      -0.73524656
C        2.81153358       1.15403955       1.10039413
C        3.16505743      -0.19510895       1.39940925
C        2.10007296      -0.97708542       1.94534000
C       -1.89206658       1.88972970      -3.20691387
C        1.56893064       0.97483937       3.13266159
C        0.11486992       2.57718079      -2.18043490
C       -1.71776204       0.07356282       1.71209498
C       -2.81336936       1.53388426      -1.07279812
C       -2.14350483       2.35132458       1.44381872
C        3.87961754      -0.69352670       0.29067625
C       -0.68780272      -1.28321381      -4.05381373
C        0.11690466      -0.74069515       3.60732941
C       -1.94733802       2.67203779      -0.97140392
C        3.02728861       1.37515990      -0.27528894
C        3.16313525      -1.49774378      -0.64160664
C        1.35296920      -1.72417823       1.00446381
C       -0.13874786      -1.66928273       1.18659501
C       -0.21802465       2.35393344       2.80376457
C        0.80139649       2.56871156      -0.90555466
C       -3.24181792      -1.70770454       0.54628653
C       -1.64926855       0.89304831       4.67776610
C       -2.83001207       1.49007865       5.14653826
C       -2.62767698       1.03838957      -2.37428639
C       -0.27815103      -2.86877411      -0.92597079
C       -3.24861790       0.67600204      -0.07012018
C       -0.92371442      -2.54244870       0.26012475
C        0.15179195       0.90025839      -4.06740933
C       -2.43314172      -2.50317100      -1.52353391
C       -2.26968332       1.90170174       3.90988617
C       -1.76749624      -0.37391113      -3.90312674
C        2.40863301      -0.13572886      -2.65830750
C       -1.35226486       2.84321946       0.31450050
C       -0.32615190       0.45693169       4.34239903
C       -2.61702442      -0.30912299      -2.74130593
C        1.03656785      -2.49363818      -1.31663521
C        2.02490209       1.80133472      -1.14463321
C        0.97574284      -2.17255302      -2.71434792
60
Properties=species:S:1:pos:R:3 trajectory=trial0001_proposal001_step004_proposal_relax trajectory_step=18 pbc="F F F"
C        0.65468642       2.43164650       1.64439618
C       -2.73261011       1.05689758       1.19168175
C       -0.76212093      -0.88833100       2.41601902
C        1.55567975      -1.06845991      -3.34059700
C        3.38535647      -0.64150373      -1.67775164
C       -0.47629362      -0.06132031       1.21339904
C        1.82380211       1.66765176       1.96640882
C        0.37968580       1.49107136       3.72747480
C       -1.17683651      -2.82309943      -2.06030692
C        0.55030806      -0.50086000      -4.18385393
C        1.86440221      -2.06200299      -0.26564450
C       -2.36734281      -2.52489927      -0.05730096
C        0.13412849       2.76747402       0.35158982
C       -0.39783054      -2.36866204      -3.17449530
C       -3.01949226      -1.15823229      -1.77595598
C        1.40750837      -0.45896435       3.11438840
C       -3.44880999      -0.64749598      -0.47309737
C        0.86495616       1.66315256      -3.08448832
C        1.97327807       1.12266522      -2.40229059
C       -1.62288675       2.51177788       2.75093363
C       -1.18807395       1.01974478      -4.09698430
C       -1.17604456       2.81429041      -2.27112465
C        3.93108246       0.25801210      -0.68871974
C        2.80753980       1.08967123       1.14236552
C        3.13006666      -0.26632938       1.43384242
C        2.04713708      -1.02770211       1.97193821
C       -1.83459363       1.94424146      -3.22019659
C        1.54075251       0.93447391       3.14630366
C        0.19657714       2.55975613      -2.17702175
C       -1.75529464       0.10296962       1.66281328
C       -2.81131338       1.61173200      -1.14041598
C       -2.12362239       2.38114454       1.40522372
C        3.84994851      -0.76813840       0.33479646
C       -0.66818243      -1.27275027      -4.04970720
C        0.04875317      -0.74222907       3.60550443
C       -1.89428825       2.69884215      -0.99439386
C        3.05067868       1.30109207      -0.23208357
C        3.14420433      -1.57959353      -0.60532448
C        1.30242788      -1.76008173       1.02258068
C       -0.18332445      -1.69228760       1.19261782
C       -0.22377183       2.34456350       2.79099155
C        0.85986225       2.53208625      -0.89672770
C       -3.30014386      -1.64532999       0.50746207
C       -1.67489202       0.94210457       4.66499371
C       -2.83235720       1.59274438       5.13662038
C       -2.65848228       1.12987844      -2.41897502
C       -0.30117304      -2.88044178      -0.92452476
C       -3.26352249       0.74412832      -0.11318741
C       -0.97356650      -2.53845700       0.27551419
C        0.21811311       0.89444138      -4.06512640
C       -2.44397044      -2.43178620      -1.54393360
C       -2.27809044       1.96350368       3.89133005
C       -1.71318244      -0.32961731      -3.87996460
C        2.43752239      -0.19819021      -2.62447767
C       -1.30631407       2.85197448       0.28663599
C       -0.38099897       0.46669886       4.34588799
C       -2.59893434      -0.23612443      -2.76466452
C        0.99613287      -2.51613031      -1.29399546
C        2.07221146       1.75322655      -1.11741524
C        0.96704843      -2.20104023      -2.69387583
60
Properties=species:S:1:pos:R:3 trajectory=trial0001_proposal001_step004_proposal_relax trajectory_step=19 pbc="F F F"
C        0.65794865       2.42820100       1.64138173
C       -2.72401340       1.08032945       1.16243133
C       -0.78140036      -0.88595514       2.41067490
C        1.56300727      -1.08214537      -3.32497071
C        3.38346976      -0.67908516      -1.65194311
C       -0.48932548      -0.08627805       1.21078081
C        1.81538342       1.64362100       1.97102933
C        0.35584445       1.48285572       3.72045602
C       -1.19206297      -2.80712875      -2.05973285
C        0.56701664      -0.50235472      -4.17064864
C        1.84304043      -2.07724127      -0.24968035
C       -2.39598094      -2.47501896      -0.06426808
C        0.15364995       2.75070831       0.34588042
C       -0.39889023      -2.36650695      -3.17285453
C       -3.02381575      -1.11909340      -1.78877654
C        1.38015836      -0.46922649       3.12268223
C       -3.47074052      -0.61036274      -0.48945494
C        0.91175803       1.66279420      -3.08067798
C        2.01249015       1.10930970      -2.39080175
C       -1.61720419       2.52686459       2.73131131
C       -1.15401376       1.03436387      -4.08615764
C       -1.13160715       2.80560333      -2.26770043
C        3.93719087       0.22106878      -0.66752907
C        2.79785021       1.04981847       1.16194733
C        3.10790988      -0.30533542       1.44773482
C        2.01932417      -1.05819196       1.98677601
C       -1.79699354       1.96090354      -3.22129162
C        1.51761515       0.91972152       3.14971342
C        0.24025716       2.55198739      -2.17061358
C       -1.76986444       0.11162315       1.63710064
C       -2.81566963       1.65391684      -1.16276581
C       -2.10919266       2.39289777       1.38504967
C        3.84120945      -0.80437569       0.35408526
C       -0.65780792      -1.26630036      -4.03785230
C        0.01465342      -0.73716022       3.59743269
C       -1.87109831       2.70195698      -1.01308869
C        3.06224220       1.26583653      -0.20912534
C        3.13551511      -1.61873302      -0.58239491
C        1.27641914      -1.78785427       1.03774315
C       -0.20939482      -1.71794909       1.19477191
C       -0.22376023       2.34409278       2.77930171
C        0.89190774       2.51582579      -0.88878196
C       -3.32591054      -1.61264639       0.49771103
C       -1.68452041       0.95799065       4.65146437
C       -2.83215550       1.64674563       5.12215178
C       -2.68599262       1.17214871      -2.46348718
C       -0.32378015      -2.89428078      -0.91792113
C       -3.25979957       0.77715578      -0.14108970
C       -0.99389761      -2.53968835       0.27339297
C        0.25427812       0.89782101      -4.06447786
C       -2.44499813      -2.39113203      -1.55008402
C       -2.27072812       1.99891356       3.87522587
C       -1.68786278      -0.30613048      -3.86703816
C        2.45069462      -0.22253310      -2.60535160
C       -1.28465327       2.84636260       0.27107661
C       -0.41308441       0.46879495       4.34451244
C       -2.59623558      -0.20056149      -2.77637799
C        0.98142627      -2.52742280      -1.27941763
C        2.10556065       1.73815641      -1.10268232
C        0.96412338      -2.21410069      -2.67969092
60
Properties=species:S:1:pos:R:3 trajectory=trial0001_proposal001_step004_proposal_relax trajectory_step=20 pbc="F F F"
C        0.67959921       2.41192684       1.64203038
C       -2.71581042       1.12821273       1.10555660
C       -0.82988947      -0.88391869       2.39774570
C        1.58418828      -1.11678365      -3.29517212
C        3.38077030      -0.75508288      -1.59779291
C       -0.51920619      -0.11163096       1.19888702
C        1.80606487       1.59559740       1.98289229
C        0.31466588       1.46946764       3.71160538
C       -1.22512478      -2.77983442      -2.06828884
C        0.60953407      -0.51065385      -4.14702689
C        1.79813669      -2.11789124      -0.21067377
C       -2.44806915      -2.39265774      -0.07915817
C        0.19576922       2.72009586       0.33773266
C       -0.40493580      -2.35889192      -3.16632410
C       -3.03022185      -1.03902310      -1.81507667
C        1.32412726      -0.49637349       3.14097095
C       -3.50954009      -0.51961730      -0.52921922
C        1.00014183       1.65299893      -3.07143973
C        2.08702509       1.07205497      -2.36417799
C       -1.60148370       2.55570741       2.69426022
C       -1.07486935       1.05720514      -4.07927818
C       -1.04422813       2.79397746      -2.26847119
C        3.95064031       0.13537721      -0.61933704
C        2.78324957       0.96743482       1.19475658
C        3.07362707      -0.38848368       1.48267892
C        1.96750518      -1.11752038       2.02561397
C       -1.71850886       1.99384378      -3.23703029
C        1.47360139       0.89181943       3.16269034
C        0.32312000       2.54012188      -2.15993344
C       -1.80019737       0.12446162       1.58885237
C       -2.82614941       1.73454495      -1.22302672
C       -2.08384436       2.42590836       1.34799314
C        3.83096801      -0.89077745       0.40585513
C       -0.63580835      -1.24457707      -4.01593016
C       -0.05960165      -0.72920803       3.59228704
C       -1.81917443       2.72200130      -1.04370166
C        3.08964119       1.19285674      -0.16539608
C        3.11429240      -1.69402303      -0.53033312
C        1.21965525      -1.84181512       1.07181857
C       -0.26128207      -1.75545206       1.20078301
C       -0.21838581       2.34316212       2.75868913
C        0.96007864       2.48439217      -0.87391879
C       -3.37506064      -1.53305514       0.46983920
C       -1.73274545       1.00336710       4.63714632
C       -2.83661666       1.75794122       5.09859799
C       -2.72551093       1.25741050      -2.53421421
C       -0.37517890      -2.91645554      -0.91150478
C       -3.25462053       0.85029715      -0.19353848
C       -1.04553782      -2.53671801       0.25882564
C        0.33008840       0.90280398      -4.06402448
C       -2.46615372      -2.30528327      -1.56373685
C       -2.26646462       2.06394325       3.84955850
C       -1.64139469      -0.26364277      -3.85608002
C        2.48704318      -0.27400035      -2.57183633
C       -1.24342604       2.84529924       0.23874358
C       -0.47214208       0.46685747       4.34010436
C       -2.60092377      -0.12889859      -2.80980496
C        0.94859271      -2.56051304      -1.25594045
C        2.17489996       1.69671127      -1.07337949
C        0.96057086      -2.24142014      -2.65665828
60
Properties=species:S:1:pos:R:3 trajectory=trial0001_proposal001_step004_proposal_relax trajectory_step=21 pbc="F F F"
C        0.71191583       2.39280208       1.63570297
C       -2.69719144       1.17667321       1.04590752
C       -0.89267951      -0.90436455       2.38165066
C        1.60486705      -1.14766507      -3.24492577
C        3.37404842      -0.83643964      -1.52653517
C       -0.55471463      -0.14192615       1.17043830
C        1.79993640       1.53833087       1.99314985
C        0.27232782       1.45553803       3.69869294
C       -1.27605683      -2.74818667      -2.07551349
C        0.65836852      -0.51639566      -4.10790191
C        1.74724101      -2.17878036      -0.16637774
C       -2.49171915      -2.31303881      -0.09562817
C        0.24526603       2.68878955       0.33120334
C       -0.41316385      -2.34002128      -3.15316195
C       -3.04372720      -0.93310051      -1.84361498
C        1.25355150      -0.52955690       3.15987039
C       -3.54839540      -0.42018791      -0.57561822
C        1.10641787       1.64516286      -3.05860887
C        2.17036191       1.04336920      -2.34241921
C       -1.58579702       2.59553715       2.65456593
C       -0.98743662       1.07666929      -4.06903495
C       -0.94701936       2.76674972      -2.26886595
C        3.96378610       0.02943180      -0.54866388
C        2.75975985       0.87374127       1.22119956
C        3.02946310      -0.48010701       1.52687429
C        1.90842395      -1.18652991       2.07067742
C       -1.64746734       2.02310490      -3.26015649
C        1.42623672       0.85308135       3.16760032
C        0.42094076       2.52392629      -2.14709996
C       -1.82708826       0.12164035       1.52892750
C       -2.84314362       1.82742764      -1.27800964
C       -2.05618371       2.46095452       1.30359172
C        3.81911335      -0.99773364       0.47327630
C       -0.60330568      -1.21120745      -3.98241778
C       -0.13580885      -0.73472060       3.58993120
C       -1.75730818       2.73525136      -1.08160351
C        3.13107354       1.11326839      -0.11425437
C        3.07521000      -1.77270296      -0.46888760
C        1.15873446      -1.91184137       1.11639389
C       -0.31805355      -1.79861332       1.22023334
C       -0.21293653       2.35070387       2.73944976
C        1.04296882       2.45270519      -0.85850453
C       -3.42271503      -1.41674856       0.43943030
C       -1.77547939       1.05015589       4.60508244
C       -2.84890055       1.88167634       5.06918245
C       -2.74148129       1.34591768      -2.63484928
C       -0.43801263      -2.93955090      -0.91748658
C       -3.24986024       0.94540325      -0.25799080
C       -1.11593618      -2.53578672       0.24905447
C        0.42693288       0.90543170      -4.05363991
C       -2.48495467      -2.20548469      -1.57406769
C       -2.26001459       2.14795256       3.80013259
C       -1.59995317      -0.21271001      -3.84338186
C        2.52910530      -0.32597799      -2.52753603
C       -1.18852181       2.84055116       0.20461019
C       -0.55142031       0.48082733       4.32646972
C       -2.62348194      -0.03906351      -2.85895856
C        0.90722490      -2.60489394      -1.22720744
C        2.25407543       1.66011736      -1.04665158
C        0.94806682      -2.26595881      -2.62863661
60
Properties=species:S:1:pos:R:3 trajectory=trial0001_proposal001_step004_proposal_relax trajectory_step=22 pbc="F F F"
C        0.72235233       2.39148252       1.63454968
C       -2.68074859       1.18515238       1.03097189
C       -0.90964813      -0.93242604       2.37561985
C        1.60721103      -1.14772305      -3.21617202
C        3.36456802      -0.85391438      -1.49803281
C       -0.55979496      -0.16211436       1.15154286
C        1.79736246       1.52275974       1.99089336
C        0.26339012       1.45440297       3.68550886
C       -1.29350402      -2.73738829      -2.08210764
C        0.67377693      -0.50990639      -4.08216263
C        1.72882360      -2.20932217      -0.14973326
C       -2.50675420      -2.28589703      -0.09718330
C        0.26353107       2.68181324       0.32658368
C       -0.42016776      -2.32431727      -3.14331694
C       -3.05070699      -0.89794318      -1.85051947
C        1.23108896      -0.53981602       3.16040767
C       -3.55417411      -0.38215971      -0.58725062
C        1.13704464       1.65076075      -3.05721168
C        2.20393067       1.04491150      -2.33877317
C       -1.57846110       2.61580154       2.63424352
C       -0.96542247       1.07847301      -4.06345247
C       -0.92753969       2.74127757      -2.26548616
C        3.96850046      -0.00153814      -0.51892646
C        2.74824047       0.84290957       1.21885588
C        3.01217838      -0.50437048       1.53915138
C        1.89145521      -1.20901879       2.08449498
C       -1.62581975       2.02492889      -3.27261944
C        1.40828407       0.84097997       3.16270269
C        0.45016918       2.51835305      -2.14329017
C       -1.83641423       0.10660277       1.50712161
C       -2.84540079       1.85462530      -1.30160808
C       -2.04355987       2.46620060       1.29081561
C        3.81451898      -1.03441801       0.50172262
C       -0.59516596      -1.19391003      -3.96044430
C       -0.15657797      -0.74187121       3.58832484
C       -1.74005353       2.72601195      -1.09527092
C        3.14579892       1.09802675      -0.10341838
C        3.05320306      -1.78849044      -0.44853591
C        1.14589245      -1.94353142       1.13534328
C       -0.33709899      -1.82025378       1.23345345
C       -0.20340601       2.36056388       2.73253288
C        1.06922240       2.45129427      -0.85312128
C       -3.41786816      -1.37342867       0.43612951
C       -1.80720072       1.07565193       4.58449561
C       -2.84097328       1.90979210       5.03492260
C       -2.73815273       1.37785034      -2.65656445
C       -0.46498965      -2.94742668      -0.91741023
C       -3.24821267       0.97168129      -0.27376895
C       -1.13301217      -2.54187587       0.24812524
C        0.45424934       0.90683844      -4.04274661
C       -2.49092954      -2.16825856      -1.57129505
C       -2.26218385       2.16969102       3.79301807
C       -1.59194982      -0.19992988      -3.84327303
C        2.53859401      -0.32868801      -2.50914687
C       -1.16979286       2.83183634       0.19606884
C       -0.56665378       0.48389868       4.30569626
C       -2.64274621      -0.02071888      -2.88294692
C        0.89156403      -2.62368664      -1.21969616
C        2.28573971       1.66076631      -1.04077712
C        0.93988385      -2.26739802      -2.61194540
60
Properties=species:S:1:pos:R:3 trajectory=trial0001_proposal001_step004_proposal_relax trajectory_step=23 pbc="F F F"
C        0.75274725       2.35747929       1.64138795
C       -2.68965131       1.24155530       0.98370546
C       -0.97457750      -0.93549193       2.35584354
C        1.63650771      -1.18978775      -3.18778619
C        3.37437500      -0.93795073      -1.44233245
C       -0.58582427      -0.14772334       1.13741531
C        1.80731447       1.46705383       2.01364748
C        0.24623858       1.44556966       3.69088740
C       -1.33538202      -2.71044538      -2.09713336
C        0.72824448      -0.52638434      -4.06632331
C        1.68123162      -2.27874858      -0.11267343
C       -2.56129564      -2.22621345      -0.12496537
C        0.31852503       2.66896032       0.32468449
C       -0.43423910      -2.31037054      -3.13645953
C       -3.06425757      -0.81239782      -1.89441612
C        1.16678044      -0.58462665       3.18709709
C       -3.57462599      -0.28354311      -0.64373548
C        1.21999116       1.62341321      -3.04697807
C        2.27232163       0.98945192      -2.31198506
C       -1.56759827       2.64863212       2.60655843
C       -0.88464831       1.09604871      -4.07173314
C       -0.84775847       2.74518630      -2.28686155
C        3.98857971      -0.11102216      -0.44551859
C        2.75344344       0.76538525       1.24927655
C        2.98925233      -0.58424242       1.59596981
C        1.84067414      -1.26613865       2.12821417
C       -1.55647097       2.07274821      -3.31912214
C        1.38371622       0.79530430       3.18585647
C        0.53090974       2.50117352      -2.14495259
C       -1.88698201       0.11789866       1.45540587
C       -2.83564919       1.93997054      -1.36125835
C       -2.02229385       2.50939964       1.25876606
C        3.79466713      -1.14665849       0.57850724
C       -0.57040228      -1.17270139      -3.94750433
C       -0.24192532      -0.75509680       3.59652600
C       -1.68161026       2.76329708      -1.12721358
C        3.18201160       1.01724414      -0.06223563
C        3.01465595      -1.86176760      -0.39447378
C        1.09171050      -1.98734398       1.16697943
C       -0.39689811      -1.82522904       1.24612065
C       -0.19079415       2.36011696       2.72573838
C        1.13845330       2.42360380      -0.84348420
C       -3.43933228      -1.27128855       0.38946533
C       -1.86908975       1.13499361       4.57836059
C       -2.86691031       2.02683354       5.03318029
C       -2.71699067       1.46247820      -2.70170514
C       -0.52269948      -2.94957216      -0.91807081
C       -3.26797307       1.06135621      -0.32616635
C       -1.19194098      -2.53261075       0.24476212
C        0.53279570       0.89334377      -4.03352272
C       -2.52604117      -2.08984682      -1.59670466
C       -2.28805912       2.23376383       3.76574230
C       -1.55143638      -0.15941001      -3.85708324
C        2.58029017      -0.38759450      -2.47497018
C       -1.11946884       2.85322184       0.17367652
C       -0.62893070       0.49644203       4.29403869
C       -2.65179294       0.04955630      -2.93681873
C        0.84953102      -2.66799481      -1.20456591
C        2.34617576       1.60028083      -1.01318470
C        0.92789596      -2.29596360      -2.59078684
60
Properties=species:S:1:pos:R:3 trajectory=trial0001_proposal001_step004_proposal_relax trajectory_step=24 pbc="F F F"
C        0.75765294       2.37553669       1.64053596
C       -2.67522080       1.22025037       1.00185594
C       -0.95111304      -0.98073513       2.35020380
C        1.62146259      -1.16306478      -3.16799089
C        3.35513547      -0.90163881      -1.43584863
C       -0.58319564      -0.16601456       1.13885377
C        1.80516467       1.48253887       2.00148168
C        0.26290146       1.45100873       3.67674194
C       -1.33616534      -2.70850074      -2.09345586
C        0.70802909      -0.51319114      -4.03787301
C        1.68633133      -2.30007581      -0.11310098
C       -2.53144531      -2.24245378      -0.12192644
C        0.31129457       2.68981931       0.32545414
C       -0.43929571      -2.28907854      -3.11753211
C       -3.07119941      -0.83575415      -1.89052205
C        1.17908441      -0.57793148       3.17140800
C       -3.54220460      -0.29072907      -0.62893386
C        1.19836525       1.63724936      -3.05004712
C        2.26477270       1.03244111      -2.32549645
C       -1.55698314       2.65201154       2.62103294
C       -0.91948865       1.07940152      -4.08081483
C       -0.88053062       2.71851630      -2.28213719
C        3.99290691      -0.08752741      -0.44546174
C        2.75014189       0.78676647       1.22195066
C        2.99147523      -0.55992162       1.58692725
C        1.85916408      -1.25313787       2.11905988
C       -1.57227413       2.04895728      -3.31924403
C        1.39267472       0.80504799       3.16823394
C        0.49611088       2.50645347      -2.14686469
C       -1.88413446       0.07384523       1.44793595
C       -2.81811540       1.90228604      -1.34793603
C       -2.00722487       2.48594650       1.27071866
C        3.79039044      -1.13088753       0.57569001
C       -0.57605298      -1.16005285      -3.93172446
C       -0.22251941      -0.76226575       3.58416851
C       -1.69148960       2.73676427      -1.11183693
C        3.18354308       1.04673940      -0.07339349
C        2.99414452      -1.82234623      -0.40017192
C        1.10971368      -2.00083120       1.17137119
C       -0.37866827      -1.84251331       1.25454148
C       -0.18517320       2.38428390       2.72820048
C        1.12738360       2.45420312      -0.85403602
C       -3.36867731      -1.26144860       0.42290780
C       -1.87099502       1.11395514       4.55308797
C       -2.86991671       1.98706604       5.00492317
C       -2.68253558       1.43271308      -2.66536260
C       -0.51996071      -2.94663356      -0.92174325
C       -3.26068662       1.05178183      -0.30266878
C       -1.19519126      -2.54674243       0.24986462
C        0.49445487       0.89735204      -4.01644106
C       -2.52594347      -2.10118565      -1.59018416
C       -2.28280278       2.22152776       3.74924639
C       -1.58268175      -0.17881676      -3.87671507
C        2.56699729      -0.35343949      -2.46731539
C       -1.12863562       2.83848858       0.17684783
C       -0.61692737       0.50433594       4.25468813
C       -2.66628972       0.01956639      -2.95288617
C        0.83863310      -2.67935701      -1.20397213
C        2.34187815       1.64224930      -1.03091869
C        0.91942136      -2.26923087      -2.57828759
60
Properties=species:S:1:pos:R:3 trajectory=trial0001_proposal001_step004_proposal_relax trajectory_step=25 pbc="F F F"
C        0.77163320       2.37286121       1.63651010
C       -2.66968517       1.25340665       0.97522652
C       -0.97345449      -1.00049177       2.34384325
C        1.62690991      -1.17326543      -3.13237916
C        3.35025999      -0.93950411      -1.39597225
C       -0.60313800      -0.18607883       1.14228438
C        1.80235708       1.45272959       2.00698573
C        0.24858230       1.44985111       3.66723910
C       -1.35815544      -2.68325278      -2.08843725
C        0.71950304      -0.51488149      -4.01170236
C        1.65922982      -2.34774269      -0.09209124
C       -2.54856457      -2.19516872      -0.14080540
C        0.34252039       2.69277596       0.32102104
C       -0.44514047      -2.27463642      -3.10155478
C       -3.08770930      -0.79104207      -1.92137020
C        1.14184993      -0.60086092       3.18067922
C       -3.54242114      -0.24938398      -0.65430225
C        1.24456769       1.63511397      -3.04741989
C        2.30990567       1.02632696      -2.31729280
C       -1.54557720       2.67963363       2.60055165
C       -0.88534992       1.09265365      -4.08860963
C       -0.82493538       2.71615114      -2.28683703
C        4.00820118      -0.14078076      -0.40425502
C        2.74537124       0.75020922       1.24664455
C        2.96779133      -0.60090332       1.61461096
C        1.82615723      -1.28874119       2.13473083
C       -1.54109472       2.07495096      -3.33445284
C        1.37788114       0.77635901       3.17207016
C        0.54291905       2.49291313      -2.14584789
C       -1.93303520       0.05725795       1.39211980
C       -2.80057632       1.93301948      -1.36736654
C       -1.97650702       2.49472303       1.25359182
C        3.76296766      -1.18486436       0.60987818
C       -0.56631508      -1.14979175      -3.92017784
C       -0.26510220      -0.76650282       3.57294690
C       -1.64906706       2.74570489      -1.12853218
C        3.20543300       1.00792030      -0.04913905
C        2.95933464      -1.86239452      -0.36901556
C        1.07812944      -2.04181364       1.18984092
C       -0.40234663      -1.87808768       1.25958152
C       -0.17224034       2.39439759       2.72634004
C        1.16602057       2.45095257      -0.85362454
C       -3.33866975      -1.18116542       0.42103347
C       -1.90147830       1.13749509       4.52081677
C       -2.87871202       2.04393383       4.97337623
C       -2.67380407       1.46033051      -2.69505868
C       -0.55276089      -2.95488512      -0.91832117
C       -3.26476227       1.10526391      -0.32934757
C       -1.23160811      -2.55647686       0.25882286
C        0.52477253       0.89312619      -3.99914016
C       -2.54069667      -2.05887789      -1.60606966
C       -2.29121420       2.25826980       3.72902524
C       -1.56743277      -0.15810478      -3.88962338
C        2.58123942      -0.37869433      -2.43156184
C       -1.09125442       2.83979822       0.16403686
C       -0.65733531       0.51187172       4.22258690
C       -2.66846145       0.05950265      -2.97975527
C        0.80669067      -2.70670682      -1.18263657
C        2.38095971       1.63256828      -1.01647409
C        0.90290786      -2.27337429      -2.55213292
60
Properties=species:S:1:pos:R:3 trajectory=trial0001_proposal001_step004_proposal_relax trajectory_step=26 pbc="F F F"
C        0.80917435       2.36538382       1.63170203
C       -2.65683214       1.32686466       0.91533333
C       -1.02386696      -1.05033179       2.32397500
C        1.63956959      -1.19702008      -3.05231407
C        3.33652734      -1.02525911      -1.30238675
C       -0.65252143      -0.22769257       1.14913100
C        1.79679008       1.38684229       2.02008286
C        0.21838244       1.44389354       3.64675605
C       -1.41083833      -2.62759781      -2.08314140
C        0.75118737      -0.51849529      -3.94906361
C        1.59474542      -2.45993618      -0.04039901
C       -2.58955489      -2.09029964      -0.18080906
C        0.41535756       2.69852821       0.31136833
C       -0.46154587      -2.23795069      -3.06495216
C       -3.12378971      -0.69059993      -1.98728801
C        1.05858725      -0.65241431       3.20055186
C       -3.54172501      -0.14153118      -0.71180150
C        1.34941016       1.62764407      -3.03974891
C        2.41311200       1.00928572      -2.29626625
C       -1.51574696       2.74058778       2.55764700
C       -0.80953572       1.12059067      -4.10870631
C       -0.70878580       2.70589166      -2.29973621
C        4.04262721      -0.26308764      -0.30926523
C        2.73675658       0.66324873       1.29415008
C        2.91665551      -0.69530831       1.67829929
C        1.75335157      -1.36929436       2.17460021
C       -1.46430397       2.12682286      -3.37138669
C        1.34130814       0.71662807       3.18153684
C        0.64649236       2.46590442      -2.14287356
C       -2.04437139       0.01385759       1.26523608
C       -2.75827458       2.00745039      -1.41826822
C       -1.90756124       2.51720478       1.21543997
C        3.70672775      -1.31093898       0.69209411
C       -0.54464783      -1.12193876      -3.89075362
C       -0.36309456      -0.77594616       3.54951171
C       -1.55645875       2.76426012      -1.16567190
C        3.25509772       0.92078120       0.00672084
C        2.88054808      -1.94920125      -0.29602971
C        1.00726143      -2.13655120       1.23515995
C       -0.46080044      -1.95519228       1.27405490
C       -0.14258054       2.42077706       2.71893837
C        1.25649763       2.44486618      -0.85079031
C       -3.26250383      -0.99628281       0.41688914
C       -1.97518516       1.18925275       4.45051629
C       -2.90412343       2.17318128       4.90628827
C       -2.64712343       1.52943351      -2.75892154
C       -0.63340407      -2.97386784      -0.91039939
C       -3.27226794       1.22397493      -0.38768638
C       -1.31493809      -2.57665388       0.27007373
C        0.59369390       0.88420663      -3.96205865
C       -2.57831053      -1.96071080      -1.63949041
C       -2.30763440       2.34350105       3.67554144
C       -1.53649708      -0.11258678      -3.92317585
C        2.61559615      -0.43149325      -2.35375158
C       -1.00988105       2.84325844       0.13382268
C       -0.75018864       0.52923418       4.14997290
C       -2.67734804       0.14500512      -3.04848946
C        0.73510503      -2.77256436      -1.13789542
C        2.47310316       1.60903332      -0.98445109
C        0.86806590      -2.28305024      -2.49233494
60
Properties=species:S:1:pos:R:3 trajectory=trial0001_proposal001_step004_proposal_relax trajectory_step=27 pbc="F F F"
C        0.84596322       2.35995023       1.62720804
C       -2.64354200       1.39675133       0.85921138
C       -1.06943484      -1.10213447       2.30492827
C        1.65032001      -1.21777577      -2.97330825
C        3.32158067      -1.10514971      -1.21158365
C       -0.70109381      -0.26898579       1.15726625
C        1.79141872       1.32468160       2.03189239
C        0.19021730       1.43857836       3.62605802
C       -1.46145058      -2.57363541      -2.07764250
C        0.77962240      -0.52088156      -3.88649828
C        1.53262316      -2.57012082       0.00947679
C       -2.62686494      -1.98998522      -0.21876176
C        0.48576631       2.70639454       0.30210074
C       -0.47792031      -2.20084228      -3.02800251
C       -3.15947506      -0.59594711      -2.05080879
C        0.97940011      -0.70148504       3.21862868
C       -3.53784154      -0.03810305      -0.76567622
C        1.44813091       1.62122163      -3.03265791
C        2.51205651       0.99526289      -2.27661694
C       -1.48572736       2.79974386       2.51711794
C       -0.73957236       1.14675837      -4.13010252
C       -0.59932156       2.69547589      -2.31238117
C        4.07615473      -0.37924454      -0.21772712
C        2.72873742       0.58138665       1.33875235
C        2.86767854      -0.78432830       1.73918397
C        1.68409613      -1.44603661       2.21220701
C       -1.39153839       2.17509916      -3.40664129
C        1.30676611       0.65988049       3.18969853
C        0.74402348       2.44041108      -2.14021456
C       -2.15728272      -0.03205789       1.13931091
C       -2.71447602       2.07606357      -1.46559881
C       -1.83944714       2.53674456       1.17989780
C        3.65164851      -1.43088672       0.77072189
C       -0.52501065      -1.09482125      -3.86196954
C       -0.45604132      -0.78524110       3.52561078
C       -1.46752498       2.78051500      -1.20050510
C        3.30277589       0.83912728       0.05975407
C        2.80305185      -2.03030897      -0.22600025
C        0.93999203      -2.22899741       1.27890964
C       -0.51604186      -2.03182546       1.28815844
C       -0.11245539       2.44811790       2.71249169
C        1.34292807       2.44173413      -0.84870459
C       -3.17779312      -0.81511253       0.41569489
C       -2.04678847       1.23741185       4.38012445
C       -2.92942036       2.29437150       4.83933841
C       -2.61796812       1.59275181      -2.81764130
C       -0.71159512      -2.99215204      -0.90273198
C       -3.27864180       1.33754288      -0.44195135
C       -1.39517402      -2.59721275       0.28088751
C        0.65661800       0.87561502      -3.92504737
C       -2.61515621      -1.86794570      -1.67127135
C       -2.32315920       2.42429347       3.62282495
C       -1.50938720      -0.07041185      -3.95850153
C        2.64739372      -0.47966229      -2.27795158
C       -0.93152044       2.84611050       0.10541671
C       -0.83921971       0.54624954       4.07631089
C       -2.68637741       0.22460637      -3.11560891
C        0.66542801      -2.83687077      -1.09461509
C        2.56176011       1.58933359      -0.95431197
C        0.83360201      -2.29042504      -2.43306299
60
Properties=species:S:1:pos:R:3 trajectory=trial0001_proposal001_step004_proposal_relax trajectory_step=28 pbc="F F F"
C        0.81809352       2.38016565       1.63186505
C       -2.65551427       1.33926220       0.91736252
C       -0.98902905      -1.08264708       2.33487556
C        1.61654711      -1.18083816      -3.02111782
C        3.32562078      -1.01770361      -1.29274259
C       -0.69669462      -0.24870124       1.19074606
C        1.78958297       1.39383009       2.01801112
C        0.21379567       1.44365947       3.63855377
C       -1.39928584      -2.61691982      -2.06556292
C        0.72468303      -0.51290401      -3.93016391
C        1.58559270      -2.48346330      -0.03994703
C       -2.56506227      -2.07769608      -0.16791808
C        0.43578275       2.73098736       0.30755100
C       -0.46507120      -2.23320439      -3.04239592
C       -3.14461027      -0.70230576      -1.99827314
C        1.05825368      -0.65820901       3.19642419
C       -3.51461303      -0.15294333      -0.69679135
C        1.34150947       1.62862220      -3.04789296
C        2.42039496       1.01075229      -2.29594783
C       -1.50392094       2.75577283       2.55353207
C       -0.82729410       1.13720147      -4.13717836
C       -0.70292770       2.74046628      -2.31503494
C        4.04193679      -0.26365670      -0.30304983
C        2.74710222       0.68173501       1.31524635
C        2.90566975      -0.68769148       1.68105846
C        1.73309611      -1.37191778       2.16454257
C       -1.48136638       2.13514896      -3.35771044
C        1.34078580       0.71428950       3.18084421
C        0.65924939       2.46737942      -2.14478662
C       -2.16741479       0.00447830       1.18119907
C       -2.70322164       1.98634324      -1.39669216
C       -1.88042147       2.49393425       1.21951226
C        3.66942494      -1.29594231       0.67685155
C       -0.56834217      -1.13685240      -3.90936709
C       -0.35294551      -0.77505027       3.53534806
C       -1.53093073       2.76520790      -1.16185494
C        3.24891643       0.92976597       0.01280746
C        2.86909353      -1.95900235      -0.29886029
C        1.00091934      -2.15640567       1.22580576
C       -0.45885526      -2.00560180       1.27445786
C       -0.11706704       2.43580937       2.73274672
C        1.26300644       2.46444986      -0.85162999
C       -3.10612121      -0.94656251       0.40746238
C       -1.97239712       1.17882353       4.40004218
C       -2.92190876       2.15433722       4.88530553
C       -2.61647671       1.49585063      -2.75193912
C       -0.65109301      -2.98245304      -0.89716607
C       -3.26955166       1.22382913      -0.37969413
C       -1.32129685      -2.59512015       0.27526173
C        0.56896089       0.87762289      -3.94733023
C       -2.58809548      -1.98168916      -1.63873306
C       -2.30340362       2.34488684       3.65216170
C       -1.54876307      -0.11735659      -3.95824830
C        2.59685496      -0.41823169      -2.33007412
C       -0.98120261       2.85146335       0.14144901
C       -0.76727948       0.53146980       4.10812312
C       -2.65645161       0.13874203      -3.03815992
C        0.72887985      -2.77318773      -1.12705743
C        2.48045331       1.62322301      -0.97032338
C        0.84991295      -2.27165519      -2.46041659
60
Properties=species:S:1:pos:R:3 trajectory=trial0001_proposal001_step004_proposal_relax trajectory_step=29 pbc="F F F"
C        0.83167975       2.36676556       1.64018666
C       -2.67540016       1.35885621       0.88570392
C       -0.98296320      -1.08279514       2.33271459
C        1.61276682      -1.19944753      -3.02205809
C        3.33247340      -1.05573813      -1.29037888
C       -0.77642177      -0.23601882       1.21543571
C        1.79112712       1.37944045       2.03581997
C        0.19664665       1.42388810       3.64910149
C       -1.41795557      -2.61902285      -2.06495462
C        0.74021103      -0.53324764      -3.93705573
C        1.57900938      -2.47842955      -0.03437953
C       -2.57691232      -2.07421665      -0.16299136
C        0.46172955       2.72128832       0.31537637
C       -0.46922531      -2.24015325      -3.05633118
C       -3.14263171      -0.68898845      -1.98713022
C        1.04507035      -0.66042252       3.21101484
C       -3.54168039      -0.11660351      -0.71853412
C        1.38008822       1.60602070      -3.03444142
C        2.42775110       0.97537256      -2.27470334
C       -1.49245177       2.75633558       2.54420178
C       -0.80135674       1.15677737      -4.13391244
C       -0.67275576       2.77224128      -2.32655989
C        4.02715713      -0.28634115      -0.29749475
C        2.75560110       0.65752929       1.33490992
C        2.88948466      -0.71599977       1.69279484
C        1.71345915      -1.38479260       2.17215325
C       -1.44608630       2.14556208      -3.36849926
C        1.32038355       0.71205465       3.19484646
C        0.68736347       2.47944373      -2.14647200
C       -2.20603457       0.03382270       1.14739582
C       -2.70031085       2.02115080      -1.41354060
C       -1.87559632       2.51485879       1.20257281
C        3.66486791      -1.31504789       0.68708332
C       -0.56263582      -1.14616667      -3.92327948
C       -0.36893722      -0.77491114       3.55278862
C       -1.50849541       2.78867776      -1.16974918
C        3.25139459       0.89995545       0.03825010
C        2.88295149      -2.00157769      -0.29428191
C        0.97784347      -2.15797370       1.22788170
C       -0.49106710      -2.01462931       1.28796511
C       -0.12345626       2.43496881       2.72390396
C        1.29531086       2.44027879      -0.84138765
C       -3.09350837      -0.90700548       0.35238849
C       -1.98660994       1.20739935       4.39925717
C       -2.92581486       2.17986399       4.88909972
C       -2.62168376       1.54548562      -2.76912190
C       -0.65336169      -2.99644195      -0.89661351
C       -3.27123648       1.25032669      -0.41030179
C       -1.32461234      -2.59065144       0.26833901
C        0.59762262       0.87831574      -3.96472530
C       -2.59709831      -1.97038849      -1.63213138
C       -2.30516962       2.36620112       3.65269034
C       -1.53048116      -0.09500250      -3.95274043
C        2.60444750      -0.44667017      -2.33039881
C       -0.96671896       2.86806747       0.13166479
C       -0.78661601       0.52777668       4.12835797
C       -2.63643864       0.15154920      -3.03572906
C        0.72098210      -2.77570691      -1.12138605
C        2.49287249       1.58403092      -0.95632011
C        0.85691918      -2.28631727      -2.46120856
60
Properties=species:S:1:pos:R:3 trajectory=trial0001_proposal001_step004_proposal_relax trajectory_step=30 pbc="F F F"
C        0.86207684       2.35824788       1.66101967
C       -2.70883263       1.41092753       0.83391292
C       -0.93429711      -1.13426557       2.34573991
C        1.59798916      -1.21590526      -3.00368285
C        3.33069232      -1.10340515      -1.28506381
C       -0.95902571      -0.20664425       1.29154707
C        1.79917116       1.36168189       2.06471972
C        0.16985231       1.41540322       3.65020526
C       -1.43685506      -2.62161333      -2.07094950
C        0.74477024      -0.54916410      -3.93809616
C        1.56013445      -2.49135432      -0.02226051
C       -2.57607215      -2.07705226      -0.16133167
C        0.51351387       2.72413264       0.32662480
C       -0.49143396      -2.24615446      -3.05448927
C       -3.14037439      -0.67735901      -1.98729694
C        1.02950227      -0.66688664       3.22795853
C       -3.56319036      -0.04688442      -0.76679233
C        1.41205309       1.57664870      -3.01733727
C        2.44059333       0.92521940      -2.23756335
C       -1.47197704       2.76073102       2.53078999
C       -0.77048271       1.17034439      -4.14602469
C       -0.63865069       2.82348928      -2.34958867
C        3.99835547      -0.31935816      -0.28347292
C        2.76596606       0.63033408       1.37068434
C        2.86419857      -0.75200704       1.70669996
C        1.67989843      -1.39627690       2.18317739
C       -1.39384132       2.16752978      -3.37783779
C        1.29318216       0.70746863       3.21141150
C        0.73634739       2.50125667      -2.15192392
C       -2.30898577       0.05536410       1.04846182
C       -2.65740632       2.07085658      -1.44043531
C       -1.85314119       2.53425700       1.18037030
C        3.64450093      -1.34546206       0.70332509
C       -0.56334895      -1.14838347      -3.94754272
C       -0.38730562      -0.78886874       3.57631917
C       -1.46790392       2.82128931      -1.18206858
C        3.25541902       0.86656558       0.07033890
C        2.89510140      -2.05727030      -0.28704714
C        0.94283779      -2.16673336       1.23136496
C       -0.53004818      -2.06398292       1.32185248
C       -0.11262847       2.43568186       2.72664546
C        1.34155796       2.42413067      -0.82992438
C       -2.98718775      -0.80777127       0.29155729
C       -2.01615249       1.23955731       4.37478442
C       -2.94465796       2.19924578       4.87414912
C       -2.58660853       1.59390283      -2.77801146
C       -0.67285121      -3.01817067      -0.89515281
C       -3.27996849       1.30551518      -0.45723978
C       -1.33068206      -2.60232636       0.26263130
C        0.63197747       0.87001962      -3.97716255
C       -2.62065577      -1.96971980      -1.61110070
C       -2.30430591       2.40484411       3.63266119
C       -1.51561583      -0.07552819      -3.96428880
C        2.60667249      -0.48551217      -2.31995895
C       -0.93002768       2.89469680       0.12391931
C       -0.81989889       0.52286892       4.13373141
C       -2.60576249       0.16667038      -3.02950812
C        0.70827812      -2.78767217      -1.11479675
C        2.51481462       1.53435909      -0.93125836
C        0.84620986      -2.29791003      -2.45231007
60
Properties=species:S:1:pos:R:3 trajectory=trial0001_proposal001_step004_proposal_relax trajectory_step=31 pbc="F F F"
C        0.87583814       2.34001588       1.67791835
C       -2.73622530       1.45558487       0.79335579
C       -0.92452419      -1.12976459       2.34629824
C        1.60397622      -1.24487865      -3.02765663
C        3.34420052      -1.14724177      -1.29536886
C       -1.05186947      -0.16839891       1.35184564
C        1.80678917       1.34902298       2.09154128
C        0.15201947       1.40998086       3.66214378
C       -1.44635481      -2.63787905      -2.08922031
C        0.77214807      -0.56293523      -3.96526493
C        1.55478275      -2.46831138      -0.01769534
C       -2.59708911      -2.06652868      -0.16368329
C        0.52728140       2.69614360       0.33343747
C       -0.50181289      -2.26289790      -3.07507003
C       -3.11760558      -0.65806900      -1.98709369
C        1.01987594      -0.66999499       3.24476479
C       -3.60076795      -0.00474828      -0.81212205
C        1.43217364       1.55499598      -3.00114642
C        2.43847534       0.87685685      -2.21341989
C       -1.47716762       2.74729712       2.52176877
C       -0.72882563       1.16742060      -4.12759619
C       -0.61586736       2.83717140      -2.35313340
C        3.97337539      -0.34427135      -0.28536743
C        2.76603216       0.59821786       1.38320064
C        2.85844713      -0.78211414       1.70883151
C        1.66642413      -1.39908547       2.19947683
C       -1.35239224       2.18095528      -3.38369255
C        1.27378010       0.70864816       3.22862348
C        0.77260682       2.51214106      -2.15037114
C       -2.29808235       0.10455155       1.05130292
C       -2.66940489       2.13234141      -1.48705884
C       -1.86715613       2.56714030       1.15804735
C        3.66089365      -1.37251140       0.71544345
C       -0.55272982      -1.14258187      -3.95548591
C       -0.39629712      -0.79929859       3.61195104
C       -1.45786902       2.85056847      -1.19444026
C        3.25511111       0.83717319       0.08922761
C        2.92113545      -2.09389632      -0.28202840
C        0.92446337      -2.14709792       1.23420432
C       -0.54471445      -2.06977543       1.34332587
C       -0.12723898       2.41471881       2.71887832
C        1.36200108       2.39452417      -0.81725112
C       -3.06581534      -0.80876164       0.24090289
C       -2.02838289       1.26014466       4.40461520
C       -2.94323592       2.22919516       4.88916580
C       -2.58706719       1.64921196      -2.79951600
C       -0.67147757      -3.02709076      -0.90378186
C       -3.29362995       1.34585687      -0.50400914
C       -1.32964413      -2.60042947       0.25417699
C        0.68095419       0.86610668      -3.99867337
C       -2.62448460      -1.96138381      -1.59935809
C       -2.30016670       2.43400599       3.63357047
C       -1.48915366      -0.05982195      -3.93439880
C        2.61963549      -0.52804367      -2.33489185
C       -0.92115377       2.90785646       0.11444787
C       -0.82936298       0.51692506       4.18198063
C       -2.59020824       0.19242572      -3.02093759
C        0.71609242      -2.78619626      -1.12609900
C        2.51806989       1.48287025      -0.91692660
C        0.84668513      -2.32246263      -2.47660369
60
Properties=species:S:1:pos:R:3 trajectory=trial0001_proposal001_step004_proposal_relax trajectory_step=32 pbc="F F F"
C        0.88083805       2.34261640       1.68414919
C       -2.75002847       1.48838530       0.77241499
C       -0.90931310      -1.13441015       2.34321298
C        1.59973377      -1.25506289      -3.03829657
C        3.34797814      -1.16246199      -1.29514389
C       -1.08497254      -0.16055831       1.44192909
C        1.80889685       1.34707848       2.10474652
C        0.14903263       1.40698915       3.66798011
C       -1.44895409      -2.64304702      -2.08676482
C        0.77724534      -0.56695245      -3.97183589
C        1.55241179      -2.46673613      -0.01997421
C       -2.59833901      -2.04070113      -0.16767825
C        0.53156073       2.69326097       0.33532937
C       -0.50537929      -2.26050927      -3.08312850
C       -3.10930464      -0.65460656      -2.00756995
C        1.01499684      -0.67353353       3.25236087
C       -3.59682747       0.00342127      -0.82959893
C        1.43274518       1.54804920      -2.99568543
C        2.43357104       0.86360299      -2.20966561
C       -1.48005027       2.74342984       2.51617757
C       -0.71897948       1.16540531      -4.12206858
C       -0.59620114       2.84133264      -2.35063394
C        3.96745618      -0.35841790      -0.28563111
C        2.76741562       0.59166936       1.39104555
C        2.85666743      -0.78933086       1.70968612
C        1.66118265      -1.39887389       2.20201039
C       -1.33668442       2.18572434      -3.38650606
C        1.27066502       0.70583781       3.23781900
C        0.78407142       2.51246306      -2.14896209
C       -2.34092768       0.13247213       1.02840307
C       -2.66024918       2.15222272      -1.50047452
C       -1.86237838       2.57687114       1.15008493
C        3.65812549      -1.38255673       0.71432332
C       -0.55526060      -1.14470992      -3.95377937
C       -0.39100844      -0.80721049       3.62441151
C       -1.44459160       2.86544813      -1.19835464
C        3.25247584       0.82769592       0.09766478
C        2.91878848      -2.10528812      -0.27789857
C        0.92041352      -2.14114761       1.23312549
C       -0.53103735      -2.10672753       1.34896270
C       -0.13093790       2.41150473       2.71652794
C        1.36488799       2.39515968      -0.81593320
C       -3.08715906      -0.80498023       0.23618396
C       -2.03258663       1.25453216       4.40729541
C       -2.94524745       2.23830415       4.88003088
C       -2.56552926       1.65503714      -2.80434070
C       -0.66991357      -3.02885467      -0.90587364
C       -3.30388468       1.37667079      -0.53100943
C       -1.33449112      -2.61004105       0.26113239
C        0.68709801       0.86280265      -3.99632052
C       -2.62318982      -1.96617020      -1.61103124
C       -2.29882872       2.44283425       3.63053459
C       -1.48177983      -0.05892651      -3.92836930
C        2.61725044      -0.54442338      -2.33383237
C       -0.91068467       2.90977924       0.11243781
C       -0.83337178       0.51904972       4.18495540
C       -2.57373414       0.20201462      -3.02011232
C        0.71366018      -2.78896624      -1.12966791
C        2.51356579       1.47376591      -0.91133871
C        0.83458177      -2.32662831      -2.48237128
60
Properties=species:S:1:pos:R:3 trajectory=trial0001_proposal001_step004_proposal_relax trajectory_step=33 pbc="F F F"
C        0.88963572       2.35612235       1.69659520
C       -2.77355892       1.53187435       0.73678161
C       -0.85681847      -1.18024705       2.35033980
C        1.58540995      -1.26129876      -3.05260633
C        3.34463168      -1.16986723      -1.30505466
C       -1.20071151      -0.12729550       1.60161025
C        1.81688805       1.35476551       2.12203468
C        0.14551656       1.40750773       3.67211114
C       -1.45093122      -2.66139516      -2.08617719
C        0.77379773      -0.56851324      -3.98017250
C        1.55559227      -2.45874410      -0.02972948
C       -2.58067098      -2.02296059      -0.16696933
C        0.53595746       2.69243088       0.34260134
C       -0.51779836      -2.25521971      -3.09185973
C       -3.09167210      -0.66409796      -2.02773373
C        1.02193543      -0.66827213       3.26045229
C       -3.58401744       0.01596900      -0.85827806
C        1.41812182       1.54036119      -2.98503679
C        2.41117515       0.85195263      -2.20428482
C       -1.48181403       2.73229000       2.50896108
C       -0.71608193       1.15153709      -4.11295104
C       -0.58179451       2.84211516      -2.34493482
C        3.94822943      -0.36140483      -0.29453315
C        2.76405761       0.59412292       1.39513605
C        2.85573833      -0.78564814       1.69990223
C        1.66504662      -1.38554808       2.19989918
C       -1.31371905       2.17979492      -3.38606557
C        1.26855187       0.71055116       3.24625044
C        0.78587661       2.52249565      -2.14643884
C       -2.39474005       0.16988342       0.99912052
C       -2.64163710       2.17746373      -1.51657625
C       -1.85622160       2.58629860       1.14063181
C        3.65931865      -1.38330470       0.70568889
C       -0.56279414      -1.14381689      -3.94924410
C       -0.36006406      -0.82804145       3.65223790
C       -1.43113296       2.88150400      -1.19904326
C        3.24279441       0.83023268       0.09946319
C        2.91754423      -2.10769303      -0.28120737
C        0.92794484      -2.12996000       1.22807754
C       -0.50026568      -2.18441380       1.37176307
C       -0.13455378       2.41061837       2.71577522
C        1.36311024       2.40600450      -0.81386378
C       -3.09536569      -0.78766339       0.23265501
C       -2.03416444       1.23696604       4.40371458
C       -2.94720147       2.22340377       4.85329704
C       -2.51566892       1.65032662      -2.80159724
C       -0.66348982      -3.03454426      -0.91125584
C       -3.31958556       1.41675863      -0.57198247
C       -1.32900517      -2.63011787       0.27141955
C        0.68280973       0.85890034      -3.99210443
C       -2.61805347      -1.98610045      -1.61724583
C       -2.29102113       2.44614522       3.62503426
C       -1.48041339      -0.06642236      -3.92044034
C        2.60272349      -0.55692927      -2.33897193
C       -0.90028521       2.90810037       0.11299870
C       -0.82886667       0.51949912       4.18673165
C       -2.54925350       0.20073783      -3.01510271
C        0.71462855      -2.79104838      -1.14046398
C        2.49783081       1.47141683      -0.90861319
C        0.81399565      -2.32398409      -2.49566133
60
Properties=species:S:1:pos:R:3 trajectory=trial0001_proposal001_step004_proposal_relax trajectory_step=34 pbc="F F F"
C        0.89174877       2.36782558       1.69985018
C       -2.78674390       1.56435183       0.70078611
C       -0.86037038      -1.20565478       2.34007709
C        1.58803298      -1.27065129      -3.05886326
C        3.33362622      -1.17335016      -1.30381672
C       -1.31188505      -0.10487548       1.76634576
C        1.82560807       1.35972141       2.12809948
C        0.14677373       1.41601865       3.67200382
C       -1.45073199      -2.67251318      -2.08891274
C        0.76890261      -0.56823652      -3.98319914
C        1.55200878      -2.46819032      -0.04137218
C       -2.56085921      -1.99439150      -0.16993242
C        0.53627441       2.69456340       0.34562616
C       -0.52998836      -2.25295416      -3.08314809
C       -3.08443728      -0.65797034      -2.05223267
C        1.03214258      -0.67029825       3.26944051
C       -3.56093510       0.02846113      -0.88590618
C        1.41142166       1.53784889      -2.98078405
C        2.39546887       0.84754274      -2.20530557
C       -1.48571100       2.73067615       2.49669054
C       -0.70541830       1.13783281      -4.10982729
C       -0.56212700       2.82729903      -2.34111774
C        3.94784243      -0.37535095      -0.28809928
C        2.75667159       0.59763269       1.39586772
C        2.86038664      -0.78202554       1.70100202
C        1.67518331      -1.38431102       2.19991040
C       -1.28864811       2.17754253      -3.38607881
C        1.27814878       0.70705231       3.25391431
C        0.79124540       2.51515724      -2.13770687
C       -2.43172008       0.19687826       1.02121633
C       -2.62695751       2.20837461      -1.53491736
C       -1.85640759       2.59606659       1.12854432
C        3.65591752      -1.39534159       0.70913992
C       -0.56490643      -1.13469096      -3.93775068
C       -0.33214249      -0.85342601       3.67005360
C       -1.41244813       2.89347923      -1.20478852
C        3.23671487       0.82562693       0.08980780
C        2.89854273      -2.10208389      -0.27922915
C        0.94938215      -2.14467573       1.22378202
C       -0.46528188      -2.26347436       1.39312563
C       -0.13020667       2.41016730       2.72091931
C        1.36295165       2.42181979      -0.81159919
C       -3.11608572      -0.75019655       0.23953014
C       -2.03418816       1.22065661       4.39281389
C       -2.95198529       2.22079121       4.82207906
C       -2.46764334       1.63476173      -2.81355069
C       -0.67378459      -3.03472001      -0.91199079
C       -3.33914296       1.44620416      -0.60478399
C       -1.33419808      -2.63860112       0.28041609
C        0.67750499       0.85078029      -3.97460877
C       -2.61179740      -1.97907360      -1.63632426
C       -2.28756188       2.43445688       3.61561872
C       -1.47076444      -0.07091164      -3.92333585
C        2.59070382      -0.56270981      -2.33602615
C       -0.88721985       2.90128780       0.11196653
C       -0.82960557       0.51913407       4.17447192
C       -2.53398694       0.21179194      -3.03038890
C        0.70557333      -2.79719984      -1.14944854
C        2.48686074       1.48047204      -0.91006878
C        0.79574264      -2.32079914      -2.50290071
60
Properties=species:S:1:pos:R:3 trajectory=trial0001_proposal001_step004_proposal_relax trajectory_step=35 pbc="F F F"
C        0.88979515       2.37293285       1.69963108
C       -2.78762595       1.56973585       0.69145928
C       -0.87353986      -1.25536434       2.36533574
C        1.58906108      -1.27576201      -3.06753503
C        3.31959178      -1.16228348      -1.30023431
C       -1.43143870      -0.08073534       1.88199559
C        1.83125546       1.37114770       2.12417115
C        0.16018813       1.41801772       3.67358549
C       -1.46293559      -2.67936165      -2.08745666
C        0.76566194      -0.57492343      -3.98004684
C        1.55088496      -2.48158857      -0.05785743
C       -2.54929278      -1.95813354      -0.17115181
C        0.53240093       2.70402531       0.34965458
C       -0.52883845      -2.24616198      -3.08096754
C       -3.08119657      -0.64686931      -2.07311854
C        1.05829013      -0.67499810       3.27144678
C       -3.53736192       0.03478879      -0.89555060
C        1.40070017       1.53871573      -2.98010690
C        2.37992061       0.85267514      -2.20548097
C       -1.48564291       2.72926447       2.48795008
C       -0.69682248       1.13626326      -4.12182998
C       -0.54620789       2.81927326      -2.33925552
C        3.95244904      -0.37617852      -0.28636931
C        2.75654692       0.61080703       1.38350978
C        2.87346786      -0.76735167       1.70473630
C        1.69697823      -1.38812973       2.19467371
C       -1.27033702       2.16806746      -3.39327615
C        1.29678749       0.71459093       3.25764922
C        0.78973608       2.50342563      -2.13267193
C       -2.48298157       0.23521825       1.08641767
C       -2.62788059       2.21009168      -1.54891237
C       -1.86697774       2.60165338       1.11905513
C        3.65068948      -1.39861969       0.71436684
C       -0.56207336      -1.14551876      -3.92681660
C       -0.31138751      -0.87673238       3.66339450
C       -1.40193986       2.89849816      -1.20952149
C        3.22769840       0.82436867       0.07510267
C        2.88259571      -2.08424562      -0.28653669
C        0.97451188      -2.17545045       1.22691230
C       -0.45321085      -2.29908525       1.41333488
C       -0.12790753       2.41733007       2.72513121
C        1.36159730       2.43718235      -0.80964520
C       -3.10187557      -0.73254947       0.24070981
C       -2.02923439       1.20758516       4.37849728
C       -2.96252134       2.20400555       4.80211718
C       -2.44127564       1.62016259      -2.80950562
C       -0.68053701      -3.03468659      -0.91371626
C       -3.34148250       1.46220268      -0.62959163
C       -1.32241035      -2.63469986       0.28980109
C        0.67312017       0.84040624      -3.95814762
C       -2.60078144      -1.96591017      -1.63953140
C       -2.28427628       2.40353287       3.59533711
C       -1.46926590      -0.07197639      -3.94182825
C        2.57944923      -0.55563507      -2.33126930
C       -0.88331980       2.89881777       0.11034837
C       -0.81743307       0.50855361       4.15766479
C       -2.53114943       0.21289348      -3.04751891
C        0.69213151      -2.80034938      -1.15418537
C        2.48055078       1.49007275      -0.91681094
C        0.79059210      -2.31940764      -2.50245839
60
Properties=species:S:1:pos:R:3 trajectory=trial0001_proposal001_step004_proposal_relax trajectory_step=36 pbc="F F F"
C        0.88289800       2.36735963       1.69142638
C       -2.78363147       1.57000513       0.69044132
C       -0.94566261      -1.25893632       2.38834253
C        1.60673657      -1.28478509      -3.05808032
C        3.30952437      -1.15745246      -1.28377463
C       -1.48338209      -0.11003787       1.91817379
C        1.83339778       1.36920148       2.11066818
C        0.16990412       1.41671594       3.67299536
C       -1.47429217      -2.66872672      -2.09127270
C        0.77249533      -0.58412802      -3.96906546
C        1.54101561      -2.50754421      -0.05805158
C       -2.54033617      -1.92918428      -0.17510740
C        0.53390223       2.71048098       0.34786906
C       -0.52562134      -2.25190179      -3.06441748
C       -3.09039299      -0.62038243      -2.08285240
C        1.06873881      -0.68665538       3.27069111
C       -3.52462768       0.05026616      -0.89609853
C        1.41856444       1.53833895      -2.98173125
C        2.39025614       0.85910571      -2.20513180
C       -1.48217955       2.73799879       2.47532360
C       -0.67685780       1.14133818      -4.14196032
C       -0.53072492       2.80967259      -2.34423952
C        3.97043677      -0.38902970      -0.27007419
C        2.75558612       0.61078920       1.37666883
C        2.88180154      -0.76824341       1.71983355
C        1.71050184      -1.40996696       2.19643609
C       -1.25788521       2.17275992      -3.39890421
C        1.31418370       0.70790359       3.25727914
C        0.80142694       2.48664617      -2.12697524
C       -2.51288419       0.25042365       1.16554963
C       -2.63204030       2.21643677      -1.56300708
C       -1.87239666       2.60924923       1.11015579
C        3.64360099      -1.41339231       0.72830818
C       -0.55388072      -1.14122297      -3.92389401
C       -0.31088636      -0.88470904       3.63940471
C       -1.39428227       2.89574101      -1.22193535
C        3.23114132       0.80969242       0.06660917
C        2.86240595      -2.07744905      -0.28298865
C        0.98077905      -2.22246337       1.24298995
C       -0.46633167      -2.28384521       1.42190544
C       -0.12320446       2.42255875       2.72653073
C        1.37427883       2.43849938      -0.80771290
C       -3.10216831      -0.69861095       0.23842177
C       -2.03043623       1.21587219       4.36158550
C       -2.96800782       2.20740540       4.78719778
C       -2.44501977       1.62627703      -2.82779333
C       -0.70104905      -3.03338578      -0.90897052
C       -3.33323329       1.45649132      -0.62465968
C       -1.32859029      -2.61322318       0.29022815
C        0.68517004       0.82962746      -3.94785760
C       -2.59800320      -1.92045787      -1.64214802
C       -2.29185186       2.37350174       3.57943726
C       -1.45912992      -0.06610606      -3.96596886
C        2.57963730      -0.55120250      -2.32012065
C       -0.88405486       2.90046470       0.10071001
C       -0.81402295       0.49597398       4.13729173
C       -2.54060308       0.22850497      -3.07951319
C        0.67420863      -2.80755704      -1.15008840
C        2.49312613       1.49383949      -0.92075624
C        0.79744329      -2.32494403      -2.49223918
60
Properties=species:S:1:pos:R:3 trajectory=trial0001_proposal001_step004_proposal_relax trajectory_step=37 pbc="F F F"
C        0.89087657       2.35258452       1.69544741
C       -2.81078476       1.62235680       0.66650973
C       -0.99759531      -1.28226851       2.40803415
C        1.62010806      -1.31308263      -3.04633947
C        3.30725612      -1.18607628      -1.26993048
C       -1.63743523      -0.13664719       2.03211869
C        1.83824498       1.35559352       2.11899214
C        0.16265018       1.40508462       3.67594302
C       -1.49663116      -2.65979086      -2.09774188
C        0.79399478      -0.60541799      -3.96707207
C        1.52183657      -2.53098883      -0.04324276
C       -2.53647885      -1.88304416      -0.17427769
C        0.55915197       2.70899436       0.34783578
C       -0.53317844      -2.26347997      -3.06292851
C       -3.08989093      -0.58134741      -2.09140195
C        1.06754066      -0.70312383       3.27631394
C       -3.53274555       0.10602622      -0.92642929
C        1.45967886       1.51724204      -2.97173165
C        2.41244098       0.82654987      -2.18385232
C       -1.47480556       2.74043283       2.45634248
C       -0.63120506       1.15436732      -4.16110106
C       -0.49256080       2.82838053      -2.36066733
C        3.96936690      -0.42153236      -0.25280086
C        2.76090244       0.58597688       1.39028088
C        2.87749902      -0.79818777       1.73711682
C        1.70322093      -1.44067000       2.21190500
C       -1.21248437       2.18986743      -3.41346908
C        1.31434091       0.69671094       3.26638030
C        0.84601579       2.48742723      -2.12458356
C       -2.59991246       0.29845409       1.19646426
C       -2.62391871       2.26052428      -1.59678409
C       -1.86746935       2.63628418       1.08415170
C        3.63591614      -1.44424580       0.74436969
C       -0.54338861      -1.14180753      -3.93489587
C       -0.30958829      -0.88823688       3.64387184
C       -1.37074245       2.91549602      -1.24491580
C        3.23954161       0.77373902       0.08406701
C        2.85461917      -2.11009163      -0.27076087
C        0.95341802      -2.26327726       1.26986653
C       -0.49997278      -2.28400975       1.44649498
C       -0.12026879       2.41597009       2.72418642
C        1.41286378       2.42016399      -0.79704232
C       -3.10477027      -0.63882300       0.19175583
C       -2.03385776       1.22733105       4.34200712
C       -2.98513587       2.22674928       4.77408445
C       -2.44223384       1.67653052      -2.87003141
C       -0.72474908      -3.04611909      -0.90768445
C       -3.32208291       1.48936713      -0.65082379
C       -1.33779097      -2.58796891       0.28981314
C        0.73247989       0.81583054      -3.95666777
C       -2.60207361      -1.87085523      -1.63566297
C       -2.29814033       2.37189389       3.54341197
C       -1.43457218      -0.04667714      -3.98683013
C        2.58698603      -0.57723549      -2.30896254
C       -0.86897771       2.92164455       0.08037569
C       -0.82489494       0.47989895       4.13803506
C       -2.53122574       0.25958861      -3.10895175
C        0.65729026      -2.81962015      -1.14140952
C        2.51908448       1.45955950      -0.90670338
C        0.79972822      -2.34839713      -2.48539594
60
Properties=species:S:1:pos:R:3 trajectory=trial0001_proposal001_step004_proposal_relax trajectory_step=38 pbc="F F F"
C        0.88937139       2.34493489       1.69275497
C       -2.82564360       1.65298218       0.70534071
C       -1.05843316      -1.28525523       2.44532230
C        1.61841761      -1.32726668      -3.03783843
C        3.30612502      -1.18847370      -1.26144111
C       -1.77754474      -0.20089299       2.10126846
C        1.83700578       1.35480181       2.11646228
C        0.17488043       1.38980759       3.67227359
C       -1.50184365      -2.64331628      -2.09023753
C        0.80821857      -0.61813530      -3.95790858
C        1.51007214      -2.54796885      -0.01863739
C       -2.51840760      -1.83718837      -0.17139871
C        0.56230728       2.71614945       0.33758789
C       -0.53057173      -2.26240799      -3.07381271
C       -3.08365216      -0.55835140      -2.10535110
C        1.08265230      -0.70902578       3.26217053
C       -3.52606164       0.13199159      -0.92902660
C        1.47401000       1.50681479      -2.97214778
C        2.43099377       0.81468639      -2.18109944
C       -1.47003327       2.73312228       2.44988054
C       -0.61587381       1.16224707      -4.17775815
C       -0.48766123       2.83596488      -2.37189578
C        3.97357711      -0.42557659      -0.25589097
C        2.76796797       0.57825854       1.39154786
C        2.88054959      -0.80989161       1.73572103
C        1.70575995      -1.46092042       2.22223446
C       -1.20053611       2.18641533      -3.42804846
C        1.32130014       0.69719860       3.26136670
C        0.86178405       2.49156311      -2.12901519
C       -2.66182570       0.30466478       1.24542095
C       -2.61203373       2.26427783      -1.60901865
C       -1.85853544       2.65008593       1.07398717
C        3.63422361      -1.44244822       0.73276710
C       -0.53955467      -1.15410254      -3.94141099
C       -0.29239623      -0.87572944       3.63356149
C       -1.37350149       2.91645683      -1.25993608
C        3.24627304       0.77188529       0.09508386
C        2.84738496      -2.11513889      -0.26449462
C        0.93628157      -2.28683090       1.29965209
C       -0.52612806      -2.24499448       1.44479275
C       -0.12053647       2.40359245       2.71977814
C        1.42440966       2.41338056      -0.79371635
C       -3.09727595      -0.62122394       0.21143265
C       -2.02624416       1.21961112       4.32269798
C       -2.98307855       2.19711981       4.74911510
C       -2.44118849       1.70471424      -2.90274921
C       -0.74059256      -3.04664777      -0.90006965
C       -3.28851070       1.50582114      -0.65389085
C       -1.34140158      -2.55280292       0.28632786
C        0.75483665       0.80797914      -3.96890254
C       -2.58658999      -1.84787092      -1.63099173
C       -2.31081541       2.34473652       3.51694119
C       -1.42807429      -0.04150176      -4.01143348
C        2.59148909      -0.58042392      -2.30065401
C       -0.86884157       2.94016282       0.06424286
C       -0.80531161       0.47089249       4.13256541
C       -2.52806134       0.26809452      -3.13513321
C        0.65559128      -2.82631018      -1.13137066
C        2.53672929       1.44980994      -0.89608693
C        0.80003906      -2.36592879      -2.47584771
60
Properties=species:S:1:pos:R:3 trajectory=trial0001_proposal001_step004_proposal_relax trajectory_step=39 pbc="F F F"
C        0.88760740       2.34562594       1.68288652
C       -2.84252689       1.66862719       0.72871724
C       -1.07861877      -1.29338762       2.48068716
C        1.61542062      -1.33301957      -3.02773026
C        3.30478431      -1.19736790      -1.26008939
C       -1.90240128      -0.26044570       2.16524266
C        1.84372736       1.35091528       2.11256504
C        0.18034326       1.38598553       3.66918909
C       -1.49104250      -2.63156024      -2.08617872
C        0.80990231      -0.62367794      -3.95577186
C        1.50777232      -2.55457106       0.00156644
C       -2.50423975      -1.80294654      -0.17429046
C        0.56213027       2.71885499       0.33340992
C       -0.53392326      -2.26870686      -3.07501153
C       -3.06944594      -0.54825440      -2.11006590
C        1.08677190      -0.70128370       3.25534839
C       -3.50823185       0.14298986      -0.92091072
C        1.48157372       1.50101406      -2.96941361
C        2.43973095       0.81710529      -2.17985116
C       -1.46279671       2.72185299       2.44901880
C       -0.60381829       1.15157334      -4.18622533
C       -0.47943122       2.83620783      -2.38032168
C        3.97749168      -0.41609524      -0.26543404
C        2.76798515       0.57085308       1.40255071
C        2.87761523      -0.82095721       1.72696774
C        1.71194729      -1.47112442       2.22589595
C       -1.18921649       2.19003617      -3.44139313
C        1.33421071       0.69272939       3.25239713
C        0.86400475       2.49592890      -2.13890861
C       -2.72148726       0.30736836       1.26640026
C       -2.59548761       2.26361137      -1.62481780
C       -1.84614726       2.66083946       1.07905306
C        3.63559524      -1.43930105       0.72248171
C       -0.53426211      -1.15025242      -3.95136064
C       -0.29018892      -0.86326354       3.62212566
C       -1.36827532       2.92374258      -1.27081073
C        3.26130226       0.77563689       0.10529825
C        2.83775765      -2.12294466      -0.25679393
C        0.91774694      -2.28331336       1.31841806
C       -0.54395936      -2.20938921       1.44080739
C       -0.12503211       2.38866002       2.71126749
C        1.42643779       2.41026674      -0.79984011
C       -3.11101075      -0.60507342       0.22773525
C       -2.01341508       1.19286493       4.30849827
C       -2.98023959       2.15897359       4.72680583
C       -2.44285376       1.71385046      -2.92118444
C       -0.73412661      -3.04128856      -0.89722679
C       -3.25999689       1.52245332      -0.63965683
C       -1.34310103      -2.52512630       0.28925478
C        0.76181143       0.80632787      -3.98004388
C       -2.57716547      -1.82900476      -1.63183860
C       -2.31824311       2.32857572       3.49369211
C       -1.42211532      -0.04473122      -4.02436201
C        2.59243194      -0.59701752      -2.30063583
C       -0.86696169       2.95382769       0.05254196
C       -0.78306486       0.47308892       4.14105887
C       -2.52158505       0.27807533      -3.15224051
C        0.64773732      -2.83660404      -1.11547373
C        2.54028265       1.45014225      -0.89446353
C        0.79578029      -2.37429889      -2.47445285
60
Properties=species:S:1:pos:R:3 trajectory=trial0001_proposal001_step004_proposal_relax trajectory_step=40 pbc="F F F"
C        0.88687252       2.34488505       1.67657370
C       -2.84284026       1.67496674       0.74077332
C       -1.08756713      -1.29588140       2.49724242
C        1.60771940      -1.33363858      -3.02473041
C        3.30252305      -1.20381043      -1.25978741
C       -1.97781579      -0.30212554       2.20355097
C        1.84756399       1.35494428       2.10672945
C        0.19454825       1.39517289       3.66240524
C       -1.48111358      -2.62530811      -2.08107985
C        0.80820441      -0.61895538      -3.95800357
C        1.50234183      -2.55603913       0.01045380
C       -2.49820467      -1.78991295      -0.17985813
C        0.55785522       2.71809812       0.32499517
C       -0.53104486      -2.26756162      -3.07948707
C       -3.05453721      -0.53880498      -2.10514479
C        1.08573245      -0.69789199       3.25012828
C       -3.48665754       0.15201111      -0.91356427
C        1.47453340       1.50333380      -2.97625607
C        2.44168447       0.81567345      -2.18407659
C       -1.46233770       2.71319624       2.45168050
C       -0.60587326       1.14376630      -4.18394083
C       -0.47946914       2.82805783      -2.38783731
C        3.98172307      -0.41079117      -0.27353747
C        2.77199162       0.56481301       1.40003036
C        2.87676608      -0.82340933       1.71754814
C        1.71305186      -1.46862704       2.23102622
C       -1.18699756       2.18784208      -3.45395147
C        1.34130476       0.69640142       3.24840059
C        0.86298685       2.49233568      -2.14481353
C       -2.76213670       0.29610916       1.28692277
C       -2.58723105       2.26007163      -1.62091337
C       -1.84491600       2.66005559       1.08514281
C        3.64141700      -1.43489911       0.71316496
C       -0.53043461      -1.15296936      -3.95032709
C       -0.28980760      -0.84828472       3.61690085
C       -1.36171720       2.93035700      -1.28014023
C        3.26949010       0.79044467       0.10395312
C        2.83475581      -2.12153035      -0.25163289
C        0.91039733      -2.26238807       1.31923384
C       -0.54207225      -2.18268005       1.44313336
C       -0.11890226       2.37312884       2.70343836
C        1.41600061       2.41481658      -0.80840067
C       -3.13573358      -0.60257453       0.23983173
C       -2.00343082       1.16534285       4.29734449
C       -2.97609621       2.12088024       4.70994269
C       -2.43658528       1.70641662      -2.93222021
C       -0.73268256      -3.02891241      -0.88775259
C       -3.24494848       1.52175954      -0.63100291
C       -1.34454471      -2.50564292       0.28733460
C        0.76513134       0.80489236      -3.97992200
C       -2.56507373      -1.81946980      -1.63556282
C       -2.32014003       2.31111334       3.48948990
C       -1.42056767      -0.04879859      -4.02581759
C        2.59336639      -0.59847415      -2.30339034
C       -0.86825124       2.95731173       0.05503354
C       -0.76541642       0.47557796       4.15864693
C       -2.52120020       0.27953095      -3.15750274
C        0.65526031      -2.84050205      -1.10914946
C        2.53702796       1.45733394      -0.89405594
C        0.79158782      -2.37715930      -2.47210943
60
Properties=species:S:1:pos:R:3 trajectory=trial0001_proposal001_step004_proposal_relax trajectory_step=41 pbc="F F F"
C        0.89186536       2.33988830       1.66414856
C       -2.83702841       1.66720336       0.74756188
C       -1.10067193      -1.28876906       2.50587666
C        1.60264486      -1.32907331      -3.02362365
C        3.29977569      -1.20778683      -1.26024409
C       -2.03576970      -0.33893793       2.22487326
C        1.85679280       1.35312991       2.09825189
C        0.20650578       1.40158256       3.66675961
C       -1.47348057      -2.61851644      -2.07742966
C        0.81046854      -0.61810523      -3.95833020
C        1.50153166      -2.55233117       0.01512930
C       -2.50834449      -1.78335518      -0.18407266
C        0.55103552       2.71532003       0.31821855
C       -0.52562975      -2.26985927      -3.07737595
C       -3.03789774      -0.52335596      -2.09509069
C        1.07875002      -0.69057151       3.25065442
C       -3.46872704       0.15876910      -0.91205982
C        1.47844729       1.50284046      -2.98119497
C        2.43831641       0.81702666      -2.18952019
C       -1.45916901       2.70497155       2.45861961
C       -0.60408859       1.13638710      -4.18100549
C       -0.47688551       2.81964018      -2.39901737
C        3.98582493      -0.41042669      -0.27960990
C        2.77506049       0.56459010       1.39157109
C        2.87701412      -0.82347563       1.71110560
C        1.70955418      -1.46142573       2.23393777
C       -1.19172068       2.18642595      -3.46464981
C        1.34967084       0.70058263       3.24575843
C        0.85749858       2.48609015      -2.15302401
C       -2.80099054       0.27826694       1.30982930
C       -2.57790885       2.25757937      -1.62007209
C       -1.84782642       2.65317975       1.08878146
C        3.64796269      -1.43392128       0.71106285
C       -0.52924844      -1.15252108      -3.94842517
C       -0.29377853      -0.82887274       3.61573930
C       -1.35690141       2.93531410      -1.28148455
C        3.27831699       0.80036804       0.09741104
C        2.83224458      -2.12285927      -0.24657353
C        0.90580020      -2.23029486       1.31071647
C       -0.53925447      -2.15886296       1.44388495
C       -0.11692770       2.36515602       2.69171232
C        1.40762782       2.41793784      -0.81751662
C       -3.16221150      -0.61098041       0.24326792
C       -1.99623607       1.13554516       4.28486144
C       -2.97788791       2.08150204       4.70020890
C       -2.43094587       1.70254600      -2.92999296
C       -0.72856411      -3.01280024      -0.88078444
C       -3.23165968       1.52296327      -0.62677633
C       -1.34411059      -2.48336871       0.29261610
C        0.75935480       0.80560553      -3.98004478
C       -2.55297148      -1.80866315      -1.63903697
C       -2.31474688       2.29368781       3.49091741
C       -1.41904561      -0.05448576      -4.02002386
C        2.59378193      -0.59932269      -2.30538257
C       -0.86822255       2.95759015       0.05677527
C       -0.74345902       0.48294475       4.18026365
C       -2.52270155       0.27713203      -3.15760965
C        0.65906012      -2.84316228      -1.10753852
C        2.53207810       1.46416882      -0.89896638
C        0.79351881      -2.37623236      -2.46895508
60
Properties=species:S:1:pos:R:3 trajectory=trial0001_proposal001_step004_proposal_relax trajectory_step=42 pbc="F F F"
C        0.89872592       2.32523493       1.65077594
C       -2.83139023       1.64381972       0.74774906
C       -1.11797763      -1.27200941       2.51884257
C        1.60877193      -1.32520014      -3.01792350
C        3.29596126      -1.21332235      -1.25650077
C       -2.10741489      -0.37755929       2.25026985
C        1.86422684       1.34880123       2.09105535
C        0.22617616       1.42056696       3.67581046
C       -1.46997415      -2.60777882      -2.07136746
C        0.80942472      -0.61938059      -3.96113675
C        1.50135769      -2.54250477       0.01360621
C       -2.53071150      -1.78847799      -0.18168943
C        0.55273328       2.70878622       0.30963992
C       -0.51715153      -2.27198932      -3.07431589
C       -3.01380177      -0.50804734      -2.09009761
C        1.07338838      -0.67886979       3.25378412
C       -3.46133746       0.17099858      -0.91192464
C        1.48567696       1.50078841      -2.99489018
C        2.44005055       0.81249054      -2.18784597
C       -1.45596356       2.69770496       2.45350196
C       -0.60854675       1.13373371      -4.18105507
C       -0.47821945       2.82174253      -2.40858314
C        3.98698669      -0.41918661      -0.28224603
C        2.78546497       0.56138669       1.37418097
C        2.87825564      -0.81908352       1.71259300
C        1.70212492      -1.44432584       2.23162169
C       -1.19238872       2.18911192      -3.47462387
C        1.36138114       0.70660337       3.24791407
C        0.86166040       2.47484609      -2.16562854
C       -2.86103523       0.25914688       1.32730905
C       -2.56126109       2.26729913      -1.62255679
C       -1.84680040       2.63899685       1.09463265
C        3.65094181      -1.44330798       0.71818811
C       -0.52404608      -1.16172926      -3.94179376
C       -0.30787409      -0.80562584       3.61598219
C       -1.34441241       2.94022004      -1.28875719
C        3.28790914       0.79551109       0.08321718
C        2.83730745      -2.12819620      -0.24285331
C        0.90030764      -2.18768917       1.29744583
C       -0.54874473      -2.12892552       1.44468473
C       -0.10403471       2.35513940       2.68518054
C        1.40628407       2.41629861      -0.82792916
C       -3.19939239      -0.61657994       0.23434132
C       -1.99866968       1.10416579       4.26771870
C       -2.98893584       2.02914428       4.68991299
C       -2.42862109       1.70343600      -2.92349538
C       -0.72785232      -2.98963417      -0.87113943
C       -3.21602769       1.52910043      -0.62635718
C       -1.34618699      -2.45578718       0.29512149
C        0.76692579       0.80131829      -3.97793856
C       -2.54748008      -1.78808395      -1.63851417
C       -2.30344759       2.27018317       3.50252908
C       -1.41661948      -0.05719209      -4.00862934
C        2.59308267      -0.60189171      -2.30332112
C       -0.86947169       2.95678649       0.05496449
C       -0.71967453       0.48888764       4.20886584
C       -2.51805828       0.28663455      -3.15539252
C        0.65908564      -2.84300544      -1.10338302
C        2.53219169       1.46349259      -0.90823930
C        0.80261117      -2.37339507      -2.46622707
60
Properties=species:S:1:pos:R:3 trajectory=trial0001_proposal001_step004_proposal_relax trajectory_step=43 pbc="F F F"
C        0.89971785       2.31679506       1.64997252
C       -2.82739637       1.63435379       0.74439973
C       -1.12396794      -1.26195713       2.51770754
C        1.61005446      -1.32564715      -3.02083915
C        3.29679590      -1.21470974      -1.25531133
C       -2.12139872      -0.37668408       2.24754948
C        1.86849004       1.34534429       2.08544221
C        0.23498540       1.42601613       3.68685134
C       -1.47033831      -2.60161035      -2.06884600
C        0.81341244      -0.62268416      -3.95881235
C        1.50070436      -2.53336992       0.01022238
C       -2.54652392      -1.79761206      -0.17886162
C        0.55646529       2.70478902       0.30619317
C       -0.51379116      -2.27550035      -3.06834576
C       -3.01117019      -0.50482363      -2.08684655
C        1.06983421      -0.67516224       3.25544662
C       -3.46838002       0.17264497      -0.91986451
C        1.49191354       1.49967873      -2.99708021
C        2.44113126       0.81000445      -2.19074629
C       -1.45102832       2.69215222       2.46012049
C       -0.60596210       1.13364618      -4.18168668
C       -0.46960439       2.82636825      -2.41257651
C        3.98654261      -0.42973269      -0.27884584
C        2.78725027       0.56377697       1.37043906
C        2.88309951      -0.81522989       1.71469276
C        1.69770966      -1.42986128       2.22692613
C       -1.19597962       2.19303871      -3.47195899
C        1.36567757       0.71236214       3.25344431
C        0.85978085       2.47541550      -2.16931108
C       -2.87326304       0.24645090       1.32614844
C       -2.56140212       2.27196664      -1.61674914
C       -1.84689386       2.62408753       1.09061647
C        3.65098683      -1.44737895       0.72487972
C       -0.52579041      -1.16025272      -3.94024430
C       -0.30662449      -0.79743233       3.61748287
C       -1.34060401       2.94164730      -1.28778211
C        3.28684632       0.78803074       0.07522694
C        2.84232173      -2.13129671      -0.24405375
C        0.89693466      -2.17311504       1.28969765
C       -0.55206359      -2.11699840       1.44562106
C       -0.10155198       2.35956321       2.68397831
C        1.41038146       2.41192134      -0.83304315
C       -3.21451180      -0.62067355       0.23029965
C       -1.99646268       1.09000300       4.26341759
C       -3.00362014       2.01286565       4.69137255
C       -2.42661139       1.70991588      -2.92320966
C       -0.73073538      -2.98032941      -0.86956658
C       -3.21349940       1.52652445      -0.62807664
C       -1.35170614      -2.45119901       0.29416440
C        0.76127263       0.79701079      -3.98323246
C       -2.54883956      -1.78869842      -1.63638008
C       -2.29377325       2.26832498       3.50355394
C       -1.41366421      -0.05742888      -4.00350271
C        2.59508213      -0.59871043      -2.29714484
C       -0.86757220       2.95278541       0.05542825
C       -0.71921696       0.49478951       4.21476589
C       -2.51364272       0.29028477      -3.14914393
C        0.66152118      -2.83629473      -1.10420215
C        2.53674607       1.45868050      -0.91147603
C        0.80742270      -2.37324795      -2.46323777
60
Properties=species:S:1:pos:R:3 trajectory=trial0001_proposal001_step004_proposal_relax trajectory_step=44 pbc="F F F"
C        0.89922269       2.31357580       1.65046667
C       -2.82830740       1.63228158       0.74071485
C       -1.12683385      -1.25732308       2.51529680
C        1.61384929      -1.32765209      -3.02191137
C        3.29868421      -1.21524367      -1.25548568
C       -2.12483078      -0.36859604       2.25410623
C        1.86803255       1.34467477       2.08586353
C        0.23694634       1.42816877       3.69500158
C       -1.47153418      -2.59917847      -2.06770631
C        0.81454050      -0.62659022      -3.95736016
C        1.50080041      -2.52718964       0.00808593
C       -2.55606583      -1.80000392      -0.17656686
C        0.56061557       2.70246085       0.30633949
C       -0.51425933      -2.27570938      -3.06599296
C       -3.01450812      -0.50646779      -2.08867922
C        1.07178550      -0.67208221       3.25564032
C       -3.47761391       0.17097162      -0.92599992
C        1.49341167       1.49741005      -2.99833325
C        2.44226220       0.80940625      -2.19280589
C       -1.44797794       2.68904783       2.46021752
C       -0.60452344       1.13627128      -4.18274395
C       -0.46649381       2.83213724      -2.41264047
C        3.98606753      -0.43621260      -0.27466947
C        2.78860835       0.56637389       1.36926334
C        2.88663930      -0.81242443       1.71774615
C        1.69626602      -1.42234929       2.22160449
C       -1.19228011       2.19505968      -3.46971477
C        1.36946880       0.71514651       3.25799455
C        0.86412097       2.47687455      -2.16955939
C       -2.87626877       0.24638817       1.32059511
C       -2.56247660       2.27601764      -1.61683975
C       -1.84356324       2.61504366       1.08816252
C        3.65000635      -1.45044921       0.72901860
C       -0.52665588      -1.16068428      -3.93865438
C       -0.30202936      -0.79679712       3.61835828
C       -1.33920619       2.94228141      -1.28544154
C        3.28369030       0.77946843       0.07431110
C        2.84373012      -2.13371707      -0.24494978
C        0.89577961      -2.17163719       1.28841354
C       -0.55461349      -2.11634174       1.44494218
C       -0.09941417       2.36404478       2.68852705
C        1.41582744       2.40848057      -0.83324619
C       -3.21983617      -0.62352549       0.22566352
C       -2.00066057       1.09012938       4.26274324
C       -3.01050792       2.00747099       4.68607878
C       -2.42561561       1.71749005      -2.92198850
C       -0.73171980      -2.97835652      -0.87114774
C       -3.21508011       1.52507603      -0.63155907
C       -1.35587068      -2.45304592       0.29620698
C        0.76044238       0.79577644      -3.98563278
C       -2.55403952      -1.79228612      -1.63463576
C       -2.29246498       2.26717426       3.50813008
C       -1.41220392      -0.05531962      -4.00294502
C        2.59426428      -0.59889302      -2.29413078
C       -0.86386747       2.94902257       0.05417973
C       -0.71897209       0.49568070       4.21010658
C       -2.50838622       0.29220950      -3.14603905
C        0.65969191      -2.83027688      -1.10477485
C        2.54062097       1.45456556      -0.91408980
C        0.80879677      -2.37423003      -2.46245074
60
Properties=species:S:1:pos:R:3 trajectory=trial0001_proposal001_step004_proposal_relax trajectory_step=45 pbc="F F F"
C        0.89791540       2.30747696       1.64930496
C       -2.82976363       1.61895957       0.73919911
C       -1.13063542      -1.24077458       2.51465546
C        1.61986215      -1.33121591      -3.02150032
C        3.30494845      -1.21773723      -1.25726661
C       -2.13254286      -0.35873363       2.25925131
C        1.86628977       1.34695201       2.08608044
C        0.24668398       1.43696230       3.71159505
C       -1.46997605      -2.59203172      -2.06260027
C        0.81326697      -0.63024038      -3.95633430
C        1.50001701      -2.50995015       0.00713840
C       -2.57597675      -1.81107505      -0.17468898
C        0.56676106       2.69528243       0.30467008
C       -0.51452027      -2.27334234      -3.06404112
C       -3.02065237      -0.51310373      -2.09165823
C        1.07949406      -0.65990841       3.25082376
C       -3.49652271       0.16267981      -0.93064734
C        1.49101845       1.49492115      -3.00500296
C        2.44630716       0.81052666      -2.20225865
C       -1.44495132       2.67687983       2.46334572
C       -0.60602879       1.14018996      -4.18350267
C       -0.46477897       2.84219647      -2.41119083
C        3.98796817      -0.44325514      -0.27035393
C        2.79241794       0.57260875       1.36733467
C        2.89321550      -0.80547258       1.72100024
C        1.69311258      -1.40359284       2.20962255
C       -1.18649731       2.19970833      -3.46696034
C        1.38123991       0.72490233       3.26722843
C        0.87129989       2.47986839      -2.17316599
C       -2.88048644       0.23582620       1.31287449
C       -2.56353426       2.27815780      -1.61356894
C       -1.83046388       2.59139571       1.09170374
C        3.65127878      -1.45472236       0.73369856
C       -0.52649780      -1.16233957      -3.93425443
C       -0.29700159      -0.78767377       3.61291344
C       -1.33832143       2.94274243      -1.28080510
C        3.27913090       0.76863546       0.07069916
C        2.84682150      -2.13538255      -0.24435255
C        0.89272049      -2.15656961       1.28538450
C       -0.56245322      -2.10019335       1.43864518
C       -0.09197406       2.36997653       2.69938630
C        1.42352515       2.40213999      -0.83538685
C       -3.24209543      -0.63480466       0.22340472
C       -2.00143368       1.07572078       4.25958733
C       -3.03069641       1.98324712       4.67362093
C       -2.42582003       1.72722061      -2.91794658
C       -0.73156032      -2.96832084      -0.86780512
C       -3.21517121       1.51505102      -0.63392053
C       -1.36624567      -2.45337411       0.30042977
C        0.75986765       0.79456628      -3.98988111
C       -2.56698244      -1.80147372      -1.63289041
C       -2.28815871       2.26467899       3.51151985
C       -1.41165182      -0.05178148      -4.00014746
C        2.59245637      -0.59974389      -2.29281914
C       -0.85648271       2.93683881       0.05429520
C       -0.71092539       0.49904251       4.20385155
C       -2.49884461       0.29452724      -3.13619328
C        0.65800985      -2.81465712      -1.10242109
C        2.54744815       1.45031378      -0.92185223
C        0.81206103      -2.37512787      -2.46276423
60
Properties=species:S:1:pos:R:3 trajectory=trial0001_proposal001_step004_proposal_relax trajectory_step=46 pbc="F F F"
C        0.89814144       2.30010750       1.65171991
C       -2.83041553       1.60579013       0.73766643
C       -1.13905083      -1.22723591       2.52183087
C        1.62025921      -1.33793585      -3.02296864
C        3.31136261      -1.22688395      -1.25827876
C       -2.18081314      -0.36008388       2.29203167
C        1.87280266       1.35153901       2.08553695
C        0.26740977       1.45235124       3.72842998
C       -1.47062761      -2.58079364      -2.05522628
C        0.81719848      -0.63386904      -3.95527345
C        1.49376780      -2.49186657       0.01176888
C       -2.60087596      -1.81627706      -0.17592844
C        0.57609121       2.68338122       0.30055958
C       -0.51542680      -2.27326619      -3.06009441
C       -3.02840471      -0.51303700      -2.09456962
C        1.08449942      -0.64385702       3.24470114
C       -3.51549494       0.15861267      -0.93551591
C        1.49604008       1.49312350      -3.00939381
C        2.45539474       0.80563153      -2.21390442
C       -1.43399370       2.65852870       2.46421628
C       -0.59821211       1.14301380      -4.18699442
C       -0.45253191       2.85078377      -2.41009600
C        3.99249736      -0.45110172      -0.27018208
C        2.79667928       0.57573219       1.36976110
C        2.89961419      -0.80350387       1.72183706
C        1.69182365      -1.38686584       2.20175283
C       -1.17921727       2.20904954      -3.46747225
C        1.40030584       0.73950774       3.27997975
C        0.87905864       2.48354227      -2.17852500
C       -2.91335693       0.22907545       1.31470337
C       -2.56185074       2.28060936      -1.61194550
C       -1.81591900       2.56342731       1.09287245
C        3.65548441      -1.46052158       0.74000833
C       -0.52450994      -1.15721264      -3.93339963
C       -0.28549805      -0.76903604       3.59763641
C       -1.33282250       2.94601647      -1.28062040
C        3.27963125       0.76120519       0.06500151
C        2.84707082      -2.13674622      -0.23910202
C        0.88103464      -2.13311533       1.28382886
C       -0.57592979      -2.06806400       1.43713041
C       -0.08154784       2.37207925       2.70903144
C        1.43460240       2.39471587      -0.84057340
C       -3.27804881      -0.64416982       0.22046650
C       -2.00479998       1.05912815       4.24497067
C       -3.05078189       1.93752276       4.63915404
C       -2.42073587       1.73406645      -2.92242531
C       -0.73463606      -2.95106710      -0.85879826
C       -3.20964007       1.50825707      -0.63761320
C       -1.38129906      -2.44178902       0.30499849
C        0.76404131       0.78925398      -3.99657869
C       -2.58124511      -1.80422203      -1.63502895
C       -2.29346299       2.24491995       3.51895091
C       -1.40678733      -0.04711266      -3.99814956
C        2.59770417      -0.60747363      -2.29238845
C       -0.84690743       2.92029402       0.05590167
C       -0.69610370       0.50008991       4.20517756
C       -2.49060475       0.30296271      -3.12871612
C        0.65350680      -2.79746656      -1.09390030
C        2.55731744       1.44404700      -0.93033152
C        0.81370367      -2.38019410      -2.46254692
60
Properties=species:S:1:pos:R:3 trajectory=trial0001_proposal001_step004_proposal_relax trajectory_step=47 pbc="F F F"
C        0.89956831       2.30186285       1.65158595
C       -2.82772574       1.60089396       0.73937277
C       -1.13985851      -1.22180741       2.52189398
C        1.61930134      -1.33687442      -3.02313023
C        3.31258311      -1.22786870      -1.25942511
C       -2.18159910      -0.36286809       2.29505891
C        1.87537452       1.35564970       2.08763487
C        0.27126970       1.45613759       3.73171263
C       -1.46893039      -2.57956067      -2.05364931
C        0.81590057      -0.63186692      -3.95667827
C        1.49273507      -2.48746193       0.01387445
C       -2.60517055      -1.81802197      -0.17772522
C        0.57558040       2.67990541       0.30101380
C       -0.51629142      -2.27068188      -3.06135647
C       -3.03177890      -0.51454833      -2.09400816
C        1.08722725      -0.63857689       3.24155830
C       -3.51676816       0.15481306      -0.93230919
C        1.49400574       1.49427710      -3.01195032
C        2.45680497       0.80607999      -2.21694042
C       -1.43484815       2.65301649       2.46698344
C       -0.60060402       1.14384237      -4.18516171
C       -0.45671840       2.84878259      -2.40884152
C        3.99398507      -0.44817558      -0.27285156
C        2.79893381       0.57644505       1.36754184
C        2.89952275      -0.80197556       1.71960323
C        1.69270983      -1.38482587       2.20255806
C       -1.17907738       2.20813103      -3.46917007
C        1.40623119       0.74301605       3.28098737
C        0.88026289       2.48255200      -2.17823799
C       -2.91623706       0.22366796       1.31636565
C       -2.56028189       2.27582103      -1.61122658
C       -1.81411265       2.55665689       1.09641961
C        3.65869151      -1.45705856       0.73726819
C       -0.52417126      -1.15731301      -3.93219755
C       -0.28363772      -0.76289480       3.59112548
C       -1.33285226       2.94451233      -1.27845512
C        3.28119349       0.76535923       0.06566935
C        2.84564769      -2.13323008      -0.23715313
C        0.87929652      -2.12414206       1.28302602
C       -0.57586471      -2.05932037       1.43552323
C       -0.07935044       2.37095190       2.71010019
C        1.43273746       2.39579903      -0.84229073
C       -3.28568899      -0.64949384       0.22546230
C       -1.99915933       1.04862635       4.24066128
C       -3.05785887       1.92455578       4.63328476
C       -2.41890751       1.73003943      -2.91972064
C       -0.73449864      -2.94549248      -0.85626346
C       -3.20943006       1.50317134      -0.63445299
C       -1.38416595      -2.43782780       0.30643165
C        0.76512783       0.79193217      -3.99511107
C       -2.58380755      -1.80718495      -1.63754661
C       -2.29275803       2.24222042       3.51289037
C       -1.40754461      -0.04634982      -3.99648406
C        2.59917797      -0.60968433      -2.29709237
C       -0.84648865       2.91427533       0.05717618
C       -0.69159170       0.50344581       4.20722092
C       -2.49136811       0.30047282      -3.12766478
C        0.65335669      -2.79412534      -1.09218409
C        2.55648075       1.44629648      -0.93331930
C        0.81093124      -2.38038050      -2.46232337
60
Properties=species:S:1:pos:R:3 trajectory=trial0001_proposal001_step004_proposal_relax trajectory_step=48 pbc="F F F"
C        0.90375225       2.30478454       1.65371150
C       -2.82441946       1.59367973       0.74041174
C       -1.14085230      -1.21519148       2.52239971
C        1.61716094      -1.33753891      -3.02353776
C        3.31373534      -1.23016972      -1.26073423
C       -2.18970863      -0.36377608       2.30340192
C        1.88333447       1.36201944       2.09155683
C        0.27827377       1.46176052       3.73680108
C       -1.46929637      -2.57747674      -2.05251415
C        0.81544933      -0.62877755      -3.95884087
C        1.48960685      -2.48166381       0.01769713
C       -2.61128738      -1.81978612      -0.18019123
C        0.57584036       2.67402802       0.30227996
C       -0.51893992      -2.26766317      -3.06227990
C       -3.03906920      -0.51617380      -2.09428537
C        1.09189997      -0.63100708       3.23707256
C       -3.52023704       0.15107047      -0.92763566
C        1.49560022       1.49560866      -3.01319915
C        2.46028158       0.80430443      -2.22010191
C       -1.43489906       2.64482075       2.46827598
C       -0.60007207       1.14519060      -4.18364084
C       -0.45859924       2.84514699      -2.40675878
C        3.99612600      -0.44377585      -0.27722347
C        2.80113719       0.57736923       1.36682796
C        2.89928472      -0.80098877       1.71648558
C        1.69499693      -1.38452607       2.20557496
C       -1.17849580       2.20825594      -3.47049731
C        1.41502550       0.74909755       3.28442033
C        0.88085949       2.48171837      -2.17768553
C       -2.92251448       0.21689476       1.32296641
C       -2.55785833       2.26853598      -1.61012298
C       -1.81120178       2.54774473       1.10008131
C        3.66305153      -1.45234694       0.73396179
C       -0.52375166      -1.15546253      -3.93186263
C       -0.27996661      -0.75197013       3.58062042
C       -1.33266045       2.94081832      -1.27618786
C        3.28490852       0.77139452       0.06505762
C        2.84278102      -2.12764208      -0.23355058
C        0.87554767      -2.11244968       1.28342175
C       -0.57816436      -2.04675287       1.43399443
C       -0.07607044       2.36915882       2.71183370
C        1.43247669       2.39650320      -0.84334259
C       -3.29652568      -0.65393473       0.23055937
C       -1.99389303       1.03612620       4.23069652
C       -3.06776419       1.90378463       4.61879018
C       -2.41528316       1.72389916      -2.91720218
C       -0.73684231      -2.93691541      -0.85191606
C       -3.20911694       1.49736272      -0.63218976
C       -1.38899738      -2.42966730       0.30789705
C        0.76758473       0.79532515      -3.99372607
C       -2.58975163      -1.80917896      -1.64130980
C       -2.29506245       2.23447449       3.50378145
C       -1.40706176      -0.04451576      -3.99461117
C        2.60353457      -0.61409294      -2.30473629
C       -0.84541255       2.90423271       0.05940202
C       -0.68394788       0.50683091       4.21014334
C       -2.49386893       0.29763417      -3.12782070
C        0.65110593      -2.78968456      -1.08900718
C        2.55709185       1.44737521      -0.93622504
C        0.80663609      -2.38022459      -2.46210409
60
Properties=species:S:1:pos:R:3 trajectory=trial0001_proposal001_step004_proposal_relax trajectory_step=49 pbc="F F F"
C        0.91166444       2.30764449       1.65942498
C       -2.82195759       1.58356032       0.73895346
C       -1.14167273      -1.20405367       2.52170538
C        1.61581678      -1.34005822      -3.02577406
C        3.31438405      -1.23203463      -1.26231185
C       -2.19857632      -0.35830987       2.31940321
C        1.89620548       1.37079709       2.09884106
C        0.28779068       1.47013077       3.74571602
C       -1.47515214      -2.57396338      -2.05210090
C        0.81591139      -0.62664609      -3.96051146
C        1.48468006      -2.47282920       0.02036148
C       -2.62248998      -1.82183623      -0.18090070
C        0.57905336       2.66598980       0.30514512
C       -0.52352864      -2.26428623      -3.06190595
C       -3.05133686      -0.51949164      -2.09638257
C        1.09829850      -0.62130796       3.23415400
C       -3.52942523       0.14764175      -0.92585600
C        1.50127542       1.49670568      -3.01272891
C        2.46524027       0.80036737      -2.22218747
C       -1.43242128       2.63512045       2.46661301
C       -0.59726375       1.14793570      -4.18226389
C       -0.45711093       2.84205896      -2.40348523
C        3.99789412      -0.44094697      -0.28143661
C        2.80449835       0.57958727       1.36634259
C        2.90066288      -0.79834917       1.71438367
C        1.69872901      -1.38299387       2.20805759
C       -1.17674019       2.20932539      -3.46880305
C        1.42701577       0.75765125       3.29191034
C        0.88329132       2.48025588      -2.17613851
C       -2.93116331       0.21123551       1.32678748
C       -2.55503787       2.26077027      -1.60764362
C       -1.80752240       2.53486898       1.10062891
C        3.66611694      -1.44768981       0.73242400
C       -0.52395197      -1.15196217      -3.93194101
C       -0.27424438      -0.73795444       3.56907143
C       -1.33101160       2.93303934      -1.27290413
C        3.28954024       0.77437258       0.06350394
C        2.83946442      -2.12126024      -0.23054605
C        0.87117006      -2.10103394       1.28404063
C       -0.58325257      -2.03452217       1.43314813
C       -0.07128207       2.36893787       2.71533047
C        1.43598449       2.39473092      -0.84245331
C       -3.30821274      -0.65749977       0.23315865
C       -1.99206716       1.02117015       4.21404047
C       -3.08312036       1.87712830       4.59599738
C       -2.41068776       1.71823489      -2.91385915
C       -0.74236943      -2.92618036      -0.84904799
C       -3.21058056       1.49109199      -0.63127432
C       -1.39598496      -2.41992539       0.30804952
C        0.77119411       0.79803091      -3.99307234
C       -2.60119088      -1.81167893      -1.64395601
C       -2.29938386       2.22332811       3.49196189
C       -1.40478782      -0.04178983      -3.99224778
C        2.61014607      -0.61940112      -2.31256347
C       -0.84249649       2.89002341       0.06206108
C       -0.67562439       0.51062880       4.21198149
C       -2.49640799       0.29528940      -3.12829946
C        0.64558619      -2.78323000      -1.08568149
C        2.56034955       1.44514217      -0.93876755
C        0.80158334      -2.37796319      -2.46106891
60
Properties=species:S:1:pos:R:3 trajectory=trial0001_proposal001_step004_proposal_relax trajectory_step=50 pbc="F F F"
C        0.93198349       2.31579788       1.67287316
C       -2.81991192       1.56060276       0.73975109
C       -1.13956911      -1.17609535       2.52260635
C        1.61703251      -1.34325364      -3.03197619
C        3.31476658      -1.23368884      -1.26443486
C       -2.23751996      -0.33247292       2.35891710
C        1.93251992       1.39096487       2.11827795
C        0.31005567       1.48972636       3.76913967
C       -1.49253779      -2.56438223      -2.05359252
C        0.81772109      -0.62357399      -3.96310542
C        1.47274412      -2.45147280       0.02312244
C       -2.64904870      -1.82461472      -0.18061115
C        0.59153226       2.64788151       0.31550161
C       -0.53662204      -2.25354644      -3.06075562
C       -3.07990779      -0.52402282      -2.10363041
C        1.11540343      -0.60069749       3.23043201
C       -3.55300561       0.14094529      -0.92815054
C        1.51427091       1.49527570      -3.01387054
C        2.47633532       0.79208113      -2.22426340
C       -1.42383519       2.61281690       2.45856606
C       -0.59051936       1.15330658      -4.17708821
C       -0.45100928       2.83346279      -2.39417880
C        4.00279992      -0.43979417      -0.28997710
C        2.81582881       0.58974318       1.36699666
C        2.90510703      -0.78882672       1.71215228
C        1.70609256      -1.37256777       2.21459337
C       -1.17271708       2.20706730      -3.46331472
C        1.45738664       0.77865948       3.31290675
C        0.89299817       2.47447377      -2.16892515
C       -2.94737380       0.19574211       1.34262814
C       -2.54699889       2.24088658      -1.60069393
C       -1.79915648       2.50392492       1.09785447
C        3.66974743      -1.43834428       0.72578567
C       -0.52361630      -1.14808307      -3.93142557
C       -0.25679249      -0.70334670       3.54840561
C       -1.32136991       2.90846900      -1.26326439
C        3.30125260       0.77924907       0.06099398
C        2.82996808      -2.10655449      -0.22768820
C        0.86206466      -2.07849835       1.28634262
C       -0.59517780      -2.00708214       1.43162635
C       -0.05787333       2.36980642       2.72046533
C        1.44551124       2.38568271      -0.83836915
C       -3.33365558      -0.66143913       0.23810243
C       -1.99688681       0.97510203       4.15727339
C       -3.11819381       1.80835517       4.52987718
C       -2.40284746       1.70778165      -2.90416143
C       -0.76029129      -2.90117907      -0.84821255
C       -3.21522363       1.47876191      -0.63127738
C       -1.41108015      -2.39439180       0.30848077
C        0.78154313       0.80306550      -3.99053937
C       -2.63224722      -1.81546952      -1.64573703
C       -2.31186536       2.19201769       3.46315801
C       -1.40186446      -0.03493795      -3.98733798
C        2.62149825      -0.62866928      -2.33009748
C       -0.83316787       2.85706003       0.06563796
C       -0.65431295       0.52326819       4.21820860
C       -2.50225595       0.28759319      -3.13026340
C        0.63152141      -2.76742555      -1.08164089
C        2.56963377       1.43788160      -0.94142985
C        0.78662725      -2.36942504      -2.45557998
60
Properties=species:S:1:pos:R:3 trajectory=trial0001_proposal001_step004_proposal_relax trajectory_step=51 pbc="F F F"
C        0.95509088       2.32248799       1.68915986
C       -2.82075067       1.53875030       0.73781170
C       -1.14243718      -1.14085915       2.52315852
C        1.61691698      -1.34943504      -3.03892642
C        3.31414941      -1.23438284      -1.26932010
C       -2.26232838      -0.30810547       2.41528762
C        1.96824146       1.41357636       2.14008424
C        0.33254568       1.51133553       3.79251951
C       -1.51549701      -2.55343709      -2.05572075
C        0.82053901      -0.62209022      -3.96512868
C        1.45953685      -2.42939703       0.02451909
C       -2.67752918      -1.82547720      -0.17810708
C        0.60617775       2.63036199       0.32558527
C       -0.55047882      -2.24374216      -3.05715676
C       -3.11089439      -0.53124727      -2.11192699
C        1.13388570      -0.57747641       3.23057897
C       -3.58054240       0.13588914      -0.93044260
C        1.53025078       1.49438013      -3.01040226
C        2.48744346       0.78338578      -2.22674988
C       -1.41344229       2.59051177       2.44892003
C       -0.58155528       1.15722120      -4.17250162
C       -0.44035651       2.82465325      -2.38437224
C        4.00799044      -0.43861060      -0.29682780
C        2.82945908       0.60060947       1.37025052
C        2.91174115      -0.77870649       1.71044656
C        1.71381543      -1.36183579       2.21685450
C       -1.16769182       2.20686892      -3.45298533
C        1.48862605       0.79968741       3.33661376
C        0.90285680       2.46868447      -2.16242780
C       -2.96816283       0.18946920       1.34623733
C       -2.53866470       2.22275434      -1.59253059
C       -1.78933365       2.47161935       1.09312447
C        3.66963481      -1.43098516       0.72333607
C       -0.52481442      -1.13983126      -3.93313473
C       -0.23926303      -0.67028593       3.52799225
C       -1.31124094       2.88105335      -1.25417871
C        3.31340680       0.78027301       0.05856487
C        2.81948543      -2.09308292      -0.22671670
C        0.85452546      -2.05952495       1.28944869
C       -0.60823535      -1.98022065       1.43237717
C       -0.04460721       2.37216234       2.72835489
C        1.45857915       2.37368097      -0.83111587
C       -3.35693143      -0.66497047       0.23925782
C       -2.00537452       0.92205007       4.09004355
C       -3.15567293       1.73968383       4.45820749
C       -2.39593541       1.69817769      -2.89628512
C       -0.77845054      -2.87737887      -0.84802683
C       -3.22226918       1.46589453      -0.63056356
C       -1.42701263      -2.37090790       0.30704660
C        0.78929893       0.80487858      -3.99049939
C       -2.66583530      -1.82020831      -1.64736082
C       -2.32469407       2.16238687       3.43186255
C       -1.39676191      -0.03012867      -3.98384924
C        2.63414372      -0.63642981      -2.34335193
C       -0.82037526       2.82277758       0.07085439
C       -0.63599702       0.53468147       4.22187248
C       -2.50777416       0.28260311      -3.13189716
C        0.61378018      -2.75013875      -1.07783722
C        2.58092656       1.42804592      -0.94334313
C        0.77335320      -2.35810279      -2.45159951
60
Properties=species:S:1:pos:R:3 trajectory=trial0001_proposal001_step004_proposal_relax trajectory_step=52 pbc="F F F"
C        0.99813590       2.33519047       1.71907017
C       -2.82300598       1.49810701       0.73548046
C       -1.14678869      -1.07466787       2.52479334
C        1.61750157      -1.36010887      -3.05174407
C        3.31299681      -1.23509801      -1.27817783
C       -2.31137820      -0.25994624       2.52073796
C        2.03536850       1.45562105       2.18093492
C        0.37415219       1.55155002       3.83636466
C       -1.55835456      -2.53278610      -2.05991886
C        0.82563007      -0.61963355      -3.96880859
C        1.43495694      -2.38811188       0.02646524
C       -2.73034205      -1.82692122      -0.17326662
C        0.63427288       2.59800421       0.34490502
C       -0.57656216      -2.22462587      -3.05064702
C       -3.16819243      -0.54413277      -2.12754116
C        1.16882970      -0.53442640       3.23125110
C       -3.63194571       0.12639361      -0.93549059
C        1.55905499       1.49196571      -3.00482399
C        2.50793469       0.76787254      -2.23122206
C       -1.39380914       2.54883585       2.43068086
C       -0.56555097       1.16412075      -4.16334083
C       -0.42066537       2.80778270      -2.36577959
C        4.01797881      -0.43730529      -0.30929734
C        2.85586530       0.62198996       1.37672848
C        2.92425871      -0.75910620       1.70768867
C        1.72774018      -1.33996997       2.22085095
C       -1.15836463       2.20528009      -3.43369582
C        1.54725640       0.83907356       3.38122014
C        0.92205992       2.45736685      -2.14975623
C       -3.00548243       0.17692774       1.35458288
C       -2.52286665       2.18842559      -1.57697279
C       -1.77071740       2.41114236       1.08419181
C        3.66874212      -1.41761079       0.71788184
C       -0.52683104      -1.12565558      -3.93604397
C       -0.20603436      -0.60829985       3.49127554
C       -1.29130642       2.82889753      -1.23675985
C        3.33618562       0.78209335       0.05447383
C        2.79962544      -2.06797571      -0.22581876
C        0.84081024      -2.02446893       1.29533736
C       -0.63237784      -1.92963269       1.43366527
C       -0.01943351       2.37671525       2.74251501
C        1.48275715       2.35045700      -0.81740445
C       -3.40022126      -0.67109076       0.24186033
C       -2.02267602       0.81866200       3.95969659
C       -3.22503931       1.61051339       4.32218064
C       -2.38389994       1.68075608      -2.88114390
C       -0.81283475      -2.83305364      -0.84854739
C       -3.23554421       1.44211964      -0.62927592
C       -1.45637391      -2.32679078       0.30468891
C        0.80395111       0.80809518      -3.99006742
C       -2.72890982      -1.82889137      -1.64968775
C       -2.34879110       2.10682434       3.37351168
C       -1.38813734      -0.02126228      -3.97751303
C        2.65640199      -0.65001886      -2.36785373
C       -0.79597503       2.75903008       0.08018358
C       -0.60152115       0.55682650       4.22899233
C       -2.51794128       0.27274106      -3.13481884
C        0.58079933      -2.71756884      -1.07146360
C        2.60203028       1.40978493      -0.94648318
C        0.74806823      -2.33640992      -2.44376023
60
Properties=species:S:1:pos:R:3 trajectory=trial0001_proposal001_step004_proposal_relax trajectory_step=53 pbc="F F F"
C        1.02378881       2.34606987       1.73817040
C       -2.82650193       1.48329159       0.73358890
C       -1.14447410      -1.04280038       2.52113297
C        1.61630676      -1.36503663      -3.05911723
C        3.30871716      -1.23034850      -1.28361555
C       -2.30645691      -0.22651252       2.57870819
C        2.07194582       1.47880596       2.20598152
C        0.38663711       1.56719911       3.85177996
C       -1.58690771      -2.52613248      -2.06670770
C        0.82764034      -0.61767990      -3.97097827
C        1.42242090      -2.37406688       0.02439734
C       -2.74728559      -1.82330908      -0.16913050
C        0.64817433       2.58588562       0.35874264
C       -0.59251574      -2.21390828      -3.04768366
C       -3.20009573      -0.55283105      -2.13629424
C        1.18727884      -0.51709668       3.23695420
C       -3.65494101       0.12411593      -0.93684740
C        1.57480171       1.49145383      -2.99593828
C        2.51565537       0.76093619      -2.22772638
C       -1.38537333       2.53403788       2.41781438
C       -0.55777780       1.16576140      -4.15700823
C       -0.41078103       2.79315187      -2.35426105
C        4.02175275      -0.43316742      -0.31563909
C        2.86971122       0.63409775       1.38382600
C        2.92939706      -0.74890405       1.70633710
C        1.73768407      -1.33587013       2.22523402
C       -1.15547728       2.20062116      -3.41911988
C        1.57157180       0.85457179       3.40295395
C        0.92945812       2.44950384      -2.13926820
C       -3.01143208       0.18111984       1.35579415
C       -2.51546450       2.16769082      -1.56766986
C       -1.76604998       2.39071132       1.07636440
C        3.66308276      -1.40859895       0.71331331
C       -0.52963549      -1.11728768      -3.94023780
C       -0.19121388      -0.58230654       3.47870165
C       -1.28179446       2.79489926      -1.22738817
C        3.34959838       0.78495456       0.05534686
C        2.78691647      -2.05297352      -0.22960202
C        0.83930236      -2.02107192       1.30141809
C       -0.64118456      -1.91797062       1.43735468
C       -0.01038553       2.37947079       2.74761935
C        1.49412835       2.33855459      -0.80424421
C       -3.40458397      -0.66748871       0.24309534
C       -2.03625144       0.76156171       3.87873200
C       -3.25172633       1.56317585       4.25138855
C       -2.37998960       1.66771334      -2.87266934
C       -0.83244451      -2.81799084      -0.85429663
C       -3.24758266       1.43319991      -0.62795795
C       -1.46635058      -2.30867905       0.30012333
C        0.80946554       0.81008791      -3.98786854
C       -2.76043005      -1.83266080      -1.64937466
C       -2.36553775       2.08281893       3.33983652
C       -1.38481497      -0.01921321      -3.97701318
C        2.66708843      -0.65337645      -2.37969634
C       -0.78388289       2.72978449       0.08593832
C       -0.59475391       0.56688725       4.22728550
C       -2.52818687       0.26469485      -3.14073315
C        0.56127011      -2.70647145      -1.07194087
C        2.61101340       1.40034709      -0.94242816
C        0.73296636      -2.31982656      -2.44039276
60
Properties=species:S:1:pos:R:3 trajectory=trial0001_proposal001_step004_proposal_relax trajectory_step=54 pbc="F F F"
C        1.01867159       2.34987757       1.73738905
C       -2.83589183       1.52088917       0.73300545
C       -1.12733188      -1.06705987       2.51340376
C        1.61177988      -1.35899655      -3.05685346
C        3.29921636      -1.21381901      -1.28430674
C       -2.21677525      -0.22719530       2.54911697
C        2.05074562       1.46791850       2.20317954
C        0.34855448       1.54041252       3.81812754
C       -1.59152137      -2.54210753      -2.07812554
C        0.82582666      -0.62067974      -3.96950799
C        1.42973330      -2.40794432       0.01257142
C       -2.70395946      -1.80701289      -0.16347800
C        0.64138433       2.61240551       0.36153094
C       -0.58960498      -2.21835977      -3.04830047
C       -3.18402619      -0.55269400      -2.13007807
C        1.17348383      -0.54589849       3.25674815
C       -3.63029971       0.13539417      -0.93417930
C        1.56603669       1.49299872      -2.98001678
C        2.49983850       0.77146762      -2.21137874
C       -1.39465041       2.56791437       2.41517408
C       -0.56531361       1.15491086      -4.15558702
C       -0.41360619       2.78218871      -2.35583953
C        4.01561128      -0.42897780      -0.30721124
C        2.86764644       0.63270535       1.39529804
C        2.92405468      -0.75404023       1.70954359
C        1.73811653      -1.35513268       2.22399569
C       -1.16393194       2.18970559      -3.40995360
C        1.53475413       0.83041040       3.38714321
C        0.91819357       2.44691986      -2.13323700
C       -2.96604453       0.21929595       1.33950312
C       -2.52264373       2.17389733      -1.56796885
C       -1.78328729       2.43950248       1.06946011
C        3.64312965      -1.41242165       0.71393387
C       -0.53502969      -1.11866012      -3.94905201
C       -0.20148491      -0.62625711       3.51334461
C       -1.28692035       2.79080456      -1.23147220
C        3.34657399       0.78465423       0.06623306
C        2.78638671      -2.05990872      -0.24614856
C        0.85966271      -2.07595944       1.30709180
C       -0.62272077      -1.97075246       1.44651733
C       -0.02999054       2.38142361       2.73717488
C        1.48594405       2.34154570      -0.79136185
C       -3.33942283      -0.64682938       0.23793371
C       -2.05412397       0.78658836       3.87892433
C       -3.20793777       1.65044766       4.29253905
C       -2.39443309       1.66718396      -2.87853018
C       -0.82472929      -2.85734171      -0.87022995
C       -3.25791431       1.45366720      -0.62568353
C       -1.43982661      -2.33958569       0.29219400
C        0.79531231       0.80407842      -3.98527196
C       -2.73687719      -1.82659394      -1.64227870
C       -2.35736835       2.12058782       3.34195672
C       -1.39216133      -0.03201111      -3.98927314
C        2.65344310      -0.63334941      -2.36080790
C       -0.78900493       2.76323672       0.08608503
C       -0.63679663       0.55254110       4.20801060
C       -2.53603491       0.26401572      -3.15004678
C        0.56407636      -2.73063090      -1.08615749
C        2.60058530       1.40457649      -0.92438991
C        0.73839382      -2.31035010      -2.44531905
60
Properties=species:S:1:pos:R:3 trajectory=trial0001_proposal001_step004_proposal_relax trajectory_step=55 pbc="F F F"
C        1.00956780       2.34230839       1.73623920
C       -2.83407863       1.52875406       0.73068587
C       -1.11802234      -1.07461685       2.51600602
C        1.61061915      -1.35940071      -3.05477494
C        3.30621329      -1.21966616      -1.28106541
C       -2.23107258      -0.22773437       2.56487239
C        2.04250309       1.46385850       2.19812168
C        0.35017501       1.54224965       3.82205051
C       -1.58339483      -2.53915754      -2.07155059
C        0.82649463      -0.62402953      -3.97153961
C        1.42686271      -2.40428275       0.01478287
C       -2.70979027      -1.81295370      -0.16646527
C        0.64739754       2.61041316       0.35656082
C       -0.58662910      -2.21922981      -3.04730174
C       -3.18171324      -0.54877929      -2.12632883
C        1.17319240      -0.54327690       3.25324767
C       -3.63710885       0.13352262      -0.93306139
C        1.56068609       1.49302558      -2.98474621
C        2.50443581       0.77160600      -2.21779537
C       -1.38890177       2.56473613       2.41964782
C       -0.56597156       1.15484966      -4.15917356
C       -0.40954183       2.78750307      -2.35478703
C        4.01713002      -0.43801670      -0.30228282
C        2.87273448       0.63286202       1.40074896
C        2.92582304      -0.75528271       1.71229059
C        1.73364155      -1.34291910       2.21779883
C       -1.16059839       2.19426349      -3.41375085
C        1.53591025       0.83764570       3.39228370
C        0.92314926       2.45028561      -2.13639465
C       -2.98742048       0.22179611       1.33582231
C       -2.52470938       2.18090990      -1.56881823
C       -1.77417824       2.43211137       1.07329029
C        3.64300288      -1.42075472       0.71815749
C       -0.53368532      -1.12079651      -3.95051408
C       -0.19652488      -0.62755867       3.51001384
C       -1.28384098       2.79929552      -1.23217574
C        3.34503928       0.78039154       0.06579078
C        2.78809696      -2.06506096      -0.24443051
C        0.85299765      -2.06667661       1.30415312
C       -0.62635171      -1.95243582       1.44645100
C       -0.02507106       2.38391448       2.74305415
C        1.49140124       2.33953717      -0.79752832
C       -3.35615973      -0.64769029       0.23784539
C       -2.05009345       0.76557075       3.85959471
C       -3.21807974       1.64483043       4.28690110
C       -2.39381511       1.67472891      -2.88500510
C       -0.82266622      -2.85577422      -0.86174278
C       -3.25571379       1.45600837      -0.62807944
C       -1.44632706      -2.34312335       0.29703763
C        0.79582896       0.79739083      -3.98876457
C       -2.73717285      -1.82714847      -1.64244337
C       -2.35083023       2.12295811       3.35107274
C       -1.39522026      -0.02856344      -3.99150539
C        2.65068948      -0.63392744      -2.35535533
C       -0.78427496       2.76108939       0.08808646
C       -0.64268906       0.54855783       4.19808765
C       -2.53027142       0.27301351      -3.14259265
C        0.56714623      -2.72151389      -1.08134245
C        2.60521060       1.40257285      -0.92790586
C        0.74146040      -2.31859365      -2.44638912
60
Properties=species:S:1:pos:R:3 trajectory=trial0001_proposal001_step004_proposal_relax trajectory_step=56 pbc="F F F"
C        0.99818477       2.33279342       1.73135302
C       -2.83103674       1.55028821       0.73092317
C       -1.09642796      -1.08056671       2.52153418
C        1.60814818      -1.35203010      -3.04583759
C        3.31816519      -1.22875572      -1.27772516
C       -2.22608150      -0.21799679       2.60188379
C        2.02840207       1.46074605       2.20040278
C        0.33516146       1.54020165       3.83139353
C       -1.56573766      -2.53647588      -2.05822925
C        0.82111177      -0.63012381      -3.98347884
C        1.42247261      -2.39899045       0.02098985
C       -2.71964399      -1.81774276      -0.17099444
C        0.65963629       2.60671782       0.35477234
C       -0.58502264      -2.21344837      -3.04943800
C       -3.18076755      -0.53756932      -2.11483540
C        1.18555647      -0.53048429       3.24981013
C       -3.64770021       0.13470983      -0.92059585
C        1.54619458       1.48782671      -2.99784778
C        2.51244423       0.77906771      -2.22878862
C       -1.37663447       2.56599238       2.42820340
C       -0.57560678       1.15230809      -4.16193490
C       -0.41522893       2.78349201      -2.34755287
C        4.02157675      -0.44961066      -0.28981705
C        2.89621504       0.63721496       1.41387873
C        2.92706792      -0.75504643       1.71680620
C        1.72165617      -1.31927390       2.20944050
C       -1.15298948       2.19493645      -3.42366077
C        1.53675964       0.84920425       3.40543704
C        0.93529568       2.45180603      -2.13608494
C       -3.01859872       0.23116058       1.34541523
C       -2.52296453       2.18751167      -1.57617841
C       -1.75032380       2.42634592       1.08880147
C        3.63983608      -1.43343769       0.71926370
C       -0.53736581      -1.13024200      -3.95724888
C       -0.18203004      -0.63622533       3.50182935
C       -1.27701493       2.80434825      -1.22324113
C        3.35201157       0.78005769       0.07718342
C        2.78169522      -2.07236627      -0.24015677
C        0.84317251      -2.04313394       1.29982429
C       -0.62125018      -1.91721815       1.43667666
C       -0.01606197       2.38971920       2.75360169
C        1.50024627       2.33938428      -0.80625997
C       -3.38150717      -0.65173912       0.25117823
C       -2.06635832       0.68159469       3.74457392
C       -3.22582763       1.63219100       4.24170465
C       -2.39505195       1.68792474      -2.88485299
C       -0.81759804      -2.85588210      -0.84513955
C       -3.26089679       1.46185950      -0.62840906
C       -1.46081972      -2.35027245       0.31369442
C        0.79465868       0.79417388      -3.98717083
C       -2.73519765      -1.83005988      -1.64361582
C       -2.34189310       2.12145472       3.37133177
C       -1.40865737      -0.02567230      -3.99889422
C        2.64059256      -0.63627468      -2.34988264
C       -0.77068455       2.75323825       0.09032871
C       -0.64791662       0.54018198       4.16315361
C       -2.52913362       0.27934872      -3.12797732
C        0.56818181      -2.70489031      -1.07477438
C        2.61326273       1.40302801      -0.93263967
C        0.73781597      -2.33170159      -2.44704121
60
Properties=species:S:1:pos:R:3 trajectory=trial0001_proposal001_step004_proposal_relax trajectory_step=57 pbc="F F F"
C        0.96025294       2.30924770       1.69876379
C       -2.83209202       1.58091133       0.74185669
C       -1.09555643      -1.13352536       2.52625823
C        1.60514148      -1.34042869      -3.02707262
C        3.32385316      -1.23863749      -1.26672543
C       -2.23875317      -0.24731697       2.51828160
C        1.96572095       1.41870425       2.16497315
C        0.29579151       1.50920684       3.80691495
C       -1.51684100      -2.54586222      -2.04163749
C        0.81361234      -0.63727044      -3.98592869
C        1.44390243      -2.42405176       0.02317947
C       -2.69003351      -1.81928875      -0.17171287
C        0.64181890       2.62891343       0.33139992
C       -0.56036783      -2.22946894      -3.05290652
C       -3.12255593      -0.51693573      -2.09350000
C        1.16708957      -0.55421941       3.24867467
C       -3.60969588       0.14898774      -0.91120201
C        1.51871001       1.48248960      -3.01285720
C        2.50115169       0.79374161      -2.23516866
C       -1.38512715       2.60299046       2.45791834
C       -0.59395786       1.14350577      -4.17283311
C       -0.42774826       2.79770346      -2.36501636
C        4.01543375      -0.46142868      -0.27088729
C        2.88628777       0.62301142       1.41641106
C        2.91923363      -0.77286627       1.72246531
C        1.70078635      -1.31494957       2.19531351
C       -1.15721897       2.20076520      -3.44549389
C        1.49007119       0.82300324       3.37646456
C        0.92085779       2.46267720      -2.15527396
C       -3.00268381       0.22891187       1.35409778
C       -2.53436198       2.22924998      -1.58726289
C       -1.74615648       2.46914244       1.10432807
C        3.64014371      -1.45635447       0.73049666
C       -0.54109870      -1.14853687      -3.95732051
C       -0.19829049      -0.69051484       3.53060253
C       -1.29065653       2.85506361      -1.23584979
C        3.33825616       0.77449322       0.08121898
C        2.79891470      -2.10209843      -0.23467829
C        0.84920069      -2.03914885       1.28847626
C       -0.60197194      -1.93098535       1.42210337
C       -0.03167147       2.39032210       2.74762024
C        1.48841899       2.35966081      -0.82410833
C       -3.37191086      -0.64694277       0.26371039
C       -2.05325678       0.70196639       3.77382241
C       -3.17948250       1.70341575       4.32223180
C       -2.40322219       1.71642692      -2.90011164
C       -0.78664913      -2.88516451      -0.83027031
C       -3.24645966       1.48996312      -0.63022171
C       -1.44761425      -2.38470959       0.32811845
C        0.77524291       0.78902712      -3.99011016
C       -2.67573283      -1.81902099      -1.64067568
C       -2.30453025       2.17221551       3.42287909
C       -1.42240959      -0.03635795      -4.00333105
C        2.61541008      -0.62700500      -2.32218919
C       -0.77979340       2.80299231       0.08241986
C       -0.67162481       0.51463742       4.14305343
C       -2.51561058       0.29348117      -3.11383236
C        0.59704377      -2.72314229      -1.07323582
C        2.60639488       1.41835361      -0.93400781
C        0.76188818      -2.35535150      -2.45354696
60
Properties=species:S:1:pos:R:3 trajectory=trial0001_proposal001_step004_proposal_relax trajectory_step=58 pbc="F F F"
C        0.96970744       2.31394809       1.70732549
C       -2.83313788       1.58380065       0.75302553
C       -1.09294580      -1.13823209       2.51059686
C        1.59477220      -1.33971816      -3.03051344
C        3.31123726      -1.23007234      -1.26387397
C       -2.21396115      -0.20650492       2.51666816
C        1.97754774       1.41636718       2.16986012
C        0.28918064       1.50269565       3.79077108
C       -1.52802662      -2.54946132      -2.04891207
C        0.81204313      -0.63366495      -3.98226960
C        1.44491096      -2.43521546       0.01699422
C       -2.67304825      -1.80803135      -0.15971017
C        0.64165297       2.63628261       0.33445379
C       -0.56533219      -2.23360639      -3.04899643
C       -3.11713974      -0.51903393      -2.08872862
C        1.15992072      -0.57167527       3.26346712
C       -3.59608116       0.15610637      -0.90765059
C        1.52337319       1.48571630      -2.99846630
C        2.49638472       0.78917280      -2.22252006
C       -1.39028619       2.62677383       2.45363970
C       -0.59740453       1.13820481      -4.16989335
C       -0.42254060       2.78625052      -2.36528533
C        4.01012952      -0.45918933      -0.27351294
C        2.88106510       0.62559822       1.42644431
C        2.91760572      -0.77328580       1.72258272
C        1.71123372      -1.32280187       2.19996129
C       -1.16727590       2.19428288      -3.43507223
C        1.47442425       0.81751555       3.37341588
C        0.91201155       2.45544016      -2.15236052
C       -2.95768873       0.23455087       1.36371348
C       -2.53845740       2.23000580      -1.57566896
C       -1.76214284       2.48747509       1.09818496
C        3.63218797      -1.45257177       0.73166784
C       -0.54540276      -1.14906621      -3.96149217
C       -0.19680127      -0.70719574       3.54238115
C       -1.29037453       2.84405765      -1.24112048
C        3.34302313       0.77913374       0.08224568
C        2.80193143      -2.09962162      -0.24164888
C        0.86270264      -2.05438531       1.28679386
C       -0.60285580      -1.95544952       1.42819754
C       -0.03639730       2.38986432       2.74119506
C        1.48716850       2.36242141      -0.81496218
C       -3.33811977      -0.62981585       0.26760432
C       -2.07659594       0.68019557       3.71370049
C       -3.16060479       1.71298210       4.31407038
C       -2.40624454       1.70548264      -2.90263703
C       -0.79367084      -2.89554042      -0.83842371
C       -3.25118853       1.50325578      -0.62127398
C       -1.43455902      -2.38972560       0.31826122
C        0.76486777       0.78340886      -3.98969701
C       -2.66944807      -1.80596450      -1.62959646
C       -2.30006117       2.18536862       3.40028442
C       -1.42794963      -0.04393985      -4.00196175
C        2.61527655      -0.61895033      -2.31634901
C       -0.78198576       2.81381597       0.08493670
C       -0.70141333       0.50098098       4.13099210
C       -2.52141154       0.29315797      -3.12377044
C        0.59511928      -2.74044514      -1.07795151
C        2.60581756       1.42161005      -0.92177737
C        0.76075159      -2.33915865      -2.45225272
60
Properties=species:S:1:pos:R:3 trajectory=trial0001_proposal001_step004_proposal_relax trajectory_step=59 pbc="F F F"
C        0.97389605       2.32081477       1.70763222
C       -2.82743015       1.58154647       0.76327299
C       -1.09432324      -1.13775763       2.50507629
C        1.59641553      -1.33267865      -3.03094053
C        3.30286957      -1.22339426      -1.26225899
C       -2.19710745      -0.18625574       2.51291364
C        1.98102363       1.41762890       2.17545114
C        0.27671500       1.49288953       3.78192556
C       -1.53496275      -2.55243629      -2.05121393
C        0.80566107      -0.63226900      -3.97884849
C        1.44908351      -2.44173270       0.01410622
C       -2.66024850      -1.80003860      -0.15270317
C        0.63836338       2.63990486       0.34025163
C       -0.56642708      -2.23417293      -3.05131775
C       -3.11134537      -0.51529568      -2.08523905
C        1.15833641      -0.58365839       3.26835341
C       -3.58055220       0.16111873      -0.90181050
C        1.52195152       1.48301008      -2.99787130
C        2.49132222       0.79018660      -2.21079268
C       -1.38759580       2.64886955       2.44013476
C       -0.60453166       1.13767674      -4.16641377
C       -0.43272995       2.78170440      -2.36754377
C        4.00494651      -0.45384072      -0.27651720
C        2.87888354       0.62090494       1.41894002
C        2.91676099      -0.76964458       1.72236591
C        1.71586192      -1.33432994       2.20863070
C       -1.17145983       2.18623763      -3.43587447
C        1.46746362       0.80648343       3.36595062
C        0.91335764       2.44892175      -2.14617675
C       -2.92719171       0.23895530       1.35926176
C       -2.53942432       2.22791803      -1.57820822
C       -1.77544649       2.50111199       1.09631190
C        3.63506952      -1.44509513       0.72762084
C       -0.54743020      -1.15388238      -3.95855290
C       -0.21499872      -0.71956116       3.54172333
C       -1.28958472       2.84176031      -1.24012102
C        3.34324238       0.78375931       0.08781960
C        2.80388868      -2.09911738      -0.24239683
C        0.86884746      -2.06213230       1.28547559
C       -0.60103608      -1.97239519       1.43202381
C       -0.03772268       2.38789869       2.73311560
C        1.48199783       2.36715750      -0.81384253
C       -3.30993723      -0.62471046       0.27261709
C       -2.08962440       0.68429589       3.68941462
C       -3.13348016       1.71355250       4.30262417
C       -2.41150761       1.70149710      -2.89169815
C       -0.79272515      -2.90171594      -0.84857152
C       -3.25299450       1.50369739      -0.60687862
C       -1.42662403      -2.38865481       0.31361047
C        0.76655035       0.78925174      -3.98264055
C       -2.66215122      -1.79744929      -1.62016194
C       -2.31547037       2.18243685       3.40171601
C       -1.42843722      -0.04710682      -3.99970377
C        2.61197595      -0.62117640      -2.31981571
C       -0.79196549       2.82227224       0.08166871
C       -0.70775796       0.49626695       4.12785431
C       -2.52714836       0.28591813      -3.12883718
C        0.59632210      -2.75453114      -1.08208555
C        2.60182453       1.42718714      -0.91819663
C        0.75423560      -2.33420237      -2.44554307
60
Properties=species:S:1:pos:R:3 trajectory=trial0001_proposal001_step004_proposal_relax trajectory_step=60 pbc="F F F"
C        0.97210814       2.32038215       1.70244758
C       -2.82507724       1.58056667       0.76630807
C       -1.10147185      -1.13855984       2.50560182
C        1.59704348      -1.33149355      -3.02808088
C        3.30167966      -1.22395067      -1.26127559
C       -2.19904749      -0.18542790       2.50366570
C        1.97607013       1.41359258       2.17256142
C        0.26964455       1.48577325       3.77870040
C       -1.53113662      -2.55317638      -2.04977878
C        0.80330011      -0.63233591      -3.97720467
C        1.45289626      -2.44401712       0.01473320
C       -2.65523321      -1.79888806      -0.15152199
C        0.63396998       2.64211275       0.33936685
C       -0.56481760      -2.23618651      -3.05162124
C       -3.10403162      -0.51070064      -2.08153410
C        1.15337450      -0.58848037       3.26825545
C       -3.57233937       0.16348115      -0.89878728
C        1.52004936       1.48011310      -2.99979874
C        2.48863500       0.79158954      -2.20989452
C       -1.39024297       2.65587886       2.44376437
C       -0.60599897       1.13676062      -4.16681987
C       -0.43497642       2.78358374      -2.37067751
C        4.00308757      -0.45225412      -0.27577519
C        2.87559514       0.61871286       1.41517217
C        2.91672837      -0.77106954       1.72285679
C        1.71435910      -1.33806730       2.20961071
C       -1.17319034       2.18584333      -3.43863256
C        1.46216358       0.79893559       3.36106326
C        0.91094142       2.44956322      -2.14782260
C       -2.91757688       0.23882145       1.35967680
C       -2.54136318       2.23087376      -1.57818636
C       -1.77614381       2.50838638       1.09810207
C        3.63861087      -1.44521811       0.72763717
C       -0.54816078      -1.15629362      -3.95593142
C       -0.22056900      -0.72524580       3.54187344
C       -1.29243857       2.84800879      -1.24111894
C        3.34078142       0.78389025       0.08826440
C        2.80647542      -2.10251563      -0.24004669
C        0.86896282      -2.06121646       1.28476259
C       -0.59873394      -1.97613461       1.43020886
C       -0.04074391       2.38771050       2.73017237
C        1.47931390       2.37045907      -0.81560033
C       -3.30257205      -0.62531156       0.27491106
C       -2.08842265       0.68707251       3.68900627
C       -3.12899550       1.70935064       4.31290975
C       -2.41363016       1.70430905      -2.88917547
C       -0.78920092      -2.90436782      -0.84880229
C       -3.24951612       1.50574480      -0.60529819
C       -1.42373819      -2.38981908       0.31521399
C        0.76517425       0.79152515      -3.98120734
C       -2.65470130      -1.79447145      -1.61770632
C       -2.30733296       2.19315909       3.39553233
C       -1.42845150      -0.04833164      -3.99840509
C        2.60899913      -0.62151909      -2.31892393
C       -0.79530886       2.82845957       0.07889937
C       -0.70764083       0.49481514       4.12681595
C       -2.52710736       0.28473350      -3.12700864
C        0.59976260      -2.75919697      -1.08275950
C        2.60043269       1.42993737      -0.91902365
C        0.75524672      -2.33629699      -2.44458808
60
Properties=species:S:1:pos:R:3 trajectory=trial0001_proposal001_step004_proposal_relax trajectory_step=61 pbc="F F F"
C        0.96793446       2.31901810       1.69837572
C       -2.82119052       1.58310674       0.76784171
C       -1.10647470      -1.14163418       2.50566565
C        1.59594840      -1.33159286      -3.02519780
C        3.30186723      -1.22533269      -1.25968091
C       -2.19994899      -0.18486671       2.50061422
C        1.96928936       1.40848449       2.16833359
C        0.26386593       1.47910232       3.77347538
C       -1.52611800      -2.55370875      -2.04759742
C        0.80176989      -0.63256325      -3.97513624
C        1.45557345      -2.44638042       0.01595111
C       -2.64935736      -1.79927960      -0.15125580
C        0.63033959       2.64464446       0.33659442
C       -0.56310413      -2.23877503      -3.05107778
C       -3.09655613      -0.50624098      -2.07624069
C        1.14691855      -0.59468035       3.26687232
C       -3.56473303       0.16482972      -0.89475916
C        1.51702116       1.47858848      -3.00068407
C        2.48652318       0.79237044      -2.21049135
C       -1.39076364       2.66394523       2.44639599
C       -0.60701079       1.13570908      -4.16771260
C       -0.43606558       2.78652064      -2.37319050
C        4.00148182      -0.45162282      -0.27482684
C        2.87189407       0.61670586       1.41345001
C        2.91705179      -0.77366290       1.72379971
C        1.71263672      -1.34077098       2.20972403
C       -1.17522923       2.18656900      -3.44084086
C        1.45545996       0.79246250       3.35698524
C        0.90864303       2.45107445      -2.15033600
C       -2.91187103       0.24129672       1.35656532
C       -2.54374060       2.23512522      -1.57706768
C       -1.77543993       2.51554126       1.09959869
C        3.64221230      -1.44666978       0.72863779
C       -0.54841055      -1.15785541      -3.95349683
C       -0.22489441      -0.73097086       3.54150966
C       -1.29557614       2.85597712      -1.24336274
C        3.33733264       0.78378805       0.08746221
C        2.80977241      -2.10640742      -0.23762781
C        0.86782097      -2.06061933       1.28416095
C       -0.59757602      -1.97613141       1.42975127
C       -0.04239854       2.38732496       2.72881686
C        1.47710083       2.37327978      -0.81786209
C       -3.29620541      -0.62513194       0.27663394
C       -2.08709492       0.68894972       3.68609601
C       -3.12061304       1.70552069       4.31674790
C       -2.41576397       1.70714916      -2.88910835
C       -0.78553071      -2.90749205      -0.84687220
C       -3.24543302       1.50801962      -0.60414308
C       -1.42074869      -2.39278293       0.31690824
C        0.76332860       0.79091667      -3.98110417
C       -2.64762214      -1.79164290      -1.61564140
C       -2.30441146       2.20092692       3.39667677
C       -1.42927372      -0.04881513      -3.99735077
C        2.60614371      -0.62085398      -2.31620397
C       -0.79766644       2.83458174       0.07750604
C       -0.71019553       0.49192744       4.12373608
C       -2.52604247       0.28631371      -3.12369928
C        0.60401641      -2.76223343      -1.08238525
C        2.59933508       1.43239176      -0.92015352
C        0.75727354      -2.33984419      -2.44469319
60
Properties=species:S:1:pos:R:3 trajectory=trial0001_proposal001_step004_proposal_relax trajectory_step=62 pbc="F F F"
C        0.95887553       2.31511724       1.69147657
C       -2.80605721       1.59004068       0.76713811
C       -1.12334649      -1.14538366       2.50532961
C        1.59208348      -1.33461183      -3.01898080
C        3.30155761      -1.22904966      -1.25727300
C       -2.20531228      -0.18353873       2.50298889
C        1.95136133       1.39568128       2.15871295
C        0.25726768       1.46665775       3.75735016
C       -1.51694591      -2.55328094      -2.03983810
C        0.79936714      -0.63486624      -3.96588573
C        1.46127540      -2.44910080       0.02195594
C       -2.63620846      -1.80151165      -0.14882266
C        0.62098497       2.64947457       0.32776730
C       -0.55919988      -2.24692304      -3.04767308
C       -3.07866918      -0.49916417      -2.06161769
C        1.13291173      -0.60882481       3.25952804
C       -3.54602005       0.16840498      -0.88343956
C        1.51125555       1.47795585      -3.00017396
C        2.48152168       0.79220003      -2.21317041
C       -1.39138123       2.68565712       2.45281187
C       -0.60977571       1.13613271      -4.16876970
C       -0.44270599       2.79683004      -2.38010477
C        3.99786499      -0.44765741      -0.27583017
C        2.85891442       0.60865306       1.40684224
C        2.91896411      -0.78086449       1.72562545
C        1.71097501      -1.35252124       2.20914314
C       -1.17996607       2.19071243      -3.44341688
C        1.43977347       0.77486327       3.34456041
C        0.90283139       2.45537127      -2.15756691
C       -2.89942134       0.25018477       1.35049674
C       -2.54632205       2.24724377      -1.57794589
C       -1.77299625       2.53274133       1.10219952
C        3.65419836      -1.44746803       0.73412743
C       -0.54986289      -1.15666954      -3.94481670
C       -0.24033540      -0.74137736       3.53645997
C       -1.30369874       2.87804221      -1.24882026
C        3.32659354       0.78319883       0.08303780
C        2.81965047      -2.11464012      -0.22954703
C        0.86482053      -2.05734397       1.28379659
C       -0.60032913      -1.96963154       1.42963389
C       -0.04564376       2.38573403       2.72641589
C        1.47117722       2.37994773      -0.82440175
C       -3.27967960      -0.62639091       0.27909628
C       -2.08169271       0.69087349       3.67909751
C       -3.10090559       1.67828506       4.31374935
C       -2.42014296       1.71319217      -2.88747761
C       -0.77416460      -2.91278672      -0.84056044
C       -3.23324025       1.50957575      -0.59701377
C       -1.41320858      -2.39867521       0.31972163
C        0.75948647       0.78777084      -3.98237394
C       -2.63139578      -1.78604114      -1.61147287
C       -2.30247466       2.21794197       3.39589738
C       -1.43007675      -0.04938059      -3.99058597
C        2.60248999      -0.62333943      -2.30845034
C       -0.80258911       2.84947749       0.07171539
C       -0.71512019       0.48336594       4.11836887
C       -2.52203377       0.29357442      -3.11371812
C        0.61234852      -2.76865414      -1.07880179
C        2.59453480       1.43903543      -0.92629360
C        0.76333188      -2.35064003      -2.44511482
60
Properties=species:S:1:pos:R:3 trajectory=trial0001_proposal001_step004_proposal_relax trajectory_step=63 pbc="F F F"
C        0.95319077       2.31523897       1.68675409
C       -2.79573326       1.59853358       0.76700968
C       -1.13004449      -1.14833151       2.50357552
C        1.59452628      -1.33924519      -3.01394876
C        3.30247145      -1.23019153      -1.25223531
C       -2.20315513      -0.18338440       2.50420027
C        1.94292245       1.38551449       2.15099929
C        0.25083630       1.45678871       3.75048518
C       -1.51086039      -2.55697551      -2.03805346
C        0.79674718      -0.63460249      -3.96013168
C        1.46411762      -2.45175651       0.02325143
C       -2.62732395      -1.80307563      -0.14716535
C        0.61892118       2.65351169       0.32579892
C       -0.55911595      -2.24973899      -3.04617958
C       -3.07070242      -0.49675529      -2.05789847
C        1.12146241      -0.62079161       3.25631434
C       -3.53635240       0.16644811      -0.88038622
C        1.50703647       1.47718766      -3.00150317
C        2.47759562       0.79190280      -2.21218732
C       -1.39352546       2.69971742       2.45335784
C       -0.60995401       1.13640986      -4.16748659
C       -0.44066071       2.80463041      -2.38212215
C        3.99595849      -0.44639957      -0.27615616
C        2.84787977       0.60376760       1.40319502
C        2.91915403      -0.78466320       1.72788438
C        1.71372708      -1.36195150       2.21018737
C       -1.18421606       2.19211141      -3.44255411
C        1.43173177       0.76517187       3.33339043
C        0.89335264       2.46086734      -2.15967106
C       -2.89261823       0.25917928       1.34976007
C       -2.55270618       2.25076365      -1.57184140
C       -1.77064111       2.54896568       1.09899339
C        3.65935266      -1.44633039       0.73344528
C       -0.55025526      -1.15849695      -3.93525523
C       -0.23950660      -0.74898015       3.53723143
C       -1.30803762       2.88885030      -1.25404808
C        3.31697080       0.78200630       0.07975642
C        2.82486256      -2.11562978      -0.22629985
C        0.86393475      -2.06495274       1.28572684
C       -0.60164610      -1.96905533       1.42979543
C       -0.04883614       2.38762830       2.72324943
C        1.46638357       2.38227047      -0.82702629
C       -3.26307262      -0.62065632       0.28325034
C       -2.08166284       0.68907309       3.68152379
C       -3.08944063       1.66559725       4.29932372
C       -2.42155988       1.71724866      -2.88860423
C       -0.77177662      -2.91821397      -0.83939621
C       -3.22296606       1.51869951      -0.60472922
C       -1.40705986      -2.40348496       0.32090357
C        0.75816519       0.78751189      -3.98123820
C       -2.62635846      -1.78627613      -1.60639044
C       -2.30990037       2.22459904       3.39712792
C       -1.43161520      -0.04498309      -3.98481188
C        2.59774129      -0.62227724      -2.30667297
C       -0.80279801       2.86160620       0.07047447
C       -0.71382190       0.48383798       4.11789517
C       -2.52109289       0.29468933      -3.10672655
C        0.61921117      -2.77138480      -1.07713522
C        2.59024290       1.43985359      -0.92719955
C        0.76601517      -2.35799732      -2.44471964
60
Properties=species:S:1:pos:R:3 trajectory=trial0001_proposal001_step004_proposal_relax trajectory_step=64 pbc="F F F"
C        0.95485522       2.31532231       1.68904770
C       -2.79828271       1.59859153       0.76573826
C       -1.12542365      -1.14833487       2.50395457
C        1.59340718      -1.33834511      -3.01616811
C        3.30177832      -1.22900835      -1.25435437
C       -2.20167133      -0.18218379       2.50515746
C        1.94442504       1.38835030       2.15279173
C        0.25338948       1.46088445       3.75100789
C       -1.51377989      -2.55681563      -2.03852894
C        0.79770395      -0.63510789      -3.96092448
C        1.46329402      -2.45147414       0.02270674
C       -2.62928229      -1.80215236      -0.14669447
C        0.62048649       2.65309310       0.32642867
C       -0.55906852      -2.24931908      -3.04598003
C       -3.07366919      -0.49917231      -2.05893249
C        1.12688098      -0.61819091       3.25679451
C       -3.53879978       0.16816325      -0.88157884
C        1.50782861       1.47871198      -3.00016277
C        2.47794684       0.79199233      -2.21219112
C       -1.39337613       2.69683523       2.45259484
C       -0.61043498       1.13672765      -4.16708936
C       -0.44307923       2.80293998      -2.38132507
C        3.99675701      -0.44629697      -0.27596765
C        2.85071228       0.60428354       1.40402208
C        2.91917819      -0.78377820       1.72715154
C        1.71342004      -1.36055184       2.21043382
C       -1.18263848       2.19186382      -3.44195174
C        1.43300232       0.76775777       3.33597152
C        0.89724981       2.45872415      -2.15846498
C       -2.89398705       0.25869563       1.35083116
C       -2.54910836       2.25140578      -1.57613882
C       -1.77161439       2.54637173       1.09930585
C        3.65705259      -1.44621896       0.73404183
C       -0.55064783      -1.15672100      -3.93752879
C       -0.24028833      -0.74784482       3.53821079
C       -1.30611428       2.88571185      -1.25206379
C        3.31908828       0.78183133       0.08120553
C        2.82282183      -2.11484386      -0.22763988
C        0.86512343      -2.06533796       1.28566160
C       -0.60105068      -1.97004599       1.43013141
C       -0.04816610       2.38737740       2.72446962
C        1.46736772       2.38134452      -0.82605658
C       -3.26549384      -0.62048686       0.28201973
C       -2.08206330       0.68639935       3.67955408
C       -3.09378794       1.66930168       4.29962826
C       -2.42167108       1.71586814      -2.88804310
C       -0.77214415      -2.91776433      -0.84003113
C       -3.22718114       1.51464433      -0.60073942
C       -1.40867589      -2.40301006       0.31996917
C        0.75827663       0.78694135      -3.98142876
C       -2.62826138      -1.78733140      -1.60767933
C       -2.30907013       2.22326713       3.39556786
C       -1.43118856      -0.04644791      -3.98583380
C        2.59957142      -0.62255080      -2.30605009
C       -0.80196241       2.85981631       0.07036310
C       -0.71537532       0.48230427       4.11793147
C       -2.52127556       0.29506011      -3.10898185
C        0.61663987      -2.77079961      -1.07778420
C        2.59035376       1.43928538      -0.92655436
C        0.76551732      -2.35613238      -2.44473777
60
Properties=species:S:1:pos:R:3 trajectory=trial0001_proposal001_step004_proposal_relax trajectory_step=65 pbc="F F F"
C        0.95498136       2.31580607       1.68964969
C       -2.79745614       1.60051322       0.76424951
C       -1.12338840      -1.14842184       2.50414712
C        1.59375681      -1.33925995      -3.01693294
C        3.30154532      -1.22828316      -1.25479764
C       -2.20117168      -0.18133043       2.50612844
C        1.94357877       1.38806978       2.15182783
C        0.25464782       1.46226510       3.75020222
C       -1.51511778      -2.55813617      -2.03840567
C        0.79780318      -0.63532026      -3.95950884
C        1.46333510      -2.45153477       0.02271682
C       -2.62926547      -1.80166657      -0.14556161
C        0.62134892       2.65381550       0.32657627
C       -0.55912617      -2.24968165      -3.04523487
C       -3.07486277      -0.50125368      -2.05953327
C        1.12882513      -0.61870518       3.25624628
C       -3.53828201       0.16871790      -0.88213534
C        1.50764417       1.47993598      -2.99959550
C        2.47688918       0.79177112      -2.21192636
C       -1.39417404       2.69760355       2.45192497
C       -0.61056419       1.13757053      -4.16591438
C       -0.44420964       2.80438645      -2.38127041
C        3.99718889      -0.44557188      -0.27629816
C        2.84920489       0.60294481       1.40290618
C        2.91919206      -0.78420112       1.72709397
C        1.71447767      -1.36302204       2.21116151
C       -1.18229195       2.19238051      -3.44122864
C        1.43258411       0.76735571       3.33448680
C        0.89767464       2.45875468      -2.15797544
C       -2.89331193       0.26057019       1.35239609
C       -2.54796915       2.25257625      -1.57784497
C       -1.77180916       2.54885742       1.09816919
C        3.65682658      -1.44543277       0.73407073
C       -0.55091060      -1.15539417      -3.93572916
C       -0.24013271      -0.74824734       3.53914082
C       -1.30537442       2.88635882      -1.25170262
C        3.31768545       0.78111201       0.08117393
C        2.82239888      -2.11370781      -0.22777413
C        0.86602435      -2.06825354       1.28651100
C       -0.60073025      -1.97099445       1.43028641
C       -0.04860415       2.38791014       2.72461498
C        1.46678311       2.38095251      -0.82592491
C       -3.26301361      -0.61863848       0.28190508
C       -2.08176708       0.68357150       3.68153506
C       -3.09634000       1.66682331       4.29395946
C       -2.42176259       1.71578959      -2.88775526
C       -0.77199500      -2.91843910      -0.84031976
C       -3.22727835       1.51391567      -0.60045560
C       -1.40868901      -2.40335559       0.31952563
C        0.75843904       0.78691695      -3.98095903
C       -2.62953981      -1.78923015      -1.60748107
C       -2.31125141       2.22367702       3.39319160
C       -1.43074386      -0.04602866      -3.98423749
C        2.60005153      -0.62297174      -2.30577754
C       -0.80100974       2.86207759       0.06973566
C       -0.71456589       0.48156563       4.11948794
C       -2.52118854       0.29527212      -3.10887183
C        0.61608070      -2.77089799      -1.07777365
C        2.58865060       1.43859657      -0.92645947
C        0.76577394      -2.35685342      -2.44454893
60
Properties=species:S:1:pos:R:3 trajectory=trial0001_proposal001_step004_proposal_relax trajectory_step=66 pbc="F F F"
C        0.95352507       2.31701100       1.68908053
C       -2.79419010       1.60681724       0.76164844
C       -1.11937166      -1.14972755       2.50439530
C        1.59516544      -1.34185197      -3.01750521
C        3.30150127      -1.22703423      -1.25475241
C       -2.19895769      -0.17950382       2.50821903
C        1.93880656       1.38501452       2.14726263
C        0.25504388       1.46265156       3.74778264
C       -1.51650488      -2.56271712      -2.03724339
C        0.79708655      -0.63541479      -3.95529403
C        1.46433155      -2.45273732       0.02285607
C       -2.62757028      -1.80038983      -0.14251578
C        0.62260306       2.65717245       0.32629279
C       -0.55902157      -2.25136225      -3.04295431
C       -3.07596007      -0.50503545      -2.05994084
C        1.13157875      -0.62199814       3.25532033
C       -3.53407922       0.16988449      -0.88242746
C        1.50618150       1.48210001      -2.99910871
C        2.47320767       0.79135039      -2.21124679
C       -1.39647312       2.70221563       2.45103930
C       -0.61085763       1.13912011      -4.16292710
C       -0.44553334       2.80955740      -2.38199337
C        3.99806048      -0.44401017      -0.27671127
C        2.84338003       0.59855135       1.39957006
C        2.91903025      -0.78658099       1.72745447
C        1.71728702      -1.37059019       2.21330999
C       -1.18234135       2.19448073      -3.44034740
C        1.42969965       0.76487284       3.32848286
C        0.89673553       2.46039310      -2.15761522
C       -2.88984232       0.26689125       1.35541712
C       -2.54676377       2.25695801      -1.58043922
C       -1.77195131       2.55861731       1.09522582
C        3.65735111      -1.44432024       0.73389573
C       -0.55143226      -1.15326943      -3.92911590
C       -0.23850457      -0.75186642       3.54187429
C       -1.30435768       2.89147594      -1.25213962
C        3.31249709       0.77900211       0.08055055
C        2.82224911      -2.11155509      -0.22760513
C        0.86840091      -2.07635506       1.28860808
C       -0.59878884      -1.97399888       1.43057196
C       -0.05054181       2.38989114       2.72427548
C        1.46473010       2.38080216      -0.82630015
C       -3.25449456      -0.61305402       0.28293027
C       -2.08097859       0.67502349       3.68508504
C       -3.10212057       1.65850098       4.27721541
C       -2.42210060       1.71713643      -2.88749659
C       -0.77126497      -2.92133797      -0.84003805
C       -3.22519979       1.51512137      -0.60140615
C       -1.40776261      -2.40531473       0.31968110
C        0.75808777       0.78722114      -3.97924638
C       -2.63147588      -1.79386237      -1.60587009
C       -2.31658554       2.22714672       3.38719418
C       -1.42996687      -0.04451239      -3.97911322
C        2.59953510      -0.62362635      -2.30514575
C       -0.79881584       2.87126194       0.06821204
C       -0.71281937       0.47916624       4.12294731
C       -2.52094886       0.29568525      -3.10696033
C        0.61643095      -2.77214922      -1.07733487
C        2.58357495       1.43690035      -0.92631861
C        0.76699082      -2.36021843      -2.44419860
60
Properties=species:S:1:pos:R:3 trajectory=trial0001_proposal001_step004_proposal_relax trajectory_step=67 pbc="F F F"
C        0.94988908       2.31850822       1.68632254
C       -2.79218729       1.61371506       0.76102899
C       -1.11530664      -1.15278201       2.50461826
C        1.59549425      -1.34360444      -3.01776665
C        3.30153382      -1.22607082      -1.25530611
C       -2.19325065      -0.18055485       2.50623342
C        1.93110948       1.38069572       2.14023939
C        0.25209369       1.46013301       3.74523224
C       -1.51704668      -2.56835067      -2.03498799
C        0.79602941      -0.63488824      -3.95123215
C        1.46657741      -2.45619614       0.02274961
C       -2.62441718      -1.79873498      -0.13959762
C        0.62138721       2.66358970       0.32469293
C       -0.55843380      -2.25455187      -3.03972689
C       -3.07536534      -0.50680392      -2.05873477
C        1.13371388      -0.62609841       3.25705035
C       -3.52616915       0.17261216      -0.88126224
C        1.50474600       1.48374034      -2.99867357
C        2.46845520       0.79067342      -2.21066644
C       -1.39847712       2.70781422       2.45061666
C       -0.61152261       1.13972487      -4.16045520
C       -0.44536896       2.81553664      -2.38453374
C        3.99885628      -0.44327619      -0.27663944
C        2.83617862       0.59331947       1.39606919
C        2.91860104      -0.79057488       1.72751563
C        1.71990128      -1.37838797       2.21635468
C       -1.18278069       2.19782945      -3.44201056
C        1.42438703       0.76231061       3.32218739
C        0.89601942       2.46314195      -2.15888170
C       -2.88317952       0.27275801       1.35609242
C       -2.54636986       2.26332873      -1.58143612
C       -1.77336866       2.57034194       1.09340156
C        3.65862117      -1.44562348       0.73380049
C       -0.55146055      -1.15252961      -3.92178940
C       -0.23601617      -0.75811967       3.54575464
C       -1.30394542       2.90141051      -1.25438428
C        3.30751848       0.77630513       0.07978963
C        2.82281208      -2.11102724      -0.22829913
C        0.87210873      -2.08406276       1.29018956
C       -0.59447012      -1.97990711       1.43206366
C       -0.05298028       2.39111248       2.72412596
C        1.46250340       2.38233830      -0.82708137
C       -3.24665561      -0.60860323       0.28346681
C       -2.08084256       0.67015739       3.68995223
C       -3.10868114       1.65177665       4.26013762
C       -2.42212804       1.71984175      -2.88760240
C       -0.77004736      -2.92516585      -0.83798426
C       -3.22161779       1.51924312      -0.60261753
C       -1.40587734      -2.40796662       0.32179144
C        0.75645964       0.78763871      -3.97755455
C       -2.63202579      -1.79759970      -1.60384474
C       -2.32096502       2.23228065       3.38322737
C       -1.42907798      -0.04435415      -3.97341967
C        2.59844799      -0.62350574      -2.30443817
C       -0.79916203       2.88463462       0.06661566
C       -0.71218699       0.47448961       4.12676913
C       -2.52087484       0.29651262      -3.10479376
C        0.61743629      -2.77578008      -1.07702061
C        2.57796608       1.43503347      -0.92624419
C        0.76890684      -2.36382742      -2.44401739
60
Properties=species:S:1:pos:R:3 trajectory=trial0001_proposal001_step004_proposal_relax trajectory_step=68 pbc="F F F"
C        0.94546473       2.32041428       1.68402361
C       -2.78978622       1.62114943       0.76128466
C       -1.10891789      -1.15742271       2.50524521
C        1.59693046      -1.34442329      -3.01615124
C        3.30233461      -1.22588806      -1.25418553
C       -2.18507641      -0.17775928       2.50725767
C        1.92254545       1.37601764       2.13497814
C        0.24720669       1.45566390       3.74193279
C       -1.51719386      -2.57334417      -2.03217975
C        0.79395759      -0.63467768      -3.94822576
C        1.46857385      -2.46104707       0.02236641
C       -2.61936404      -1.79882073      -0.13758481
C        0.61862244       2.67130832       0.32317072
C       -0.55860857      -2.25681661      -3.03748222
C       -3.07350801      -0.50592705      -2.05692313
C        1.13544550      -0.63173222       3.25927104
C       -3.51795587       0.17487031      -0.88016159
C        1.50229677       1.48414227      -3.00007090
C        2.46481026       0.79018401      -2.20877181
C       -1.39988947       2.71375657       2.45135533
C       -0.61268856       1.13944687      -4.15890143
C       -0.44467696       2.82114388      -2.38744466
C        3.99880908      -0.44440405      -0.27699516
C        2.82981071       0.58794916       1.39283075
C        2.91810991      -0.79411369       1.72781052
C        1.72299413      -1.38511754       2.22021817
C       -1.18391215       2.20046415      -3.44341502
C        1.41934049       0.75938186       3.31613819
C        0.89497504       2.46691707      -2.15968724
C       -2.87521272       0.27684377       1.35307398
C       -2.54536705       2.26978487      -1.58304217
C       -1.77533348       2.58219588       1.09169811
C        3.66027329      -1.44750783       0.73230152
C       -0.55174000      -1.15389883      -3.91488785
C       -0.23502631      -0.76490618       3.54976809
C       -1.30472433       2.91231188      -1.25782441
C        3.30299056       0.77435760       0.07884798
C        2.82446894      -2.11131294      -0.23011062
C        0.87556273      -2.09142080       1.29255416
C       -0.59063367      -1.98583116       1.43499677
C       -0.05640865       2.39163272       2.72316638
C        1.46001622       2.38491787      -0.82793696
C       -3.23825837      -0.60255170       0.28564827
C       -2.07978833       0.66278972       3.68753460
C       -3.11608562       1.64495517       4.24395687
C       -2.42190759       1.72258628      -2.88723570
C       -0.76986303      -2.92926550      -0.83598387
C       -3.21777885       1.52438957      -0.60220019
C       -1.40286914      -2.41089879       0.32414811
C        0.75632868       0.78861952      -3.97535123
C       -2.63193501      -1.79956542      -1.60125328
C       -2.32339965       2.23837435       3.37855333
C       -1.42953054      -0.04360820      -3.96822427
C        2.59589730      -0.62380234      -2.30593667
C       -0.80107606       2.89852081       0.06500151
C       -0.71447066       0.47106057       4.12988951
C       -2.52133858       0.29781271      -3.10192766
C        0.61964577      -2.78007974      -1.07589444
C        2.57351720       1.43346420      -0.92498169
C        0.76889191      -2.36768282      -2.44296455
60
Properties=species:S:1:pos:R:3 trajectory=trial0001_proposal001_step004_proposal_relax trajectory_step=69 pbc="F F F"
C        0.94315395       2.32107356       1.68213989
C       -2.78970289       1.62282919       0.76211853
C       -1.10793228      -1.15865030       2.50619023
C        1.59571814      -1.34498067      -3.01589167
C        3.30216639      -1.22603195      -1.25580099
C       -2.18189571      -0.17904184       2.50299639
C        1.91937320       1.37405044       2.13199783
C        0.24442506       1.45316651       3.74112042
C       -1.51682994      -2.57476472      -2.03117712
C        0.79371226      -0.63470262      -3.94729121
C        1.47017360      -2.46313865       0.02276435
C       -2.61842312      -1.79784602      -0.13673729
C        0.61659195       2.67486876       0.32244523
C       -0.55868871      -2.25844102      -3.03580401
C       -3.07218533      -0.50480096      -2.05564899
C        1.13522228      -0.63302186       3.26162879
C       -3.51450354       0.17690219      -0.87903545
C        1.50252412       1.48431654      -2.99949715
C        2.46310671       0.79011275      -2.20889904
C       -1.40055946       2.71554957       2.45163803
C       -0.61279631       1.13912390      -4.15871690
C       -0.44393549       2.82340880      -2.38911287
C        3.99890940      -0.44444308      -0.27678454
C        2.82731713       0.58652828       1.39188954
C        2.91837851      -0.79580657       1.72724168
C        1.72371587      -1.38727731       2.22143339
C       -1.18395443       2.20147445      -3.44506803
C        1.41677970       0.75797104       3.31487630
C        0.89481545       2.46844456      -2.16104014
C       -2.87062880       0.27776538       1.35344997
C       -2.54582140       2.27208438      -1.58227550
C       -1.77611603       2.58631701       1.09208711
C        3.66090345      -1.44911572       0.73236989
C       -0.55214759      -1.15394525      -3.91318257
C       -0.23302275      -0.76733808       3.55199658
C       -1.30519797       2.91782190      -1.25951202
C        3.30225072       0.77298163       0.07893065
C        2.82470858      -2.11289664      -0.23077372
C        0.87713357      -2.09320616       1.29319363
C       -0.58797024      -1.98893213       1.43600414
C       -0.05767437       2.39113623       2.72306930
C        1.45913388       2.38658151      -0.82820331
C       -3.23614391      -0.60326105       0.28496116
C       -2.08005316       0.66321353       3.68815474
C       -3.11856075       1.64362525       4.23824855
C       -2.42158504       1.72413599      -2.88724683
C       -0.76900884      -2.93074598      -0.83467059
C       -3.21580580       1.52722122      -0.60340597
C       -1.40183895      -2.41183477       0.32588597
C        0.75486330       0.78845739      -3.97550495
C       -2.63116724      -1.79970901      -1.60042731
C       -2.32428846       2.24005532       3.37894873
C       -1.42937188      -0.04425093      -3.96663387
C        2.59614860      -0.62357461      -2.30534036
C       -0.80285000       2.90432125       0.06413736
C       -0.71471706       0.46914847       4.13124855
C       -2.52141831       0.29850907      -3.10101089
C        0.61971524      -2.78237331      -1.07580071
C        2.57190352       1.43317512      -0.92497412
C        0.76944579      -2.36863898      -2.44261231
60
Properties=species:S:1:pos:R:3 trajectory=trial0001_proposal001_step004_proposal_relax trajectory_step=70 pbc="F F F"
C        0.94235150       2.32115370       1.68183761
C       -2.78984013       1.62246387       0.76262332
C       -1.10746055      -1.15881578       2.50698825
C        1.59490911      -1.34508426      -3.01544054
C        3.30235678      -1.22670256      -1.25638542
C       -2.17972071      -0.17980271       2.50108432
C        1.91882006       1.37376558       2.13178216
C        0.24345109       1.45229083       3.74099187
C       -1.51690403      -2.57432499      -2.03076624
C        0.79353078      -0.63502041      -3.94763217
C        1.47043798      -2.46405291       0.02311970
C       -2.61832184      -1.79804853      -0.13687473
C        0.61541757       2.67620514       0.32231282
C       -0.55912848      -2.25841895      -3.03556854
C       -3.07161752      -0.50365352      -2.05505869
C        1.13553790      -0.63315984       3.26288312
C       -3.51421537       0.17761613      -0.87858968
C        1.50278944       1.48415058      -2.99946303
C        2.46325309       0.79012860      -2.20885948
C       -1.40074830       2.71534702       2.45188342
C       -0.61275479       1.13876593      -4.15916441
C       -0.44353165       2.82389396      -2.38979832
C        3.99868609      -0.44510519      -0.27699500
C        2.82735753       0.58663435       1.39209807
C        2.91854551      -0.79604841       1.72693008
C        1.72394864      -1.38693317       2.22194646
C       -1.18364215       2.20136648      -3.44551305
C        1.41638997       0.75786867       3.31551060
C        0.89504609       2.46901375      -2.16151849
C       -2.86910640       0.27715395       1.35242266
C       -2.54582952       2.27249257      -1.58193392
C       -1.77655617       2.58654818       1.09256054
C        3.66090235      -1.45000630       0.73188446
C       -0.55257013      -1.15434897      -3.91357100
C       -0.23246901      -0.76743870       3.55316999
C       -1.30567590       2.91963976      -1.26027471
C        3.30283419       0.77274805       0.07894132
C        2.82498272      -2.11401471      -0.23136877
C        0.87770663      -2.09310398       1.29363445
C       -0.58714883      -1.98966962       1.43686365
C       -0.05816146       2.39022460       2.72306269
C        1.45896190       2.38750303      -0.82800229
C       -3.23631911      -0.60379607       0.28476051
C       -2.08030681       0.66441060       3.68695930
C       -3.12004789       1.64331236       4.23680792
C       -2.42114636       1.72450936      -2.88724797
C       -0.76915921      -2.93082029      -0.83407913
C       -3.21532717       1.52798576      -0.60347239
C       -1.40160819      -2.41186469       0.32652823
C        0.75475565       0.78818126      -3.97585709
C       -2.63080728      -1.79886034      -1.60036467
C       -2.32400214       2.23982122       3.37958322
C       -1.42967231      -0.04444666      -3.96683797
C        2.59643273      -0.62350854      -2.30574315
C       -0.80401619       2.90567379       0.06394148
C       -0.71525709       0.46891135       4.13161086
C       -2.52142285       0.29902790      -3.10091277
C        0.61958436      -2.78311895      -1.07541435
C        2.57203450       1.43338020      -0.92472358
C        0.76896598      -2.36841845      -2.44220511
60
Properties=species:S:1:pos:R:3 trajectory=trial0001_proposal001_step004_proposal_relax trajectory_step=71 pbc="F F F"
C        0.94112728       2.32100457       1.68192585
C       -2.78924875       1.62176101       0.76269300
C       -1.10514667      -1.15921300       2.50855111
C        1.59370497      -1.34524791      -3.01460888
C        3.30269724      -1.22814879      -1.25802017
C       -2.17566409      -0.17984808       2.49834858
C        1.91835961       1.37364877       2.13214037
C        0.24260975       1.45138429       3.74098370
C       -1.51737719      -2.57304291      -2.03018739
C        0.79294295      -0.63602780      -3.94821213
C        1.47078767      -2.46558448       0.02398675
C       -2.61882625      -1.79823430      -0.13680108
C        0.61383542       2.67837753       0.32252926
C       -0.56053617      -2.25784942      -3.03492890
C       -3.07113275      -0.50182561      -2.05439296
C        1.13659415      -0.63320095       3.26545557
C       -3.51486026       0.17836205      -0.87822051
C        1.50318593       1.48395103      -2.99948268
C        2.46378945       0.79028746      -2.20863963
C       -1.40117327       2.71466689       2.45201632
C       -0.61225326       1.13827112      -4.15993460
C       -0.44292432       2.82522865      -2.39068048
C        3.99820311      -0.44629602      -0.27785222
C        2.82814010       0.58679642       1.39238111
C        2.91910216      -0.79622218       1.72617924
C        1.72500228      -1.38647589       2.22293686
C       -1.18262683       2.20085920      -3.44555108
C        1.41674211       0.75816667       3.31654092
C        0.89546162       2.47001067      -2.16181602
C       -2.86624407       0.27590810       1.35069934
C       -2.54552924       2.27312953      -1.58197402
C       -1.77748291       2.58667722       1.09280267
C        3.66037363      -1.45099459       0.73101049
C       -0.55376906      -1.15463129      -3.91464058
C       -0.23123301      -0.76732235       3.55591557
C       -1.30636205       2.92260344      -1.26131380
C        3.30376635       0.77242280       0.07887484
C        2.82501090      -2.11634645      -0.23242050
C        0.87873712      -2.09352670       1.29513041
C       -0.58610961      -1.99045514       1.43868188
C       -0.05938796       2.38844839       2.72271669
C        1.45863091       2.38897545      -0.82757070
C       -3.23642293      -0.60428615       0.28413134
C       -2.08028120       0.66561764       3.68398082
C       -3.12499051       1.64082754       4.23230576
C       -2.42005599       1.72502077      -2.88715207
C       -0.76985198      -2.93061939      -0.83330093
C       -3.21473176       1.52874225      -0.60331937
C       -1.40136853      -2.41162089       0.32782036
C        0.75517935       0.78737841      -3.97639543
C       -2.63082817      -1.79719462      -1.60014850
C       -2.32391725       2.23816992       3.37974032
C       -1.43029003      -0.04433614      -3.96765120
C        2.59716061      -0.62408563      -2.30667127
C       -0.80572783       2.90803391       0.06367078
C       -0.71631475       0.46950124       4.13283749
C       -2.52135636       0.30003871      -3.10074092
C        0.61878658      -2.78398723      -1.07432441
C        2.57228820       1.43385279      -0.92406241
C        0.76730008      -2.36789946      -2.44088621
60
Properties=species:S:1:pos:R:3 trajectory=trial0001_proposal001_step004_proposal_relax trajectory_step=72 pbc="F F F"
C        0.94031464       2.32046657       1.68175771
C       -2.78817456       1.62094749       0.76197570
C       -1.10367433      -1.15877495       2.50998010
C        1.59241014      -1.34584389      -3.01412223
C        3.30309558      -1.22990174      -1.25800917
C       -2.17261668      -0.17984503       2.49691089
C        1.91901079       1.37346860       2.13179964
C        0.24259143       1.45171043       3.74082172
C       -1.51843683      -2.57184364      -2.02918093
C        0.79259432      -0.63674370      -3.94827361
C        1.47038736      -2.46669271       0.02485595
C       -2.61887811      -1.79848628      -0.13654623
C        0.61339981       2.67929993       0.32273987
C       -0.56121652      -2.25675537      -3.03481967
C       -3.07100524      -0.50104451      -2.05432613
C        1.13840369      -0.63327616       3.26661134
C       -3.51580722       0.17924016      -0.87834628
C        1.50326558       1.48377090      -2.99920884
C        2.46401801       0.79022609      -2.20859759
C       -1.40208931       2.71434648       2.45179177
C       -0.61171667       1.13836329      -4.16021115
C       -0.44291316       2.82659405      -2.39087504
C        3.99738955      -0.44724137      -0.27872227
C        2.82866282       0.58723421       1.39275407
C        2.91925145      -0.79602548       1.72621925
C        1.72530507      -1.38622708       2.22427800
C       -1.18138030       2.20049962      -3.44534591
C        1.41684195       0.75807377       3.31744098
C        0.89580632       2.47028951      -2.16186287
C       -2.86423191       0.27556579       1.34939088
C       -2.54535365       2.27380293      -1.58214724
C       -1.77766370       2.58724407       1.09268817
C        3.65985778      -1.45154824       0.72941973
C       -0.55463081      -1.15514969      -3.91516487
C       -0.23106724      -0.76716687       3.55827458
C       -1.30661719       2.92453536      -1.26151377
C        3.30402826       0.77213317       0.07859166
C        2.82570712      -2.11735747      -0.23286674
C        0.87952680      -2.09424368       1.29629176
C       -0.58501842      -1.99091646       1.43954731
C       -0.05991488       2.38714050       2.72242145
C        1.45837487       2.38970180      -0.82726967
C       -3.23648267      -0.60394464       0.28424370
C       -2.07994462       0.66619735       3.68217269
C       -3.12933091       1.63798096       4.22772212
C       -2.41929359       1.72527776      -2.88698273
C       -0.77068746      -2.93013115      -0.83227224
C       -3.21454491       1.52851588      -0.60362037
C       -1.40191748      -2.41124132       0.32840491
C        0.75554952       0.78671911      -3.97656613
C       -2.63068040      -1.79638197      -1.59978617
C       -2.32487901       2.23564026       3.37961481
C       -1.43075190      -0.04390277      -3.96865542
C        2.59719642      -0.62389312      -2.30732990
C       -0.80619598       2.90977266       0.06344752
C       -0.71611542       0.46959978       4.13385293
C       -2.52097348       0.30073933      -3.10084036
C        0.61821039      -2.78409302      -1.07337325
C        2.57220497       1.43429281      -0.92409376
C        0.76629440      -2.36711710      -2.44000433
60
Properties=species:S:1:pos:R:3 trajectory=trial0001_proposal001_step004_proposal_relax trajectory_step=73 pbc="F F F"
C        0.94017832       2.31983978       1.68199325
C       -2.78717486       1.62045490       0.76118939
C       -1.10218357      -1.15868587       2.51062866
C        1.59206915      -1.34584307      -3.01375369
C        3.30301095      -1.23062193      -1.25911511
C       -2.17080814      -0.17935187       2.49624401
C        1.91927175       1.37381320       2.13239895
C        0.24308762       1.45196564       3.74094609
C       -1.51870406      -2.57095741      -2.02894750
C        0.79219092      -0.63733390      -3.94846631
C        1.47047029      -2.46718813       0.02541963
C       -2.61954165      -1.79823461      -0.13624196
C        0.61331665       2.67967100       0.32292047
C       -0.56215671      -2.25615996      -3.03423623
C       -3.07118462      -0.50069498      -2.05440567
C        1.13898326      -0.63307588       3.26782751
C       -3.51693633       0.17913001      -0.87862999
C        1.50322423       1.48370390      -2.99915834
C        2.46431165       0.79023666      -2.20850886
C       -1.40256835       2.71375251       2.45182698
C       -0.61121716       1.13834806      -4.16045488
C       -0.44276942       2.82741327      -2.39088287
C        3.99699907      -0.44754400      -0.27935024
C        2.82962052       0.58729267       1.39275051
C        2.91957514      -0.79597069       1.72594382
C        1.72602579      -1.38611473       2.22474854
C       -1.18062492       2.20028484      -3.44473882
C        1.41762154       0.75851546       3.31773272
C        0.89590115       2.47045693      -2.16162526
C       -2.86302242       0.27526235       1.34869897
C       -2.54508737       2.27410476      -1.58254482
C       -1.77791690       2.58721061       1.09236655
C        3.65925260      -1.45135821       0.72927568
C       -0.55531720      -1.15488629      -3.91595701
C       -0.23029708      -0.76693605       3.55983296
C       -1.30676672       2.92542404      -1.26151785
C        3.30416934       0.77206982       0.07831402
C        2.82525928      -2.11861223      -0.23302663
C        0.87989873      -2.09478719       1.29721544
C       -0.58483688      -1.99077168       1.44032674
C       -0.06059874       2.38642679       2.72198370
C        1.45831799       2.38998702      -0.82709747
C       -3.23663418      -0.60377899       0.28395626
C       -2.07945234       0.66620422       3.68086045
C       -3.13318112       1.63540530       4.22475546
C       -2.41857050       1.72538090      -2.88689037
C       -0.77127380      -2.92965781      -0.83200391
C       -3.21449292       1.52837005      -0.60360063
C       -1.40207742      -2.41087525       0.32906959
C        0.75605604       0.78619723      -3.97659893
C       -2.63110168      -1.79555598      -1.59950819
C       -2.32515050       2.23380996       3.37863811
C       -1.43096291      -0.04360877      -3.96954176
C        2.59741294      -0.62456895      -2.30747364
C       -0.80623808       2.91062026       0.06343767
C       -0.71620234       0.47027220       4.13469166
C       -2.52072087       0.30117086      -3.10097179
C        0.61746376      -2.78387603      -1.07264170
C        2.57236525       1.43451333      -0.92386727
C        0.76521233      -2.36665688      -2.43914977
