54
Lattice="21.66 0.0 0.0 0.0 5.10531 0.0 0.0 0.0 22.55266" Properties=species:S:1:pos:R:3 entry_id=34 rank=11 energy=-201.6754150390625 pbc="T T F"
Cu       0.00000000       0.00000000      10.00000000
Cu       3.61000000       0.00000000      10.00000000
Cu       7.22000000       0.00000000      10.00000000
Cu      10.83000000       0.00000000      10.00000000
Cu      14.44000000       0.00000000      10.00000000
Cu      18.05000000       0.00000000      10.00000000
Cu       0.00000000       2.55265548      10.00000000
Cu       3.61000000       2.55265548      10.00000000
Cu       7.22000000       2.55265548      10.00000000
Cu      10.83000000       2.55265548      10.00000000
Cu      14.44000000       2.55265548      10.00000000
Cu      18.05000000       2.55265548      10.00000000
Cu       1.80500000       1.27632774      11.27632774
Cu       5.41500000       1.27632774      11.27632774
Cu       9.02500000       1.27632774      11.27632774
Cu      12.63500000       1.27632774      11.27632774
Cu      16.24500000       1.27632774      11.27632774
Cu      19.85500000       1.27632774      11.27632774
Cu       1.80500000       3.82898322      11.27632774
Cu       5.41500000       3.82898322      11.27632774
Cu       9.02500000       3.82898322      11.27632774
Cu      12.63500000       3.82898322      11.27632774
Cu      16.24500000       3.82898322      11.27632774
Cu      19.85500000       3.82898322      11.27632774
Cu       3.53291692       0.04228117      12.54120797
Cu       5.33636688       1.37841385      13.79792737
Cu       3.76772129       0.26529754      15.40620471
Cu       7.24520060       0.05407800      12.57699205
Cu      12.56374048       1.27290793      14.01806451
Cu      17.55944673       3.76184056      13.50458780
Cu       0.02952711       5.09179950      12.51294042
Cu       3.55067380       2.54122255      12.48565399
Cu       5.12718365       3.84211671      13.78536288
Cu      10.85592518       2.47555457      12.39961539
Cu      14.33669653       2.55732416      12.58529500
Cu      14.45128627       5.10193647      12.51439251
Cu       1.86554259       3.78506540      13.82730982
Cu       9.52504799       3.26648372      14.25137536
Cu      20.03634814       1.20054249      14.09171864
Cu       7.21909590       2.59344914      12.64133177
Cu       6.76630308       4.96590275      15.17110359
Cu       1.01851917       1.13610158      14.63690814
Cu       0.07434171       2.53173634      12.50730065
Cu      12.57146536       3.81419537      14.06175319
Cu      20.09685070       3.79427882      14.04278414
Cu      17.51756818       1.15461492      13.51847825
O        5.43583439       0.97072934      15.71478869
O       21.34775493       2.47459054      14.56575804
O       18.66307859       5.02213539      14.36688610
O       13.85325523       5.09899938      14.30574249
O       11.22078399       2.54686552      14.36810909
O        7.85050134       3.91936004      14.11357987
O       16.30511429       2.47713468      13.03764574
O        2.01978832       4.88198304      15.36160296
