54
Lattice="21.66 0.0 0.0 0.0 5.10531 0.0 0.0 0.0 22.55266" Properties=species:S:1:pos:R:3 entry_id=0 rank=38 energy=-198.678466796875 pbc="T T F"
Cu       0.00000000       0.00000000      10.00000000
Cu       3.61000000       0.00000000      10.00000000
Cu       7.22000000       0.00000000      10.00000000
Cu      10.83000000       0.00000000      10.00000000
Cu      14.44000000       0.00000000      10.00000000
Cu      18.05000000       0.00000000      10.00000000
Cu       0.00000000       2.55265548      10.00000000
Cu       3.61000000       2.55265548      10.00000000
Cu       7.22000000       2.55265548      10.00000000
Cu      10.83000000       2.55265548      10.00000000
Cu      14.44000000       2.55265548      10.00000000
Cu      18.05000000       2.55265548      10.00000000
Cu       1.80500000       1.27632774      11.27632774
Cu       5.41500000       1.27632774      11.27632774
Cu       9.02500000       1.27632774      11.27632774
Cu      12.63500000       1.27632774      11.27632774
Cu      16.24500000       1.27632774      11.27632774
Cu      19.85500000       1.27632774      11.27632774
Cu       1.80500000       3.82898322      11.27632774
Cu       5.41500000       3.82898322      11.27632774
Cu       9.02500000       3.82898322      11.27632774
Cu      12.63500000       3.82898322      11.27632774
Cu      16.24500000       3.82898322      11.27632774
Cu      19.85500000       3.82898322      11.27632774
Cu      21.61143026       0.00306101      12.58284838
Cu       3.76668117       0.08247500      12.68979673
Cu       6.24216989       4.71592485      13.36452646
Cu      10.69545272       5.01582003      12.63962781
Cu      14.51946358       0.02543225      12.59867020
Cu      18.05331654       0.04801198      12.43665208
Cu      21.61209056       2.51430969      12.58460190
Cu       3.62099846       2.69781964      12.58244510
Cu       7.17406891       2.56370736      12.39455446
Cu      10.69458929       2.45572650      12.82729949
Cu      14.60869203       2.52458927      12.73403225
Cu      17.99552566       2.57314894      12.53394960
Cu       5.53758390       2.66387195      14.64816295
Cu       8.67803673       0.95535548      13.63876445
Cu      19.74309114       1.23985036      13.85373323
Cu       8.82490000       3.55634100      13.94277723
Cu       8.23194188       4.96442103      15.89288917
Cu       2.09432898       1.28440549      14.19262537
Cu       1.72960867       3.81328141      13.81574792
Cu      10.20673671       1.78619316      15.22197760
Cu      19.80499887       3.67528225      13.82478407
Cu      16.85980813       4.30806793      14.28762035
O        7.05172228       3.83024077      15.00195827
O        0.63716284       0.17219300      14.42053330
O       18.59324614       4.94102350      14.59175648
O       12.60701969       2.53266435      12.80652843
O        9.49396355       0.88477927      16.59934174
O        6.77985007       1.35763487      13.85656568
O       15.11687303       3.93925246      13.95601332
O        3.93815169       1.66747666      14.20394752
