54
Lattice="21.66 0.0 0.0 0.0 5.10531 0.0 0.0 0.0 22.55266" Properties=species:S:1:pos:R:3 entry_id=20 rank=19 energy=-201.11605834960938 pbc="T T F"
Cu       0.00000000       0.00000000      10.00000000
Cu       3.61000000       0.00000000      10.00000000
Cu       7.22000000       0.00000000      10.00000000
Cu      10.83000000       0.00000000      10.00000000
Cu      14.44000000       0.00000000      10.00000000
Cu      18.05000000       0.00000000      10.00000000
Cu       0.00000000       2.55265548      10.00000000
Cu       3.61000000       2.55265548      10.00000000
Cu       7.22000000       2.55265548      10.00000000
Cu      10.83000000       2.55265548      10.00000000
Cu      14.44000000       2.55265548      10.00000000
Cu      18.05000000       2.55265548      10.00000000
Cu       1.80500000       1.27632774      11.27632774
Cu       5.41500000       1.27632774      11.27632774
Cu       9.02500000       1.27632774      11.27632774
Cu      12.63500000       1.27632774      11.27632774
Cu      16.24500000       1.27632774      11.27632774
Cu      19.85500000       1.27632774      11.27632774
Cu       1.80500000       3.82898322      11.27632774
Cu       5.41500000       3.82898322      11.27632774
Cu       9.02500000       3.82898322      11.27632774
Cu      12.63500000       3.82898322      11.27632774
Cu      16.24500000       3.82898322      11.27632774
Cu      19.85500000       3.82898322      11.27632774
Cu       3.61281405       0.00224948      12.50864616
Cu       5.49370120       3.84710510      13.92261204
Cu       4.21482593       1.15747135      14.56033130
Cu      14.48224730       5.04604134      12.57371603
Cu      12.32549148       2.34170397      14.17107124
Cu      18.09646157       0.03519766      12.39125082
Cu       0.00944300       0.00207717      12.48300271
Cu       3.61221039       2.56032137      12.53586553
Cu       7.26843784       2.53154303      12.53454297
Cu      10.72745475       2.60862754      12.42975293
Cu      14.39493022       2.49041959      12.58734877
Cu      16.56700285       4.95968360      14.18551133
Cu       3.10935670       3.96882260      14.59972879
Cu       9.14868871       4.06675458      13.92451777
Cu       0.62831034       3.92553933      14.70856111
Cu       7.22255019       0.00862137      12.46917998
Cu       6.69551852       1.22921729      14.69210722
Cu       1.79749965       1.29873537      13.93587414
Cu      21.64279781       2.58588748      12.53729895
Cu      12.15821118       4.91725034      13.71228304
Cu      19.78627610       0.86739915      14.03376741
Cu      16.77257790       2.44861387      13.64156563
O        5.45433555       2.43124472      15.24918764
O        1.85104539       2.71009650      15.27158415
O       17.95756954       1.11362984      14.18408062
O       13.57007388       1.01558651      14.01082336
O       10.93058784       3.58685422      14.20444945
O        7.48153728       4.70342562      14.37906849
O       15.33786410       3.61710397      13.97879773
O       21.53669976       0.47502051      14.41788390
