54
Lattice="21.66 0.0 0.0 0.0 5.10531 0.0 0.0 0.0 22.55266" Properties=species:S:1:pos:R:3 entry_id=9 rank=8 energy=-201.88861083984375 pbc="T T F"
Cu       0.00000000       0.00000000      10.00000000
Cu       3.61000000       0.00000000      10.00000000
Cu       7.22000000       0.00000000      10.00000000
Cu      10.83000000       0.00000000      10.00000000
Cu      14.44000000       0.00000000      10.00000000
Cu      18.05000000       0.00000000      10.00000000
Cu       0.00000000       2.55265548      10.00000000
Cu       3.61000000       2.55265548      10.00000000
Cu       7.22000000       2.55265548      10.00000000
Cu      10.83000000       2.55265548      10.00000000
Cu      14.44000000       2.55265548      10.00000000
Cu      18.05000000       2.55265548      10.00000000
Cu       1.80500000       1.27632774      11.27632774
Cu       5.41500000       1.27632774      11.27632774
Cu       9.02500000       1.27632774      11.27632774
Cu      12.63500000       1.27632774      11.27632774
Cu      16.24500000       1.27632774      11.27632774
Cu      19.85500000       1.27632774      11.27632774
Cu       1.80500000       3.82898322      11.27632774
Cu       5.41500000       3.82898322      11.27632774
Cu       9.02500000       3.82898322      11.27632774
Cu      12.63500000       3.82898322      11.27632774
Cu      16.24500000       3.82898322      11.27632774
Cu      19.85500000       3.82898322      11.27632774
Cu       3.70378721       0.01722634      12.55348289
Cu       5.52798398       3.70027424      13.84829875
Cu       3.57589002       1.29476479      14.81779557
Cu      10.77772076       0.12717182      12.46835316
Cu      12.35497411       4.29557469      14.08382765
Cu      18.01905378       5.01233844      12.42635646
Cu      21.64913918       0.15379003      12.53612771
Cu       3.56893742       2.57191777      12.57316589
Cu       7.26924649       2.47406223      12.51787430
Cu      10.76116043       2.64735483      12.45525255
Cu      14.59360515       2.09939953      13.37142544
Cu      14.49141598       4.82760753      12.59827452
Cu       1.85074347       4.04157252      13.81107941
Cu       9.14642960       3.91213914      14.02026325
Cu      19.82414174       4.22676885      13.99129997
Cu       7.25855774       5.05532232      12.48722279
Cu       6.34864239       1.03515381      14.55583331
Cu       0.81817962       1.60363831      14.63540761
Cu       0.03626351       2.70441968      12.52003739
Cu      12.13755479       1.71861634      14.22765421
Cu      19.84921337       1.65154084      14.10709763
Cu      17.25331477       2.01996853      13.55708132
O        5.09518503       2.27547486      15.04208798
O       21.12330884       2.92800371      14.57882186
O       18.38139818       0.53119538      14.21216059
O       13.64191461       0.60008866      14.20652611
O       10.89392752       3.12612086      14.46371143
O        7.43261660       4.62898913      14.42219423
O       15.97289726       3.37751100      13.25920223
O        2.04998783       0.32797495      15.08947248
