54
Lattice="21.66 0.0 0.0 0.0 5.10531 0.0 0.0 0.0 22.55266" Properties=species:S:1:pos:R:3 entry_id=4 rank=33 energy=-200.09072875976562 pbc="T T F"
Cu       0.00000000       0.00000000      10.00000000
Cu       3.61000000       0.00000000      10.00000000
Cu       7.22000000       0.00000000      10.00000000
Cu      10.83000000       0.00000000      10.00000000
Cu      14.44000000       0.00000000      10.00000000
Cu      18.05000000       0.00000000      10.00000000
Cu       0.00000000       2.55265548      10.00000000
Cu       3.61000000       2.55265548      10.00000000
Cu       7.22000000       2.55265548      10.00000000
Cu      10.83000000       2.55265548      10.00000000
Cu      14.44000000       2.55265548      10.00000000
Cu      18.05000000       2.55265548      10.00000000
Cu       1.80500000       1.27632774      11.27632774
Cu       5.41500000       1.27632774      11.27632774
Cu       9.02500000       1.27632774      11.27632774
Cu      12.63500000       1.27632774      11.27632774
Cu      16.24500000       1.27632774      11.27632774
Cu      19.85500000       1.27632774      11.27632774
Cu       1.80500000       3.82898322      11.27632774
Cu       5.41500000       3.82898322      11.27632774
Cu       9.02500000       3.82898322      11.27632774
Cu      12.63500000       3.82898322      11.27632774
Cu      16.24500000       3.82898322      11.27632774
Cu      19.85500000       3.82898322      11.27632774
Cu       0.12278441       0.02219154      12.62617502
Cu       3.59719675       5.03863203      12.55704701
Cu       5.27292283       1.23432875      13.89630169
Cu      10.81943494       0.04150072      12.52168738
Cu      14.33803242       4.66088729      13.69329007
Cu      18.00914732       0.09571833      12.46505889
Cu       0.04460253       2.61955971      12.52769795
Cu       3.59972350       2.45919711      12.42114095
Cu       7.25653638       2.58754544      12.56506589
Cu      10.81106394       2.61108409      12.39380165
Cu      14.40891741       2.45307013      12.48735019
Cu      16.29804436       1.33160162      13.74466721
Cu       4.13258024       3.36040631      14.58677360
Cu       9.31228800       3.78580980      13.94035738
Cu      19.33295405       2.55115826      13.59468962
Cu       7.37360797       5.03340961      12.77634058
Cu       9.13856657       1.20810413      14.03386731
Cu       1.99851388       1.25506740      13.94868823
Cu       1.78075763       3.84868672      13.88657421
Cu      11.79964345       1.64364118      14.31393485
Cu      19.72815325       0.06329297      14.21279433
Cu      16.86310619       3.80688838      14.23705392
O        7.19371779       1.43451461      14.11848711
O       20.92333019       1.41359297      13.89537299
O       18.60274768       3.86772657      14.76618046
O       13.21851561       0.97159449      13.33777701
O       10.29074701       2.45763338      14.95174389
O        5.35942785       4.36449932      13.63185919
O       15.17509518       3.07073654      14.22093956
O        2.53452280       2.63383531      15.16212940
