54
Lattice="21.66 0.0 0.0 0.0 5.10531 0.0 0.0 0.0 22.55266" Properties=species:S:1:pos:R:3 entry_id=19 rank=6 energy=-202.0384521484375 pbc="T T F"
Cu       0.00000000       0.00000000      10.00000000
Cu       3.61000000       0.00000000      10.00000000
Cu       7.22000000       0.00000000      10.00000000
Cu      10.83000000       0.00000000      10.00000000
Cu      14.44000000       0.00000000      10.00000000
Cu      18.05000000       0.00000000      10.00000000
Cu       0.00000000       2.55265548      10.00000000
Cu       3.61000000       2.55265548      10.00000000
Cu       7.22000000       2.55265548      10.00000000
Cu      10.83000000       2.55265548      10.00000000
Cu      14.44000000       2.55265548      10.00000000
Cu      18.05000000       2.55265548      10.00000000
Cu       1.80500000       1.27632774      11.27632774
Cu       5.41500000       1.27632774      11.27632774
Cu       9.02500000       1.27632774      11.27632774
Cu      12.63500000       1.27632774      11.27632774
Cu      16.24500000       1.27632774      11.27632774
Cu      19.85500000       1.27632774      11.27632774
Cu       1.80500000       3.82898322      11.27632774
Cu       5.41500000       3.82898322      11.27632774
Cu       9.02500000       3.82898322      11.27632774
Cu      12.63500000       3.82898322      11.27632774
Cu      16.24500000       3.82898322      11.27632774
Cu      19.85500000       3.82898322      11.27632774
Cu       3.71125040       0.01484152      12.55270424
Cu       5.53329662       3.68105902      13.85146060
Cu       3.59427324       1.29826508      14.80861728
Cu      10.78124344       0.06944007      12.48872451
Cu      12.23496281       1.53472042      14.13276653
Cu      17.99902489       4.99463168      12.43067763
Cu      21.64016836       0.15691167      12.54025271
Cu       3.56785729       2.57519680      12.57104961
Cu       7.26896263       2.46031384      12.51737635
Cu      10.76383425       2.59644993      12.44258558
Cu      14.36278983       2.49044739      12.59926937
Cu      14.47113998       5.08279941      12.65025931
Cu       1.84637084       4.05914026      13.80594718
Cu       9.16011723       3.80164407      14.03172510
Cu      19.80631284       4.23802369      14.00162167
Cu       7.26354226       5.04228820      12.49643357
Cu       6.39390861       1.00174116      14.57813132
Cu       0.79150588       1.61142435      14.63389371
Cu       0.03019398       2.70902988      12.51881735
Cu      12.27055902       4.08496231      14.16206664
Cu      19.79517141       1.65369189      14.07471817
Cu      17.14422968       1.93416305      13.60127559
O        5.13613170       2.24382063      15.04538313
O       21.07944344       2.91527334      14.56318637
O       18.34360049       0.51036975      14.22107993
O       13.56298001       0.27279046      14.32406944
O       10.86152415       2.86759858      14.43238556
O        7.47478473       4.59344549      14.42479188
O       16.00579402       3.34030312      13.21936956
O        2.04891237       0.35933803      15.07061921
