54
Lattice="21.66 0.0 0.0 0.0 5.10531 0.0 0.0 0.0 22.55266" Properties=species:S:1:pos:R:3 entry_id=28 rank=20 energy=-201.06378173828125 pbc="T T F"
Cu       0.00000000       0.00000000      10.00000000
Cu       3.61000000       0.00000000      10.00000000
Cu       7.22000000       0.00000000      10.00000000
Cu      10.83000000       0.00000000      10.00000000
Cu      14.44000000       0.00000000      10.00000000
Cu      18.05000000       0.00000000      10.00000000
Cu       0.00000000       2.55265548      10.00000000
Cu       3.61000000       2.55265548      10.00000000
Cu       7.22000000       2.55265548      10.00000000
Cu      10.83000000       2.55265548      10.00000000
Cu      14.44000000       2.55265548      10.00000000
Cu      18.05000000       2.55265548      10.00000000
Cu       1.80500000       1.27632774      11.27632774
Cu       5.41500000       1.27632774      11.27632774
Cu       9.02500000       1.27632774      11.27632774
Cu      12.63500000       1.27632774      11.27632774
Cu      16.24500000       1.27632774      11.27632774
Cu      19.85500000       1.27632774      11.27632774
Cu       1.80500000       3.82898322      11.27632774
Cu       5.41500000       3.82898322      11.27632774
Cu       9.02500000       3.82898322      11.27632774
Cu      12.63500000       3.82898322      11.27632774
Cu      16.24500000       3.82898322      11.27632774
Cu      19.85500000       3.82898322      11.27632774
Cu       3.96092408       0.03205589      12.85887880
Cu       6.49474210       3.78430600      14.52622697
Cu       6.23385073       1.24680787      14.41676155
Cu      10.75344609       5.08196704      12.56715490
Cu      12.47085085       1.28481018      14.11006957
Cu      18.11792928       2.57820092      12.60436362
Cu      21.62155990       0.04285971      12.64797492
Cu       3.62267356       2.54843748      12.39867321
Cu       4.11501670       3.11247683      14.60956707
Cu      10.78351118       2.52539262      12.50935062
Cu      14.28046036       2.55362514      12.66228884
Cu      14.44842700       0.00049884      12.54655017
Cu       1.95464471       3.83934276      13.81977757
Cu       8.94623870       3.76004168      13.77242399
Cu      19.74488920       1.33745396      14.11402821
Cu       7.21779487       5.05026988      12.45191769
Cu       8.90061981       1.14099002      13.77503108
Cu       2.16821178       1.47055709      13.99865726
Cu       0.05443532       2.57503737      12.53828147
Cu      12.47801759       3.83432524      14.10971539
Cu      19.71910293       3.89515585      14.10802868
Cu      18.00538429       0.02045654      12.50250332
O        7.74347962       2.42206394      14.68335251
O       21.00728546       2.63443482      14.32243070
O       18.43709991       0.07402426      14.33183621
O       13.77532916       0.00940715      14.31313333
O       11.16455414       2.56604983      14.44062529
O        5.03338476       4.91939507      14.69430611
O       16.19283093       2.55279668      12.83347108
O        0.92058615       0.15205313      14.34324157
