60
Properties=species:S:1:pos:R:3 trial_index=7 seed_entry_id=4 discovered_entry_id=5 energy=-470.7225341796875 status=accepted pbc="F F F"
C        2.69963154      -3.50003541      -0.12165319
C        1.33172535       0.14597679      -2.38207307
C        3.07881872       0.47750817       3.79527777
C        2.31452681      -2.26821199      -2.37343017
C       -3.01437577       2.14650306       2.80325352
C        2.49468317       0.65173132       0.02827272
C       -0.94054712      -3.08807265       1.82235473
C        3.16350797      -2.16679852       3.13312969
C       -3.04325087       0.64953596      -3.33694111
C        0.47073614      -1.45058866       0.43133844
C       -1.03151252       2.43366128       3.12630282
C        1.54558928       3.96842788      -0.26749405
C        2.13139336      -2.80211164      -1.13663290
C       -0.53600916       4.57274281      -0.90228565
C        0.00273597       3.71698964      -2.92025811
C        0.63673538      -0.27888681       1.19956432
C        0.83595898       2.51800037      -2.95498326
C       -1.55136855      -3.00783426      -1.47599151
C       -2.88295628      -0.80758853      -0.40450033
C        2.15677987       0.58501485      -1.35569770
C       -5.23905542      -0.06113026      -2.39200506
C       -2.16442864      -2.07723420      -2.29594024
C       -2.08460825      -3.93966627       3.94363973
C       -1.82894276       0.07483737       1.83200591
C       -2.62334952      -4.55221818       4.90805641
C       -0.41913753       0.39681213       1.90161275
C       -3.05887380      -1.09552019      -1.74853076
C        3.14983394      -3.11156533       2.30660714
C       -0.46547779      -2.85449974      -0.75245112
C        2.56626267       1.77875081      -0.78562907
C       -0.65956603      -0.72077700      -4.02993486
C        1.10664375      -1.32849267      -2.37240750
C       -2.62234668       0.76850412       2.79312552
C       -1.03139126       4.00661672      -2.05700050
C        2.64966827       0.24141668       2.51738575
C       -1.27843831      -1.78422701      -3.37043297
C       -1.47339448      -3.56410836       2.84868775
C       -2.00128919       1.58456127       3.79770726
C       -0.05807478       1.72183815       2.36183863
C        0.85754104       2.45307466       1.61985349
C        2.98740442      -3.59262588       1.09257371
C       -0.34235405      -2.59651281       0.70966610
C        2.32357817       3.10395136      -1.06270846
C        2.01154951       0.23833192       1.27567550
C        0.76636094      -1.95328926      -0.97044490
C       -3.86855962      -0.19317571      -2.60358196
C       -0.60774197       0.68344374      -3.81203302
C        0.56446417       1.11588995      -3.10307459
C        0.65100053       3.50001835       0.77301836
C       -6.47694839      -0.03265066      -2.23195806
C        0.84147264       4.84064251      -1.12407184
C        1.91593257       3.29854590      -2.41836705
C        1.15136358       4.53682467      -2.48664280
C       -2.01150693       3.07991609       2.26293542
C        0.12188403      -1.68451822      -3.41238920
C        3.05304449      -0.87439436       3.38919390
C       -1.92729910       1.09884751      -3.69243580
C       -0.69557660       4.04174268       0.44833136
C       -2.42741648      -0.48450573       0.70323019
C       -1.81811831       3.80171670       1.16434189
