60
Properties=species:S:1:pos:R:3 trial_index=40 seed_entry_id=35 discovered_entry_id=36 energy=-483.5937805175781 status=accepted pbc="F F F"
C        4.31178842      -3.18184414      -1.40426309
C        1.49955686      -0.22828416      -1.98430826
C        2.26950037       1.54448042       2.62639097
C        0.46127958      -1.28068564      -2.15346722
C       -5.55428825       1.94649640      -0.60315973
C        2.28695427      -1.53045644      -0.28025441
C       -1.01977896      -1.80335086       2.24618134
C        4.63601582      -0.85020549       1.20867156
C       -2.48583165      -0.77640349      -4.36050771
C        0.22016206      -2.11340896       0.16995628
C        0.91276029       0.79655276       6.73554097
C        0.28336331       3.90899903      -1.53125756
C        3.06188233      -3.43256804      -1.69816892
C       -1.93464428       4.79856875      -0.56673694
C        0.54552519       3.24956606      -2.80562621
C        1.31665818      -0.83696954       2.00277793
C        1.51474309       2.36713756      -2.16205332
C       -2.74160179      -2.10365874      -1.00691170
C       -4.95738920      -0.18048119      -1.80842169
C        2.49790907      -0.40324596      -1.03022269
C       -3.61983959       1.19206693      -4.28497245
C       -2.96454358      -1.62972694      -2.28364671
C       -2.30892781      -1.92894575       4.28150155
C        0.15217030      -0.65376580       4.16967627
C       -1.77331589      -1.41897027       5.33228663
C        0.15542689      -1.06657344       2.87165879
C       -4.07467143      -0.75670508      -2.67322864
C        5.17876487      -1.63135966       0.31318976
C       -2.16677570      -2.29714639       0.07647476
C        2.06106501       2.33928047       1.50684199
C       -0.42673604       0.03012684      -4.01838008
C        0.60088762      -2.40446835      -1.22918043
C       -0.54161966      -0.71190997       5.38477919
C       -1.48599685       2.60895717      -4.31145664
C        2.43295128       0.06779800       2.26132199
C       -1.93622412      -1.51583032      -3.27642067
C       -2.11857322      -2.10944929       3.00285148
C        0.00962020      -0.04994465       6.50266147
C        1.85439091       1.64156401       6.38493587
C        2.27478010       1.93550399       5.17880148
C        5.10349594      -2.47763988      -0.64166952
C       -1.01753835      -2.12932485       0.83916081
C        1.75163191       2.75438246       0.38342024
C        1.33747043      -1.54124788       0.79637108
C        2.03948007      -2.71362544      -1.15345664
C       -3.70088818      -0.14615557      -3.93946446
C        0.29904123       1.13634813      -3.61297953
C        1.27861955       1.04172492      -2.61908853
C        2.37407123       1.92215448       3.92585098
C       -2.26967866       1.51453869      -4.64954432
C       -0.77941069       4.53859366      -0.99937672
C        1.37476221       3.03743492      -0.90300273
C       -0.26354195       2.46145539      -3.72242469
C       -5.13969226       3.08749685      -0.24105539
C       -0.55518893      -1.08729328      -3.13130527
C        3.67500672      -0.27445516       1.79858551
C       -1.59608409       0.22744821      -4.76176786
C       -3.17797893       4.64713253      -0.23289219
C       -5.47275103       0.77827822      -1.17386566
C       -4.29124100       4.05319221      -0.11035344
