60
Properties=species:S:1:pos:R:3 trial_index=17 seed_entry_id=14 discovered_entry_id=15 energy=-479.9150695800781 status=accepted pbc="F F F"
C        4.32931273      -3.24595198       0.39120121
C        2.31519774      -0.56094178      -0.42666083
C        0.01894217       2.77065590       1.98895159
C        2.34379651      -0.27694272      -2.85083688
C       -4.15327599       2.04261941       2.51914841
C        1.31140571       1.09828593       1.13385429
C       -1.07355833      -2.52374708       3.54224253
C        7.46743782      -5.50352537       0.07282189
C       -1.63212585       1.14038449      -3.73227270
C        1.06381952      -1.83581718       1.33868916
C       -1.87083739       1.78042506       2.78479419
C       -0.11098049       3.75286719      -0.69902631
C        3.31103286      -2.53474806       0.49313327
C       -2.57011962       4.07416196      -0.15082576
C        0.64764677       3.02764822      -2.94436796
C        0.27670766      -0.92888664       2.10755250
C        1.28646203       1.85294926      -2.49000581
C       -1.40761207      -2.39982977      -0.89098700
C       -2.12591101      -1.17952901      -0.44547831
C        1.74540680       0.70281040      -0.16243913
C       -2.57126992       1.80923113      -2.82463522
C       -1.41224232      -1.96734098      -2.28482079
C       -3.11664507      -2.20858103       4.46796615
C       -2.22488564      -0.89251164       2.12612562
C       -3.67774605      -1.10958708       4.11470313
C       -0.95618192      -1.46067875       2.68291743
C       -2.09342085      -0.70070716      -1.89150303
C        6.42617422      -4.70260994       0.15076674
C       -0.56587844      -3.13786175      -0.09389998
C        1.01854834       2.48649060       1.08485022
C        0.57238542      -0.83485057      -4.99657379
C        2.72051292      -0.78062582      -1.75227111
C       -3.15998721      -0.29602736       3.13516968
C       -3.38071648       3.73639476      -1.32931242
C       -0.47701297       1.51636340       2.55544931
C       -0.10883175      -1.77691009      -4.42649856
C       -2.01740205      -2.95210365       4.33786138
C       -3.16132340       1.13531435       2.95892105
C       -2.16155358       3.06450671       2.25827379
C       -1.05325275       3.61435877       1.59982177
C        5.37186689      -4.04068539       0.28299631
C        0.32921822      -2.88612835       0.76034302
C        0.89906304       2.85888860      -0.26410180
C        0.41658375       0.46676637       2.05043179
C        2.33095958      -1.58646492       0.60594223
C       -2.22316349       0.43820021      -2.62968747
C        0.63953286       0.49368848      -4.47165152
C        1.53307063       0.73190975      -3.35484323
C       -1.20556796       4.00734747       0.22635526
C       -3.08154140       2.89240898      -2.33094396
C       -0.06207865       3.94717333      -2.08326403
C        1.44407648       1.80933798      -1.07375189
C        0.15650669       4.23604297      -3.42146508
C       -3.53270132       3.16737507       1.93331861
C       -0.78397117      -2.24874171      -3.43518704
C        8.62971804      -5.93604350      -0.20328893
C       -0.58818185       1.15914073      -4.50947532
C       -3.71689363       3.89781355       0.72562628
C       -2.39997884      -0.76777274       0.79179255
C       -4.53153876       3.92576759      -0.41695983
