60
Properties=species:S:1:pos:R:3 pbc="F F F"
C       -1.78167032      -3.52167391      -6.20182776
C        3.09175876       0.20454002      -1.07039974
C        0.81381557       2.65738324       2.36085478
C        3.72532239      -1.15706868       0.85981570
C       -3.60074217       0.63572581       0.47767187
C        2.45994015       1.41086774       1.11997573
C        0.38829422      -2.77863341       2.42053883
C        0.75595122      -0.59198352       3.93751706
C       -0.72211097       0.85363429      -3.61825414
C        0.39911979      -1.14233158       0.73000004
C       -2.87617501       2.23854722       1.93203664
C        0.60551768       3.68321372      -0.28578498
C       -1.77151260      -3.11994441      -4.95948617
C       -1.06384515       3.72590986      -1.85973966
C        0.82582642       2.65919207      -2.57076156
C        0.01338368       0.08899655       1.47569642
C        1.95951399       1.92324911      -2.07800501
C       -1.96394055      -2.45694250       0.85578737
C       -0.39006059      -3.89466585       3.04317761
C        3.14391850       1.36621331      -0.18559022
C       -1.95381640       0.69265776      -2.82889645
C       -1.17930589      -2.38217047      -1.28940575
C       -1.05088458      -2.74170793       2.96668035
C       -3.14688736      -0.56015694       0.99876367
C       -1.87549514      -1.97148484       2.17515752
C       -1.21251526       0.46348570       2.16752173
C       -2.28191442      -1.45154567      -1.16630997
C        2.51362623      -1.59947572       2.76761513
C       -0.83434492      -2.82203998       0.08450547
C        1.98955370       2.75047061       1.44464008
C        0.35906453      -1.44381968      -3.00192728
C        2.89122500      -0.94280549      -0.21556924
C       -2.19384522      -0.59612505       2.12077059
C       -1.43133231       3.00021645      -3.00684387
C        0.81641501       1.88454731       3.53091142
C       -0.61408696      -2.50204377      -2.64949997
C        1.23870325      -1.69807026       3.21342423
C       -3.89921820       1.67133494       1.41992470
C       -1.54390839       1.84382602       2.15821104
C       -0.46318475       2.71007677       1.67748475
C        3.62978981      -1.42595484       2.14601197
C        0.31849619      -2.50950123       0.93723779
C        1.88479380       3.31033079       0.13180131
C        1.37359112       0.52040175       1.06324272
C        1.59191616      -0.57035484       0.23143503
C       -2.45040850      -0.10173347      -1.69996622
C        1.44409184      -0.47815420      -2.96493445
C        2.24486265       0.49344027      -2.22687672
C       -0.59020078       3.27754607       0.39301040
C       -2.34557346       2.04076013      -2.55275553
C        0.34331013       3.67279340      -1.70438382
C        2.56076925       2.44797175      -0.85411092
C       -0.27221741       2.23865231      -3.43595970
C       -3.00430813       0.89413915      -0.77452374
C       -1.42044898      -2.75648165      -3.76054943
C        0.79169731       0.70890579       4.07699780
C        0.16575092      -0.23185510      -3.64253479
C       -1.62213501       3.18057236      -0.65524061
C       -2.83189791      -1.63728897       0.13598646
C       -2.55517406       2.19749454      -1.15917651
