60
Properties=species:S:1:pos:R:3 checkpoint_path=runs/20260728-direction-conditioned-checkpoint-shooting/output-v3/cases/plateau_accepted-seed44-balanced_refinement/proposal_trajectories/trial0001_proposal001_step002_proposal_relax.xyz pbc="F F F"
C       -0.75278521       2.58301338       1.96625640
C       -1.13641280      -0.47184267       2.14145798
C        1.50422956      -1.43172757       1.50785272
C        0.17971125       0.41294211      -3.84343771
C        1.53268872       2.26032462      -2.84714290
C        0.06965688       0.61856277       0.17040485
C        0.61294583       2.76594297       1.56703461
C        0.60103796       1.43181338       3.40958713
C        0.72367221      -2.82879197      -2.50389485
C       -1.10725399      -0.14245419      -4.01526581
C        2.59449462       0.26243381      -1.73883184
C        1.08497786      -3.18481644      -0.12315418
C       -1.81621515       2.26199913       1.05761085
C        0.26502450      -1.95146324      -3.58066093
C       -0.93800081      -3.04686234      -0.66064769
C        2.20357061       0.91311547       1.89430672
C       -0.77142650      -2.59354588       0.78536300
C       -2.06546741       1.54793220      -2.54446339
C       -0.81681015       2.21182940      -2.51375592
C       -1.69742472       1.10182391       3.84393523
C       -2.96171948      -0.72701731      -2.88389213
C       -3.44153997       0.67896289      -0.75804213
C        1.61055134       3.33343562      -1.90125579
C        1.20547984       3.06320940       0.32734072
C        2.46619336       2.45874052       0.05684883
C        2.69312382       1.16387074       0.58804472
C       -3.21211147      -0.48046550      -1.54227312
C        1.40503809       1.94587404       2.39648774
C       -2.66820587       1.73154367      -1.24907297
C       -0.30477972       0.15904494       1.26978519
C       -2.49837732      -0.99270294       0.52189881
C       -2.15371150       0.44190923       2.68225879
C        2.77931532       2.70959076      -1.29497659
C       -1.05289314      -1.56313047      -3.81908744
C        1.72439743      -0.35020021       2.46412620
C       -3.13930831       0.28470257       0.59161395
C        0.58485944       3.38336645      -0.90036563
C        2.62429623       1.59950170      -2.18683731
C        2.66131049       0.07023383      -0.30043693
C        2.09373645      -1.11411786       0.24807343
C       -0.69302946       1.92824116       3.26980610
C       -1.78056896       2.47250901      -0.38231321
C        0.59016308      -2.64536763       1.15162083
C        0.06563438      -0.46903707       4.62713584
C       -0.78000595      -0.75181644       5.73468470
C       -2.33314587      -1.24377385      -0.82686649
C        1.73841139      -1.99387876      -1.97761389
C       -1.63575808      -1.63979385       1.41711525
C        1.74042215      -2.09485010      -0.63351406
C       -2.24223845       0.40624998      -3.38179752
C        0.22354175      -3.57511461      -1.24236194
C       -1.18121276       0.19199113       4.78992972
C       -2.07276483      -1.93075640      -2.93521102
C        0.29763829       1.70710634      -3.23370593
C       -2.65332312       1.19175995       1.53711858
C        0.92806550       0.06590908       3.65648632
C       -1.69820684      -2.23177996      -1.53715049
C        2.03225514      -0.75622753      -2.58094875
C       -0.67622402       2.89732063      -1.24884100
C        1.04990457      -0.69165067      -3.60129908
