60
Properties=species:S:1:pos:R:3 system=runs/20260728-safe-lbfgs-strict-quench-200-production/output-c60-seed42 state_id=intermediate_accepted pbc="F F F"
C       -3.23862504       0.11973805      -1.42817296
C        0.75751029      -1.37535802      -3.53720703
C        0.04691295      -2.89728199       0.08747849
C        0.81748000       2.56987343       2.43761328
C       -1.40291260       1.80784987       3.19480851
C        1.04329038      -3.01109791      -2.33282875
C       -3.53569856      -0.39181824      -0.12152712
C       -3.22529538      -2.22139098      -1.48073260
C        3.03389294       0.02872994       1.66215741
C        1.57396496       3.23991314       1.43280719
C       -0.21325336      -0.45411349       3.03747082
C        2.70282166      -1.91049227       0.57878770
C       -2.50043645       1.32398054      -1.75886875
C        2.74818211       1.35874427       1.96457464
C        2.97774083      -0.14551887      -0.96655398
C       -2.31206802      -2.34278057       0.61777537
C        2.58061874      -1.38019965      -1.65172853
C       -0.43137357       3.66063289       0.13924248
C       -1.20903273       3.09667492       1.19219284
C       -2.02623893      -1.19199653      -3.12265734
C        1.79498690       3.37745796      -0.81273341
C       -0.18686137       3.08441322      -2.21798083
C       -2.78117888       1.56371519       2.87844958
C       -3.35255060       0.19715429       1.14268483
C       -2.88063104      -0.64184538       2.19620320
C       -1.97618226      -1.67881238       1.82452130
C        1.22338164       2.99792458      -2.01448651
C       -3.38911760      -1.81630569      -0.14672986
C       -1.01943030       3.25167136      -1.09434644
C        1.10471009      -3.06555843      -0.89445738
C        0.66125504       1.15688138      -3.22605272
C       -1.28050468      -0.06406728      -3.45833255
C       -2.61976438       0.17525151       3.31369021
C        2.68392593       2.40396337       1.03778602
C       -1.35280548      -2.91623486      -0.27300763
C       -0.49393610       2.00765056      -3.05856205
C       -3.07337839       1.54430223       1.46663480
C       -1.22287486       0.41565593       3.51971781
C       -0.59774211      -1.58173883       2.19996336
C        0.39710865      -2.28130469       1.38599055
C       -3.14668112      -1.03394710      -2.27423644
C       -2.14703511       2.37575398      -0.82418852
C        2.30766609      -2.35850037      -0.65380165
C       -0.02472462      -2.52542008      -3.12368211
C        0.14956512      -0.11874828      -3.60475717
C        1.71152118       1.68940896      -2.39681611
C        2.09551235      -0.78705416       2.39651066
C        1.89073512      -1.85332099      -2.79722975
C        1.76417957      -1.93571500       1.64220861
C        0.96973365       3.79286411       0.27626637
C        3.24775600      -0.57895943       0.40472278
C       -1.36413046      -2.40765967      -2.77438464
C        2.69488007       2.33476366      -0.38407270
C       -0.60378343       2.64616724       2.39627030
C       -1.65917300       1.21732396      -2.92948391
C       -1.95910798      -2.90550269      -1.58263535
C        2.62020918       1.21915344      -1.32124086
C        1.12283060       0.03796592       2.99858676
C       -2.33534852       2.40247022       0.62761491
C        1.55183944       1.39577706       2.79521843
