115
Lattice="13.75323 0.0 0.0 0.0 13.75323 0.0 0.0 0.0 23.89" Properties=species:S:1:pos:R:3 entry_id=18 rank=20 energy=-573.3621826171875 pbc="T T F"
Pd       0.00000000       0.00000000      10.00000000
Pd       2.75064538       0.00000000      10.00000000
Pd       5.50129076       0.00000000      10.00000000
Pd       8.25193614       0.00000000      10.00000000
Pd      11.00258152       0.00000000      10.00000000
Pd       0.00000000       2.75064538      10.00000000
Pd       2.75064538       2.75064538      10.00000000
Pd       5.50129076       2.75064538      10.00000000
Pd       8.25193614       2.75064538      10.00000000
Pd      11.00258152       2.75064538      10.00000000
Pd       0.00000000       5.50129076      10.00000000
Pd       2.75064538       5.50129076      10.00000000
Pd       5.50129076       5.50129076      10.00000000
Pd       8.25193614       5.50129076      10.00000000
Pd      11.00258152       5.50129076      10.00000000
Pd       0.00000000       8.25193614      10.00000000
Pd       2.75064538       8.25193614      10.00000000
Pd       5.50129076       8.25193614      10.00000000
Pd       8.25193614       8.25193614      10.00000000
Pd      11.00258152       8.25193614      10.00000000
Pd       0.00000000      11.00258152      10.00000000
Pd       2.75064538      11.00258152      10.00000000
Pd       5.50129076      11.00258152      10.00000000
Pd       8.25193614      11.00258152      10.00000000
Pd      11.00258152      11.00258152      10.00000000
Pd       1.33305437       1.38035701      12.05221797
Pd       4.08925664       1.38750338      11.98771029
Pd       6.82888190       1.38154444      11.99332965
Pd       9.57512057       1.39592898      11.89594876
Pd      12.38684272       1.37174114      11.92044161
Pd       1.37065655       4.09970544      12.00656864
Pd       4.10125007       4.12393621      12.00820233
Pd       6.82444734       4.12497179      12.00908219
Pd       9.56728621       4.13975942      11.94281254
Pd      12.36578195       4.13265160      11.93417299
Pd       1.37110082       6.89256210      11.94010419
Pd       4.13935064       6.87026939      11.96482277
Pd       6.87097415       6.85831372      11.95140951
Pd       9.64205429       6.82915781      11.94515418
Pd      12.39111484       6.85622887      11.94896407
Pd       1.35216595       9.69735034      11.99083951
Pd       4.11777592       9.66324146      11.95099537
Pd       6.89476706       9.64088005      11.95142944
Pd       9.64982872       9.59779534      11.89439304
Pd      12.42487279       9.60955999      11.94161946
Pd       1.35802606      12.41462245      12.04582394
Pd       4.10624816      12.40887780      12.00662317
Pd       6.86816975      12.39901143      11.97280504
Pd       9.63028672      12.36702810      11.91406436
Pd      12.41879361      12.34804731      11.97632258
Pd       0.01571630       0.02087820      14.02690826
Pd       2.77519283      13.74928770      14.09775785
Pd       5.52326500      13.68592780      14.01478525
Pd       8.20730071       0.06060897      13.99213466
Pd      11.03037808       0.07165229      13.95368803
Pd      13.55604474       2.76714320      14.09121219
Pd       2.57500370       2.78871936      14.13273207
Pd       5.41293131       2.68076014      13.94593050
Pd       8.19265025       2.73195706      13.96697223
Pd      10.87206146       2.71899966      13.94012928
Pd       0.06535879       5.46996241      13.96508585
Pd       2.73922121       5.56768268      13.98448277
Pd       5.49587383       5.62318300      13.95325432
Pd       8.23509718       5.43613319      14.02440545
Pd      11.04204403       5.40908080      13.91665071
Pd       0.03969496       8.26168595      13.88830867
Pd       2.75243573       8.28268210      14.00811935
Pd       5.47226013       8.34913746      13.97555663
Pd       8.23048835       8.22391895      13.85620357
Pd      11.01983887       8.20916246      14.04079879
Pd       0.05777885      11.01474784      14.09273738
Pd       2.75309950      10.99904840      14.08700191
Pd       5.53525546      11.00101532      13.90803977
Pd       8.26583671      10.97256329      13.93134199
Pd      11.07943750      10.99097581      13.97656916
Pd      12.57974172       6.63085725      16.07872577
Pd       9.42554977       9.48516466      16.09168588
Pd      13.71978480      12.16278933      16.66613621
Pd       1.59605223       6.89143377      16.29167083
Pd      12.35057225       9.51190341      16.13471985
Pd       9.27273070       1.33702769      16.12490119
Pd       4.28730396       1.24375051      15.97345336
Pd       6.91509817      10.68146730      16.34999413
Pd       4.39345773      12.17817320      15.99271383
Pd      10.00726103      12.59696582      16.98298703
Pd       0.60304055       4.23380991      16.51544741
Pd       3.81091358       4.73237095      16.41272154
Pd      10.83442539       3.45951533      16.74067589
Pd       1.79048861      10.30512098      16.80562520
Pd       6.52178241       7.06926712      16.29871712
Pd       6.91594280       0.05647978      16.57722704
Pd       9.72162792       6.62546620      16.06538568
Pd       7.07618898       3.55528335      16.42319879
Pd      12.44320281       1.00572940      16.70549951
Pd       3.86651083       8.47393213      16.56986533
O        8.81341357       3.04890382      17.17113513
O       10.82926707      10.78491881      16.20988154
O       11.91307675      12.99597410      17.40708342
O       10.80068771       1.66908533      17.51685716
O        9.61559149      12.46342397      14.68093018
O        3.69107127      10.46972267      16.86110497
O        0.35196343       0.20999865      15.99482469
O        3.05228024       2.87256615      16.11347070
O        7.98787479      12.21434806      16.94813853
O       13.65411518      10.38876145      17.43569317
O        4.64477096       6.57546348      16.78009036
O        2.12723462       5.26383891      17.25312733
O        7.73393600       5.40973515      16.11654245
O        8.28289050       7.92017224      15.94879372
O        5.44448177       4.15368401      15.44042652
O       12.84955672       2.98201111      16.11738885
O       11.12253371       5.28051683      16.05428096
O        0.07111615       8.16803420      15.94384062
O        6.06468279       1.79553147      16.82756541
O        5.84684905       8.98030893      16.04424948
