115
Lattice="13.75323 0.0 0.0 0.0 13.75323 0.0 0.0 0.0 23.89" Properties=species:S:1:pos:R:3 entry_id=30 rank=13 energy=-574.0902709960938 pbc="T T F"
Pd       0.00000000       0.00000000      10.00000000
Pd       2.75064538       0.00000000      10.00000000
Pd       5.50129076       0.00000000      10.00000000
Pd       8.25193614       0.00000000      10.00000000
Pd      11.00258152       0.00000000      10.00000000
Pd       0.00000000       2.75064538      10.00000000
Pd       2.75064538       2.75064538      10.00000000
Pd       5.50129076       2.75064538      10.00000000
Pd       8.25193614       2.75064538      10.00000000
Pd      11.00258152       2.75064538      10.00000000
Pd       0.00000000       5.50129076      10.00000000
Pd       2.75064538       5.50129076      10.00000000
Pd       5.50129076       5.50129076      10.00000000
Pd       8.25193614       5.50129076      10.00000000
Pd      11.00258152       5.50129076      10.00000000
Pd       0.00000000       8.25193614      10.00000000
Pd       2.75064538       8.25193614      10.00000000
Pd       5.50129076       8.25193614      10.00000000
Pd       8.25193614       8.25193614      10.00000000
Pd      11.00258152       8.25193614      10.00000000
Pd       0.00000000      11.00258152      10.00000000
Pd       2.75064538      11.00258152      10.00000000
Pd       5.50129076      11.00258152      10.00000000
Pd       8.25193614      11.00258152      10.00000000
Pd      11.00258152      11.00258152      10.00000000
Pd       1.33305437       1.38035701      12.05221797
Pd       4.08925664       1.38750338      11.98771029
Pd       6.82888190       1.38154444      11.99332965
Pd       9.57512057       1.39592898      11.89594876
Pd      12.38684272       1.37174114      11.92044161
Pd       1.37065655       4.09970544      12.00656864
Pd       4.10125007       4.12393621      12.00820233
Pd       6.82444734       4.12497179      12.00908219
Pd       9.56728621       4.13975942      11.94281254
Pd      12.36578195       4.13265160      11.93417299
Pd       1.37110082       6.89256210      11.94010419
Pd       4.13935064       6.87026939      11.96482277
Pd       6.87097415       6.85831372      11.95140951
Pd       9.64205429       6.82915781      11.94515418
Pd      12.39111484       6.85622887      11.94896407
Pd       1.35216595       9.69735034      11.99083951
Pd       4.11777592       9.66324146      11.95099537
Pd       6.89476706       9.64088005      11.95142944
Pd       9.64982872       9.59779534      11.89439304
Pd      12.42487279       9.60955999      11.94161946
Pd       1.35802606      12.41462245      12.04582394
Pd       4.10624816      12.40887780      12.00662317
Pd       6.86816975      12.39901143      11.97280504
Pd       9.63028672      12.36702810      11.91406436
Pd      12.41879361      12.34804731      11.97632258
Pd      13.66553734       0.04528915      14.08724943
Pd       2.61543964      13.71287558      14.06482264
Pd       5.35335496      13.70430604      14.03854417
Pd       8.25246606       2.71770337      14.00270411
Pd      10.99488047       0.02304761      13.85236700
Pd      13.63876768       2.77156264      14.06207626
Pd       2.64288382       2.81723128      14.10002340
Pd       5.46266863       2.76072642      14.03722631
Pd       8.24772783       5.44901467      14.00753523
Pd      10.93385913       2.70162336      13.86157577
Pd       0.04237911       5.52989099      13.97955947
Pd       2.73191326       5.61422829      13.99948815
Pd       5.50132742       5.59827324      13.99578630
Pd       8.29228388       8.24007906      13.90416125
Pd      11.05767899       5.39672268      13.92546166
Pd       0.02201144       8.26801377      13.97460690
Pd       2.78723978       8.33162289      13.95526331
Pd       5.50962066       8.34597736      13.96217901
Pd       8.24038929      10.98831876      13.96735615
Pd      11.05699613       8.18268914      14.05770632
Pd       0.00584083      11.03346426      13.98538806
Pd       2.78083687      11.02660744      13.98232498
Pd       5.52959620      11.03465422      13.93813785
Pd       8.15100583      13.69265510      13.97449688
Pd      11.00848567      10.98787613      13.92341318
Pd      12.53753162       6.41775006      16.31645319
Pd       9.58795283       9.76080496      16.04666705
Pd       1.04313454      12.61866446      16.42128366
Pd       1.52412259       7.29571327      16.03516165
Pd      12.33601711       9.46882794      16.30913174
Pd       8.76081930       1.32856677      16.35523618
Pd       3.32962234       1.10868172      16.36244943
Pd       6.78900463      10.81607338      16.40431011
Pd       4.17541910      12.12409907      16.08969984
Pd      11.33026899      13.09689747      16.59440387
Pd       0.85268957       4.45004335      16.50212965
Pd       3.89735313       4.92151505      16.42819878
Pd      11.03634264       3.06241291      16.48276162
Pd       2.00382920      10.14388780      16.41396152
Pd       6.75102923       7.19464264      16.27596172
Pd       6.36488250       0.08626712      16.57337042
Pd       9.83211965       6.57190300      16.09017603
Pd       7.37289879       3.68470232      16.59021513
Pd      13.42121232       1.17432225      16.98080045
Pd       4.03767924       8.42723141      16.64873631
O        7.21979932       1.93230538      17.37824799
O       11.08655254      11.08933880      16.02678509
O       13.08844393      13.03832524      17.57496085
O       11.44298236       1.29178665      17.25323663
O        9.75749717      13.61494290      15.48313499
O        3.78423546      10.34418608      17.11030367
O        1.62681351       0.62298620      17.14509117
O        2.77442676       3.22292775      16.12870163
O        7.37037351      12.38905569      17.27225532
O        0.18910831      10.79424322      16.00488729
O        4.88752177       6.61842946      16.80970697
O        2.20527256       5.71514021      17.14428935
O        7.89524614       5.51755924      16.13418660
O        8.55760467       8.07958102      16.03380142
O        5.55434180       4.17558735      15.58075824
O       13.35377765       2.99191776      16.10498145
O       11.09951850       5.02433216      16.00966739
O       13.51794839       7.98699198      16.91585683
O        5.13709725       1.35970125      15.63061136
O        5.95957628       9.02643541      15.99907666
