115
Lattice="13.75323 0.0 0.0 0.0 13.75323 0.0 0.0 0.0 23.89" Properties=species:S:1:pos:R:3 entry_id=32 rank=14 energy=-574.034423828125 pbc="T T F"
Pd       0.00000000       0.00000000      10.00000000
Pd       2.75064538       0.00000000      10.00000000
Pd       5.50129076       0.00000000      10.00000000
Pd       8.25193614       0.00000000      10.00000000
Pd      11.00258152       0.00000000      10.00000000
Pd       0.00000000       2.75064538      10.00000000
Pd       2.75064538       2.75064538      10.00000000
Pd       5.50129076       2.75064538      10.00000000
Pd       8.25193614       2.75064538      10.00000000
Pd      11.00258152       2.75064538      10.00000000
Pd       0.00000000       5.50129076      10.00000000
Pd       2.75064538       5.50129076      10.00000000
Pd       5.50129076       5.50129076      10.00000000
Pd       8.25193614       5.50129076      10.00000000
Pd      11.00258152       5.50129076      10.00000000
Pd       0.00000000       8.25193614      10.00000000
Pd       2.75064538       8.25193614      10.00000000
Pd       5.50129076       8.25193614      10.00000000
Pd       8.25193614       8.25193614      10.00000000
Pd      11.00258152       8.25193614      10.00000000
Pd       0.00000000      11.00258152      10.00000000
Pd       2.75064538      11.00258152      10.00000000
Pd       5.50129076      11.00258152      10.00000000
Pd       8.25193614      11.00258152      10.00000000
Pd      11.00258152      11.00258152      10.00000000
Pd       1.33305437       1.38035701      12.05221797
Pd       4.08925664       1.38750338      11.98771029
Pd       6.82888190       1.38154444      11.99332965
Pd       9.57512057       1.39592898      11.89594876
Pd      12.38684272       1.37174114      11.92044161
Pd       1.37065655       4.09970544      12.00656864
Pd       4.10125007       4.12393621      12.00820233
Pd       6.82444734       4.12497179      12.00908219
Pd       9.56728621       4.13975942      11.94281254
Pd      12.36578195       4.13265160      11.93417299
Pd       1.37110082       6.89256210      11.94010419
Pd       4.13935064       6.87026939      11.96482277
Pd       6.87097415       6.85831372      11.95140951
Pd       9.64205429       6.82915781      11.94515418
Pd      12.39111484       6.85622887      11.94896407
Pd       1.35216595       9.69735034      11.99083951
Pd       4.11777592       9.66324146      11.95099537
Pd       6.89476706       9.64088005      11.95142944
Pd       9.64982872       9.59779534      11.89439304
Pd      12.42487279       9.60955999      11.94161946
Pd       1.35802606      12.41462245      12.04582394
Pd       4.10624816      12.40887780      12.00662317
Pd       6.86816975      12.39901143      11.97280504
Pd       9.63028672      12.36702810      11.91406436
Pd      12.41879361      12.34804731      11.97632258
Pd      13.69848478       0.10264381      14.03589003
Pd       2.77083696       0.07616908      14.01024499
Pd       5.47849414      13.72842425      14.04238057
Pd       8.21661777       2.66876538      13.98352880
Pd      10.98522062      13.73517876      13.87456353
Pd      13.63166225       2.79918701      14.04757604
Pd       2.62970573       2.85457565      14.12038536
Pd       5.39591092       2.65948529      14.06783337
Pd       8.24336611       5.40093902      14.03789012
Pd      10.90989272       2.67378435      13.87103075
Pd       0.02185866       5.52005039      14.00727770
Pd       2.71002784       5.62168393      13.99050225
Pd       5.49911783       5.66766471      13.91604332
Pd       8.29690444       8.15533992      13.94105086
Pd      11.05033540       5.36441437      13.96177212
Pd       0.03114628       8.22738490      13.97911349
Pd       2.81228840       8.31884222      13.98436034
Pd       5.50140664       8.32406125      14.03950510
Pd       8.34248962      10.93987360      13.90211938
Pd      11.04342735       8.13486853      14.05925660
Pd       0.00790139      11.17232726      14.01660957
Pd       2.78091522      11.07723050      13.96545065
Pd       5.49095578      11.05598664      13.89825327
Pd       8.19049915      13.65988468      14.04910482
Pd      11.06168533      10.93568259      13.95866834
Pd      12.49078296       6.17335600      16.46179446
Pd       9.64478783       9.61632965      16.08231082
Pd       1.45833978      12.54068328      15.96385507
Pd       1.45247854       7.18507873      16.03646644
Pd      12.30225289       9.15923913      16.56372564
Pd       9.07601828       1.40945147      16.33854476
Pd       3.71880786       1.28125349      16.38017520
Pd       7.11860164      11.23437444      16.33181418
Pd       4.31152747      12.20030921      16.04602214
Pd      11.58284956      12.89937811      16.47209050
Pd       0.85304360       4.38613683      16.58775645
Pd       3.80270142       5.01903861      16.46526127
Pd      11.29843060       2.87255814      16.50981079
Pd       1.95634773       9.94779978      16.24286870
Pd       6.64153261       7.18360290      16.37772465
Pd       6.59693930       0.24623780      16.61826288
Pd       9.77891626       6.44620552      16.15478097
Pd       6.96413408       3.63550136      16.38098046
Pd      13.75152212       0.96442349      16.83977083
Pd       4.22474994       8.48361608      16.59356068
O        8.45971133       2.89910460      17.32616216
O       11.22606548      10.86237533      16.06311742
O       13.49165879      12.74990499      17.18521528
O       11.79755709       1.06323268      17.18468717
O        9.84297196      13.50119744      15.59645982
O        3.74593680      10.37397856      16.89122380
O        1.98470509       0.53413586      16.89124853
O        2.79695660       3.26753564      16.14987948
O        7.51060256      12.61419040      17.53902984
O        0.15470442       9.74418336      15.45836780
O        4.84919065       6.66489353      16.96019849
O        2.12025670       5.71407675      17.27231530
O        7.84594531       5.43276925      16.15162663
O        8.49499739       7.98617047      16.09667867
O        5.36612075       4.33982268      15.43888117
O       13.46822180       2.86148172      16.13150307
O       11.05951859       4.84913059      16.03701682
O       13.48696358       7.67135173      17.16658263
O        5.64657585       1.91390071      16.16716768
O        6.73647288       9.84753578      14.99182830
