115
Lattice="13.75323 0.0 0.0 0.0 13.75323 0.0 0.0 0.0 23.89" Properties=species:S:1:pos:R:3 entry_id=0 rank=35 energy=-568.36962890625 pbc="T T F"
Pd       0.00000000       0.00000000      10.00000000
Pd       2.75064538       0.00000000      10.00000000
Pd       5.50129076       0.00000000      10.00000000
Pd       8.25193614       0.00000000      10.00000000
Pd      11.00258152       0.00000000      10.00000000
Pd       0.00000000       2.75064538      10.00000000
Pd       2.75064538       2.75064538      10.00000000
Pd       5.50129076       2.75064538      10.00000000
Pd       8.25193614       2.75064538      10.00000000
Pd      11.00258152       2.75064538      10.00000000
Pd       0.00000000       5.50129076      10.00000000
Pd       2.75064538       5.50129076      10.00000000
Pd       5.50129076       5.50129076      10.00000000
Pd       8.25193614       5.50129076      10.00000000
Pd      11.00258152       5.50129076      10.00000000
Pd       0.00000000       8.25193614      10.00000000
Pd       2.75064538       8.25193614      10.00000000
Pd       5.50129076       8.25193614      10.00000000
Pd       8.25193614       8.25193614      10.00000000
Pd      11.00258152       8.25193614      10.00000000
Pd       0.00000000      11.00258152      10.00000000
Pd       2.75064538      11.00258152      10.00000000
Pd       5.50129076      11.00258152      10.00000000
Pd       8.25193614      11.00258152      10.00000000
Pd      11.00258152      11.00258152      10.00000000
Pd       1.33305437       1.38035701      12.05221797
Pd       4.08925664       1.38750338      11.98771029
Pd       6.82888190       1.38154444      11.99332965
Pd       9.57512057       1.39592898      11.89594876
Pd      12.38684272       1.37174114      11.92044161
Pd       1.37065655       4.09970544      12.00656864
Pd       4.10125007       4.12393621      12.00820233
Pd       6.82444734       4.12497179      12.00908219
Pd       9.56728621       4.13975942      11.94281254
Pd      12.36578195       4.13265160      11.93417299
Pd       1.37110082       6.89256210      11.94010419
Pd       4.13935064       6.87026939      11.96482277
Pd       6.87097415       6.85831372      11.95140951
Pd       9.64205429       6.82915781      11.94515418
Pd      12.39111484       6.85622887      11.94896407
Pd       1.35216595       9.69735034      11.99083951
Pd       4.11777592       9.66324146      11.95099537
Pd       6.89476706       9.64088005      11.95142944
Pd       9.64982872       9.59779534      11.89439304
Pd      12.42487279       9.60955999      11.94161946
Pd       1.35802606      12.41462245      12.04582394
Pd       4.10624816      12.40887780      12.00662317
Pd       6.86816975      12.39901143      11.97280504
Pd       9.63028672      12.36702810      11.91406436
Pd      12.41879361      12.34804731      11.97632258
Pd      13.67353478      13.72244018      14.12271795
Pd       2.72737664       0.12308663      14.15926316
Pd       5.56762274      13.60126784      14.03097653
Pd       8.31113651       0.10897759      14.01821479
Pd      10.99884464       0.07520952      13.76842901
Pd      13.57147753       2.74694999      13.98595777
Pd       2.62545232       2.87330135      14.11547054
Pd       5.40161553       2.67084254      14.14077750
Pd       8.19825428       2.74853750      13.97303045
Pd      10.87840047       2.72185075      13.87382211
Pd       0.01991507       5.52494502      13.94831761
Pd       2.72468721       5.57280493      14.00077904
Pd       5.45482562       5.48844535      14.05959750
Pd       8.28004536       5.48942325      14.03818955
Pd      11.00281535       5.40149630      13.97599872
Pd       0.04930535       8.32349824      13.97677455
Pd       2.75244029       8.28644344      13.88465385
Pd       5.49361826       8.26861862      13.94877090
Pd       8.39942640       8.22317558      13.82581847
Pd      11.08125456       8.19347134      13.93857976
Pd      13.58976930      10.96582452      14.49951384
Pd       2.73977411      11.07828743      14.00466409
Pd       5.55281864      10.91656143      13.94855996
Pd       8.34362837      11.01725133      13.92599517
Pd      11.03782955      10.87931242      13.83005747
Pd      12.43882576       6.59682107      16.10681267
Pd       8.74117355       9.62825482      16.23305442
Pd       2.03148004      12.73162929      16.63081588
Pd       1.42329143       7.00746012      16.24500714
Pd      11.88120285       9.39346255      16.29944186
Pd       8.31862068       1.38959996      16.93511402
Pd       4.98850560       0.39761334      17.14329181
Pd       5.65177802       9.65495051      17.05131955
Pd       4.39276344      11.78445839      16.13394553
Pd      10.86531455      12.42602895      15.90932520
Pd       0.85300316       4.27843892      16.29474214
Pd       3.89303681       4.40294699      16.30311310
Pd      11.16055534       3.15614398      16.54463985
Pd       2.99487968       9.50856021      16.26861633
Pd       7.25984892       7.15695542      16.87815492
Pd       6.97183734      11.98257181      16.16376311
Pd       9.73198202       6.99024166      15.98052625
Pd       7.45765426       3.74032993      16.41341785
Pd       1.06449326       1.47775392      16.03837423
Pd       4.09218747       7.08658147      15.90538355
O        9.24112403       3.12113273      17.09448225
O       10.39829214      10.53750698      16.84632705
O       12.86237506      12.54272824      15.65045507
O       11.39846242       1.29065540      17.22338732
O       10.35738593       0.44789286      17.12759317
O        5.25821623       7.65534363      17.37414830
O        4.37075047       1.04482509      15.18384762
O        2.38419296       1.64729858      17.52441705
O        8.88486299      12.46900439      15.43452608
O        1.54103118      10.98686130      15.78623942
O        3.01285488       0.39568323      17.68357489
O        2.31839106       5.37288627      16.99768895
O        6.97086658       5.60177075      15.66524932
O        7.54565508       8.90557808      17.78073600
O        5.53461458       3.35619214      16.06155693
O       13.14770823       2.97540971      16.00707325
O       11.04149287       5.17904247      16.06161653
O       13.55095812       8.25330993      16.06154725
O        6.93173723       0.04088594      17.13081422
O        7.07130892       8.66469869      15.26566310
