115
Lattice="13.75323 0.0 0.0 0.0 13.75323 0.0 0.0 0.0 23.89" Properties=species:S:1:pos:R:3 entry_id=35 rank=10 energy=-574.287353515625 pbc="T T F"
Pd       0.00000000       0.00000000      10.00000000
Pd       2.75064538       0.00000000      10.00000000
Pd       5.50129076       0.00000000      10.00000000
Pd       8.25193614       0.00000000      10.00000000
Pd      11.00258152       0.00000000      10.00000000
Pd       0.00000000       2.75064538      10.00000000
Pd       2.75064538       2.75064538      10.00000000
Pd       5.50129076       2.75064538      10.00000000
Pd       8.25193614       2.75064538      10.00000000
Pd      11.00258152       2.75064538      10.00000000
Pd       0.00000000       5.50129076      10.00000000
Pd       2.75064538       5.50129076      10.00000000
Pd       5.50129076       5.50129076      10.00000000
Pd       8.25193614       5.50129076      10.00000000
Pd      11.00258152       5.50129076      10.00000000
Pd       0.00000000       8.25193614      10.00000000
Pd       2.75064538       8.25193614      10.00000000
Pd       5.50129076       8.25193614      10.00000000
Pd       8.25193614       8.25193614      10.00000000
Pd      11.00258152       8.25193614      10.00000000
Pd       0.00000000      11.00258152      10.00000000
Pd       2.75064538      11.00258152      10.00000000
Pd       5.50129076      11.00258152      10.00000000
Pd       8.25193614      11.00258152      10.00000000
Pd      11.00258152      11.00258152      10.00000000
Pd       1.33305437       1.38035701      12.05221797
Pd       4.08925664       1.38750338      11.98771029
Pd       6.82888190       1.38154444      11.99332965
Pd       9.57512057       1.39592898      11.89594876
Pd      12.38684272       1.37174114      11.92044161
Pd       1.37065655       4.09970544      12.00656864
Pd       4.10125007       4.12393621      12.00820233
Pd       6.82444734       4.12497179      12.00908219
Pd       9.56728621       4.13975942      11.94281254
Pd      12.36578195       4.13265160      11.93417299
Pd       1.37110082       6.89256210      11.94010419
Pd       4.13935064       6.87026939      11.96482277
Pd       6.87097415       6.85831372      11.95140951
Pd       9.64205429       6.82915781      11.94515418
Pd      12.39111484       6.85622887      11.94896407
Pd       1.35216595       9.69735034      11.99083951
Pd       4.11777592       9.66324146      11.95099537
Pd       6.89476706       9.64088005      11.95142944
Pd       9.64982872       9.59779534      11.89439304
Pd      12.42487279       9.60955999      11.94161946
Pd       1.35802606      12.41462245      12.04582394
Pd       4.10624816      12.40887780      12.00662317
Pd       6.86816975      12.39901143      11.97280504
Pd       9.63028672      12.36702810      11.91406436
Pd      12.41879361      12.34804731      11.97632258
Pd      13.65305902       0.11701960      14.05397511
Pd       2.67764175       0.02995601      13.99811214
Pd       5.40427253      13.75160282      14.05373794
Pd       8.25406910       2.67216930      13.95173915
Pd      10.95251908      13.70911206      13.88598896
Pd      13.64392654       2.80926042      14.06521329
Pd       2.67052446       2.83349690      14.09256668
Pd       5.49783615       2.79692656      14.04379363
Pd       8.25540798       5.42857852      13.96279836
Pd      10.93711719       2.66046476      13.88793745
Pd       0.02517862       5.52607428      13.99984690
Pd       2.73547616       5.60180155      13.99975388
Pd       5.52331553       5.62772212      14.01196111
Pd       8.31116995       8.16097795      13.90853566
Pd      11.04074999       5.36964394      13.95163274
Pd       0.05128866       8.22535745      13.98455196
Pd       2.84136700       8.31263101      13.97749910
Pd       5.54359042       8.30599300      14.08508338
Pd       8.32064022      10.93130691      13.92378204
Pd      11.05893475       8.12083064      14.09817553
Pd       0.00218395      11.19012305      14.02133981
Pd       2.76320565      11.06818759      13.97741285
Pd       5.46729591      11.05874156      13.89762631
Pd       8.14734439      13.66139737      14.01854146
Pd      11.05627730      10.91478210      13.95476912
Pd      12.53416623       6.25821628      16.44819712
Pd       9.64585114       9.63583479      16.08462762
Pd       1.36280213      12.55250516      16.04190746
Pd       1.51782819       7.15033918      16.02942949
Pd      12.33807328       9.16012570      16.58703049
Pd       9.10322244       1.32640922      16.20515847
Pd       3.49942455       1.09786441      16.35425909
Pd       7.14821918      11.26729469      16.40823236
Pd       4.25991742      12.14071902      16.07956303
Pd      11.48483551      12.88484970      16.49011388
Pd       0.85451648       4.33690246      16.51424007
Pd       3.96225495       4.89250159      16.43985198
Pd      11.22169135       3.02985049      16.58078167
Pd       1.95147177       9.93380598      16.24285854
Pd       6.65675410       7.17596417      16.41596646
Pd       6.54707763       0.19428034      16.58611001
Pd       9.68595096       6.49299270      16.12525697
Pd       7.59471272       3.85613950      16.29858725
Pd      13.58541400       0.98800721      16.87401156
Pd       4.19889875       8.39773819      16.59463596
O        9.22981165       3.06634106      17.08499127
O       11.23457423      10.84749168      16.07673171
O       13.35949015      12.77636603      17.23295195
O       11.62513222       1.10990837      17.20561094
O        9.72721779      13.31895797      15.56881315
O        3.74356758      10.29900512      16.90627127
O        1.79075232       0.52663030      17.06390742
O        2.88738022       3.16630216      16.11282066
O        7.51880129      12.67494994      17.60937081
O        0.15748505       9.75232454      15.44505709
O        4.88441769       6.59131042      16.98396186
O        2.22082665       5.58907361      17.13282909
O        7.95753199       5.69204656      17.03973402
O        8.44673973       8.05068898      16.02705300
O        5.72169234       4.23901180      15.58823036
O       13.29022254       2.89320960      16.15245163
O       11.06917738       4.99138816      16.02867108
O       13.57923296       7.70494667      17.18416658
O        5.31553899       1.44960086      15.67404099
O        6.71700849       9.93017422      15.03365080
