115
Lattice="13.75323 0.0 0.0 0.0 13.75323 0.0 0.0 0.0 23.89" Properties=species:S:1:pos:R:3 entry_id=14 rank=26 energy=-572.712158203125 pbc="T T F"
Pd       0.00000000       0.00000000      10.00000000
Pd       2.75064538       0.00000000      10.00000000
Pd       5.50129076       0.00000000      10.00000000
Pd       8.25193614       0.00000000      10.00000000
Pd      11.00258152       0.00000000      10.00000000
Pd       0.00000000       2.75064538      10.00000000
Pd       2.75064538       2.75064538      10.00000000
Pd       5.50129076       2.75064538      10.00000000
Pd       8.25193614       2.75064538      10.00000000
Pd      11.00258152       2.75064538      10.00000000
Pd       0.00000000       5.50129076      10.00000000
Pd       2.75064538       5.50129076      10.00000000
Pd       5.50129076       5.50129076      10.00000000
Pd       8.25193614       5.50129076      10.00000000
Pd      11.00258152       5.50129076      10.00000000
Pd       0.00000000       8.25193614      10.00000000
Pd       2.75064538       8.25193614      10.00000000
Pd       5.50129076       8.25193614      10.00000000
Pd       8.25193614       8.25193614      10.00000000
Pd      11.00258152       8.25193614      10.00000000
Pd       0.00000000      11.00258152      10.00000000
Pd       2.75064538      11.00258152      10.00000000
Pd       5.50129076      11.00258152      10.00000000
Pd       8.25193614      11.00258152      10.00000000
Pd      11.00258152      11.00258152      10.00000000
Pd       1.33305437       1.38035701      12.05221797
Pd       4.08925664       1.38750338      11.98771029
Pd       6.82888190       1.38154444      11.99332965
Pd       9.57512057       1.39592898      11.89594876
Pd      12.38684272       1.37174114      11.92044161
Pd       1.37065655       4.09970544      12.00656864
Pd       4.10125007       4.12393621      12.00820233
Pd       6.82444734       4.12497179      12.00908219
Pd       9.56728621       4.13975942      11.94281254
Pd      12.36578195       4.13265160      11.93417299
Pd       1.37110082       6.89256210      11.94010419
Pd       4.13935064       6.87026939      11.96482277
Pd       6.87097415       6.85831372      11.95140951
Pd       9.64205429       6.82915781      11.94515418
Pd      12.39111484       6.85622887      11.94896407
Pd       1.35216595       9.69735034      11.99083951
Pd       4.11777592       9.66324146      11.95099537
Pd       6.89476706       9.64088005      11.95142944
Pd       9.64982872       9.59779534      11.89439304
Pd      12.42487279       9.60955999      11.94161946
Pd       1.35802606      12.41462245      12.04582394
Pd       4.10624816      12.40887780      12.00662317
Pd       6.86816975      12.39901143      11.97280504
Pd       9.63028672      12.36702810      11.91406436
Pd      12.41879361      12.34804731      11.97632258
Pd      13.69849616      13.70539796      14.06400297
Pd       2.72990964       0.08720783      14.04154895
Pd       5.48209880       0.04273914      13.96797556
Pd       8.24321238       0.04387572      13.91678967
Pd      11.00802199      13.72395005      13.86935990
Pd      13.66168151       2.72503836      13.99475186
Pd       2.66138856       2.88323269      14.12300754
Pd       5.36748647       2.70650286      14.04335377
Pd       8.18719995       2.72256690      13.99950447
Pd      10.89874637       2.66252299      13.89427653
Pd       0.01010795       5.51360047      13.95207313
Pd       2.68816915       5.62638725      13.97094351
Pd       5.46119131       5.62571541      14.07161982
Pd       8.26728413       5.44737786      13.97416736
Pd      11.02660955       5.35852098      13.95895383
Pd       0.01318551       8.22148080      14.00685131
Pd       2.75245974       8.32882200      13.93460460
Pd       5.55513996       8.35943314      13.91140163
Pd       8.33683236       8.29809913      13.92459841
Pd      11.04593580       8.11379603      14.08134057
Pd       0.02031091      10.94392646      14.06556713
Pd       2.82159802      11.02575076      13.99928984
Pd       5.54105834      11.04769204      13.89785947
Pd       8.31372344      11.08393701      14.05369267
Pd      11.03986394      10.91582129      13.92762018
Pd      12.49920947       6.29264410      16.29649216
Pd       9.62819904       9.45702314      16.17322402
Pd       1.55227121      12.00362937      16.12690757
Pd       1.61836636       7.84073803      16.43238730
Pd      12.38302904       9.40369637      16.24880747
Pd       9.26395149       1.42176072      16.31758956
Pd       3.97459406       1.22398473      16.34609362
Pd       6.86786902      10.34422511      16.19472314
Pd       4.50514015      12.37970473      15.99646497
Pd      11.80495711      12.93859474      16.51038426
Pd       0.94602053       4.54067969      16.35333302
Pd       3.65290196       4.94412393      16.36038383
Pd      11.53292585       2.84881511      16.51051095
Pd       3.32379638      10.04010868      16.64896478
Pd       6.98735064       6.89179391      16.02660787
Pd       6.87075961       0.02085136      16.32102584
Pd       9.85031537       6.30981560      16.35969151
Pd       6.93800225       3.41485402      16.47327943
Pd       0.29276739       0.94844717      16.70539316
Pd       4.19621120       7.51783961      16.09814361
O        8.52507923       2.81084742      17.35296698
O       11.13890892      10.94813091      15.98399930
O       13.72522193      12.76096187      17.21181861
O       12.13104694       1.09494283      17.23953782
O       10.11571239      13.53457024      15.68362554
O        5.06151512      10.82810360      17.13817093
O        2.15793277       0.30374942      16.02011827
O        2.84081108       2.21325333      17.89170994
O        7.79200779      12.05896352      15.99365884
O        1.37114939       9.94013407      16.38602586
O        1.70533885       1.73480649      18.28572975
O        2.09568362       5.95221241      17.05155930
O        7.94830324       5.16209395      16.04036410
O        8.72560801       7.84034547      16.84787096
O        5.28957355       4.13937704      15.56696407
O       13.67833935       2.89707515      16.03675366
O       11.17153218       4.80225066      15.99466789
O       13.38941754       7.87498545      16.96705171
O        5.88638983       1.67321702      16.83216440
O        5.98719978       8.55060909      16.04555259
