60
Properties=species:S:1:pos:R:3 system=runs/20260728-safe-lbfgs-strict-quench-200-production/output-c60-seed42 state_id=intermediate_accepted pbc="F F F"
C       -0.61582532       1.41731756       2.92924352
C       -0.44742732      -3.19048718       1.75936365
C        2.61139318      -0.97434905       0.46056834
C       -1.17638308       1.97817478      -3.13422418
C       -0.05169125       3.69799596      -1.76959797
C        1.54572542      -3.22395122       1.27376003
C        0.45554538       2.25763287       2.47831821
C        1.43267300       0.52004131       3.62512078
C        0.61594111      -0.95393477      -3.53679773
C       -2.26864304       1.07092727      -3.25289148
C        1.82482050       1.95915203      -1.88756699
C        1.84665750      -2.11973778      -2.06344313
C       -1.86926786       1.14415347       2.25161787
C       -0.41010193      -0.08274983      -3.89770333
C       -0.44378223      -2.63812124      -1.80971219
C        2.46954115       1.17521648       1.68943276
C        0.34984979      -3.25116804      -0.73972458
C       -3.14991478       1.78012868      -1.10979573
C       -2.12837857       2.77129285      -1.03650382
C       -0.29323547      -0.96093752       3.48032052
C       -3.43959990      -0.44715350      -2.05661334
C       -3.74331234      -0.08560024       0.34513538
C        0.08020802       4.35122347      -0.49867143
C        0.51175458       3.14606686       1.38962059
C        1.72129240       3.18249673       0.63282389
C        2.42594944       1.95053606       0.50326364
C       -3.63300747      -0.95276127      -0.78320959
C        1.69835114       1.62160163       2.79731645
C       -3.33417779       1.25488270       0.20376819
C        2.25787240      -2.37890133       0.34957329
C       -2.54162761      -2.00520858       0.91088737
C       -1.48140526      -1.27055422       2.82157695
C        1.50368877       4.00886605      -0.48717306
C       -1.76179235      -0.24287351      -3.57554172
C        2.52216698      -0.25259250       1.71016514
C       -3.16623718      -0.79939416       1.40293283
C       -0.54323225       3.65259212       0.59761495
C        1.32316546       3.27170838      -1.70196177
C        2.45315013       1.28110854      -0.76226796
C        2.65253389      -0.16862357      -0.77980677
C        0.01047741       0.39897511       3.72125388
C       -2.38332011       1.87708097       1.10931831
C        1.69038467      -2.79212179      -0.87989733
C        0.79719368      -2.81547721       2.40330319
C       -1.56422168      -2.35997539       1.88560679
C       -2.67367515      -2.00524641      -0.52337388
C        1.72073296      -0.14591469      -3.07603127
C        0.26750392      -3.67347950       0.61159659
C        2.40330076      -0.81515619      -2.03436668
C       -3.26659421       0.95651792      -2.25324244
C        0.56265852      -2.11599102      -2.73515393
C        0.91447325      -1.63779405       3.13028711
C       -2.35896724      -1.17292367      -2.67843604
C       -1.19936997       2.95317246      -2.09658808
C       -2.35457855      -0.20950062       2.39902888
C        1.93362669      -0.66063739       2.96416449
C       -1.80007311      -2.11932369      -1.71932562
C        1.31163551       1.20062143      -2.97842482
C       -1.72523693       2.93184392       0.33495235
C       -0.00476323       1.27341637      -3.55363754
