60
Properties=species:S:1:pos:R:3 input=/mnt/d/download/trae-research-code/ssw/runs/20260428-c60-mace-production/prerelaxed_c60.xyz system=c60 pbc="F F F"
C        0.42272890      -4.33235386       0.01540458
C       -0.07975218      -1.72485017      -2.83906032
C        2.43417707       2.04375637      -1.69848224
C        0.52093805      -3.90078682      -1.34495824
C       -0.61832305       3.17092018       2.29791956
C        1.79245056      -0.09161805      -2.54983944
C        1.32266236      -2.33268392       2.55370529
C        4.02478667      -0.34827569       0.69025703
C       -3.70538794       0.71582028      -1.17570658
C        1.35490203      -1.30872251       0.49879335
C        1.33229966       3.67862446       1.32452436
C       -0.07233104       2.64738965      -2.93616991
C       -0.33639641      -3.66114965       1.02772498
C       -2.04242888       3.49235168      -2.20263082
C       -2.14988693       1.36441232      -3.09459987
C        1.45692938       0.12546249       0.11588304
C       -1.34273929       0.21488952      -3.35197615
C       -0.39363692      -1.42352764       3.90673561
C       -0.47564833      -0.02832558       3.82119975
C        0.76948044      -0.69418881      -3.35811970
C       -3.40042104       1.40478781       0.09317817
C       -1.93572105      -1.39892643       1.96382996
C        1.03051249      -1.36077142       3.53704315
C       -0.41361064       1.79756296       2.60701125
C        0.85822605       0.04251166       3.29009959
C        1.44000573       1.27500361       0.97368545
C       -2.20935534       0.03998362       2.09566849
C        3.46276132      -1.23086350       1.40902399
C       -0.98029640      -2.05373390       2.76982264
C        1.91275212       1.29808067      -2.81055229
C       -2.78350155      -1.62389710      -0.48222089
C        0.47082686      -2.56010024      -1.77103846
C        0.84804285       1.10017809       2.30441430
C       -3.20734656       2.87804204      -1.71315525
C        3.50425585       1.48949565      -0.96893492
C       -2.27942930      -2.15032496       0.74893325
C        2.19633685      -1.82264608       1.52907790
C        0.55460431       4.06082215       2.24081510
C        1.52567836       2.62517580       0.44947390
C        1.42202011       2.77156426      -0.98869919
C        0.91635782      -5.18930198      -0.95735258
C        0.02829701      -2.88225013       2.18787242
C        0.69828417       1.62748908      -3.47365131
C        1.60622768      -0.41236949      -1.21065529
C        1.11746915      -1.69806168      -0.86998292
C       -2.89609209       0.73771813       1.14541459
C       -2.40489711      -1.39805816      -1.83509626
C       -1.39944726      -1.10758719      -2.77594345
C        0.18435545       3.15437500      -1.62899269
C       -3.10743062       2.77516196      -0.31237438
C       -1.47182533       2.62890410      -3.16187778
C       -0.00290516       0.42094453      -3.77869521
C       -3.29583819       1.55345686      -2.24423160
C       -1.56047843       3.41411713       1.39436755
C       -1.56744431      -3.30453203       0.56769969
C        4.06051828       0.66711208      -0.18854956
C       -3.40806661      -0.63514362      -1.21662139
C       -1.10239964       3.64059138      -1.13255003
C       -1.35135957       0.76488238       3.04546706
C       -1.87773504       3.41452374       0.10271073
