60
Properties=species:S:1:pos:R:3 input=/mnt/d/download/trae-research-code/ssw/runs/20260428-c60-mace-production/prerelaxed_c60.xyz system=c60 pbc="F F F"
C        1.77498092      -3.64512920      -0.31595847
C        1.32440066      -0.76503102      -2.88785254
C        2.40060709       2.43075172       0.34784653
C        2.26957308      -2.78989574      -1.35877662
C       -2.80188500       2.05644903       2.08576733
C        2.44612200       0.63332078      -1.21278478
C        1.14974496      -2.91072856       2.44747914
C        3.67114878      -0.77421571       1.33007263
C       -3.55461465      -0.37144417      -1.66294767
C        0.53525322      -1.38475638       0.59250103
C       -0.49649059       3.24521533       2.49683806
C        0.89307591       3.46619468      -1.82660057
C        0.41551593      -3.65909613       0.11174783
C       -1.25479953       4.06786831      -2.06372457
C       -0.63411507       2.38504489      -3.43125640
C        0.85190737       0.01824694       0.92586485
C        0.27962938       1.28429764      -3.44874486
C       -1.73344726      -2.41969366       2.87272845
C       -2.82238562      -1.60083424       3.02847363
C        2.17797871       0.33495107      -2.59377856
C       -4.62305997       3.26935828      -1.02800382
C       -2.03338085      -2.16464064       0.42760238
C        0.42354415      -3.19744931       3.65875876
C       -2.42640292       0.65484843       2.17465719
C       -0.81293039      -2.97867890       3.83594499
C        0.09940967       0.99922208       1.71822480
C       -3.06172507      -1.19411025       0.66174798
C        3.16537475      -2.05436534       1.20548166
C       -1.25431765      -2.54567483       1.53415723
C        2.60526483       2.02984282      -1.02928092
C       -1.59694519      -1.83366712      -2.03164826
C        1.34860324      -1.80461732      -1.88273817
C       -1.10256150       0.51312534       2.07766219
C       -2.44658060       3.40484185      -2.48327452
C        3.09977388       1.66873707       1.26165373
C       -1.51957096      -2.63335033      -0.87685378
C        2.42704296      -2.60604900       2.23973581
C       -1.78370327       3.07871924       2.29731572
C        0.35679352       2.45927493       1.73432471
C        1.08026546       2.96624567       0.58095280
C        2.80314887      -2.79957616       0.00664221
C        0.20243984      -2.67126434       1.24959612
C        1.92644823       2.59700821      -2.13393089
C        1.51036165       0.05492590      -0.35969031
C        0.90416944      -1.16531144      -0.71983815
C       -3.66928276      -0.59424819      -0.41342317
C       -1.13802910      -0.79661800      -2.85445815
C        0.05902052      -0.14933186      -3.26987171
C        0.35337472       3.54367405      -0.50192136
C       -3.30930348       3.35021494      -1.28804711
C       -0.15192880       3.56984899      -2.76504407
C        1.61044697       1.54981552      -3.05896325
C       -2.05138102       2.43779148      -3.39004011
C       -2.61380697       3.05256038       1.13327911
C       -0.54452501      -3.61186352      -0.81665562
C        3.63661143       0.50044252       1.45633348
C       -2.46494767      -0.77048546      -2.38423476
C       -1.06053703       3.85844538      -0.67068911
C       -3.11000801      -0.67424260       2.07203128
C       -2.33244584       3.44623826      -0.16943974
