60
Properties=species:S:1:pos:R:3 trial_index=2 seed_entry_id=1 discovered_entry_id=2 energy=-481.3058776855469 status=accepted pbc="F F F"
C       -0.64291983      -4.56341732      -1.75651019
C        0.03016581       2.63280137      -3.17979477
C        2.96415938       0.52547539      -0.11537329
C       -1.54663173       0.44359086      -3.65135515
C       -0.26369958       0.46403810       3.29238379
C        1.49157236       1.00516733      -1.99176989
C       -0.63933215      -3.39002565       1.01776948
C        2.40678646      -3.25476043      -0.38649349
C       -3.68192208       1.91194880      -0.67628395
C       -0.67358368      -1.68814036      -0.59730321
C       -0.04014662      -0.36661446       4.33070617
C        2.67387819       3.45317823      -0.30436075
C       -1.71555340      -3.71663506      -1.47234843
C        0.71424402       4.34187535       0.46859372
C        1.34920375       5.06003655      -1.60938633
C        0.00621685      -0.57009843      -0.34783966
C        1.59438314       4.34830064      -2.79626183
C       -1.22155348      -2.84007407       2.11806376
C       -2.22749805      -1.97100759       1.76753485
C        1.28654689       2.12969869      -2.82221872
C       -2.56173422       2.61995411      -0.09960629
C       -3.34228476      -1.11452539      -0.07903892
C        1.24728441      -4.02592540       2.27851185
C       -0.83849634      -0.08324977       2.05066974
C        1.19516564      -3.58463148       3.46842504
C        0.16556185      -0.02733213       1.03850958
C       -2.93865278      -0.01092950       0.74548025
C        1.36434001      -4.12156389      -0.28048077
C       -2.64102912      -2.23552677       0.44175600
C        2.72052719       1.27118772      -1.31649702
C       -3.96747481      -1.12289293      -1.37808148
C       -0.89267156       1.60963071      -3.32750707
C        0.86978377      -2.70391232       4.36543961
C       -0.47940938       4.23377997      -0.36900881
C        3.08294607      -0.82537264      -0.12354566
C       -3.65643251      -2.30829471      -2.08520173
C        0.66730073      -3.98659138       1.02927507
C        0.37948627      -1.53945142       4.61671884
C        1.18106189       0.80047066       1.56168847
C        2.30221299       1.32747801       0.90131270
C        0.52583206      -4.62642954      -1.28913832
C       -1.42824485      -2.84638113      -0.24049759
C        2.95690336       2.70738400      -1.45585483
C        0.37673443       0.16729887      -1.65362339
C       -0.64505905       0.34720971      -2.59972077
C       -3.01573589       1.31966855       0.37555895
C       -4.56648109       0.05739952      -1.79732931
C        0.14080643       4.04786597      -2.94217886
C        2.25658294       2.72452721       0.84806959
C       -1.60970558       3.51254845      -0.15112357
C        1.82829238       4.58628020      -0.38561492
C        2.25252772       3.11523818      -2.61313972
C       -0.05053398       4.73122256      -1.68792344
C        0.59288842       1.51181059       2.71278309
C       -2.84968815      -3.27077826      -2.14377876
C        2.92521439      -2.08911550      -0.26264544
C       -4.50158057       1.31080439      -1.58413669
C        1.14351257       3.40931099       1.49227699
C       -2.13803405      -0.57451715       1.81391584
C        0.54750109       2.85115525       2.59318304
