60
Properties=species:S:1:pos:R:3 system=runs/20260728-safe-lbfgs-strict-quench-200-production/output-c60-seed42 state_id=intermediate_accepted pbc="F F F"
C       -1.86604811      -1.58689374      -1.09102217
C        1.87606654      -4.48708136       0.72664466
C       -0.50998726      -1.67659576       2.38024472
C       -0.48203422       4.05053444      -0.65343352
C       -2.78464434       3.27096002      -0.08954632
C        1.15255485      -3.61711837       2.46954008
C       -3.14441577      -1.22581490      -0.59190293
C       -2.59211539      -3.29651563       0.28698839
C        1.82039512       2.10336423       0.89961080
C        0.58188119       4.21365093      -1.60645965
C       -1.65310743       1.98476659       1.76130490
C        1.75810169      -0.20946955       1.31848581
C       -0.78716751      -0.78363141      -1.59693207
C        1.53514548       3.36104762       0.30480217
C        3.07172456       0.92027633      -0.77269364
C       -2.87167604      -1.56757012       1.72421290
C        2.64548101      -2.62695782       1.04247694
C       -0.49941748       2.60688296      -2.95555039
C       -1.73990412       2.73644854      -2.22553725
C       -0.31653138      -3.28744397      -0.30805076
C        1.91745215       3.02572126      -3.10379239
C        1.16395492       0.77181945      -2.96103689
C       -3.84955397       2.36177911      -0.42786410
C       -3.61368332       0.08940149      -0.40069924
C       -3.84963641       0.48460328       0.94196927
C       -2.95907188      -0.15154817       1.87024705
C        2.15386020       1.65765560      -3.44738807
C       -3.37027924      -2.12929502       0.51486823
C       -0.12501468       1.25597266      -2.81524504
C        0.81105851      -2.25122811       2.31514679
C        2.93601824       0.09716096      -1.89118987
C        0.85995462      -2.62685340      -0.70449830
C       -3.98251285       1.89014087       0.94637343
C        1.83604624       3.86957785      -0.97248307
C       -1.74003352      -2.34797965       2.12691706
C        1.61829084      -0.37028834      -2.20502961
C       -3.38624351       1.23202808      -1.19320695
C       -2.78865958       2.63677259       1.22461943
C       -1.76732189       0.57864612       2.16691989
C       -0.55676214      -0.22791674       2.34216828
C       -1.61079813      -2.86745165      -0.65498710
C       -1.11081789       0.50829644      -2.13797086
C        1.86164588      -1.59018023       1.61336494
C        0.61274414      -4.49364787       1.50712938
C        1.98362149      -3.22266420      -0.06321109
C        3.36647120       1.20449821      -2.78179485
C        0.73493008       1.78021816       1.76569462
C        2.50482329      -3.80539123       1.90973317
C        0.65394128       0.39905676       1.98005845
C        0.56730857       3.53501714      -2.87596247
C        2.40123063       0.87510401       0.47569799
C       -0.51829668      -4.03994926       0.86084901
C        2.66736077       3.23002581      -1.90855690
C       -1.77636441       3.58428044      -1.06093833
C        0.65717167      -1.25934594      -1.48598128
C       -1.77155293      -3.60245349       1.43641367
C        3.45189733       2.07783723      -1.60569151
C       -0.38638302       2.59823754       1.50945389
C       -2.24530063       1.40791594      -1.98448190
C        0.09482449       3.59189037       0.55936747
