60
Properties=species:S:1:pos:R:3 system=runs/20260728-safe-lbfgs-strict-quench-200-production/output-c60-seed42 state_id=intermediate_accepted pbc="F F F"
C       -2.90115531      -2.06254900       0.20286725
C        0.56260792      -1.89692709      -2.68603103
C        2.02918472      -1.91600371       0.97963838
C       -0.26032222       3.26361734       1.11388794
C       -1.39254415       2.43410591       3.07840882
C        2.24826109      -2.62112644      -1.65037560
C       -2.45141583      -1.73790304       1.52254216
C       -1.33938157      -3.71061960       0.94364046
C        3.06844893       2.62962785       0.16409222
C        0.15088463       4.68252944      -5.04739831
C        1.03530241       1.41120187       2.82622515
C        3.54788420       0.40925896       0.01178475
C       -3.20160024      -1.04311499      -0.79978124
C        1.91346519       3.45677994       0.01558350
C        2.20713432       1.08425656      -1.88760902
C       -0.09912222      -2.16316235       2.14841805
C        2.52378428      -0.31296766      -2.05138772
C       -2.65568207       2.45318266      -0.53759225
C       -2.35581578       2.20341277       0.75639922
C       -1.46767451      -3.35230708      -1.32149035
C       -0.65689300       3.19209810      -3.07745677
C       -2.84986651       1.19342774      -2.57744935
C       -2.28236609       1.36529399       3.32190132
C       -2.37521156      -0.72430574       2.50397149
C       -1.18196745      -0.62957661       3.38860096
C        0.07079153      -0.93802125       2.85307298
C       -1.49781730       1.90622832      -2.83098506
C       -1.38796760      -2.60121095       1.79871223
C       -3.31891590       1.40716733      -1.23317451
C        2.62280485      -1.96886050      -0.37994761
C       -1.33429639      -0.31327108      -3.29039248
C       -1.84855981      -2.36259922      -2.29948752
C       -1.15050373       0.65499827       3.87958143
C        1.18924968       3.67636337      -1.13357397
C        0.82797778      -2.72851271       1.27540707
C       -2.88288083      -0.26603427      -3.23763283
C       -3.00021767       0.53444515       2.37528128
C       -0.20215698       1.65519982       3.52981681
C        1.21608131       0.03290415       2.54551720
C        2.28521031      -0.43173254       1.71267477
C       -2.20458469      -3.31236704      -0.10931996
C       -3.45769622       0.28812887      -0.30350805
C        3.04827961      -0.68259808      -0.79165592
C        0.88847255      -3.01840508      -1.81096145
C       -0.80016257      -1.53989781      -2.83940461
C       -0.55364889       0.92271544      -3.02567444
C        3.40876365       2.24325018       1.72302492
C        1.97583650      -1.49295837      -2.65492106
C        3.31421850       0.68000249       1.39143702
C       -0.51339458       3.91288213      -4.27002787
C        3.07933108       1.55348216      -0.69410931
C       -0.07217353      -3.54609429      -0.95114036
C        0.61785136       2.98934017      -2.14653610
C       -1.40966020       2.85988769       1.68553554
C       -2.92741427      -1.39719217      -2.13283390
C        0.05942856      -3.74400473       0.49948977
C        0.92862296       1.58359985      -2.41624544
C        1.89627734       2.35362736       2.10816439
C       -3.13702805       0.97484384       1.04037238
C        1.09453785       3.14672442       1.20022112
