60
Properties=species:S:1:pos:R:3 checkpoint_path=runs/20260728-direction-conditioned-checkpoint-shooting/output-v3/cases/intermediate_accepted-seed43-balanced_refinement/proposal_trajectories/trial0001_proposal001_step003_proposal_relax.xyz pbc="F F F"
C       -2.57225932      -2.25225131       0.75022901
C        2.24913259      -2.92904856      -0.04927705
C        1.26187151       0.15519094       2.49583604
C       -0.98566459       3.23375060      -1.90950418
C       -2.89620385       3.11174084      -0.28975745
C        2.64372463      -1.85920071       1.71004407
C       -3.06033968      -1.06357872       1.61826841
C       -1.42890958      -2.27626550       2.12656159
C        2.14921606       2.91616916      -0.61295673
C       -0.35080925       2.62427949      -3.04360128
C       -0.82398157       3.15927101       1.25650553
C        3.05897980       1.63442889       1.01083724
C       -1.87904611      -1.89371355      -0.42688625
C        1.31072675       3.27600469      -1.65279065
C        2.84530849       0.44270023      -1.03742470
C       -1.16232154      -0.12248484       2.81069895
C        3.27730372      -0.42885340       0.01310708
C       -1.80033252       0.73133706      -2.80237862
C       -2.52617499       1.37687599      -1.78622760
C       -0.49798633      -3.89972943       0.87508970
C        0.36358294       0.57639291      -3.76164256
C       -0.83604881      -1.46408337      -3.17986184
C       -3.92363447       2.29883736       0.32806388
C       -3.44413922       0.29526181       1.39931713
C       -2.81799000       1.37026324       2.11464267
C       -1.49169025       1.21483042       2.55589549
C        0.37364892      -0.80317390      -3.59186148
C       -2.12975139      -1.15751098       2.65067423
C       -1.77131944      -0.63935550      -2.52475120
C        2.51542012      -0.49540978       2.22989490
C        1.01162670      -2.46020983      -2.16779942
C       -0.08677627      -3.65554642      -0.45977710
C       -3.27055251       2.60360944       1.59707720
C        1.07309305       2.51508220      -2.80147867
C        0.08962893      -0.60357423       2.33551784
C       -0.40306727      -2.50532585      -2.35409932
C       -3.85598428       0.85386167       0.16891706
C       -2.21964041       3.34036503       0.95432916
C       -0.43109908       2.10317557       2.17508495
C        0.97531644       1.60017394       2.30477045
C       -1.86576943      -3.42198992       1.39864265
C       -2.33595369      -0.81651225      -1.21181935
C        3.28386147       0.28370143       1.28150958
C        1.86899244      -3.04493468       1.36977319
C        1.24730307      -3.22437434      -0.98824594
C        1.47411572      -1.18923251      -2.72324897
C        1.53246249       3.27707103       0.62902247
C        3.04622455      -1.77306883       0.32185024
C        1.97709572       2.35725155       1.61763746
C       -0.80460452       1.37460981      -3.54984199
C        2.90923335       1.75495328      -0.42610743
C        0.47220771      -3.01415441       1.45006675
C        1.44915316       1.14862898      -3.03551046
C       -2.24304116       2.70906225      -1.46078012
C       -0.98463853      -2.78233980      -1.08542011
C       -0.16783146      -1.79907651       1.62702632
C        2.09708664       0.10518322      -2.24929158
C        0.18346890       3.66334630       0.37862307
C       -3.08668276       0.40438725      -0.90846127
C        0.05503203       3.70348401      -1.05650156
