60
Properties=species:S:1:pos:R:3 checkpoint_path=runs/20260728-direction-conditioned-checkpoint-shooting/output-v3/cases/intermediate_accepted-seed43-balanced_refinement/proposal_trajectories/trial0001_proposal001_step001_proposal_relax.xyz pbc="F F F"
C       -2.41916412      -2.08825540       0.72194153
C        2.24566449      -2.96365503       0.01901758
C        1.18073498       0.07786742       2.53991126
C       -0.99467888       3.22338529      -1.97959439
C       -2.81937444       3.07162198      -0.31626939
C        2.69690549      -1.86123201       1.69729416
C       -2.91755843      -1.06552970       1.61501621
C       -1.52782254      -2.46028815       2.66943484
C        2.20122430       2.95022123      -0.65792082
C       -0.34108925       2.62657445      -3.09766976
C       -0.81143250       3.03486754       1.26579693
C        2.99914210       1.57251272       0.92864147
C       -1.97781925      -1.85590571      -0.59965866
C        1.31400623       3.29177150      -1.67696818
C        2.94422438       0.46383424      -1.15977432
C       -1.26330382      -0.18701074       3.08100771
C        3.29749396      -0.48639330      -0.10227153
C       -1.90685366       0.78804759      -3.08636803
C       -2.64414977       1.44341703      -2.05248496
C       -0.49052922      -3.62541712       0.92331762
C        0.40500530       0.63408995      -3.86485875
C       -0.79903511      -1.38596792      -3.23107091
C       -3.82565840       2.26253494       0.31740485
C       -3.31193326       0.26345671       1.32992684
C       -2.84846971       1.31145689       2.18407695
C       -1.54128010       1.15183983       2.70605016
C        0.40165702      -0.72923069      -3.62413080
C       -2.23452230      -1.23363276       2.84585580
C       -1.84376258      -0.58984664      -2.74359253
C        2.42459864      -0.51530655       2.11151418
C        1.01433975      -2.30418039      -2.08497965
C       -0.12005757      -3.50219318      -0.42674384
C       -3.23526203       2.54618065       1.62230663
C        1.07500049       2.53824804      -2.82863267
C        0.02322180      -0.72436563       2.81350846
C       -0.38261158      -2.41022054      -2.37829876
C       -3.66958726       0.84877468       0.09551964
C       -2.17607673       3.24524432       0.95867048
C       -0.47565421       1.99107560       2.21378593
C        0.91645831       1.50238987       2.27809441
C       -1.78967080      -3.15778179       1.43425205
C       -2.40069850      -0.77307578      -1.43048584
C        3.19124175       0.22584332       1.15558175
C        1.84671897      -2.96408378       1.42560888
C        1.20494159      -3.10002185      -0.91134650
C        1.47999367      -1.08484785      -2.72064041
C        1.52265767       3.20657589       0.59279620
C        3.14706425      -1.84685300       0.27128316
C        1.91721959       2.25140141       1.55396937
C       -0.78233729       1.41128102      -3.67647389
C        2.97274651       1.77320695      -0.50349009
C        0.48960836      -3.02636471       1.74821659
C        1.49972277       1.21533859      -3.13388011
C       -2.26088116       2.72174863      -1.56285408
C       -1.05881696      -2.77531178      -1.19921186
C       -0.16774358      -2.08517595       2.53805948
C        2.16238584       0.18001468      -2.34850550
C        0.16658742       3.51581733       0.34286105
C       -3.09606511       0.45279261      -1.11203116
C        0.03390819       3.64900088      -1.08230476
