60
Properties=species:S:1:pos:R:3 source_escape=runs/20260728-block-krylov-fixed-starter-escape/output/cases/bootstrap_quenched-seed44-balanced_refinement/escape.xyz pbc="F F F"
C        3.98701338       0.26639037       0.17504295
C        1.38837581       2.27756720      -1.82791462
C       -1.26986992       2.54063681       2.10845396
C        3.45701452       1.56727615      -0.14800188
C       -2.62544679      -2.14103134       1.45665864
C        0.48984359       2.74326464       0.47074379
C        2.70712388      -1.66102540       1.69406062
C        2.02265709       1.58861063       3.11466744
C       -1.08273742       0.01398769      -3.19277867
C        1.34976375      -0.50179613       0.30278775
C       -2.66800331      -0.59611310       3.16004421
C       -2.69122526       2.78009713      -0.34231652
C        3.47002938      -0.79445577      -0.57871482
C       -3.86578961       1.13576029      -1.47566160
C       -2.11014616       2.15255601      -2.59486995
C        0.27980752       0.05914088       1.09043340
C       -0.83147646       2.69722445      -2.42529684
C        1.25760455      -3.76352613      -0.14173180
C        0.01408359      -3.49727800      -0.02143009
C        0.74737241       3.18345580      -0.88302167
C       -2.49945734      -1.83465138      -2.70525241
C        1.18369965      -1.91342242      -1.77381420
C        1.76623882      -1.65816155       2.80579883
C       -1.49495801      -1.73834076       0.65754098
C        0.52732060      -2.00156202       3.21172411
C       -0.89674979      -0.61035059       1.59506225
C       -0.23900633      -1.90281184      -1.71125155
C        2.91241807       0.80273090       2.46342441
C        1.82687027      -2.56476552      -0.65186742
C       -0.75628631       3.24930907       0.95660892
C        1.40137990      -0.26787850      -3.58659745
C        2.38016682       1.25120812      -1.24524708
C       -0.66198237      -1.66739380       2.72772892
C       -3.44782307       0.24637666      -2.49779137
C       -0.35118978       2.32807040       3.10430365
C        1.94334074      -0.92257052      -2.47933493
C        2.75410096      -0.62198685       2.56802749
C       -2.16330544      -1.87603983       2.84202817
C       -2.04314446       0.23772504       2.26795797
C       -2.30263396       1.57673962       1.78434443
C        3.52760202       1.06122260       1.19329758
C        2.42336291      -1.51898091       0.22016019
C       -1.50355378       3.51242029      -0.21699540
C        0.61293440       1.35925057       0.55033386
C        1.43260858       0.69170338      -0.33464593
C       -1.15763957      -1.33843500      -2.67946758
C        1.06178450       0.30846279      -4.71063910
C        0.34509191       1.95424391      -2.74802945
C       -3.05163163       1.77021213       0.59363449
C       -3.57438716      -1.14880508      -2.62907342
C       -3.11891615       2.35701348      -1.61984307
C       -0.57563976       3.51177930      -1.31755926
C       -2.22684081       0.80519571      -3.00763556
C       -3.80288604      -1.58431401       0.95576477
C        2.86473739      -0.15965089      -1.73044343
C        0.87492429       2.07296056       3.40306994
C        0.18491791       0.70012164      -3.49334344
C       -3.86383016       0.76629954      -0.07746782
C       -0.79265333      -2.41971220      -0.40426094
C       -4.12812577      -0.50279022       0.41370686
