60
Properties=species:S:1:pos:R:3 trial_index=6 seed_entry_id=1 discovered_entry_id=3 energy=-476.3435974121094 status=accepted pbc="F F F"
C        2.02099768      -3.33392779      -1.00066393
C        1.97312895       0.21771251      -2.26527355
C        1.74476701       1.89420839       2.14228312
C        2.65612835      -2.10476277      -1.35610871
C       -2.97678024       1.39940953       1.41500963
C        2.37065922       0.68287056       0.17885890
C       -0.11982171      -4.04461125       0.95129380
C        2.89040144      -1.45753728       2.26854314
C       -3.02394456       0.76189140      -3.22502149
C        0.02179459      -1.69852149       0.16372707
C       -1.18422131       1.61352786       3.84616031
C        1.20059417       3.69961860       0.04144924
C        0.65833583      -3.32369093      -1.40360324
C       -0.80733680       4.33029236      -0.85485774
C        0.74283633       3.61054587      -2.41849423
C        0.09571832      -0.59379291       1.15652430
C        1.65666047       2.50720680      -2.48137834
C       -2.74887176      -3.17902160       0.17236876
C       -3.09685871      -2.06930755       0.69811616
C        2.66502034       0.90988810      -1.20488417
C       -2.88178125       1.81641323      -2.25459003
C       -1.77455974      -1.87049864      -1.63270790
C       -0.86469597      -3.07076041       3.11185274
C       -2.32558968       0.24277411       1.30065346
C       -1.20364081      -1.95218666       3.55668406
C       -0.88693369       0.10776690       2.04100180
C       -2.45976587      -0.70591711      -1.11520327
C        2.91108330      -2.20319603       1.25721473
C       -1.66708586      -2.96181388      -0.71651598
C        2.46940412       1.90681376       0.90004275
C       -1.23167444      -1.42992091      -3.98232216
C        1.55408894      -1.20199638      -1.89325044
C       -1.29819952      -0.60706047       3.40258264
C       -1.50348214       3.94419735      -2.06679225
C        2.08286215       0.81059228       2.95260359
C       -0.81984306      -1.86027925      -2.74815298
C       -0.42325815      -3.89345737       2.16326886
C       -1.58164948       0.44972394       4.29285550
C       -0.56772614       1.55388456       2.59070261
C        0.41299723       2.44321042       2.01915077
C        2.73835815      -2.60412404      -0.00346799
C       -0.27639067      -3.17138279      -0.23324527
C        2.34173178       2.91702345      -0.09297750
C        1.20636783      -0.07315746       0.34785579
C        0.84035339      -0.94918074      -0.65848304
C       -2.76434952       0.40552281      -1.90963545
C       -2.09009040      -0.70475585      -4.55717772
C        1.44011570       1.22786212      -3.06371690
C        0.20832400       3.44277854       1.02652009
C       -2.55314157       3.06248121      -2.05443367
C        0.56123406       4.16472006      -1.11672096
C        2.52308789       2.30965650      -1.36565148
C       -0.48287142       3.75624606      -3.08078059
C       -2.97867136       2.68483000       1.38662655
C        0.50763802      -2.26444737      -2.36365145
C        2.59229063      -0.34982273       2.91900623
C       -2.98223935       0.26918743      -4.48061699
C       -1.06908543       3.95632750       0.51584009
C       -2.75235796      -0.77456560       0.35456815
C       -2.29314384       3.71564706       1.06201041
