60
Properties=species:S:1:pos:R:3 trial_index=39 seed_entry_id=13 discovered_entry_id=14 energy=-477.6728515625 status=accepted pbc="F F F"
C        2.97089472      -3.78568018       0.61060489
C        2.05549812      -0.03306205      -2.88164591
C        1.62446174       1.59517742       1.89560681
C        3.93431304      -3.60073233       1.46974125
C       -1.87007344       1.55226062       1.42970431
C        1.84634902       0.64897197      -0.55638552
C       -0.75350126      -4.01875745       0.74580536
C        4.28956789      -0.68046425       3.34559861
C       -3.99323947       2.17133828      -3.10197303
C        0.88298295      -3.09800425      -0.77805576
C       -0.62351998       0.74404644       4.32173135
C        1.91328988       4.14248158      -0.20661066
C        1.91375949      -3.64188320      -0.05847109
C       -0.50058924       4.00151360      -0.80253829
C        0.19978480       3.89475112      -3.50744599
C        0.43332682      -0.76886477       0.84552181
C        1.13229142       3.46125625      -2.47252363
C       -2.82539719      -2.38504182      -0.88270522
C       -3.05730890      -1.39207004      -0.10554014
C        2.05474521       1.06098470      -1.94489347
C       -3.82963017       3.24909328      -2.14365479
C       -2.80073314      -3.39832170      -1.92644069
C       -1.43815313      -3.65561842       3.14634371
C       -1.86172126       0.14211053       1.42954916
C       -1.54495348      -2.78624812       4.05676836
C       -0.67056088      -0.55731404       1.39485122
C       -3.80778413       0.96265260       0.31488277
C        4.69041107      -1.84624239       3.04526455
C       -1.63895155      -3.27382783      -1.26665094
C        1.94332028       1.65654873       0.44114836
C       -1.59853626      -0.62366695      -4.22540951
C        1.40546098      -1.26337858      -2.55867514
C       -1.43677272      -1.61950470       4.60781480
C       -1.49249069       4.09352904      -1.84675914
C        2.52891849       1.04387748       2.75857572
C       -0.48304606      -1.18974997      -4.21513975
C       -1.14178089      -4.07533455       1.94144498
C       -1.12308951      -0.40085899       4.71325662
C       -0.09368995       1.56367325       3.52976564
C        0.32762639       2.06267252       2.30780272
C        4.55960379      -2.92869942       2.34316427
C       -0.47488369      -3.55031433      -0.51552010
C        2.17487610       2.97087291       0.17652522
C        1.29824208      -0.65460094      -0.25108139
C        1.18786849      -1.72069369      -1.26053918
C       -5.01840003       3.12694256      -2.80068917
C       -2.58823186       0.20929862      -3.99358951
C        1.82547798      -0.23694889      -4.25211046
C       -0.75060015       2.42665625       1.38449627
C       -2.74715472       3.62226276      -1.34397201
C        0.85962195       4.09173111      -1.15958982
C        1.81691086       2.31064382      -2.40572293
C       -1.00633441       4.16963512      -3.15629139
C       -2.98718356       2.01532775       0.62820769
C        0.84279180      -1.28952080      -3.92728466
C        3.47017530       0.31834899       3.17449559
C       -3.32717565       1.13727952      -3.60002781
C       -1.10193100       3.37921350       0.33177184
C       -3.07246629      -0.24914097       0.61606779
C       -2.48231824       3.15336744      -0.03821949
