60
Properties=species:S:1:pos:R:3 trial_index=23 seed_entry_id=5 discovered_entry_id=6 energy=-477.36834716796875 status=accepted pbc="F F F"
C        2.61184099      -3.96790069      -0.48744420
C        2.07376762       0.26502811      -2.59906082
C        1.32356549       1.81799439       1.85512298
C        3.70696070      -3.85634521       0.21857456
C       -2.21806042       1.99873596       1.29702884
C        1.72135118       0.86241906      -0.33005819
C       -0.89427897      -4.04945725       0.74928582
C        3.59194941      -1.14480955       2.45066087
C       -3.21121817       1.21695867      -2.99996787
C        0.37517736      -2.74097668      -0.85610601
C       -0.75330548       0.74035000       4.31999499
C        1.70072492       4.32328812       0.07696726
C        1.43364290      -3.61561230      -0.78378680
C       -0.57450802       4.24139747      -0.86268074
C        0.56515433       3.68888547      -3.32335322
C        0.46438252      -0.23421158       1.37582296
C        1.35975937       3.65996660      -2.17527545
C       -2.94470938      -2.30208249       0.71753831
C       -3.58616462      -1.39749842       1.34918170
C        2.13496620       1.27330955      -1.62571115
C       -3.18809525       2.28130327      -2.06217607
C       -2.33881347      -1.20300971      -1.19478396
C       -1.25096511      -3.81293244       3.20965101
C       -2.08604665       0.59046428       1.40968399
C       -1.26656627      -2.89788449       4.09447217
C       -0.78757932       0.20914277       1.88857154
C       -3.02897322      -0.09128876      -0.72450950
C        4.19687098      -2.18396301       1.97772616
C       -2.05304302      -2.29834921      -0.38066307
C        1.87692361       1.94325750       0.56636201
C       -1.06629405      -1.25726039      -4.60332604
C        1.39211637      -0.96158459      -2.28861698
C       -1.17850347      -1.73617963       4.64201633
C       -1.39502256       4.01617985      -2.02425604
C        1.58678071       0.39780147       2.22330357
C        0.11544807      -1.64005034      -4.37069399
C       -1.09922292      -4.24856260       1.98517960
C       -0.99662856      -0.46609491       4.72121792
C       -0.54988045       1.18464977       3.06457979
C        0.01380540       2.27897551       2.20818550
C        4.23826939      -3.15809991       1.15153452
C       -0.89040682      -3.14160396      -0.29669518
C        2.26273499       3.08607102      -0.17483597
C        0.97144881      -0.31524407      -0.00620497
C        0.81165488      -1.32532816      -1.05001076
C       -3.31672352       1.01212965      -1.56399891
C       -2.11774039      -0.48666826      -4.48601822
C        2.14010978      -0.12403198      -3.94986844
C       -1.00881355       2.80721129       1.33991411
C       -2.66259816       3.49732315      -1.58132420
C        0.81904568       4.37630769      -1.00923207
C        2.24435449       2.70322596      -1.58838188
C       -0.71562997       3.88230259      -3.23854614
C       -3.28121174       2.59125569       0.61375586
C        1.25043580      -1.27367633      -3.72040818
C        2.73385000      -0.22116856       2.54759945
C       -2.84016720       0.41645042      -3.98936744
C       -1.26367724       3.78144333       0.29215308
C       -3.11699552      -0.16919648       0.78612170
C       -2.63831480       3.53839326      -0.14986288
