60
Properties=species:S:1:pos:R:3 trial_index=30 seed_entry_id=24 discovered_entry_id=29 energy=-496.0140075683594 status=accepted pbc="F F F"
C        0.45995048      -2.97089328       1.47476211
C        1.78817422      -0.47396177      -1.68161836
C        0.93262073       2.61144858       1.14489852
C        1.73543458      -2.99304111       0.84671734
C       -3.24880873      -0.64252593       0.66110446
C        2.52124424       1.29330481      -0.11449306
C        0.52158205      -2.12591573       2.61148720
C        1.98765196      -0.29734972       3.21053000
C        0.35299333      -0.10636565      -3.68303803
C       -1.56647644      -0.70142276       2.38341664
C       -0.95737655       1.37636425       3.49106225
C       -0.00320724       3.30903276      -0.85921527
C       -0.52783136      -2.88004721       0.47154214
C       -2.15512470       2.58656271      -0.81914963
C        0.12161116       2.75742972      -3.87852548
C        2.23600332      -1.39714956      -0.70014143
C        1.26749956       2.01910871      -3.46823766
C       -2.68703369      -0.55714797      -1.82397222
C        1.20896855      -0.07802291       4.34695823
C        2.20433123       0.87532249      -1.45612741
C       -0.38823991      -1.73770865      -1.83176698
C        0.76222195       1.22525498      -5.52793253
C       -0.10280519      -0.61749690       4.32925369
C       -3.58833917      -0.46676868      -0.71163653
C       -0.66950822       0.64734971       4.71358531
C       -2.28964771      -1.41792444       1.33989114
C       -1.58493623       1.22832323      -3.25212030
C        1.85277858      -1.61910334       2.68240667
C       -2.70878346      -3.23396373      -0.31726174
C        1.89764189       2.53884089       0.10154831
C       -0.66854517       1.06223906      -5.39498638
C        1.53466746      -2.59962755      -0.50583706
C       -2.55554433      -2.85801666      -1.50892114
C       -3.06234916       1.66994937      -1.34051889
C        1.19955540       1.85070538       2.33443638
C        1.30207421       0.81901234      -4.24768181
C       -0.51887277      -1.30124182       3.16927563
C       -1.66725437       0.74282535       2.45744981
C        0.35821220       1.90838277       3.45519534
C        0.71812856       1.22633065       4.68673296
C        2.53571506      -2.01525214       1.50618609
C       -1.91482091      -2.64963879       0.71860196
C        1.33071308       2.98306280      -1.13744551
C        2.64414549       0.37606384       0.94704732
C        2.76043796      -0.98280558       0.56645279
C       -0.98645879       2.51417587      -3.02368551
C       -0.91150577       0.37868737      -4.16433649
C        0.58546952      -0.80804118      -2.45333318
C       -0.30980525       2.96804462       0.52080733
C       -3.90339017       0.94766693      -0.46685413
C       -1.10246989       3.03032844      -1.68529353
C        1.68704868       2.02346779      -2.13338179
C       -1.84754919      -1.71406257      -1.98437157
C       -3.39841697       0.77529825       0.85504674
C        0.13040840      -2.56586818      -0.77220141
C        2.09351822       0.73007896       2.23970736
C       -0.10548488       2.36707378      -5.22678710
C       -1.67426145       2.45563205       0.53664468
C       -2.50633110       0.77000258      -2.28385660
C       -2.29503410       1.48329435       1.37850421
