60
Properties=species:S:1:pos:R:3 trial_index=15 seed_entry_id=13 discovered_entry_id=14 energy=-487.0459899902344 status=accepted pbc="F F F"
C        0.19253933      -2.27129416       0.29940828
C        1.85864452       0.97791119      -2.71809976
C        1.80641350       0.51475463       1.53051657
C        1.27549811      -1.46900233       0.03745409
C       -3.51636593      -0.27959658       0.29569393
C        3.19792790       0.84008953      -0.49380264
C        0.06756928      -2.45759225       1.69508161
C        1.35719221      -2.04656701       3.70279077
C        0.10461428       1.57534424      -4.17872609
C       -2.00698513      -1.40729107       1.74887382
C       -0.85528305      -0.18745694       3.56925137
C        0.64221793       3.03022197       0.77918824
C       -0.67280404      -2.31772731      -0.83442524
C       -1.62167278       3.09720934       0.51623532
C       -0.33359674       3.40256609      -1.41920479
C        0.88424569       0.29385648      -1.72895874
C        0.87974162       2.99209364      -2.07441257
C       -3.41066759      -0.18592420      -2.17087775
C        0.11295880      -2.34564784       4.31521158
C        2.75688988       1.55445496      -1.67855150
C       -1.25600986       1.47398991      -2.31355543
C       -1.59207152      -1.09102370      -3.19848968
C       -1.12264386      -2.60163488       3.65569766
C       -3.75189577       0.41553429      -0.94356169
C       -0.89885398      -1.38181237       4.33369443
C       -2.59934088      -1.34193079       0.42435670
C       -2.02852914       0.08229846      -3.93554111
C        1.23028955      -1.94781500       2.32762374
C       -2.41539729      -1.20359265      -2.04121153
C        2.38104791       1.34299853       0.55750625
C        0.63195089      -0.85423790      -3.96620910
C        1.18345550      -1.05642955      -1.32059102
C       -0.36654687       0.68767177      -1.67616106
C       -2.43139312       2.68759784      -0.55491617
C        1.43589202       0.14872726       4.40392453
C       -0.28638351      -1.53241342      -3.17283996
C       -1.21262879      -2.50990992       2.24520382
C       -1.75251249      -0.16770384       2.44554027
C        0.35261042       0.50690812       3.56809122
C        0.79167541       1.12048107       2.33854797
C        2.00836150      -1.02812714       1.30978055
C       -1.98735141      -1.77390491      -0.81257119
C        1.78685433       2.56379814       0.15565194
C        3.85824245      -0.33832093      -0.11441837
C        3.45078872      -1.14703928       0.78192317
C       -1.16344066       1.21908201      -3.72235543
C        1.82173241      -0.08026794      -3.80298136
C        1.02617761       2.11286282      -3.20421661
C        0.06297700       2.21809499       1.79747848
C       -3.36366243       1.66304455      -0.28281652
C       -0.37444651       3.58253035      -0.00899665
C        1.97099005       2.67707091      -1.22954423
C       -1.56649031       2.72138623      -1.71210965
C       -3.25886625       0.94965548       0.96336709
C        0.19146021      -1.93538147      -1.91461094
C        1.96795915      -0.99546384       4.42147084
C        0.69204307       0.35537005      -4.60431511
C       -1.35379464       2.20954555       1.61137855
C       -3.36073312       0.35649299      -3.44731715
C       -2.17147285       1.07617003       1.84374407
