60
Properties=species:S:1:pos:R:3 trial_index=23 seed_entry_id=21 discovered_entry_id=22 energy=-493.3839111328125 status=accepted pbc="F F F"
C        0.72173270      -3.01593166       1.02842230
C        2.53449594      -0.28620513      -1.68431695
C        0.90010548       2.47887343       1.29794018
C        2.07316629      -2.95319900       0.59792989
C       -3.65732844      -0.28134787       0.91465079
C        2.75923276       1.41199734       0.09483007
C        0.57768668      -2.17809615       2.17956664
C        2.02289700      -0.49926122       3.19503124
C        1.84183714      -0.85623954      -4.04443384
C       -1.64594608      -0.68228144       2.16622335
C       -0.97353484       1.18585024       3.59326263
C       -0.07888514       3.01293276      -0.74252936
C       -0.11492623      -2.98513885      -0.14925400
C       -2.30232979       2.61027498      -0.58806355
C       -0.17256144       1.55304250      -3.57477852
C        2.82037201      -1.25614372      -0.73187354
C        0.98383294       1.11181496      -2.86804599
C       -3.38406555      -0.15162747      -1.51157327
C        1.15593100      -0.43077521       4.27509657
C        2.66514110       1.03414850      -1.27220696
C        0.24650632      -1.32115512      -2.03850004
C        0.56568814       0.49857690      -5.68944246
C       -0.15540667      -0.93149370       4.06740516
C       -4.20810805      -0.01215058      -0.35686483
C       -0.70903327       0.26194032       4.67293265
C       -2.53988864      -1.09954002       1.10016022
C       -2.57483410       1.58447672      -3.21703225
C        1.89988713      -1.73737660       2.50515507
C       -2.26110859      -1.04441339      -1.37617502
C        1.88343262       2.50433075       0.26618716
C       -1.76270664       1.29906100      -5.38606939
C        2.06080763      -2.44245529      -0.72715984
C       -1.45317965      -2.97222142      -0.06274604
C       -3.50175574       2.04973539      -0.99911920
C        1.20433220       1.68703137       2.47328438
C        1.40517092      -0.31212507      -5.12260194
C       -0.52351542      -1.40673731       2.78086902
C       -1.73758179       0.72286168       2.51729053
C        0.36561276       1.65605260       3.59827573
C        0.68136947       0.82609305       4.75718819
C        2.76248600      -2.03110604       1.43211102
C       -2.23300665      -1.87283480      -0.09501452
C        1.27295578       2.81837183      -1.00425953
C        2.87034492       0.41619476       1.09218856
C        3.12002668      -0.91289590       0.63402083
C       -1.28368970       2.08689127      -2.80499448
C       -2.75620303       1.39867483      -4.59683953
C        1.41390518      -0.39999683      -2.71229023
C       -0.35678607       2.80994454       0.65884299
C       -4.29514534       1.39761332      -0.02301747
C       -1.21091372       2.69882786      -1.51833789
C        1.72558887       1.86784565      -1.94186244
C       -1.06253432      -0.98343112      -2.04285060
C       -3.66492863       1.10216006       1.22415556
C        0.72399226      -2.38131146      -1.18462510
C        2.17696057       0.63017568       2.34909225
C       -0.41424999       1.16379567      -4.96894552
C       -1.77563501       2.49975998       0.75014933
C       -3.36029226       1.15439698      -2.10642028
C       -2.44082708       1.64304622       1.64650264
