60
Properties=species:S:1:pos:R:3 trial_index=7 seed_entry_id=6 discovered_entry_id=7 energy=-481.792236328125 status=accepted pbc="F F F"
C       -0.17353022      -4.45257323      -1.68303681
C        1.61261142       1.11069661      -2.90983659
C        1.73527205       1.16659827       2.00700082
C        1.19388135      -4.32660610      -1.58224707
C       -2.71968777       1.43812603       1.19036474
C        2.18850047       0.41438911      -0.44593665
C       -1.11774291      -3.96973839      -0.65503844
C        1.17955594      -2.42904093       3.60988521
C       -0.51077818       1.88402947      -3.48340405
C        0.16781002      -2.30413350       0.15458001
C       -1.20223690       0.76195346       3.01943492
C        1.29609921       3.64267742       0.75473328
C       -0.92099358      -3.71295525      -2.73522871
C       -0.76628323       4.69120886       0.54786812
C        0.32489365       4.16323835      -1.43287688
C        0.02218972      -0.90526220       0.31359823
C        1.16626721       3.20229640      -1.99291913
C       -3.17923919      -1.28996387      -0.89556964
C       -0.14770703      -2.71458580       3.05967579
C        2.32564328       1.20507061      -1.65972032
C       -1.80537145       2.84750682      -1.67683754
C       -1.71385013      -1.00396917      -2.67622557
C       -0.94388524      -3.09479391       1.94494965
C       -2.20615336       0.46043691       0.32649982
C       -1.12623118      -1.84102074       2.62955454
C       -1.09813199      -0.24631169       0.90344466
C       -1.99843657       0.32813026      -2.19357681
C        1.98932256      -3.34351413       4.30003559
C       -2.35040073      -1.94305618      -1.77669330
C        2.22157861       1.33734007       0.69349417
C       -0.01500846      -0.51305863      -4.22357340
C        1.89228096      -3.30176990      -1.24952202
C       -1.31923385      -0.50101741       2.30411880
C       -1.75600770       4.55839637      -0.46005655
C        1.27151175       0.09769204       2.97410804
C       -0.83744005      -1.54335556      -3.66873397
C       -0.66556670      -3.32918257       0.54951886
C       -2.01795513       1.73954374       2.40498766
C        0.14658323       1.09199367       3.26257993
C        0.80775278       2.11756419       2.52703027
C        2.73117951      -4.10189650       4.94688191
C       -1.82075921      -3.25509924      -1.70414941
C        2.12914713       2.66522303       0.17261348
C        1.37918291      -0.74065675      -0.33037454
C        1.38092982      -2.20337065      -0.59137402
C       -1.54153217       1.67702718      -2.50483297
C        1.14361270       0.20864247      -3.90850381
C        0.76149173       2.26106423      -2.95422309
C        0.50075270       3.32677150       1.90005458
C       -2.48539489       3.32406420      -0.44898710
C        0.49783437       4.48071922      -0.07175445
C        2.19138389       2.57699325      -1.23168714
C       -1.07245999       4.10599985      -1.68396767
C       -2.78187715       2.81269172       0.80714255
C       -0.60471834      -2.90223189      -3.75789484
C        1.51750206      -1.13710024       3.33727807
C       -0.15964328       0.83165273      -4.38792663
C       -0.80099892       3.90061353       1.72656823
C       -2.72184261       0.04774667      -0.94928765
C       -1.94456036       3.12286906       1.95629555
