60
Properties=species:S:1:pos:R:3 trial_index=1 seed_entry_id=0 discovered_entry_id=1 energy=-474.7692565917969 status=accepted pbc="F F F"
C        1.87416877      -3.44799460      -0.97944726
C        2.06848743       0.11575939      -2.25070387
C        1.76175775       1.93037039       2.10152219
C        2.60752630      -2.22795705      -1.13148160
C       -2.74456475       1.29249204       2.46621682
C        2.41177053       0.64546242       0.19892573
C        0.08227292      -4.04740898       0.66159782
C        2.16397006      -1.58158100       2.32291096
C       -2.62208544       0.75767228      -3.36263665
C       -0.25611867      -1.42322197      -0.01138336
C       -0.92211151       0.83936214       4.03838885
C        1.05515814       3.56509525       0.02556173
C        0.58691906      -3.38696475      -1.57359616
C       -1.01766699       4.04337383      -0.86382576
C        0.59857359       3.42347753      -2.43378129
C        0.01268329      -0.42859846       0.95826775
C        1.60128027       2.38718699      -2.49159298
C       -2.39799957      -2.58092421       0.60317548
C       -3.05827722      -1.54318240       0.90157752
C        2.71260489       0.86681332      -1.19052060
C       -2.97958445       1.87858216      -2.57099315
C       -1.67088460      -1.56007677      -1.50775778
C       -0.24436060      -2.72401569       2.72760807
C       -2.13405749       0.54679996       1.39676477
C       -0.84763180      -1.84493612       3.37291676
C       -0.80374688       0.19326270       1.92664249
C       -2.40605791      -0.38890370      -1.07638450
C        1.86807879      -2.64341492       1.48460496
C       -1.29142207      -2.43499435      -0.36799505
C        2.50363209       1.88418981       0.90918321
C       -1.25320337      -1.17751576      -3.90333191
C        1.60752926      -1.29217978      -1.87365293
C       -1.22025386      -0.48332183       3.28429393
C       -1.67322585       3.81802193      -2.14723175
C        1.42676617       0.79046349       2.90420014
C       -0.83221413      -1.68625011      -2.67293306
C        0.57188706      -3.29912490       1.70367538
C       -2.26996904       0.66768528       3.68531854
C       -0.05321022       1.26259498       2.85418567
C        0.45385988       2.49843584       2.10277197
C        2.35372767      -2.83260806       0.16129098
C       -0.36497306      -3.58602645      -0.54823146
C        2.25800488       2.87017528      -0.09829904
C        1.24035575      -0.09293373       0.29711717
C        0.85571341      -0.98183801      -0.69168322
C       -2.72645349       0.57341387      -2.00640691
C       -1.53869442      -0.92891139      -5.24054146
C        1.49711689       1.09497280      -3.06088357
C        0.07817416       3.34711959       1.04888822
C       -2.89396632       3.17479461      -2.31285847
C        0.35812925       3.92320813      -1.12560651
C        2.47678334       2.25801054      -1.36995334
C       -0.61680111       3.59087019      -3.10226904
C       -2.89023388       2.62542519       2.09461975
C        0.49738006      -2.23763399      -2.41491388
C        1.94361007      -0.47185822       2.86171346
C       -2.06897814      -0.07078348      -4.28228917
C       -1.23853258       3.72940669       0.53603019
C       -2.72876868      -0.27016838       0.37754153
C       -2.36495196       3.44196357       1.29067442
