60
Properties=species:S:1:pos:R:3 trial_index=2 seed_entry_id=1 discovered_entry_id=2 energy=-478.4074401855469 status=accepted pbc="F F F"
C        0.61483328      -4.63700431      -0.69170417
C        1.45551554       0.95778257      -2.87521693
C        1.77288799       1.50574230       1.88614285
C        1.79032097      -3.86107274      -0.74108027
C       -2.72449261       1.20434853       2.02874187
C        2.20933022       0.58033987      -0.41521471
C       -0.27956568      -4.25043081       0.32700285
C        1.86080138      -2.06956309       2.34848853
C       -0.77924999       1.34306342      -3.32415726
C       -0.25697235      -1.75521366      -0.22590189
C       -0.86008131       0.72849825       3.63234861
C        1.15312065       3.78521696       0.48649077
C       -0.29223203      -4.15626552      -1.71884976
C       -0.91043361       4.70810002       0.05973609
C        0.32524733       4.34415032      -1.83256746
C        0.02712525      -0.59975176       0.52079492
C        0.93347690       3.12113555      -2.20327398
C       -2.71605010      -1.77830281      -0.01411480
C       -3.87623364      -1.18169113       0.00957472
C        2.23156863       1.23525931      -1.71157668
C       -2.37026756       2.23112399      -1.75698914
C       -1.50128500      -1.53102061      -1.97260993
C       -0.70269136      -2.91285484       2.36574961
C       -2.14428365       0.51191114       0.85955182
C       -1.11406665      -1.87567324       2.90465937
C       -0.93983745      -0.02809599       1.33917986
C       -2.00237964      -0.20331649      -1.70426798
C        1.55534610      -3.17587693       1.51666544
C       -1.53030793      -2.31642322      -0.67302496
C        2.29395162       1.61425590       0.59320722
C       -0.00529192      -1.03693488      -3.71715543
C        1.42840521      -2.79122111      -1.64711202
C       -1.19924463      -0.47947544       2.74512763
C       -1.75249499       4.60701798      -1.11901937
C        1.49688022       0.45220045       2.82690309
C       -0.54103411      -2.03194056      -2.88743164
C        0.16228845      -3.56039478       1.47971849
C       -2.17321062       0.58433635       3.25088498
C        0.36900166       1.30014422       3.34314564
C        0.72674881       2.36288384       2.37131689
C        2.33516842      -3.61371687       0.46990681
C       -1.16545547      -3.74535424      -0.68411189
C        2.07068931       2.86671042      -0.04325064
C        1.32315753      -0.50499453      -0.16658419
C        1.01077446      -1.75965425      -0.82234055
C       -1.80066914       1.07792882      -2.33741116
C        1.05977274      -0.11103431      -3.73833357
C        0.46042936       1.98810556      -2.94029847
C        0.31914782       3.49138200       1.61780490
C       -2.41994188       3.40910174      -1.35583429
C        0.39949378       4.55849331      -0.41910046
C        2.02089320       2.62764833      -1.42852440
C       -0.90685684       4.85152572      -2.27434331
C       -2.86626035       2.57725625       2.06843952
C        0.29657861      -3.12477122      -2.45947393
C        1.76413048      -0.89722979       2.75073063
C       -0.34527146       0.22947270      -4.12784114
C       -1.00342396       4.08896014       1.35115764
C       -2.69155401      -0.20640341      -0.34456732
C       -2.19902393       3.61271979       1.85481098
