60
Properties=species:S:1:pos:R:3 trial_index=32 seed_entry_id=27 discovered_entry_id=30 energy=-485.7195739746094 status=accepted pbc="F F F"
C        0.57525934      -2.23989735       0.65262459
C        1.61484405       1.07611393      -2.58396389
C        1.97943956       1.10742285       1.38824398
C        1.37496224      -1.13590575       0.35926547
C       -3.21643327      -0.23923876       0.20861832
C        3.22741819       1.41059288      -0.62553415
C        0.29078918      -2.67827686       2.03090445
C       -0.11052695      -3.46584305       4.03912970
C       -0.10389918       1.34261633      -4.12412534
C       -1.81169738      -1.25644653       1.82458090
C       -0.60390470      -0.14453059       3.53788815
C        0.47827305       3.34260225       0.68780060
C       -0.24026512      -2.46634336      -0.53426307
C       -1.80480207       3.21459294       0.53623150
C       -0.65428887       3.37202951      -1.48133102
C        0.63511229       0.38527596      -1.59518045
C        0.52801988       3.07034051      -2.18281223
C       -3.11977891       0.53178959      -2.28035449
C        0.58433596      -2.18069430       4.28238310
C        2.54393689       1.89350111      -1.77887384
C       -1.81790101       1.32334841      -2.34539597
C       -1.20184786      -1.35366118      -3.03668680
C       -1.20137929      -2.49800471       3.79467851
C       -3.64243212       0.52727804      -0.96025022
C       -0.57124040      -1.32950282       4.30992919
C       -2.28335543      -1.26622202       0.47499090
C       -1.87345564      -0.41429853      -3.90592499
C        0.30700416      -4.01428472       2.85910050
C       -1.45988830      -0.93370104      -1.69986166
C        2.47282421       1.97321570       0.44149080
C        0.84329896      -0.98423742      -3.76998414
C        1.17909291      -0.83429593      -1.04109012
C       -0.77891591       0.36327425      -1.67902907
C       -2.63729215       2.72716021      -0.48891227
C        1.61063268      -0.71784337       2.70707251
C        0.10522813      -1.86318153      -3.00360871
C       -1.13583711      -2.35865636       2.37312439
C       -1.65852152      -0.02905342       2.54531155
C        0.63289926       0.25968062       3.00870959
C        0.84418186       1.40338831       2.15439092
C        2.26517054      -0.36754774       1.37095304
C       -1.50359792      -1.78729370      -0.59133955
C        1.67250355       3.06489054       0.01220468
C        3.93459464       0.25694990      -0.24515331
C        3.64531043      -0.51243193       0.73121615
C       -1.32024495       0.90819275      -3.69242350
C        1.82704314       0.00928015      -3.62735866
C        0.67476669       2.06077762      -3.17543840
C        0.00593103       2.46504483       1.73445240
C       -3.52594850       1.71506934      -0.13915926
C       -0.62446367       3.72690560      -0.09363256
C        1.72276265       3.01578065      -1.39738110
C       -1.85108066       2.62609828      -1.67544800
C       -3.21052502       0.93261271       1.01580563
C        0.59945727      -2.00944473      -1.64812548
C        1.19328381      -1.99160183       3.00947857
C        0.65695721       0.18162375      -4.46780407
C       -1.42306330       2.36915655       1.62966180
C       -3.22893547      -0.27583265      -3.37981679
C       -2.16069512       1.18637068       1.92832284
