60
Properties=species:S:1:pos:R:3 trial_index=13 seed_entry_id=9 discovered_entry_id=12 energy=-488.7408447265625 status=accepted pbc="F F F"
C       -0.14112523      -2.96429516       0.08190088
C        2.07265093       1.14442534      -2.69862661
C        2.03597479       1.39295181       2.24252202
C        1.18081383      -2.63321235      -0.28875540
C       -3.50972274      -0.12902874       0.35225493
C        3.04193285       0.89364992      -0.11926042
C       -0.18028916      -2.91643123       1.50524975
C        1.46840189      -2.16795699       3.22104870
C        0.21515666       1.64992201      -4.08948931
C       -1.94432061      -1.24330536       1.74076165
C       -0.70214646       0.00204004       3.50776034
C        0.60189845       3.40121156       0.86301920
C       -1.01969296      -2.58133568      -0.98195458
C       -1.66043053       3.28145287       0.48269569
C       -0.30502804       3.41970160      -1.40649327
C        0.78419990      -0.42872569      -1.22032157
C        0.94743042       3.05863042      -1.98640891
C       -3.45180119       0.02309484      -2.11971842
C        0.35256915      -2.20957856       4.11410152
C        2.60334021       1.50613619      -1.39314626
C       -0.94849304       1.25964521      -2.11880941
C       -1.72704998      -0.98581189      -3.21133437
C       -0.96525305      -2.40947984       3.62289951
C       -3.79919667       0.55875880      -0.87279113
C       -0.61157946      -1.20288113       4.24697293
C       -2.60886905      -1.20451498       0.43977198
C       -2.04337494       0.28937902      -3.85571131
C        1.16708320      -2.70505410       1.95983013
C       -2.54101787      -1.07960574      -2.04420487
C        2.46927590       1.73302643       0.94689934
C        0.61024630      -0.79355500      -3.78622303
C        1.06200034      -1.77546658      -1.41516559
C       -0.07045771       0.44940080      -1.52108246
C       -2.38336874       2.69919988      -0.57610003
C        1.85582815       0.18744369       3.12667172
C       -0.45439563      -1.51451548      -3.21808369
C       -1.26456904      -2.41253444       2.23500005
C       -1.66431913       0.02468335       2.43230499
C        0.48490155       0.71649912       3.44124221
C        0.77589585       1.90372928       2.69933493
C        2.01297346      -2.42875183       0.82848568
C       -2.15348956      -1.73818809      -0.84098938
C        1.77690373       2.83002714       0.34320066
C        3.38437225      -0.41370612       0.18781852
C        3.05361129      -1.51363029       0.69697709
C       -1.01696449       1.24743355      -3.55839513
C        1.80031624      -0.04671293      -3.48527368
C        1.14835749       2.15542857      -3.08854460
C       -0.03293867       2.74790581       1.96382701
C       -3.40209408       1.79497669      -0.23117022
C       -0.41535856       3.79754431      -0.03319670
C        1.92163539       2.69650413      -1.04739717
C       -1.39790051       2.52632685      -1.59922268
C       -3.24431527       1.10257322       1.01916683
C       -0.12597355      -2.27660546      -2.08440969
C        2.28895000      -1.06391282       3.26092694
C        0.78861569       0.38688948      -4.45546475
C       -1.41168665       2.50628503       1.65872117
C       -3.32678379       0.66926796      -3.33990315
C       -2.13220827       1.27736298       1.86457548
