60
Properties=species:S:1:pos:R:3 trial_index=35 seed_entry_id=31 discovered_entry_id=32 energy=-495.780029296875 status=accepted pbc="F F F"
C        0.80738146      -2.50027038       0.31637426
C        3.06055024       0.74992378      -1.88660712
C        0.90933332       2.79131531       1.39387420
C        2.14194010      -2.29105589      -0.10840458
C       -3.68667201      -0.11155147       0.77558896
C        2.95528518       2.05948973       0.21079450
C        0.67473913      -1.94637545       1.63621944
C        2.07325887      -0.39048885       2.88366907
C        0.25576999      -0.70701685      -2.81951548
C       -1.57981501      -0.59206845       1.83647698
C       -0.95556984       1.10985627       3.47016995
C        0.02195243       3.41418561      -0.68771417
C       -0.01531725      -2.38275137      -0.85061084
C       -2.15740271       2.76237420      -0.67328567
C        0.43972134       1.74650192      -3.15177689
C        2.96076270      -0.41192169      -1.11156713
C        1.74999753       2.33272969      -3.03135331
C       -3.78949080      -0.17706812      -1.58992173
C        1.21031831      -0.50455163       3.96332820
C        3.10521340       1.98218226      -1.20173034
C        0.99927221       0.42707455      -3.23679682
C       -1.06557101      -3.69708469      -3.17463023
C       -0.08176095      -1.02622629       3.69653879
C       -4.45043610       0.19626766      -0.39697313
C       -0.67890122       0.06731371       4.43330560
C       -2.52216576      -0.92945784       0.77365523
C       -1.71688590       0.81350254      -2.64604959
C        1.98638877      -1.50533800       2.00632462
C       -3.23269347      -1.45868376      -1.50297401
C        1.94988367       3.02150323       0.45348308
C       -1.85505845      -1.60607954      -3.52156642
C        2.12975052      -1.55987984      -1.33247573
C       -1.39826230      -2.67210698      -0.88659882
C       -3.23752935       2.00336306      -1.10985312
C        1.20847238       1.85813041       2.46957582
C       -1.05331736      -2.72293202      -4.03627691
C       -0.44124608      -1.35001380       2.36446475
C       -1.67014246       0.76756838       2.32212040
C        0.35689357       1.63383972       3.56436559
C        0.69028077       0.66364443       4.60222979
C        2.84335765      -1.57657602       0.88990949
C       -2.42004512      -1.75916823      -0.38536703
C        1.41660502       3.45302411      -0.81642386
C        2.98421249       0.88271794       0.99846585
C        3.21853211      -0.34116986       0.31188739
C       -0.83322053       1.96264898      -2.56807210
C       -1.16510924      -0.45969865      -3.08891193
C        2.32582816       0.95362830      -3.09087988
C       -0.31775014       3.09952665       0.68985211
C       -4.20907909       1.60875423      -0.14966059
C       -1.02113842       2.93634643      -1.53985577
C        2.22270247       2.91679531      -1.83682528
C       -2.74375959      -2.20070494      -2.59146956
C       -3.58113553       1.26247810       1.08497827
C        0.78096671      -1.65246645      -1.86423775
C        2.22397273       0.86373785       2.23309966
C       -1.87769942      -3.23115570      -2.10347001
C       -1.70003136       2.68263813       0.68721300
C       -2.97420036       0.91320893      -1.96860606
C       -2.35695588       1.76420583       1.52955997
