60
Properties=species:S:1:pos:R:3 input=/mnt/d/download/trae-research-code/ssw/runs/20260428-c60-mace-production/prerelaxed_c60.xyz system=c60 pbc="F F F"
C        2.61639023      -2.86364905       0.56732202
C        2.61209281       0.85580719       1.33978055
C       -1.88009622       0.61266627       2.82147512
C        2.64187459      -1.79752354       1.51219383
C       -3.69012274       0.25684285      -1.49548785
C        0.47076865       0.29000176       2.50729542
C        0.48652591      -3.94177024      -0.60436234
C       -0.65615820      -2.59128940       2.43038642
C        1.30488555       2.23649395      -3.25408522
C        0.35106957      -1.49292493      -0.22298058
C       -4.47641801      -0.17172112       0.63991263
C       -0.98713037       3.11772472       2.00800539
C        2.47779734      -2.40840643      -0.76399123
C       -1.23163110       4.01143759      -0.11246589
C        0.95022953       3.95453232       0.66465799
C       -0.87499026      -1.02085009       0.56860365
C        1.77061080       3.01607348       1.37069921
C       -0.36283996      -2.61659537      -3.13848092
C       -1.31456609      -1.78788570      -2.96639916
C        1.70343085       1.02655798       2.46503362
C        0.06905447       2.89578727      -3.05881835
C        1.13620014      -0.76642685      -2.56971407
C       -1.69179868      -3.63892133       0.18079311
C       -2.29219283      -0.09142838      -1.47991856
C       -2.74242880      -3.01720132      -0.15938197
C       -2.16761721      -0.59551135      -0.06416285
C        0.00297666       0.11582429      -2.71976653
C        0.28366989      -3.25991342       1.69688779
C        0.77422086      -2.14351726      -2.44772035
C       -0.55850500       1.03752296       3.16515750
C        3.09489187       0.69174426      -2.71389775
C        2.55858679      -0.50623999       0.64672526
C       -3.15387615      -1.71606431      -0.30260386
C       -0.35680479       4.29441392      -1.23508577
C       -2.37941693      -0.67151916       2.35041127
C        2.43308246      -0.34173197      -2.04257163
C       -0.33560465      -3.86681262       0.48426316
C       -4.28617818      -0.77293197      -0.59108879
C       -3.10574810       0.08514346       1.15135207
C       -2.57627494       1.33062315       1.80962384
C        1.64276397      -2.86307281       1.54956582
C        1.02555848      -2.62284101      -1.06719638
C       -0.16089549       2.38821004       2.86819941
C        0.15505815      -0.11693595       1.22313032
C        1.14863228      -0.57163961       0.39114781
C        0.21288475       1.45694269      -2.97725666
C        3.02055198       1.09877822      -3.82730260
C        2.69489452       2.12099398       0.78630502
C       -2.17819485       2.59883465       1.41843695
C       -0.59355503       3.93525196      -2.56680990
C       -0.41742088       3.94278239       1.03610505
C        1.22866720       2.36870034       2.51662164
C        0.96548638       4.33742928      -0.68122104
C       -3.87603236       1.65455746      -1.34129946
C        2.86885437      -1.03753108      -0.84642030
C       -1.44060178      -1.65677552       1.89825639
C        2.53928764       1.87455450      -3.31017392
C       -2.38558461       3.18326532       0.10341862
C       -1.34172316      -0.47729704      -2.48937982
C       -3.28455695       2.61261845      -0.78396766
