60
Properties=species:S:1:pos:R:3 checkpoint_path=runs/20260728-direction-conditioned-checkpoint-shooting/output-v3/cases/intermediate_accepted-seed44-deep_refinement/proposal_trajectories/trial0001_proposal001_step005_proposal_relax.xyz pbc="F F F"
C       -2.48480352      -2.10756445       0.69542790
C        2.21014374      -2.95443374       0.18851154
C        1.18397468      -0.21018859       2.43673129
C       -1.02264549       3.41522646      -2.10695386
C       -2.82749523       3.10276459      -0.34051556
C        2.84326413      -1.93728381       1.74435795
C       -2.91331557      -1.08320183       1.59546056
C       -1.54750477      -2.52957397       2.79893734
C        2.23957257       2.86728471      -0.95029844
C       -0.36172410       2.82183839      -3.19846063
C       -0.82063703       2.79332503       1.03525188
C        3.06225755       1.48557187       0.76308423
C       -2.24494868      -1.97216255      -0.72241217
C        1.40509726       3.64139151      -1.88247972
C        3.25413872       0.56735612      -1.19187692
C       -1.21378709      -0.29259831       3.11594605
C        3.45691199      -0.53428376      -0.12263771
C       -1.89576744       0.87427828      -3.09341160
C       -2.57371747       1.49240750      -2.02616163
C       -0.45821371      -3.50820918       1.06439197
C        0.45012392       0.82862377      -3.67370218
C       -0.77451388      -1.25252120      -3.08390479
C       -3.80293378       2.26482034       0.30771793
C       -3.33910559       0.24015615       1.31680315
C       -2.85515358       1.25640256       2.19027591
C       -1.51736318       1.02039010       2.63597342
C        0.33845714      -0.40701887      -3.10562876
C       -2.18673318      -1.27387386       2.82221219
C       -1.95722124      -0.55256600      -2.82860341
C        2.54734163      -0.60809461       2.11494613
C        0.89556098      -1.91600888      -1.61270835
C       -0.18694147      -3.41316696      -0.29144937
C       -3.21543937       2.52293963       1.63257430
C        1.08117273       2.84208902      -2.98312964
C        0.09031750      -0.92356951       3.06857744
C       -0.38203627      -2.25698777      -2.20026269
C       -3.67546621       0.85613026       0.08071221
C       -2.15801434       3.20733687       0.92030730
C       -0.50623586       1.67595122       1.89693004
C        0.77240859       1.00374330       1.79430264
C       -1.72502716      -3.03903879       1.48549089
C       -2.60164104      -0.81553530      -1.55390868
C        3.32522993       0.15437112       1.11248341
C        1.88643870      -2.98969674       1.59719286
C        1.10342992      -2.89421365      -0.64456950
C        1.24859018      -0.60938278      -2.06796979
C        1.28987190       2.54332221      -0.01629225
C        3.22801759      -1.92451837       0.29604451
C        1.68201057       1.61901605       0.92185473
C       -0.76980638       1.55009957      -3.67244697
C        3.37285862       1.91823432      -0.62579089
C        0.54794324      -3.13593422       2.02764250
C        1.55709226       1.50024637      -3.03636756
C       -2.23400468       2.79454927      -1.59024981
C       -1.17793482      -2.83099670      -1.19289402
C       -0.12765200      -2.33210038       2.99138322
C        2.13229177       0.53502861      -2.04439015
C        0.08281331       3.20518765       0.01233946
C       -3.12784634       0.47936384      -1.14879692
C        0.03887232       3.86556415      -1.24737998
