60
Properties=species:S:1:pos:R:3 source_escape=runs/20260728-block-krylov-fixed-starter-escape/output/cases/bootstrap_quenched-seed43-variational_breadth/escape.xyz pbc="F F F"
C        1.58559911      -3.67167364      -0.81800673
C        1.97833988      -0.19629930      -2.24116182
C        2.06571521       1.90232165       1.91805047
C        2.64589093      -2.71059550      -1.05218076
C       -2.67446183       1.23570145       2.56909773
C        2.62545672       0.68688429      -0.05075167
C       -0.20728414      -3.75755123       0.96634590
C        2.50974435      -1.73688320       2.28392987
C       -2.71442079       0.70211775      -3.52402439
C        0.11672099      -1.53319588       0.16842361
C       -0.89332820       1.69068422       3.89372748
C        0.93829963       3.47554613      -0.14038242
C        0.33047481      -3.28147123      -1.38564906
C       -1.24457626       4.04635816      -0.64364285
C       -0.05923821       2.97015918      -2.36131680
C        0.28096892      -0.36534702       1.02563825
C        0.81733394       1.81071228      -2.40696486
C       -2.94324728      -2.44413625       0.00549099
C       -3.28901595      -1.34096417       0.53957671
C        2.69766844       0.78432127      -1.49584188
C       -3.11071784       1.85703581      -2.87623084
C       -1.50949468      -1.17783604      -1.52002381
C       -0.09473338      -2.63034093       2.95844847
C       -2.06820736       0.55219161       1.45627506
C       -0.79473740      -1.72740268       3.49820732
C       -0.61739287       0.30468204       1.96404696
C       -2.28176099      -0.05401836      -1.09115056
C        2.02750256      -2.82891389       1.63112057
C       -1.74309002      -2.36451959      -0.74179146
C        2.59937929       1.95846286       0.56964677
C       -1.03772805      -1.00936628      -3.90407176
C        1.83033549      -1.57016334      -1.72503070
C       -1.15923612      -0.44933578       3.21608206
C       -2.13115728       4.02493061      -1.75643248
C        2.41785825       0.76298727       2.63742101
C       -0.37417372      -1.04411541      -2.58792808
C        0.63834331      -3.26455380       1.95113144
C       -1.91374580       0.72564707       3.73321225
C       -0.15843937       1.60861651       2.74170283
C        0.74038699       2.48527774       2.06149823
C        2.30828566      -3.20125351       0.26517326
C       -0.47463333      -2.88221630      -0.20297266
C        2.08926548       2.78372642      -0.46302875
C        1.51030717      -0.08653049       0.29471174
C        1.21424928      -1.13310338      -0.50897648
C       -2.76594701       0.74247015      -2.11240269
C       -1.52893211      -1.18282888      -5.17669919
C        0.72010210       0.32685766      -2.60171497
C        0.21432853       3.35481188       1.06568923
C       -2.62423307       3.17518384      -2.74849474
C        0.01329057       3.68784583      -1.15614075
C        2.03914414       2.02602198      -1.69237210
C       -1.28032388       3.47335876      -2.92182022
C       -2.87685414       2.58649815       2.28875621
C        0.59752728      -2.16711712      -2.26337302
C        2.62789766      -0.51489513       2.69752986
C       -2.07761702      -0.17365825      -4.34462099
C       -1.18592638       3.76113186       0.79682889
C       -2.69441310      -0.07804189       0.34609868
C       -2.25443453       3.43692423       1.60633902
