54
Lattice="21.66 0.0 0.0 0.0 5.10531 0.0 0.0 0.0 22.55266" Properties=species:S:1:pos:R:3 entry_id=1 rank=0 energy=-198.67471313476562 pbc="T T F"
Cu       0.00000000       0.00000000      10.00000000
Cu       3.61000000       0.00000000      10.00000000
Cu       7.22000000       0.00000000      10.00000000
Cu      10.83000000       0.00000000      10.00000000
Cu      14.44000000       0.00000000      10.00000000
Cu      18.05000000       0.00000000      10.00000000
Cu       0.00000000       2.55265548      10.00000000
Cu       3.61000000       2.55265548      10.00000000
Cu       7.22000000       2.55265548      10.00000000
Cu      10.83000000       2.55265548      10.00000000
Cu      14.44000000       2.55265548      10.00000000
Cu      18.05000000       2.55265548      10.00000000
Cu       1.80500000       1.27632774      11.27632774
Cu       5.41500000       1.27632774      11.27632774
Cu       9.02500000       1.27632774      11.27632774
Cu      12.63500000       1.27632774      11.27632774
Cu      16.24500000       1.27632774      11.27632774
Cu      19.85500000       1.27632774      11.27632774
Cu       1.80500000       3.82898322      11.27632774
Cu       5.41500000       3.82898322      11.27632774
Cu       9.02500000       3.82898322      11.27632774
Cu      12.63500000       3.82898322      11.27632774
Cu      16.24500000       3.82898322      11.27632774
Cu      19.85500000       3.82898322      11.27632774
Cu      21.61090852       0.00942556      12.58725853
Cu       3.76921829       0.08310897      12.69128006
Cu       6.27994210       4.76237877      13.32315208
Cu      10.69044644       5.01912627      12.63313450
Cu      14.52140979       0.03035864      12.59982385
Cu      18.04970405       0.04891905      12.43721408
Cu      21.60856554       2.52236908      12.59188707
Cu       3.61969594       2.69196009      12.57199668
Cu       7.17341297       2.56589217      12.39740427
Cu      10.69166350       2.46160322      12.86101630
Cu      14.60223585       2.52939664      12.73087732
Cu      17.99607436       2.57618031      12.52702546
Cu       5.52801159       2.70990649      14.63916645
Cu       8.69636598       0.99692993      13.65521304
Cu      19.73092610       1.25653755      13.85530640
Cu       8.81440148       3.60069104      13.94238634
Cu       8.18610900       5.02276055      15.89613927
Cu       2.09806829       1.28407682      14.19328005
Cu       1.74622116       3.81368341      13.81329607
Cu      10.15133067       1.88828881      15.28579251
Cu      19.79459787       3.69034989      13.82539978
Cu      16.86753829       4.31387463      14.29714928
O        7.03937316       3.87316283      14.98463285
O        0.64937823       0.16343151      14.41845701
O       18.59443492       4.95915941      14.60609679
O       12.60143746       2.53772470      12.80520098
O        9.40573865       0.97113134      16.63482654
O        6.78750307       1.39399409      13.88814461
O       15.12936117       3.93988835      13.95014351
O        3.93031960       1.70781665      14.21922181
54
Lattice="21.66 0.0 0.0 0.0 5.10531 0.0 0.0 0.0 22.55266" Properties=species:S:1:pos:R:3 entry_id=0 rank=1 energy=-198.67318725585938 pbc="T T F"
Cu       0.00000000       0.00000000      10.00000000
Cu       3.61000000       0.00000000      10.00000000
Cu       7.22000000       0.00000000      10.00000000
Cu      10.83000000       0.00000000      10.00000000
Cu      14.44000000       0.00000000      10.00000000
Cu      18.05000000       0.00000000      10.00000000
Cu       0.00000000       2.55265548      10.00000000
Cu       3.61000000       2.55265548      10.00000000
Cu       7.22000000       2.55265548      10.00000000
Cu      10.83000000       2.55265548      10.00000000
Cu      14.44000000       2.55265548      10.00000000
Cu      18.05000000       2.55265548      10.00000000
Cu       1.80500000       1.27632774      11.27632774
Cu       5.41500000       1.27632774      11.27632774
Cu       9.02500000       1.27632774      11.27632774
Cu      12.63500000       1.27632774      11.27632774
Cu      16.24500000       1.27632774      11.27632774
Cu      19.85500000       1.27632774      11.27632774
Cu       1.80500000       3.82898322      11.27632774
Cu       5.41500000       3.82898322      11.27632774
Cu       9.02500000       3.82898322      11.27632774
Cu      12.63500000       3.82898322      11.27632774
Cu      16.24500000       3.82898322      11.27632774
Cu      19.85500000       3.82898322      11.27632774
Cu      21.60494710       0.01051610      12.58367356
Cu       3.78102769       0.08405265      12.70053111
Cu       6.29462850       4.76457486      13.31907605
Cu      10.69839138       5.01997298      12.62866787
Cu      14.51874135       0.02004740      12.59888841
Cu      18.05201394       0.05135941      12.43470780
Cu      21.60600525       2.52314070      12.59540264
Cu       3.61105461       2.70125579      12.57415907
Cu       7.17260549       2.56422415      12.39460132
Cu      10.70678855       2.46703049      12.85180409
Cu      14.62055441       2.51610760      12.75157829
Cu      17.99385343       2.57782505      12.52325831
Cu       5.53780832       2.71095530      14.61870933
Cu       8.70875596       0.99785061      13.64943108
Cu      19.73115757       1.26368543      13.85931353
Cu       8.82380490       3.60051216      13.92262210
Cu       8.22674073       5.00713795      15.88275366
Cu       2.10366027       1.29163137      14.18791568
Cu       1.73572918       3.82338267      13.81047791
Cu      10.17131234       1.89982464      15.26816837
Cu      19.78600964       3.69515681      13.82549269
Cu      16.87365898       4.32460184      14.30338096
O        7.05687324       3.87191853      14.97848080
O        0.64639510       0.18223575      14.41158368
O       18.59977874       4.97063647      14.61236085
O       12.61925310       2.53254022      12.80452402
O        9.46941934       0.93697826      16.61039364
O        6.80372947       1.39241745      13.88938980
O       15.13529822       3.94371109      13.95772748
O        3.94926505       1.68168865      14.19563143
