60
Properties=species:S:1:pos:R:3 trajectory=trial0001_proposal001_step002_proposal_relax trajectory_step=0 pbc="F F F"
C       -2.54398567      -2.16058133       0.53865297
C        2.12096172      -2.73989960       0.01664279
C        1.36166782       0.07587098       2.80544348
C       -0.96637313       3.22438417      -1.92765207
C       -2.90699524       3.06731979      -0.29910974
C        2.83840371      -1.90005216       1.81144925
C       -2.78291109      -0.98388694       1.38069404
C       -1.40742614      -2.37104525       2.63430467
C        2.13174772       2.83779182      -0.59272901
C       -0.32626043       2.69320339      -3.10204750
C       -0.79472502       3.13424502       1.24990858
C        3.08806259       1.60320402       1.04915641
C       -2.39953292      -2.15802504      -0.91592772
C        1.32218985       3.26145287      -1.64945846
C        2.79330293       0.39321309      -1.01537267
C       -1.05781295      -0.13677442       2.94562571
C        3.23425320      -0.45214258       0.05101791
C       -1.77037382       0.72665147      -2.86477879
C       -2.49620991       1.31425127      -1.84112515
C       -0.40716184      -3.37147944       0.90754298
C        0.36630609       0.63182170      -3.79473605
C       -0.89051425      -1.44301030      -3.39399085
C       -3.97675054       2.27453140       0.28331018
C       -3.32183182       0.31585618       1.22290912
C       -2.74504849       1.33850337       2.02764736
C       -1.41042414       1.16969078       2.52757839
C        0.33374599      -0.75500929      -3.72682637
C       -1.96040334      -1.11198881       2.54113800
C       -1.93810360      -0.67351350      -2.82869845
C        2.60766207      -0.53505655       2.32896940
C        0.94157531      -2.42458733      -2.30262325
C       -0.17021166      -3.19082553      -0.45550902
C       -3.25393683       2.56106517       1.55586808
C        1.10923714       2.56681179      -2.84258308
C        0.22834503      -0.76239987       3.14058041
C       -0.49156942      -2.53776128      -2.59844873
C       -3.91645166       0.83133432       0.03696590
C       -2.19769683       3.30585735       0.93678325
C       -0.36636726       2.03740275       2.14741233
C        1.01317713       1.50515874       2.34504083
C       -1.67250076      -2.97913742       1.36447084
C       -2.81042504      -1.00667237      -1.69281480
C        3.26928994       0.24278499       1.32072846
C        1.87148103      -2.87484145       1.43503129
C        1.12059784      -2.90854977      -0.96413201
C        1.39395936      -1.17280585      -2.84072498
C        1.51885344       3.17981747       0.63468819
C        3.14028860      -1.80333218       0.34260531
C        1.96995364       2.25992108       1.62961249
C       -0.77498219       1.42292533      -3.57142813
C        2.93035089       1.71116767      -0.40164432
C        0.59064172      -3.08473828       1.92553651
C        1.45824078       1.17609203      -3.05566027
C       -2.21255734       2.64172736      -1.45249363
C       -1.19539826      -2.82477288      -1.38828917
C        0.00482130      -2.22017625       2.91771791
C        2.05449382       0.09555116      -2.27926259
C        0.19828528       3.60993496       0.36857113
C       -3.27634517       0.32595414      -1.15268648
C        0.06996383       3.68785395      -1.06464047
60
Properties=species:S:1:pos:R:3 trajectory=trial0001_proposal001_step002_proposal_relax trajectory_step=1 pbc="F F F"
C       -2.54171695      -2.15452826       0.54199674
C        2.12149156      -2.74363486       0.01472687
C        1.35884465       0.07879257       2.80094789
C       -0.96849823       3.22756261      -1.92681927
C       -2.90261880       3.06756508      -0.29748753
C        2.83489731      -1.89646594       1.81145488
C       -2.78296912      -0.98809456       1.38353782
C       -1.40648312      -2.37420007       2.63050974
C        2.13543676       2.84441662      -0.59861923
C       -0.32832620       2.68658941      -3.09712767
C       -0.79575380       3.13081860       1.25230939
C        3.08757050       1.59760463       1.04686924
C       -2.39512316      -2.15377171      -0.91131384
C        1.32729830       3.25985338      -1.64571509
C        2.79640129       0.39678289      -1.01859336
C       -1.06067499      -0.13954792       2.94671554
C        3.23689257      -0.45209147       0.05213212
C       -1.77131719       0.72509960      -2.87594019
C       -2.50591474       1.31225535      -1.83964385
C       -0.40644608      -3.37016380       0.90941932
C        0.36873872       0.63113044      -3.80060150
C       -0.89222707      -1.44519736      -3.39160519
C       -3.96759531       2.27786880       0.28465728
C       -3.31899651       0.31039059       1.21901126
C       -2.75005422       1.33296622       2.02686229
C       -1.41146412       1.17109456       2.52976451
C        0.33418650      -0.75349432      -3.72204399
C       -1.96963833      -1.11456395       2.53948854
C       -1.94030302      -0.67113967      -2.82996441
C        2.61072770      -0.53706675       2.32472719
C        0.93979909      -2.41957572      -2.29711608
C       -0.17193578      -3.19696589      -0.45544589
C       -3.25274066       2.55946917       1.55517526
C        1.10633989       2.56047071      -2.83860896
C        0.22619241      -0.76369722       3.13307400
C       -0.48994618      -2.53817821      -2.59456086
C       -3.90430440       0.83036923       0.04231037
C       -2.19878977       3.30542286       0.93810416
C       -0.37002427       2.03661425       2.15238064
C        1.00994000       1.50960406       2.34507948
C       -1.67331311      -2.97976334       1.36669227
C       -2.80504537      -1.00106026      -1.69149973
C        3.27073900       0.24608120       1.31202654
C        1.86687766      -2.87626570       1.43918452
C        1.12198690      -2.90705096      -0.96543725
C        1.39576598      -1.16715279      -2.83772537
C        1.52119007       3.17925163       0.63728058
C        3.14384541      -1.80589487       0.34441373
C        1.96926706       2.26332313       1.63174045
C       -0.77683120       1.42120601      -3.56992877
C        2.93012528       1.70839959      -0.40564351
C        0.58937499      -3.07660363       1.92161107
C        1.45779862       1.17627664      -3.05544515
C       -2.20968298       2.64073340      -1.45470613
C       -1.19494720      -2.82812236      -1.38766272
C        0.00042322      -2.21891809       2.91502942
C        2.05525974       0.09519918      -2.27655904
C        0.19624854       3.61031695       0.36685590
C       -3.27719735       0.33236724      -1.15660491
C        0.06779254       3.68759898      -1.06545915
60
Properties=species:S:1:pos:R:3 trajectory=trial0001_proposal001_step002_proposal_relax trajectory_step=2 pbc="F F F"
C       -2.53321377      -2.14248143       0.54877207
C        2.12609704      -2.75289084       0.01501995
C        1.35312653       0.08497194       2.78595371
C       -0.97328757       3.23393303      -1.92746932
C       -2.88680591       3.06915556      -0.29809172
C        2.82321354      -1.89041438       1.80935021
C       -2.78714496      -0.99842520       1.38803310
C       -1.41012381      -2.37724392       2.62370322
C        2.15340347       2.85634313      -0.60193185
C       -0.33276256       2.66986301      -3.08101932
C       -0.79848120       3.12354210       1.25674040
C        3.08078457       1.59427778       1.03707731
C       -2.38233014      -2.13853853      -0.89981057
C        1.33136032       3.25794721      -1.64577569
C        2.80619101       0.40185620      -1.02652365
C       -1.07316559      -0.14664401       2.94720575
C        3.24516885      -0.45448266       0.04824408
C       -1.78666460       0.72548259      -2.89549110
C       -2.52162106       1.31215732      -1.85066233
C       -0.40682614      -3.36682997       0.91094795
C        0.37365743       0.63123782      -3.81690648
C       -0.89444877      -1.44984582      -3.38462304
C       -3.94507257       2.28087270       0.28780447
C       -3.30906340       0.29585873       1.21241723
C       -2.75929565       1.32036713       2.02773363
C       -1.42094406       1.16765564       2.53775139
C        0.33368904      -0.75140336      -3.70884193
C       -1.98645596      -1.12429552       2.54399701
C       -1.94432614      -0.66895619      -2.83562236
C        2.61665573      -0.53563234       2.31321684
C        0.93685621      -2.40255986      -2.28361399
C       -0.17323826      -3.21481807      -0.45489079
C       -3.24934352       2.55280274       1.55735695
C        1.09805077       2.54452922      -2.82320404
C        0.21877148      -0.76558002       3.11096898
C       -0.48675746      -2.53746936      -2.58505406
C       -3.87226629       0.83240738       0.04922373
C       -2.19701926       3.30448566       0.94438889
C       -0.37911823       2.03805757       2.16471859
C        1.00184556       1.51996755       2.34694356
C       -1.67519788      -2.98361150       1.36880598
C       -2.79008442      -0.98681848      -1.68572774
C        3.27424950       0.24446150       1.29583179
C        1.86304556      -2.87589170       1.44407373
C        1.12307165      -2.90518048      -0.96457221
C        1.39890242      -1.15438498      -2.82669003
C        1.52497172       3.18216183       0.63784181
C        3.15148015      -1.81309765       0.34912727
C        1.97119734       2.26996085       1.63559495
C       -0.77716534       1.41457684      -3.57011198
C        2.92777464       1.70775807      -0.41590645
C        0.58080209      -3.05443672       1.91326302
C        1.45771709       1.17407102      -3.05523267
C       -2.20665072       2.63689649      -1.45640634
C       -1.19594523      -2.83816312      -1.38335420
C       -0.00956706      -2.21466804       2.90688197
C        2.05657089       0.09710732      -2.27111596
C        0.19250715       3.60768013       0.36644131
C       -3.28234523       0.34494560      -1.16300272
C        0.06614395       3.68765840      -1.06556793
60
Properties=species:S:1:pos:R:3 trajectory=trial0001_proposal001_step002_proposal_relax trajectory_step=3 pbc="F F F"
C       -2.51843576      -2.14197060       0.54746109
C        2.13496766      -2.76481126       0.01871191
C        1.34451005       0.08792229       2.76138580
C       -0.97914033       3.23540998      -1.92745772
C       -2.86610737       3.07251406      -0.29361205
C        2.81404322      -1.88306355       1.80662445
C       -2.79577729      -1.01270134       1.39591971
C       -1.42212314      -2.38615875       2.62778232
C        2.16169930       2.88253712      -0.61052437
C       -0.33476980       2.64726554      -3.06120620
C       -0.79897825       3.11742627       1.26337791
C        3.07012204       1.58639534       1.02415872
C       -2.36154802      -2.11370023      -0.88885384
C        1.33698122       3.26007540      -1.63360195
C        2.82060209       0.39910651      -1.03642612
C       -1.09023296      -0.15524780       2.94535499
C        3.26005213      -0.46681209       0.02896995
C       -1.80827027       0.72791433      -2.92577308
C       -2.53625977       1.33132011      -1.88022379
C       -0.41037329      -3.36509038       0.90846425
C        0.37764146       0.62613985      -3.83419190
C       -0.89068304      -1.44858689      -3.37612238
C       -3.91844503       2.27509764       0.28750737
C       -3.29617929       0.28744008       1.21265036
C       -2.76131208       1.30816767       2.03844006
C       -1.43833735       1.15909473       2.55003952
C        0.33123610      -0.74774666      -3.69528793
C       -2.00649385      -1.13448983       2.56286221
C       -1.95242604      -0.67101802      -2.84225753
C        2.61142984      -0.52363646       2.30348772
C        0.93608505      -2.38075527      -2.26176451
C       -0.16893747      -3.23890712      -0.45634901
C       -3.24076592       2.54271217       1.56836542
C        1.08443953       2.52176899      -2.80254839
C        0.20743027      -0.75821859       3.07958168
C       -0.48673343      -2.53401151      -2.57145489
C       -3.83827197       0.84247519       0.04002294
C       -2.19137309       3.30136652       0.95490992
C       -0.39355071       2.04013377       2.18061030
C        0.99747654       1.52941555       2.35149171
C       -1.68228218      -2.98941774       1.36349727
C       -2.77278631      -0.97446099      -1.67172178
C        3.27799833       0.25084527       1.28286460
C        1.85605208      -2.87381316       1.44437015
C        1.12490784      -2.90762530      -0.95108593
C        1.39540645      -1.14295605      -2.80696739
C        1.53041143       3.19203814       0.63629554
C        3.15916927      -1.81953286       0.34849445
C        1.97029466       2.27897358       1.63431535
C       -0.78218151       1.40482090      -3.57394822
C        2.93187693       1.71004304      -0.42116514
C        0.57426858      -3.03004139       1.89881686
C        1.46095917       1.16796639      -3.05733112
C       -2.20295823       2.63346286      -1.46070935
C       -1.19968352      -2.85129875      -1.37676235
C       -0.02011284      -2.20302430       2.89524192
C        2.05710647       0.10522473      -2.27021574
C        0.19581209       3.59669471       0.36783294
C       -3.28551083       0.34846517      -1.17140815
C        0.06863405       3.68914890      -1.06272810
60
Properties=species:S:1:pos:R:3 trajectory=trial0001_proposal001_step002_proposal_relax trajectory_step=4 pbc="F F F"
C       -2.51338136      -2.14154061       0.54764518
C        2.14153475      -2.77284986       0.02348758
C        1.33650630       0.09244911       2.74465585
C       -0.97421964       3.23439860      -1.92557936
C       -2.85526436       3.07282298      -0.28962201
C        2.81098727      -1.87649023       1.80401404
C       -2.80231143      -1.01906559       1.40252872
C       -1.43258997      -2.39516548       2.63463521
C        2.18190435       2.88487715      -0.59944796
C       -0.33579040       2.63238978      -3.05006377
C       -0.79504962       3.11423036       1.26944581
C        3.05840241       1.59291400       1.01551913
C       -2.34486607      -2.10470741      -0.88346504
C        1.32634258       3.26423551      -1.64538312
C        2.82873004       0.39904809      -1.04449682
C       -1.09863223      -0.15712802       2.94472820
C        3.27299127      -0.47094961       0.02010153
C       -1.82715040       0.72867062      -2.94370016
C       -2.55031648       1.33369071      -1.90575788
C       -0.41323280      -3.36657999       0.90624393
C        0.37653571       0.62637294      -3.84159357
C       -0.89058122      -1.44632189      -3.36854870
C       -3.90082931       2.27405806       0.28882543
C       -3.29231610       0.28600568       1.20910209
C       -2.76436409       1.30322193       2.04727256
C       -1.44118991       1.15678852       2.55988324
C        0.33164968      -0.74983505      -3.68874765
C       -2.02354588      -1.14680695       2.57675537
C       -1.95764227      -0.67060399      -2.84726564
C        2.60566862      -0.51523189       2.29315939
C        0.93370366      -2.37267528      -2.24206691
C       -0.16869973      -3.25416912      -0.45565200
C       -3.23568915       2.53797556       1.57457773
C        1.07998080       2.51208959      -2.78305145
C        0.19763459      -0.75231650       3.06025002
C       -0.48501418      -2.52906899      -2.56273595
C       -3.82038492       0.84237745       0.03875321
C       -2.18665562       3.29817353       0.96305786
C       -0.39964628       2.03918460       2.19082965
C        0.99384709       1.53520885       2.35332251
C       -1.68260320      -2.99429528       1.36307142
C       -2.76281327      -0.96629148      -1.66555711
C        3.28073537       0.24084351       1.27697735
C        1.85940230      -2.86841052       1.44183736
C        1.12748323      -2.91057087      -0.94432072
C        1.39015565      -1.13574827      -2.79326714
C        1.53562562       3.20104596       0.63729058
C        3.16232004      -1.82311834       0.34658827
C        1.96919563       2.28139104       1.62981804
C       -0.78008326       1.39913006      -3.58331004
C        2.93134262       1.71987660      -0.42617154
C        0.56378121      -3.01836418       1.89134556
C        1.46137777       1.16573860      -3.06181188
C       -2.20177740       2.64025245      -1.46067145
C       -1.19899926      -2.85803647      -1.37610463
C       -0.02526458      -2.19517621       2.88421216
C        2.05910592       0.10725501      -2.27133590
C        0.19542643       3.58868178       0.37127204
C       -3.27777025       0.35527918      -1.18477880
C        0.06687669       3.69112623      -1.05848934
60
Properties=species:S:1:pos:R:3 trajectory=trial0001_proposal001_step002_proposal_relax trajectory_step=5 pbc="F F F"
C       -2.51528638      -2.14308271       0.54845411
C        2.14171279      -2.77173368       0.02390328
C        1.33615891       0.09331996       2.74551466
C       -0.97325887       3.23175433      -1.92477082
C       -2.85633160       3.07238501      -0.29050564
C        2.81306301      -1.87698473       1.80374710
C       -2.80342066      -1.01675523       1.40155255
C       -1.43327449      -2.39559443       2.63728283
C        2.17644671       2.88583162      -0.60180039
C       -0.33464958       2.63460332      -3.05229274
C       -0.79433623       3.11488952       1.27027121
C        3.05936572       1.59143143       1.01757812
C       -2.34593189      -2.10805304      -0.88559956
C        1.32888958       3.26544937      -1.64048396
C        2.82805570       0.39992331      -1.04350707
C       -1.09877604      -0.15716698       2.94470143
C        3.27322405      -0.46882827       0.02044286
C       -1.82687869       0.72967200      -2.94313111
C       -2.54822960       1.33634175      -1.90789229
C       -0.41373323      -3.36837262       0.90598209
C        0.37618320       0.62591768      -3.83855513
C       -0.89061323      -1.44561313      -3.36843154
C       -3.90430658       2.27293173       0.28962319
C       -3.29327403       0.28706055       1.21078775
C       -2.76346515       1.30603423       2.04832524
C       -1.43971696       1.15704462       2.55995297
C        0.33168819      -0.75062115      -3.69099918
C       -2.02157829      -1.14635787       2.57895316
C       -1.95685433      -0.67108331      -2.84759309
C        2.60330837      -0.51579204       2.29291811
C        0.93374482      -2.37467076      -2.24345927
C       -0.16841797      -3.25261151      -0.45574291
C       -3.23633579       2.53955919       1.57493781
C        1.08074050       2.51294372      -2.78669558
C        0.19749784      -0.75219627       3.06240247
C       -0.48451108      -2.52799207      -2.56375371
C       -3.82498107       0.84129703       0.03608676
C       -2.18497567       3.29809742       0.96375031
C       -0.39530679       2.03969184       2.18904023
C        0.99444401       1.53374646       2.35240933
C       -1.68231586      -2.99407473       1.36405030
C       -2.76373853      -0.96855770      -1.66808964
C        3.27978233       0.24279552       1.27812464
C        1.86022548      -2.86724346       1.44170909
C        1.12683676      -2.91284116      -0.94325261
C        1.38886121      -1.13839887      -2.79315365
C        1.53539114       3.20235067       0.63705505
C        3.16160127      -1.82205967       0.34529816
C        1.96794275       2.27896653       1.62980545
C       -0.78062844       1.40016069      -3.58528290
C        2.93251168       1.71862069      -0.42525887
C        0.56603745      -3.02196380       1.89221402
C        1.46148465       1.16665972      -3.06257481
C       -2.20379878       2.64107337      -1.46133693
C       -1.19780494      -2.85669934      -1.37678092
C       -0.02484678      -2.19540910       2.88354358
C        2.05949984       0.10613785      -2.27294804
C        0.19648504       3.58877232       0.37208205
C       -3.27623492       0.35412495      -1.18278025
C        0.06720248       3.69145515      -1.05761687
60
Properties=species:S:1:pos:R:3 trajectory=trial0001_proposal001_step002_proposal_relax trajectory_step=6 pbc="F F F"
C       -2.51707025      -2.14458548       0.55008701
C        2.14280479      -2.77189318       0.02454245
C        1.33322851       0.09531080       2.74330349
C       -0.97134771       3.22728940      -1.92261379
C       -2.85567135       3.07150568      -0.28923661
C        2.81540746      -1.87575449       1.80278252
C       -2.80544664      -1.01620999       1.40309907
C       -1.43561012      -2.39862492       2.64236370
C        2.17355360       2.88746032      -0.60272675
C       -0.33316441       2.63466768      -3.05326970
C       -0.79169261       3.11493748       1.27341631
C        3.05853604       1.59007537       1.01856637
C       -2.34510010      -2.11115133      -0.88713318
C        1.33058825       3.26721672      -1.63735200
C        2.82906188       0.40199498      -1.04418563
C       -1.10118816      -0.15823369       2.94512740
C        3.27633556      -0.46667403       0.01939500
C       -1.82915762       0.73169072      -2.94936096
C       -2.54999756       1.34135376      -1.91489225
C       -0.41471924      -3.37193561       0.90624560
C        0.37568437       0.62436091      -3.83600522
C       -0.89025330      -1.44448706      -3.36720547
C       -3.90526369       2.27167203       0.29095557
C       -3.29410164       0.28856473       1.21239273
C       -2.76307273       1.30849125       2.05149210
C       -1.43809992       1.15782232       2.56195055
C        0.33169569      -0.75188313      -3.69255065
C       -2.02463355      -1.14756856       2.58414963
C       -1.95715144      -0.67074793      -2.84956426
C        2.59861087      -0.51523899       2.28928962
C        0.93338686      -2.37594508      -2.24147669
C       -0.16819028      -3.25422789      -0.45548413
C       -3.23618330       2.54146056       1.57654762
C        1.08161202       2.51393252      -2.78699631
C        0.19530164      -0.75153236       3.06104924
C       -0.48314371      -2.52584557      -2.56288695
C       -3.82725965       0.83976161       0.03360159
C       -2.18225640       3.29712336       0.96576425
C       -0.39055148       2.03964558       2.18930898
C        0.99443042       1.53282467       2.35093466
C       -1.68296175      -2.99429355       1.36641764
C       -2.76228018      -0.97035108      -1.67094002
C        3.27872367       0.24442254       1.27802815
C        1.86087740      -2.86494261       1.44221607
C        1.12670899      -2.91742989      -0.94067245
C        1.38671962      -1.14020286      -2.79020332
C        1.53678760       3.20523772       0.63826014
C        3.16249430      -1.81985886       0.34271060
C        1.96624463       2.27669611       1.62814670
C       -0.78216487       1.40091434      -3.59022038
C        2.93323275       1.71953812      -0.42520823
C        0.56808352      -3.02464349       1.89182522
C        1.46221169       1.16666507      -3.06422986
C       -2.20622702       2.64304240      -1.46454643
C       -1.19555387      -2.85630597      -1.37724124
C       -0.02590820      -2.19440003       2.87984024
C        2.06085956       0.10473945      -2.27533526
C        0.19746505       3.58843883       0.37420457
C       -3.27202426       0.35441608      -1.18307242
C        0.06737323       3.69198042      -1.05519419
60
Properties=species:S:1:pos:R:3 trajectory=trial0001_proposal001_step002_proposal_relax trajectory_step=7 pbc="F F F"
C       -2.51789046      -2.14514317       0.55223028
C        2.14465025      -2.77209160       0.02548240
C        1.32868861       0.09653741       2.73896792
C       -0.96934745       3.22242826      -1.91994713
C       -2.85274286       3.06941211      -0.28754595
C        2.81653299      -1.87329576       1.80059443
C       -2.80824611      -1.01715202       1.40698842
C       -1.43892712      -2.40142995       2.64734561
C        2.17396557       2.89044624      -0.60214707
C       -0.33205730       2.63308369      -3.05256934
C       -0.78844258       3.11453770       1.27803715
C        3.05687139       1.58995344       1.01724394
C       -2.34434996      -2.11304014      -0.88697365
C        1.33167785       3.26937575      -1.63534714
C        2.83189575       0.40509994      -1.04644774
C       -1.10551671      -0.15952875       2.94668530
C        3.28091091      -0.46371497       0.01677376
C       -1.83499894       0.73462980      -2.96092739
C       -2.55581974       1.34503249      -1.92456704
C       -0.41632920      -3.37664852       0.90828342
C        0.37526563       0.62320624      -3.83518219
C       -0.88948437      -1.44404183      -3.36618912
C       -3.90359229       2.27131109       0.29244798
C       -3.29396021       0.28858396       1.21448914
C       -2.76349079       1.30969572       2.05481367
C       -1.43748588       1.15830015       2.56505746
C        0.33201870      -0.75355270      -3.69185365
C       -2.03188387      -1.15074637       2.59084440
C       -1.95773405      -0.66892052      -2.85377145
C        2.59295743      -0.51378318       2.28320450
C        0.93351033      -2.37629049      -2.23738318
C       -0.16854268      -3.25944565      -0.45366247
C       -3.23570670       2.54304027       1.57906458
C        1.08287413       2.51325307      -2.78672178
C        0.19127999      -0.75191004       3.05646423
C       -0.48141146      -2.52401554      -2.56022825
C       -3.82538666       0.83889366       0.03330877
C       -2.17899530       3.29548688       0.96790358
C       -0.38814881       2.03870405       2.19213552
C        0.99423077       1.53245062       2.34875692
C       -1.68411153      -2.99529743       1.36970342
C       -2.75846223      -0.97008750      -1.67328404
C        3.27771716       0.24573774       1.27615042
C        1.86219546      -2.86261329       1.44273181
C        1.12762614      -2.92325365      -0.93890086
C        1.38592725      -1.14041565      -2.78638018
C        1.53890922       3.20830130       0.64037795
C        3.16482922      -1.81797003       0.33976917
C        1.96535144       2.27561213       1.62640650
C       -0.78221871       1.40259576      -3.59714932
C        2.93308435       1.72114071      -0.42602859
C        0.56827438      -3.02565451       1.89127937
C        1.46301675       1.16623063      -3.06535594
C       -2.20920192       2.64629807      -1.46868539
C       -1.19369415      -2.85703022      -1.37606028
C       -0.02803136      -2.19304260       2.87477529
C        2.06341666       0.10377893      -2.27683910
C        0.19909430       3.58954829       0.37729287
C       -3.26717014       0.35622485      -1.18493608
C        0.06718193       3.69147096      -1.05231551
60
Properties=species:S:1:pos:R:3 trajectory=trial0001_proposal001_step002_proposal_relax trajectory_step=8 pbc="F F F"
C       -2.51916553      -2.14514521       0.55719383
C        2.14512227      -2.77032737       0.02378439
C        1.32264541       0.09410624       2.73253483
C       -0.96660720       3.21574589      -1.91639027
C       -2.84808086       3.06468958      -0.28559208
C        2.81778783      -1.86807133       1.79603932
C       -2.81353981      -1.02100284       1.41304143
C       -1.44227753      -2.40499421       2.65142112
C        2.17655391       2.89445933      -0.60012433
C       -0.32789396       2.63332952      -3.05286535
C       -0.78444628       3.11576770       1.28408507
C        3.05717563       1.59200174       1.01479794
C       -2.34672133      -2.11497289      -0.88686128
C        1.33168946       3.26925466      -1.63858579
C        2.83719811       0.41018691      -1.05060581
C       -1.11312742      -0.16360141       2.95205428
C        3.28646769      -0.46119821       0.01400682
C       -1.84330014       0.74253900      -2.98278735
C       -2.56532129       1.35149803      -1.93831239
C       -0.41824674      -3.38596286       0.91383549
C        0.37755216       0.62024837      -3.83365817
C       -0.88784840      -1.44550889      -3.36624935
C       -3.90141397       2.27185492       0.29508206
C       -3.29461543       0.28973976       1.21882282
C       -2.76382899       1.31122424       2.05825779
C       -1.43934334       1.15693788       2.56927047
C        0.33465054      -0.75178657      -3.68931475
C       -2.04151592      -1.15106996       2.60294020
C       -1.95717785      -0.66677526      -2.86225513
C        2.58487452      -0.51232410       2.27358620
C        0.93545686      -2.37838939      -2.23421864
C       -0.16824581      -3.26871515      -0.44988615
C       -3.23541566       2.54608818       1.58229775
C        1.08767828       2.51874006      -2.78487933
C        0.18417936      -0.75359600       3.05074676
C       -0.48058186      -2.52281773      -2.55496487
C       -3.81928740       0.83774262       0.03538488
C       -2.17427666       3.29162938       0.96892965
C       -0.38596322       2.03784595       2.19574293
C        0.99289914       1.52883219       2.34561002
C       -1.68772310      -2.99652330       1.37524309
C       -2.75227332      -0.96718089      -1.67616233
C        3.27551471       0.24880360       1.27163238
C        1.85988621      -2.86267687       1.44360765
C        1.12993636      -2.93352549      -0.93574207
C        1.38955906      -1.14214074      -2.78341176
C        1.54194019       3.21267607       0.64360281
C        3.16952291      -1.81202898       0.33390530
C        1.96613617       2.27536330       1.62631451
C       -0.78588577       1.40607033      -3.60671228
C        2.93130119       1.72627332      -0.42827877
C        0.57199817      -3.02935333       1.89183532
C        1.46386459       1.16400426      -3.06558765
C       -2.21588867       2.64726892      -1.47756422
C       -1.19305844      -2.85777043      -1.37100655
C       -0.03243823      -2.19171984       2.87136184
C        2.06812135       0.10451466      -2.27867136
C        0.20126502       3.59531775       0.38450539
C       -3.26268194       0.35745450      -1.18437826
C        0.06778835       3.68725638      -1.04819790
60
Properties=species:S:1:pos:R:3 trajectory=trial0001_proposal001_step002_proposal_relax trajectory_step=9 pbc="F F F"
C       -2.51871115      -2.14468176       0.55682207
C        2.14621509      -2.77037355       0.02524851
C        1.32142446       0.09381920       2.73088951
C       -0.96692063       3.21552757      -1.91652789
C       -2.84681341       3.06412083      -0.28563815
C        2.81618290      -1.86861089       1.79476184
C       -2.81413117      -1.02086379       1.41517402
C       -1.44331693      -2.40393887       2.65188859
C        2.17742604       2.89617805      -0.60055470
C       -0.32880172       2.63197300      -3.05195714
C       -0.78428590       3.11538320       1.28508144
C        3.05645191       1.59291772       1.01358961
C       -2.34597609      -2.11354980      -0.88533472
C        1.33230540       3.27036273      -1.63586487
C        2.83845764       0.41061767      -1.05134097
C       -1.11382469      -0.16245805       2.95284264
C        3.28743586      -0.45973614       0.01204701
C       -1.84694548       0.74159435      -2.98438938
C       -2.56793180       1.34982631      -1.94070790
C       -0.41860577      -3.38649084       0.91419043
C        0.37646653       0.62257099      -3.83457062
C       -0.88697690      -1.44522198      -3.36604193
C       -3.89953119       2.27191299       0.29498160
C       -3.29388050       0.28815389       1.21898482
C       -2.76447248       1.31043214       2.05871061
C       -1.43952209       1.15703577       2.57005628
C        0.33463777      -0.75395327      -3.68760016
C       -2.04458533      -1.15434407       2.60320675
C       -1.95791321      -0.66541618      -2.86308285
C        2.58475012      -0.51148511       2.27225566
C        0.93532392      -2.37798990      -2.23240300
C       -0.16882778      -3.27087885      -0.44884936
C       -3.23484555       2.54562713       1.58300323
C        1.08724990       2.51520496      -2.78636822
C        0.18349193      -0.75405352       3.04906955
C       -0.48019973      -2.52269007      -2.55373840
C       -3.81680307       0.83857367       0.03634851
C       -2.17412181       3.29118336       0.96888983
C       -0.38793978       2.03681707       2.19723175
C        0.99281917       1.52946126       2.34529317
C       -1.68719182      -2.99743137       1.37507886
C       -2.75073840      -0.96595839      -1.67538212
C        3.27562934       0.24842194       1.27085641
C        1.86275396      -2.86133234       1.44235583
C        1.12983878      -2.93372779      -0.93693591
C        1.39015426      -1.14131383      -2.78279181
C        1.54251338       3.21308374       0.64427759
C        3.16916392      -1.81391383       0.33412002
C        1.96635263       2.27611171       1.62636961
C       -0.78256286       1.40694970      -3.60817606
C        2.93167317       1.72616652      -0.42871707
C        0.56857362      -3.02824740       1.89266744
C        1.46396676       1.16515253      -3.06513993
C       -2.21520471       2.64860445      -1.47760044
C       -1.19306267      -2.85850242      -1.37032458
C       -0.03259973      -2.19211848       2.87041365
C        2.06890659       0.10477436      -2.27816304
C        0.20197066       3.59568217       0.38405565
C       -3.26170176       0.35868089      -1.18659960
C        0.06738375       3.68664665      -1.04775151
60
Properties=species:S:1:pos:R:3 trajectory=trial0001_proposal001_step002_proposal_relax trajectory_step=10 pbc="F F F"
C       -2.51853522      -2.14432653       0.55678562
C        2.14588443      -2.77022858       0.02496490
C        1.32140891       0.09292245       2.73037274
C       -0.96720375       3.21587589      -1.91711942
C       -2.84643408       3.06372940      -0.28641340
C        2.81541435      -1.86868735       1.79418870
C       -2.81453428      -1.02104417       1.41585817
C       -1.44324494      -2.40328847       2.65105824
C        2.17810098       2.89660716      -0.60035322
C       -0.32891121       2.63218724      -3.05199316
C       -0.78470790       3.11557891       1.28491342
C        3.05680960       1.59362593       1.01319190
C       -2.34604440      -2.11236771      -0.88451174
C        1.33198170       3.27010775      -1.63588855
C        2.83899641       0.41077683      -1.05162044
C       -1.11406855      -0.16233360       2.95372878
C        3.28719218      -0.45971786       0.01151314
C       -1.84775837       0.74148723      -2.98497649
C       -2.56874148       1.34902605      -1.94108791
C       -0.41857118      -3.38677217       0.91463272
C        0.37657949       0.62297432      -3.83470994
C       -0.88657914      -1.44526779      -3.36596548
C       -3.89892992       2.27193561       0.29487069
C       -3.29364301       0.28756488       1.21929892
C       -2.76472875       1.30997603       2.05855611
C       -1.44015125       1.15676865       2.57009232
C        0.33507670      -0.75359058      -3.68674536
C       -2.04490935      -1.15461668       2.60329022
C       -1.95796685      -0.66522026      -2.86334216
C        2.58532899      -0.51154577       2.27210814
C        0.93547243      -2.37818112      -2.23246771
C       -0.16892392      -3.27157900      -0.44850077
C       -3.23467417       2.54529053       1.58306846
C        1.08742314       2.51500659      -2.78679292
C        0.18342305      -0.75446935       3.04925429
C       -0.48044653      -2.52287261      -2.55320803
C       -3.81533384       0.83906915       0.03672416
C       -2.17421801       3.29089134       0.96826582
C       -0.38918626       2.03646591       2.19732640
C        0.99261222       1.52928328       2.34529053
C       -1.68711164      -2.99764072       1.37467785
C       -2.75024896      -0.96508096      -1.67466078
C        3.27564291       0.24852751       1.27036369
C        1.86231537      -2.86170235       1.44204037
C        1.12976909      -2.93353008      -0.93744239
C        1.39135769      -1.14132741      -2.78334230
C        1.54256540       3.21320105       0.64439717
C        3.16889771      -1.81423997       0.33401703
C        1.96672788       2.27674457       1.62702622
C       -0.78205097       1.40726078      -3.60789040
C        2.93193350       1.72646669      -0.42893699
C        0.56821152      -3.02830572       1.89320352
C        1.46400774       1.16560994      -3.06460635
C       -2.21496204       2.64828647      -1.47753339
C       -1.19358210      -2.85861867      -1.36959353
C       -0.03270671      -2.19261474       2.87139219
C        2.06925716       0.10534443      -2.27785898
C        0.20215219       3.59624825       0.38400890
C       -3.26216638       0.35888868      -1.18684140
C        0.06730582       3.68572677      -1.04786802
60
Properties=species:S:1:pos:R:3 trajectory=trial0001_proposal001_step002_proposal_relax trajectory_step=11 pbc="F F F"
C       -2.51891843      -2.14373731       0.55758318
C        2.14474464      -2.76985765       0.02421254
C        1.32076827       0.09096221       2.72859254
C       -0.96734626       3.21566466      -1.91807760
C       -2.84583899       3.06246819      -0.28770768
C        2.81405043      -1.86884074       1.79216559
C       -2.81611066      -1.02177588       1.41806723
C       -1.44319142      -2.40279864       2.64998374
C        2.17891158       2.89782045      -0.59984690
C       -0.32861153       2.63332547      -3.05333603
C       -0.78496557       3.11617287       1.28501050
C        3.05778836       1.59519764       1.01296886
C       -2.34591671      -2.11011376      -0.88285847
C        1.33143256       3.26942858      -1.63561125
C        2.84059200       0.41203174      -1.05256182
C       -1.11514629      -0.16248639       2.95660972
C        3.28700030      -0.45915525       0.01024234
C       -1.84979400       0.74202052      -2.98809469
C       -2.57099821       1.34891922      -1.94387225
C       -0.41846452      -3.38878900       0.91576097
C        0.37699896       0.62391425      -3.83348945
C       -0.88533795      -1.44473765      -3.36508449
C       -3.89774947       2.27174215       0.29473726
C       -3.29383474       0.28718255       1.22031229
C       -2.76529534       1.30959432       2.05919367
C       -1.44126617       1.15616019       2.57072395
C        0.33635807      -0.75310310      -3.68503988
C       -2.04604955      -1.15483739       2.60498706
C       -1.95800350      -0.66497460      -2.86430126
C        2.58563034      -0.51180154       2.27090361
C        0.93582968      -2.37927607      -2.23292507
C       -0.16925171      -3.27344211      -0.44754618
C       -3.23423065       2.54512393       1.58313957
C        1.08832374       2.51629464      -2.78784334
C        0.18284214      -0.75556569       3.05047099
C       -0.48083913      -2.52256488      -2.55172952
C       -3.81248850       0.83942997       0.03725204
C       -2.17411189       3.28974542       0.96658920
C       -0.39068216       2.03556485       2.19693820
C        0.99195371       1.52822681       2.34465870
C       -1.68715857      -2.99775460       1.37438813
C       -2.74879037      -0.96342060      -1.67362107
C        3.27539067       0.24923495       1.26909686
C        1.86140462      -2.86195219       1.44112643
C        1.12924123      -2.93440272      -0.93799728
C        1.39424047      -1.14223812      -2.78437341
C        1.54316101       3.21433445       0.64530457
C        3.16793414      -1.81403618       0.33265033
C        1.96725935       2.27776544       1.62819150
C       -0.78170892       1.40806350      -3.60815300
C        2.93313861       1.72799355      -0.42924862
C        0.56762844      -3.03017399       1.89511546
C        1.46438308       1.16650343      -3.06378755
C       -2.21491982       2.64716225      -1.47911514
C       -1.19432483      -2.85839283      -1.36784256
C       -0.03315478      -2.19410733       2.87360464
C        2.07079739       0.10650838      -2.27788559
C        0.20253843       3.59759898       0.38459681
C       -3.26229912       0.35928625      -1.18737067
C        0.06703101       3.68318049      -1.04764758
60
Properties=species:S:1:pos:R:3 trajectory=trial0001_proposal001_step002_proposal_relax trajectory_step=12 pbc="F F F"
C       -2.51960269      -2.14312482       0.55928520
C        2.14233754      -2.77032930       0.02276323
C        1.31944089       0.08913932       2.72577079
C       -0.96741497       3.21464678      -1.92009068
C       -2.84454426       3.06073269      -0.29149170
C        2.81293496      -1.86809369       1.78949926
C       -2.81910168      -1.02142343       1.42160466
C       -1.44366564      -2.40240585       2.65000922
C        2.18017681       2.89940310      -0.59840087
C       -0.32858637       2.63562820      -3.05606327
C       -0.78539300       3.11593191       1.28480078
C        3.05867424       1.59672621       1.01339942
C       -2.34384477      -2.10672590      -0.88025980
C        1.33037374       3.26867297      -1.63430931
C        2.84324101       0.41470981      -1.05378454
C       -1.11615031      -0.16309260       2.96099717
C        3.28662251      -0.45801644       0.00843359
C       -1.85257054       0.74188889      -2.99216994
C       -2.57417986       1.34917993      -1.94938838
C       -0.41941731      -3.39172253       0.91705168
C        0.37739756       0.62321822      -3.83015535
C       -0.88375380      -1.44295819      -3.36196073
C       -3.89623563       2.27041006       0.29413307
C       -3.29403338       0.28581805       1.22199982
C       -2.76666786       1.30956821       2.06122401
C       -1.44186606       1.15566440       2.57238703
C        0.33827376      -0.75129551      -3.68340574
C       -2.04721608      -1.15649717       2.60795765
C       -1.95833632      -0.66407062      -2.86480120
C        2.58557347      -0.51239047       2.26871802
C        0.93610603      -2.38076177      -2.23281288
C       -0.16986234      -3.27548115      -0.44718691
C       -3.23354466       2.54466416       1.58287099
C        1.08924114       2.51794935      -2.78960512
C        0.18239480      -0.75706631       3.05342172
C       -0.48095620      -2.52107418      -2.54979433
C       -3.80953486       0.83927730       0.03635867
C       -2.17306777       3.28839316       0.96486733
C       -0.39180241       2.03392799       2.19555264
C        0.99113214       1.52720130       2.34269226
C       -1.68654499      -2.99757364       1.37403129
C       -2.74667814      -0.96154215      -1.67237666
C        3.27524089       0.24939587       1.26786374
C        1.85738604      -2.86253464       1.44091480
C        1.12761404      -2.93596024      -0.93864559
C        1.39756312      -1.14336210      -2.78513762
C        1.54388525       3.21698377       0.64658471
C        3.16552160      -1.81324045       0.32946558
C        1.96729580       2.27840244       1.62912964
C       -0.78104476       1.40864634      -3.60864293
C        2.93601040       1.73110729      -0.42903060
C        0.56890113      -3.03392853       1.89708105
C        1.46522966       1.16868909      -3.06312177
C       -2.21491437       2.64698494      -1.48083495
C       -1.19463299      -2.85730730      -1.36621596
C       -0.03396317      -2.19662972       2.87658091
C        2.07363135       0.10767500      -2.27869612
C        0.20282510       3.59770309       0.38492819
C       -3.26166183       0.36037470      -1.18901678
C        0.06633764       3.68018051      -1.04676823
60
Properties=species:S:1:pos:R:3 trajectory=trial0001_proposal001_step002_proposal_relax trajectory_step=13 pbc="F F F"
C       -2.51984285      -2.14287538       0.55987290
C        2.14174753      -2.77029898       0.02286431
C        1.31919451       0.08880433       2.72522808
C       -0.96729532       3.21454509      -1.92018687
C       -2.84464307       3.06050245      -0.29109828
C        2.81229614      -1.86861358       1.78850228
C       -2.81944712      -1.02228970       1.42243623
C       -1.44336969      -2.40317752       2.65002352
C        2.17998248       2.90013390      -0.59838786
C       -0.32835218       2.63603581      -3.05708025
C       -0.78523039       3.11571027       1.28471983
C        3.05901825       1.59667205       1.01375225
C       -2.34345797      -2.10607410      -0.87983660
C        1.33037244       3.26820707      -1.63412196
C        2.84388473       0.41548873      -1.05404300
C       -1.11656089      -0.16347499       2.96199024
C        3.28651786      -0.45767330       0.00803290
C       -1.85269789       0.74262024      -2.99345559
C       -2.57477543       1.35009777      -1.95054324
C       -0.41912729      -3.39258806       0.91700882
C        0.37761393       0.62415226      -3.82916305
C       -0.88334106      -1.44224753      -3.36134780
C       -3.89571885       2.27029454       0.29378982
C       -3.29450893       0.28648122       1.22217945
C       -2.76677491       1.30951863       2.06182356
C       -1.44213878       1.15530394       2.57286973
C        0.33854547      -0.75197189      -3.68287215
C       -2.04746815      -1.15575894       2.60894573
C       -1.95822910      -0.66436735      -2.86490406
C        2.58516328      -0.51247738       2.26833466
C        0.93622551      -2.38085027      -2.23319611
C       -0.17024058      -3.27591219      -0.44684601
C       -3.23336475       2.54472381       1.58247499
C        1.08950092       2.51908139      -2.78967042
C        0.18230652      -0.75750778       3.05421593
C       -0.48089929      -2.52061542      -2.54942172
C       -3.80904943       0.83885215       0.03634273
C       -2.17328056       3.28794978       0.96413031
C       -0.39165764       2.03362647       2.19507668
C        0.99083989       1.52665508       2.34215243
C       -1.68679648      -2.99717231       1.37444604
C       -2.74629262      -0.96118822      -1.67222976
C        3.27519134       0.24994451       1.26746975
C        1.85827410      -2.86195508       1.44023114
C        1.12730733      -2.93662673      -0.93852710
C        1.39829134      -1.14369672      -2.78516715
C        1.54421453       3.21747518       0.64702732
C        3.16461280      -1.81305089       0.32872042
C        1.96724799       2.27852228       1.62911731
C       -0.78137674       1.40849735      -3.60878935
C        2.93682306       1.73166158      -0.42885142
C        0.56765139      -3.03509928       1.89810051
C        1.46550097       1.16861919      -3.06312242
C       -2.21495537       2.64627593      -1.48245404
C       -1.19462491      -2.85692509      -1.36584146
C       -0.03397440      -2.19726893       2.87719230
C        2.07443882       0.10811610      -2.27895113
C        0.20267684       3.59762983       0.38522552
C       -3.26153391       0.36042543      -1.18913480
C        0.06616022       3.67941964      -1.04684399
