60
Properties=species:S:1:pos:R:3 system=runs/20260728-safe-lbfgs-strict-quench-200-production/output-c60-seed42 state_id=intermediate_accepted pbc="F F F"
C       -1.09947030       0.11665102       3.06351877
C        3.31695577      -0.45001177       1.38300196
C        1.39605679       2.81948226       0.11860089
C       -2.45949455      -0.69715425      -2.84294794
C       -3.83201059       0.73893862      -1.38037440
C        3.56062183       1.48730861       0.75250567
C       -1.83391267       1.27101932       2.63312127
C        0.14658166       2.04946276       3.50586385
C        0.62174809       0.62606996      -3.69531441
C       -1.73084713      -1.91395423      -2.98189526
C       -1.87967128       2.33504478      -1.82641573
C        2.11384023       1.75552828      -2.45365689
C       -1.08342474      -1.19871050       2.45186953
C       -0.41941186      -0.28084840      -3.88379206
C        2.34143264      -0.56789717      -2.09412699
C       -0.58940432       3.06014221       1.58518770
C        3.18135722       0.18757455      -1.15892672
C       -2.28968278      -2.56175458      -0.71509556
C       -3.11504917      -1.40484809      -0.60622185
C        1.34946428       0.12253713       3.32171304
C       -0.25353929      -3.22321160      -1.87981214
C       -0.36064241      -3.33640592       0.56243957
C       -4.30300429       1.03475264      -0.05744278
C       -2.83122305       1.39355212       1.64897377
C       -2.79293030       2.55096411       0.81504201
C       -1.50065391       3.06211323       0.49878642
C        0.37128424      -3.41769382      -0.66040674
C       -1.00017041       2.42497610       2.78904671
C       -1.63942178      -2.74543042       0.54137013
C        2.71527213       2.26023777      -0.12111594
C        1.76050305      -2.39496744       0.82186325
C        1.41214597      -1.13253478       2.71960539
C       -3.77008018       2.39206527      -0.18725245
C       -0.40824726      -1.62088558      -3.48356101
C        0.82416803       2.90632721       1.44320910
C        0.54791383      -2.80935032       1.48896741
C       -3.56863807       0.37990790       0.99636262
C       -3.21677456       2.03961993      -1.46051340
C       -0.99102173       2.92039149      -0.83175994
C        0.45996660       2.90627512      -1.02393882
C        0.08278553       0.63231345       3.68997983
C       -2.01150001      -1.66465176       1.43851569
C        2.89587875       1.57033932      -1.34412570
C        3.19524466       0.87072931       1.97274713
C        2.36029014      -1.42536496       1.67810345
C        1.56959319      -2.60782328      -0.58990715
C        0.03386571       1.85984929      -3.22880772
C        3.74857735       0.12243175       0.13921768
C        0.91090531       2.49596423      -2.32070789
C       -1.63379152      -2.86025642      -1.93143645
C        1.85351709       0.44998716      -3.02572852
C        2.13867103       1.19823383       2.81319928
C        0.53296084      -2.29519252      -2.65488615
C       -3.29538471      -0.52050985      -1.70379797
C        0.19875018      -1.86548552       2.48213768
C        1.29638613       2.33647595       2.68280329
C        1.65694117      -1.82798116      -1.85039074
C       -1.33496753       1.65666816      -2.95418143
C       -3.05224071      -0.90603708       0.74126252
C       -1.65653421       0.33499522      -3.42204390
