60
Properties=species:S:1:pos:R:3 trial_index=24 seed_entry_id=9 discovered_entry_id=11 energy=-490.00360107421875 status=accepted pbc="F F F"
C       -0.80309271      -2.51711591      -0.46168149
C        1.52665792      -1.06001912       1.37007821
C        0.15664592      -5.29869748       3.63917652
C        1.54571603      -3.30185319       0.31692373
C       -2.24019818      -4.98400372       4.22844929
C        2.12813392      -4.29913783       2.32349970
C       -2.31339094      -4.31470346       0.22930091
C        0.79416103      -5.45785128       0.55228532
C       -4.33397561       0.93708657       1.89501660
C       -0.43978820      -2.23268915       2.33538409
C       -1.52988579      -6.91687688       2.85338030
C        0.62635261      -2.91473080       5.23885238
C       -2.14322022      -2.98187913      -0.29023899
C       -0.99123301      -1.26777265       5.24978617
C        1.09980504      -0.62282614       4.62908464
C       -1.81459163      -2.34329049       2.40943694
C        2.04792368      -1.01377645       3.67616550
C       -2.95640061      -1.87821168       0.07728774
C       -4.16572535      -2.05913190       0.77676935
C        2.59593520      -2.94264963       2.32396780
C       -3.63748372      -0.47705849       3.76792226
C       -2.09416175      -0.93148919       2.13977052
C       -1.20825029      -6.47580344       0.60866722
C       -2.83055919      -4.51784718       1.52368520
C       -2.16511450      -6.87616465       1.53026926
C       -2.93984038      -3.37941901       2.50658611
C       -4.64704138      -1.40624093       1.93330590
C       -0.05586680      -4.79410698      -0.38015251
C       -2.08524070      -0.92183659       0.68238653
C        1.37866915      -4.52257131       3.52070404
C       -1.02102585       2.12826973       1.58528351
C        2.17920301      -2.29320981       1.13275818
C       -2.95319103      -5.80938044       2.04940960
C       -1.16545507      -0.20128972       4.31241260
C       -0.23273021      -6.32205773       2.71220663
C        0.05020815       1.59116769       1.99385894
C       -1.36724756      -5.30228156      -0.19141766
C       -2.51567671      -6.05871454       3.38196357
C       -3.02367720      -3.82881299       3.94471188
C       -0.87208987      -4.73340015       4.50104994
C        0.29474195      -3.41668974      -0.42494910
C       -0.73562314      -1.27520230       0.22301645
C        1.58699753      -3.34591745       4.32637882
C        1.72644279      -4.54180482       1.00883642
C        0.14402984      -1.38450149       1.35650982
C       -4.57440326      -0.18783088       2.62217950
C       -2.28599318       2.25306760       1.38653977
C        1.81665498      -0.23770514       2.49725116
C       -0.64689190      -3.52859402       5.20873114
C       -2.25359680      -0.18082605       3.34816118
C        0.41377656      -1.53273206       5.41447824
C        2.32015823      -2.38162234       3.57558913
C        0.16867580       0.24695953       4.02040904
C       -3.71737521      -1.58237346       4.49765600
C        0.74223274       0.74921957       2.80951604
C        0.00878291      -6.32808032       1.32166648
C       -3.48869598       1.80188789       1.51877073
C       -1.65222766      -2.50813488       5.30899601
C       -4.18149961      -2.69371514       2.02796755
C       -2.97784474      -2.67309580       4.81117858
