60
Properties=species:S:1:pos:R:3 trial_index=19 seed_entry_id=9 discovered_entry_id=10 energy=-487.9982604980469 status=accepted pbc="F F F"
C        1.26432819      -1.10892918      -1.09927007
C        4.05720236       0.64540987       1.40709985
C        2.24552334      -3.41781095       3.51214098
C        3.34757350      -1.35737772       0.18769820
C       -0.19430248      -3.31994459       3.79958878
C        4.21703866      -2.19653292       2.34812610
C        0.00333282      -2.97596589      -0.27758336
C        3.16568481      -3.58463394       0.50056527
C       -2.49351990       2.24163969       0.89407853
C        1.58192425      -0.12901622       0.97463365
C        0.83727157      -5.25551242       2.66172910
C        2.31111956      -0.97317960       5.11958177
C       -0.01494394      -1.69588596      -0.93419771
C        0.57446108       0.51806670       4.80802971
C        2.67745663       1.31875265       4.46416182
C        0.32932947      -0.70126923       1.66937252
C        3.81448412       0.94592311       3.71619839
C       -0.95244979      -0.64524987      -0.65093661
C       -2.15880120      -0.87604600       0.02515054
C        4.91417888      -0.95527866       2.62825061
C       -1.89104710       0.99481922       2.90758342
C       -0.16293851       0.61438080       1.43361883
C        1.34391009      -4.92200344       0.43005248
C       -0.53357878      -3.09559111       1.01341679
C        0.34421047      -5.37313414       1.28219033
C       -0.76084083      -1.88074238       1.86403721
C       -2.68461717      -0.14543819       1.11628105
C        2.35364392      -3.21537764      -0.62357808
C       -0.24805629       0.46462130      -0.06414844
C        3.36536230      -2.49587153       3.46770748
C        0.79893007       3.57529588       0.89289885
C        5.25384400      -0.09063348       1.61295211
C       -0.58931419      -4.35167407       1.63508110
C        0.46289847       1.46389972       3.72880756
C        2.06281133      -4.50523648       2.60276872
C        1.85582484       3.12181918       1.42848751
C        1.10560924      -3.87722187      -0.51358480
C       -0.28108840      -4.47063555       3.01884587
C       -0.96574060      -2.23083537       3.31745484
C        1.09391868      -2.94705991       4.25999132
C        2.43796894      -1.83836728      -0.81883549
C        1.12882907       0.10644006      -0.36758657
C        3.41641473      -1.35711149       4.34489288
C        3.83934803      -2.44456920       0.99465139
C        3.02768195      -0.15734836       0.87220513
C       -2.72748462       1.14272255       1.66857899
C       -0.44882205       3.63295701       0.56838480
C        3.69524512       1.56003866       2.43739812
C        1.11520341      -1.70279973       4.94079577
C       -0.50399019       1.35587387       2.63284558
C        1.95873977       0.39689437       5.20935551
C        4.27201017      -0.38468866       3.78569804
C        1.78225063       1.99379824       3.59115756
C       -1.98909570      -0.06350976       3.71248512
C        2.48157653       2.39578184       2.40092337
C        2.43141304      -4.52130892       1.24522189
C       -1.64625628       3.13956028       0.58952655
C        0.02576914      -0.77523457       4.84080121
C       -2.05772877      -1.34437659       1.35136975
C       -1.17298305      -1.06513496       4.12507726
