60
Properties=species:S:1:pos:R:3 trial_index=8 seed_entry_id=5 discovered_entry_id=6 energy=-482.00787353515625 status=accepted pbc="F F F"
C       -5.23921475      -1.37388215       1.07181952
C       -1.65090424      -2.76438168       1.04288354
C       -1.07426578      -1.17509494       5.00000086
C       -4.09799847      -3.40001826       1.16347969
C       -1.19289232       1.25836944       4.85897185
C       -1.29689492      -3.17037706       3.42581921
C       -6.20346313      -0.21123457       2.89825270
C       -3.76400556      -2.58493394       3.89220139
C       -3.63240546       3.07456506      -1.27263726
C       -2.95578210      -0.70345151       1.51386894
C       -2.94338870       0.15071480       6.05122201
C        1.21923171      -0.66504784       3.24312804
C       -5.95628134      -0.20376057       1.55806066
C        0.97766228       1.26183032       1.94281376
C        1.13266385      -0.68198577       0.79708123
C       -2.49864863       0.68981012       1.52762286
C        0.50090180      -1.91507231       0.87504547
C       -5.42348981       0.93564222       0.80159870
C       -5.14378102       2.18543808       1.37108347
C       -0.73033233      -3.37908068       2.10387784
C       -1.63791694       3.10641674       0.22596628
C       -2.95853761       1.15558091       0.15991278
C       -4.68796313      -0.74105379       4.86427526
C       -3.43855757       1.95264335       3.37247519
C       -4.24316458       0.46600988       5.42406206
C       -2.21229873       1.52294672       2.70401401
C       -4.06887488       3.04670451       1.10702398
C       -4.96290853      -2.28710648       3.17167351
C       -4.29113803       0.50015206       0.08488838
C       -0.49131886      -2.20584520       4.14167024
C       -2.31761983       0.51705270      -2.15759294
C       -2.92347337      -3.51743344       0.74166806
C       -3.60187103       1.59920733       4.74927201
C        0.31226958       1.49376198       0.70611650
C       -2.44126515      -1.09402197       5.49649260
C       -2.01270974       0.32126678      -0.85046288
C       -5.52190347      -1.06759329       3.72529800
C       -2.40898690       1.32404382       5.50119890
C       -1.03932893       1.70462747       3.52056404
C       -0.37591532       0.08525864       4.95796541
C       -5.04364377      -2.56497057       1.79971932
C       -4.04594576      -0.80879397       0.58933207
C        0.61920846      -1.93499136       3.28729910
C       -2.59924577      -2.70304032       3.15831153
C       -2.39020573      -1.87253702       2.01284297
C       -3.03846780       2.71180945       0.03207725
C       -3.01622544       1.31047483      -2.89031813
C       -0.74774642      -1.86334894       0.22148864
C        0.70531343       0.31978786       4.08035030
C       -0.55254133       2.54805376       0.42477272
C        1.49969275      -0.05665079       1.98718320
C        0.47440071      -2.64731345       2.07330133
C        0.25591899       0.20356890       0.09522737
C        1.58653753       3.66473213       4.72362068
C       -0.90004422      -0.50016418      -0.34085749
C       -3.62674954      -1.66538454       4.96114246
C       -3.55876627       2.42821897      -2.35263398
C        0.48576937       1.63704125       3.29241347
C       -4.28172055       2.57980843       2.40991127
C        1.12019675       2.71865956       4.05053970
