60
Properties=species:S:1:pos:R:3 checkpoint_path=runs/20260728-direction-conditioned-checkpoint-shooting/output-v3/cases/plateau_accepted-seed43-deep_refinement/macro_checkpoints/step004_checkpoint.xyz pbc="F F F"
C        1.45247765       2.86414820      -0.35056165
C       -1.55438290       2.17219664       1.98307657
C        0.91593640      -0.22347443       2.58869389
C       -0.54171658      -2.30302143      -2.85523236
C        1.82840598      -1.66782706      -2.92657859
C       -0.43295946       0.24557321       2.96335898
C        2.61255458       2.03417551      -0.46489066
C        2.50039764       2.77012988       1.71892112
C       -1.77372866      -3.11532212       0.29956695
C       -1.89170781      -1.90907479      -3.06100225
C        1.66303993      -2.39513233      -0.47397467
C       -1.38566651      -1.88968231       2.19461546
C        0.21425185       2.72344991      -1.07380196
C       -1.86290902      -3.11770918      -1.10589513
C       -3.13205063      -1.02934089       0.91241586
C        2.94140497       0.54716499       1.40298509
C       -2.61063644      -0.00280403       1.79051653
C       -1.19851159       0.37787947      -3.48518103
C        0.16135383      -0.04946744      -3.48407473
C        0.28752567       3.74493053       1.67509998
C       -3.38547992      -0.25174156      -2.61253715
C       -2.41730566       1.94219853      -2.05629619
C        2.81540962      -0.62954491      -2.97212546
C        2.89447446       0.97507462      -1.34980625
C        3.41704404      -0.22822867      -0.78283703
C        2.95244714      -0.55245380       0.52223379
C       -3.49759676       1.00361430      -1.99998355
C        3.13521001       1.84507160       0.84927464
C       -1.25741148       1.61798220      -2.77864619
C       -0.81733681       1.62764625       3.08840421
C       -3.07861715       1.71848943       0.14960855
C       -0.87544008       3.13369759       1.15624036
C        3.44840973      -1.21145590      -1.78667667
C       -2.69441744      -2.34887012      -1.94468491
C        2.03226276       0.68481908       2.50548730
C       -2.23689398       2.46304063      -0.73905139
C        2.31320747       0.67399996      -2.59846372
C        2.37001400      -2.15289427      -1.68305893
C        1.97549487      -1.58348267       0.69202578
C        1.01840019      -1.46281251       1.79691134
C        1.46219889       3.40305701       0.99334115
C        0.06760051       1.97628335      -2.31420246
C       -1.54701188      -0.55201433       2.57121906
C        1.28299057       2.78638817       3.72467747
C       -0.09810232       2.59760853       3.79331093
C       -3.80147829       0.77298112      -0.61507003
C       -0.36781951      -3.15968695       0.63599330
C       -2.58454695       1.36285871       1.42130269
C       -0.11178344      -2.33710920       1.75980223
C       -2.24072356      -0.57109353      -3.39767583
C       -2.39618395      -2.23087543       1.21156357
C        0.39774413       3.73731384       3.10087389
C       -3.55862931      -1.28204537      -1.60182108
C        0.49248847      -1.41901582      -3.27652711
C       -0.98825337       2.95369691      -0.28390771
C        2.12787654       2.06287323       2.89038897
C       -3.71300266      -0.63253987      -0.32887927
C        0.40876592      -3.06910069      -0.54438567
C        0.97872361       0.98854853      -2.91104662
C       -0.51031577      -3.07547385      -1.64788508
