60
Properties=species:S:1:pos:R:3 checkpoint_path=runs/20260728-direction-conditioned-checkpoint-shooting/output-v3/cases/plateau_accepted-seed43-deep_refinement/macro_checkpoints/step001_checkpoint.xyz pbc="F F F"
C       -0.76763091       2.55167792       1.93739688
C       -1.23178715      -0.42458351       2.00710994
C        1.67464996      -1.38820104       1.39996920
C        0.18983577       0.40749242      -3.74282425
C        1.52465521       2.25350981      -2.82005447
C        0.23980207       0.63737088       0.18506955
C        0.60487357       2.74586857       1.54271798
C        0.60325728       1.38595905       3.35157370
C        0.88998051      -2.73411562      -2.38738415
C       -1.10024659      -0.16850792      -3.90508562
C        2.72922815       0.25737116      -1.73251444
C        1.22384142      -3.04904361      -0.15318532
C       -1.85124098       2.24940544       1.04135803
C        0.30255126      -1.89148409      -3.34669175
C       -0.98934175      -2.80803511      -0.68355466
C        2.23404766       0.93128646       1.85532812
C       -0.78047050      -2.38079859       0.67974063
C       -2.08399918       1.55945990      -2.53421396
C       -0.83853418       2.24713457      -2.51099253
C       -1.70424275       1.07283977       3.80517950
C       -3.00656973      -0.68129106      -2.77946509
C       -3.47766856       0.65028146      -0.76780452
C        1.60745013       3.34750535      -1.90137520
C        1.20978932       3.04923752       0.31365740
C        2.47845740       2.45536551       0.03954964
C        2.75187453       1.16799159       0.56422110
C       -3.61013832      -0.54964519      -1.52853707
C        1.41671426       1.94733183       2.37160909
C       -2.66772483       1.68541508      -1.24378267
C       -0.34102622       0.18551759       1.19147980
C       -2.91644551      -1.12568076       0.58975725
C       -2.20632080       0.45533259       2.63988984
C        2.78454619       2.71956748      -1.30611164
C       -1.04341017      -1.56864468      -3.57188923
C        1.76201860      -0.33117955       2.37502608
C       -3.27211941       0.27604995       0.57996896
C        0.57872893       3.39063906      -0.89814164
C        2.63358693       1.59627910      -2.18163397
C        2.87672753       0.04636877      -0.30954582
C        2.53515558      -1.22718818       0.23960056
C       -0.69354851       1.89003663       3.23150877
C       -1.80043251       2.45990455      -0.38353546
C        0.65224658      -2.39408023       0.98163483
C        0.06753031      -0.54958106       4.47486370
C       -0.75022348      -0.85374758       5.57482463
C       -3.13877915      -1.62374317      -0.71179424
C        2.13489257      -2.11018241      -2.00027899
C       -1.77127429      -1.56339078       1.30377330
C        2.33360873      -2.31899001      -0.63259271
C       -2.25589484       0.40178888      -3.31637632
C        0.27431035      -3.22200827      -1.20721283
C       -1.17366128       0.12472721       4.70270437
C       -2.15674858      -1.85810779      -2.75690157
C        0.28504064       1.72394118      -3.20419198
C       -2.72190623       1.19129184       1.50615110
C        0.91882921       0.02022171       3.53176375
C       -2.13594519      -2.35900435      -1.41067309
C        2.18812040      -0.79119224      -2.53269321
C       -0.69471180       2.91237533      -1.23902605
C        1.08111514      -0.67050082      -3.43229421
