60
Properties=species:S:1:pos:R:3 checkpoint_path=runs/20260728-direction-conditioned-checkpoint-shooting/output-v3/cases/intermediate_accepted-seed43-deep_refinement/proposal_trajectories/trial0001_proposal001_step002_proposal_relax.xyz pbc="F F F"
C       -2.51984285      -2.14287538       0.55987290
C        2.14174753      -2.77029898       0.02286431
C        1.31919451       0.08880433       2.72522808
C       -0.96729532       3.21454509      -1.92018687
C       -2.84464307       3.06050245      -0.29109828
C        2.81229614      -1.86861358       1.78850228
C       -2.81944712      -1.02228970       1.42243623
C       -1.44336969      -2.40317752       2.65002352
C        2.17998248       2.90013390      -0.59838786
C       -0.32835218       2.63603581      -3.05708025
C       -0.78523039       3.11571027       1.28471983
C        3.05901825       1.59667205       1.01375225
C       -2.34345797      -2.10607410      -0.87983660
C        1.33037244       3.26820707      -1.63412196
C        2.84388473       0.41548873      -1.05404300
C       -1.11656089      -0.16347499       2.96199024
C        3.28651786      -0.45767330       0.00803290
C       -1.85269789       0.74262024      -2.99345559
C       -2.57477543       1.35009777      -1.95054324
C       -0.41912729      -3.39258806       0.91700882
C        0.37761393       0.62415226      -3.82916305
C       -0.88334106      -1.44224753      -3.36134780
C       -3.89571885       2.27029454       0.29378982
C       -3.29450893       0.28648122       1.22217945
C       -2.76677491       1.30951863       2.06182356
C       -1.44213878       1.15530394       2.57286973
C        0.33854547      -0.75197189      -3.68287215
C       -2.04746815      -1.15575894       2.60894573
C       -1.95822910      -0.66436735      -2.86490406
C        2.58516328      -0.51247738       2.26833466
C        0.93622551      -2.38085027      -2.23319611
C       -0.17024058      -3.27591219      -0.44684601
C       -3.23336475       2.54472381       1.58247499
C        1.08950092       2.51908139      -2.78967042
C        0.18230652      -0.75750778       3.05421593
C       -0.48089929      -2.52061542      -2.54942172
C       -3.80904943       0.83885215       0.03634273
C       -2.17328056       3.28794978       0.96413031
C       -0.39165764       2.03362647       2.19507668
C        0.99083989       1.52665508       2.34215243
C       -1.68679648      -2.99717231       1.37444604
C       -2.74629262      -0.96118822      -1.67222976
C        3.27519134       0.24994451       1.26746975
C        1.85827410      -2.86195508       1.44023114
C        1.12730733      -2.93662673      -0.93852710
C        1.39829134      -1.14369672      -2.78516715
C        1.54421453       3.21747518       0.64702732
C        3.16461280      -1.81305089       0.32872042
C        1.96724799       2.27852228       1.62911731
C       -0.78137674       1.40849735      -3.60878935
C        2.93682306       1.73166158      -0.42885142
C        0.56765139      -3.03509928       1.89810051
C        1.46550097       1.16861919      -3.06312242
C       -2.21495537       2.64627593      -1.48245404
C       -1.19462491      -2.85692509      -1.36584146
C       -0.03397440      -2.19726893       2.87719230
C        2.07443882       0.10811610      -2.27895113
C        0.20267684       3.59762983       0.38522552
C       -3.26153391       0.36042543      -1.18913480
C        0.06616022       3.67941964      -1.04684399
