60
Properties=species:S:1:pos:R:3 trial_index=2 seed_entry_id=1 discovered_entry_id=2 energy=-477.0482177734375 status=accepted pbc="F F F"
C        2.62700239      -2.67200550      -0.79487744
C        3.01912884       0.40549471      -1.31211192
C        1.29939884       2.22262041       2.19309207
C        3.66960635      -1.83418788      -0.28892250
C       -3.52722811       0.38163479       1.98208907
C        3.29329787       2.00086560       0.63168309
C        0.60035477      -3.38312488       0.65010564
C        2.67031321      -1.36076493       2.66619310
C       -2.93770603      -0.01916659      -4.09508050
C        0.61438229      -1.06726309       0.03588016
C       -1.63881106       0.70222852       3.48218129
C        0.13699402       3.41440339      -0.06659694
C        1.48058889      -2.30168868      -1.52389050
C       -1.98793861       3.26441892      -0.87307060
C       -0.14917772       2.29905321      -2.26547370
C       -0.10944509      -0.03770303       0.72836475
C        1.16476740       1.65326429      -2.07058981
C       -2.01934986      -3.10869483      -0.30291635
C       -2.92764220      -2.28663760       0.05872260
C        3.10043228       1.70199883      -0.71632017
C       -3.33768932       1.08676847      -3.28418656
C       -1.23477877      -1.51587206      -1.95042540
C        0.02708188      -2.39559554       2.79248258
C       -2.63798728      -0.01836991       0.87235512
C       -0.92326769      -1.77222678       3.30062702
C       -1.34560827       0.49788805       1.14668682
C       -2.43131485      -0.77793780      -1.64768220
C        2.36900929      -2.47370490       1.87440490
C       -0.95620019      -2.56453797      -1.04219255
C        2.14435387       2.70471369       1.10231283
C       -0.49101726      -0.29426733      -3.90359537
C        3.12068732      -0.53594115      -0.28688107
C       -1.77833687      -0.74770393       3.57542787
C       -2.89578978       2.92530054      -1.80971820
C        1.68739908       0.84009988       2.42838412
C       -0.16081502      -1.04357790      -2.77218680
C        0.97527157      -2.90800082       1.88825452
C       -2.89773306       0.03906907       3.24261340
C       -1.06755345       1.32660817       2.35375910
C       -0.15091874       2.43368975       2.11045601
C        2.93657174      -2.71679960       0.58359519
C        0.38702810      -2.47205676      -0.49391777
C        1.47043791       3.11015005      -0.07378582
C        1.17768529       0.32303539       1.20955629
C        1.84725196      -0.45441670       0.27903944
C       -3.11189466      -0.16536305      -2.69773175
C       -0.79482415       1.02337073      -4.17052747
C        1.81984769       0.28955538      -2.14863853
C       -0.67022365       3.26152950       1.06873621
C       -2.52009742       2.21402286      -2.93002183
C       -0.60162857       3.15232319      -1.22429818
C        1.96875275       2.39458797      -1.17013288
C       -1.12652070       1.99940755      -3.23446242
C       -3.72097903       1.74593953       1.76142852
C        1.20688390      -1.04879426      -2.28159835
C        2.45704603      -0.16064186       3.04351524
C       -1.66431309      -0.00456121      -4.64339350
C       -2.04374763       3.27576098       0.60184414
C       -2.90282382      -0.91241293      -0.22867474
C       -3.11128655       2.72533632       1.27510688
