54
Lattice="21.66 0.0 0.0 0.0 5.10531 0.0 0.0 0.0 22.55266" Properties=species:S:1:pos:R:3 entry_id=21 rank=2 energy=-202.03408813476562 pbc="T T F"
Cu       0.00000000       0.00000000      10.00000000
Cu       3.61000000       0.00000000      10.00000000
Cu       7.22000000       0.00000000      10.00000000
Cu      10.83000000       0.00000000      10.00000000
Cu      14.44000000       0.00000000      10.00000000
Cu      18.05000000       0.00000000      10.00000000
Cu       0.00000000       2.55265548      10.00000000
Cu       3.61000000       2.55265548      10.00000000
Cu       7.22000000       2.55265548      10.00000000
Cu      10.83000000       2.55265548      10.00000000
Cu      14.44000000       2.55265548      10.00000000
Cu      18.05000000       2.55265548      10.00000000
Cu       1.80500000       1.27632774      11.27632774
Cu       5.41500000       1.27632774      11.27632774
Cu       9.02500000       1.27632774      11.27632774
Cu      12.63500000       1.27632774      11.27632774
Cu      16.24500000       1.27632774      11.27632774
Cu      19.85500000       1.27632774      11.27632774
Cu       1.80500000       3.82898322      11.27632774
Cu       5.41500000       3.82898322      11.27632774
Cu       9.02500000       3.82898322      11.27632774
Cu      12.63500000       3.82898322      11.27632774
Cu      16.24500000       3.82898322      11.27632774
Cu      19.85500000       3.82898322      11.27632774
Cu       0.00881433       0.07773971      12.54526127
Cu       3.51085993       0.03619435      12.55923724
Cu       5.24157460       1.20221180      14.00691519
Cu      10.83180389       5.00495332      12.58778260
Cu      13.58870651       5.07907091      13.38483708
Cu      18.03469445       5.06685636      12.50908206
Cu      21.62740741       2.62057979      12.55523737
Cu       3.53340553       2.60596838      12.54433405
Cu       7.32090529       2.53182998      12.59463942
Cu      10.79560741       2.50556138      12.62750062
Cu      14.42681191       2.57939926      12.54730849
Cu      18.07337006       2.48588442      12.42665551
Cu       3.67508086       4.01669183      14.87377969
Cu       8.99980495       1.22567296      13.90657136
Cu      19.73061851       1.34197478      13.95335015
Cu       7.19725590       0.00268491      12.57131306
Cu       6.98329133       4.85912032      15.13718934
Cu       1.81386977       1.39173544      13.86033507
Cu       0.82915714       4.02881270      14.61173954
Cu       9.06863636       3.72042652      13.87969043
Cu      19.67274198       3.88239251      14.18407371
Cu      16.57839679       3.44615433      14.05177603
O        5.15846834       5.00872263      15.30014083
O       20.98264494       0.03687906      14.62697132
O       18.28495972       2.65050173      14.43893363
O       12.18011897       1.19047788      13.25770424
O        8.80244328       4.98488767      15.23400149
O        5.44844954       2.83603088      13.12843823
O       14.78881922       3.81223649      13.95942039
O        2.21599306       2.89422824      14.98292173
