54
Lattice="21.66 0.0 0.0 0.0 5.10531 0.0 0.0 0.0 22.55266" Properties=species:S:1:pos:R:3 entry_id=7 rank=9 energy=-201.876220703125 pbc="T T F"
Cu       0.00000000       0.00000000      10.00000000
Cu       3.61000000       0.00000000      10.00000000
Cu       7.22000000       0.00000000      10.00000000
Cu      10.83000000       0.00000000      10.00000000
Cu      14.44000000       0.00000000      10.00000000
Cu      18.05000000       0.00000000      10.00000000
Cu       0.00000000       2.55265548      10.00000000
Cu       3.61000000       2.55265548      10.00000000
Cu       7.22000000       2.55265548      10.00000000
Cu      10.83000000       2.55265548      10.00000000
Cu      14.44000000       2.55265548      10.00000000
Cu      18.05000000       2.55265548      10.00000000
Cu       1.80500000       1.27632774      11.27632774
Cu       5.41500000       1.27632774      11.27632774
Cu       9.02500000       1.27632774      11.27632774
Cu      12.63500000       1.27632774      11.27632774
Cu      16.24500000       1.27632774      11.27632774
Cu      19.85500000       1.27632774      11.27632774
Cu       1.80500000       3.82898322      11.27632774
Cu       5.41500000       3.82898322      11.27632774
Cu       9.02500000       3.82898322      11.27632774
Cu      12.63500000       3.82898322      11.27632774
Cu      16.24500000       3.82898322      11.27632774
Cu      19.85500000       3.82898322      11.27632774
Cu       0.07540292       0.00763144      12.54087662
Cu       3.51104613       5.10111752      12.56819081
Cu       5.24622256       1.11316072      14.02277707
Cu      10.82435940       5.02251420      12.58319487
Cu      13.43959301       5.00483574      13.44344960
Cu      18.03033121       0.07414896      12.47603628
Cu      21.65325656       2.56560175      12.54922707
Cu       3.49578964       2.57076270      12.57219517
Cu       7.34167707       2.54234160      12.60770850
Cu      10.78562512       2.52971192      12.62368502
Cu      14.45318711       2.55013740      12.53403473
Cu      18.04964883       2.56663743      12.55750481
Cu       3.75125754       3.91493802      14.89406631
Cu       9.01015863       1.24316145      13.92152484
Cu      19.86504469       1.26168236      13.80785014
Cu       7.20693697       0.00104234      12.57752695
Cu       7.03466441       4.83366338      15.15763012
Cu       1.79653571       1.28716836      13.89721451
Cu       0.92462518       3.92759313      14.62020275
Cu       9.07750335       3.74019964      13.89019302
Cu      19.82769585       3.70023635      13.86079390
Cu      16.35993608       4.07856453      13.98597716
O        5.21089927       4.93116978      15.32941033
O       21.12682431       5.06162893      14.56321621
O       18.10074233       4.58626033      14.31173391
O       12.16451784       1.23302525      13.24243185
O        8.85151487       5.00400101      15.25340627
O        5.44015333       2.70399301      13.06924065
O       14.58082601       3.69656920      14.02624214
O        2.30401798       2.77834882      14.98715125
