45
Lattice="57.08734966 0.0 0.0 0.0 62.08907823 0.0 0.0 0.0 58.15827851" Properties=species:S:1:pos:R:3:forces:R:3 energy=-220.9009857 pbc="F F F"
O       45.66335871      45.64115385      47.48537833       0.00527274      -0.00549524       0.01679179
H       45.55519722      45.97888740      48.38877470      -0.00638014      -0.00434414      -0.00076589
H       45.09559212      46.21554629      46.89170588      -0.01133204       0.00902869      -0.01287123
O       42.74144389      49.43703043      42.87962123      -0.00549858       0.00520721       0.00662862
H       41.93858266      48.95244838      42.55827678      -0.00276785       0.00385389      -0.00295062
H       43.52921976      48.99172417      42.44021198       0.00483182      -0.00625183      -0.00335358
O       44.64366466      42.41279229      44.02647449       0.04009908      -0.00052303      -0.03171189
H       44.64045370      41.58673952      43.51563082       0.00332142       0.00580302       0.00610504
H       43.75827101      42.47647980      44.46854598      -0.03286066      -0.00298945       0.01237407
O       41.66372145      45.55405719      41.95916647      -0.00484222       0.00089804      -0.00851913
H       42.50325088      45.58768440      41.43001959      -0.00323473      -0.00118000       0.00763551
H       41.94402434      45.37345576      42.89565169      -0.00281917      -0.00068337       0.00239850
O       46.17895332      46.83174609      43.82992472      -0.00864519       0.00188298      -0.00197280
H       47.02737217      47.03397763      44.25641405      -0.00105160      -0.00093820      -0.00472987
H       45.46727012      46.90394948      44.54833582       0.00833826       0.00024895       0.00069769
O       44.85255702      48.21831770      41.75294718       0.01690551       0.00838387       0.02883852
H       45.43874578      47.85941483      42.46054448      -0.01250198       0.00615633      -0.01681342
H       44.58003875      47.41325612      41.24951402      -0.00586230      -0.01416635      -0.01065509
O       42.70074358      49.08500567      45.40158773       0.00005690      -0.02061758      -0.01013140
H       42.77463608      49.92732520      45.87615286       0.00551285       0.01513309       0.00572802
H       42.75514094      49.29255744      44.37780917       0.00040265      -0.00461115      -0.00247663
O       42.24565583      45.42998558      44.65225068      -0.01406464       0.02414375      -0.00021993
H       42.16815422      44.55410724      45.10874969      -0.00305020      -0.00995383       0.01563303
H       41.47728813      46.03542373      44.91360866       0.02354381      -0.00149088      -0.00422595
O       45.62640404      44.51557253      42.44905113       0.00006073      -0.00495708      -0.00372839
H       45.23903418      43.81542233      43.02858634       0.00307707       0.00183439       0.00271229
H       45.91346399      45.26359732      43.03330298      -0.00612951      -0.00057521       0.00001301
O       44.89358612      43.13473589      46.93274083       0.01219893      -0.00742332      -0.01621921
H       45.39018252      42.88169554      46.13117242      -0.00953258       0.00445839       0.01831007
H       45.21142411      44.05520395      47.18060661      -0.00710713       0.00135623       0.00883601
O       42.59898914      42.97162288      45.75843647      -0.01730999      -0.00880710       0.00298189
H       41.95716532      42.40752953      46.22027257       0.00760724       0.00554248      -0.00701289
H       43.42109303      43.06386562      46.36412024       0.00316395      -0.00135133       0.00861490
O       44.10622288      45.71305523      40.72695369       0.00765503      -0.00774366      -0.01655007
H       44.26925391      45.39254675      39.82564553      -0.00370488       0.00462255       0.00919062
H       44.69832045      45.16164028      41.35590074       0.00334615       0.00769961       0.00353443
O       44.24144582      46.90761730      45.61578122      -0.00959506       0.02884544      -0.00168639
H       43.77115203      47.79361436      45.65107426       0.01809901      -0.01567551       0.00050682
H       43.53193777      46.28146762      45.25851919      -0.00381916      -0.00503184      -0.00760656
O       40.48723718      47.36435779      45.08380488       0.00847072      -0.00369007       0.00052692
H       41.13451276      48.06186218      45.35267703      -0.00394318      -0.00575597      -0.00234555
H       40.29093726      47.58622404      44.13912666      -0.00036643       0.00277873       0.00340306
O       40.54278673      47.85520979      42.32560844      -0.00994959      -0.01344756      -0.01294256
H       39.84001134      48.03699478      41.68173990       0.01360759      -0.00095833       0.01823778
H       40.95745021      46.94683376      42.07843573       0.00079805       0.01078907      -0.00020588
