54
Lattice="21.66 0.0 0.0 0.0 5.10531 0.0 0.0 0.0 22.55266" Properties=species:S:1:pos:R:3 entry_id=0 rank=38 energy=-198.67654418945312 pbc="T T F"
Cu       0.00000000       0.00000000      10.00000000
Cu       3.61000000       0.00000000      10.00000000
Cu       7.22000000       0.00000000      10.00000000
Cu      10.83000000       0.00000000      10.00000000
Cu      14.44000000       0.00000000      10.00000000
Cu      18.05000000       0.00000000      10.00000000
Cu       0.00000000       2.55265548      10.00000000
Cu       3.61000000       2.55265548      10.00000000
Cu       7.22000000       2.55265548      10.00000000
Cu      10.83000000       2.55265548      10.00000000
Cu      14.44000000       2.55265548      10.00000000
Cu      18.05000000       2.55265548      10.00000000
Cu       1.80500000       1.27632774      11.27632774
Cu       5.41500000       1.27632774      11.27632774
Cu       9.02500000       1.27632774      11.27632774
Cu      12.63500000       1.27632774      11.27632774
Cu      16.24500000       1.27632774      11.27632774
Cu      19.85500000       1.27632774      11.27632774
Cu       1.80500000       3.82898322      11.27632774
Cu       5.41500000       3.82898322      11.27632774
Cu       9.02500000       3.82898322      11.27632774
Cu      12.63500000       3.82898322      11.27632774
Cu      16.24500000       3.82898322      11.27632774
Cu      19.85500000       3.82898322      11.27632774
Cu      21.60611946       0.00780473      12.58597940
Cu       3.77174321       0.08411540      12.69517958
Cu       6.26806002       4.74331068      13.33867744
Cu      10.69620496       5.02022528      12.63076948
Cu      14.51850158       0.02145348      12.59845257
Cu      18.04879482       0.05161376      12.43739826
Cu      21.60745904       2.51986165      12.58951837
Cu       3.61775430       2.69829133      12.57623513
Cu       7.17233950       2.56196469      12.39520051
Cu      10.69741714       2.46350485      12.83695112
Cu      14.61047995       2.51618655      12.73677773
Cu      17.99156472       2.57603817      12.53255890
Cu       5.53406295       2.69100596      14.63424135
Cu       8.69357429       0.98254139      13.64617093
Cu      19.73257554       1.25212292      13.85479398
Cu       8.82088994       3.58565288      13.92968005
Cu       8.22115534       4.99103565      15.88822369
Cu       2.09315555       1.29469173      14.18420341
Cu       1.73389750       3.82070111      13.81202211
Cu      10.18315176       1.85506556      15.25136986
Cu      19.79516534       3.68695702      13.82608631
Cu      16.85592671       4.30856195      14.28862657
O        7.05014364       3.85311649      14.98831793
O        0.64114648       0.17546557      14.41890687
O       18.58484191       4.95368514      14.59432714
O       12.60899879       2.53318260      12.80771434
O        9.47081319       0.91769344      16.60543965
O        6.78959743       1.37730057      13.87743494
O       15.11453475       3.93347975      13.95579040
O        3.93724329       1.68119884      14.20322225
