54
Lattice="21.66 0.0 0.0 0.0 5.10531 0.0 0.0 0.0 22.55266" Properties=species:S:1:pos:R:3 entry_id=4 rank=26 energy=-200.97781372070312 pbc="T T F"
Cu       0.00000000       0.00000000      10.00000000
Cu       3.61000000       0.00000000      10.00000000
Cu       7.22000000       0.00000000      10.00000000
Cu      10.83000000       0.00000000      10.00000000
Cu      14.44000000       0.00000000      10.00000000
Cu      18.05000000       0.00000000      10.00000000
Cu       0.00000000       2.55265548      10.00000000
Cu       3.61000000       2.55265548      10.00000000
Cu       7.22000000       2.55265548      10.00000000
Cu      10.83000000       2.55265548      10.00000000
Cu      14.44000000       2.55265548      10.00000000
Cu      18.05000000       2.55265548      10.00000000
Cu       1.80500000       1.27632774      11.27632774
Cu       5.41500000       1.27632774      11.27632774
Cu       9.02500000       1.27632774      11.27632774
Cu      12.63500000       1.27632774      11.27632774
Cu      16.24500000       1.27632774      11.27632774
Cu      19.85500000       1.27632774      11.27632774
Cu       1.80500000       3.82898322      11.27632774
Cu       5.41500000       3.82898322      11.27632774
Cu       9.02500000       3.82898322      11.27632774
Cu      12.63500000       3.82898322      11.27632774
Cu      16.24500000       3.82898322      11.27632774
Cu      19.85500000       3.82898322      11.27632774
Cu       0.00302757       0.00866441      12.46182328
Cu       3.57376119       0.04276760      12.63954929
Cu       6.09994934       1.70822398      14.53343023
Cu      10.74392563       5.00979898      12.47515119
Cu      13.12460396       5.10092468      13.59222918
Cu      18.15109581       0.06563955      12.63633901
Cu       0.03316722       2.58784466      12.41361329
Cu       3.49697478       2.56619336      12.60020659
Cu       7.26003254       2.53370995      12.46694979
Cu      10.88723744       2.48534765      12.62413857
Cu      14.38809253       2.58333200      12.51635527
Cu      18.05864393       2.52292036      12.59239691
Cu       5.86871773       4.32784368      14.46529784
Cu       8.21234535       0.29734001      13.35842904
Cu      20.07554502       1.32900080      13.81221403
Cu       8.96159432       2.98045410      14.08612613
Cu       8.02567051       4.73367943      15.79309808
Cu       1.34284602       3.86108963      14.23300739
Cu       1.37667561       1.32182823      14.19856403
Cu      10.56748265       5.05003498      14.89172723
Cu      20.01885840       3.88871572      13.89589799
Cu      16.22307791       3.94387638      13.85271700
O        6.37774060       0.41554600      15.79867595
O       21.60900965       2.57532899      14.58400416
O       18.04710486       3.79370801      14.13326253
O       11.65302496       1.11062156      13.90325675
O        9.57797570       3.77513263      15.74025397
O        5.34965211       2.95497753      13.32779339
O       14.41430461       3.84895118      13.92898323
O        2.68739361       0.02219961      14.35465795
