54
Lattice="21.66 0.0 0.0 0.0 5.10531 0.0 0.0 0.0 22.55266" Properties=species:S:1:pos:R:3 entry_id=7 rank=3 energy=-201.848388671875 pbc="T T F"
Cu       0.00000000       0.00000000      10.00000000
Cu       3.61000000       0.00000000      10.00000000
Cu       7.22000000       0.00000000      10.00000000
Cu      10.83000000       0.00000000      10.00000000
Cu      14.44000000       0.00000000      10.00000000
Cu      18.05000000       0.00000000      10.00000000
Cu       0.00000000       2.55265548      10.00000000
Cu       3.61000000       2.55265548      10.00000000
Cu       7.22000000       2.55265548      10.00000000
Cu      10.83000000       2.55265548      10.00000000
Cu      14.44000000       2.55265548      10.00000000
Cu      18.05000000       2.55265548      10.00000000
Cu       1.80500000       1.27632774      11.27632774
Cu       5.41500000       1.27632774      11.27632774
Cu       9.02500000       1.27632774      11.27632774
Cu      12.63500000       1.27632774      11.27632774
Cu      16.24500000       1.27632774      11.27632774
Cu      19.85500000       1.27632774      11.27632774
Cu       1.80500000       3.82898322      11.27632774
Cu       5.41500000       3.82898322      11.27632774
Cu       9.02500000       3.82898322      11.27632774
Cu      12.63500000       3.82898322      11.27632774
Cu      16.24500000       3.82898322      11.27632774
Cu      19.85500000       3.82898322      11.27632774
Cu       0.00326692       5.08008071      12.56762352
Cu       2.44532909       5.05024193      13.37019754
Cu       5.27094519       0.79388660      13.90261402
Cu      10.80671684       0.03189174      12.54181927
Cu      12.94332579       3.78780582      13.86883089
Cu      18.03495370       5.10489998      12.61334165
Cu       0.03507327       2.55307260      12.52171245
Cu       2.36074863       2.52417692      13.37096368
Cu       7.22777507       2.51579171      12.53933495
Cu      10.88799541       2.57216810      12.52757371
Cu      12.91238693       1.26018103      13.78876400
Cu      18.06756361       2.46187194      12.50469869
Cu       5.15530883       3.37981191      13.85379697
Cu       9.03285347       1.34187766      13.82394038
Cu      19.88794320       1.24163700      13.81458889
Cu       7.29617490       5.05714326      12.56958357
Cu       7.65365405       3.67170845      14.81815577
Cu       0.55082707       3.76161435      14.87796238
Cu       0.56829393       1.24035661      14.91226783
Cu      10.34664422       3.83075907      14.68872296
Cu      19.78595282       3.82608193      13.87164071
Cu      15.94507262       3.10877049      13.66590409
O        6.07835774       4.60177204      14.90071298
O       20.80789401       2.49361872      15.07217059
O       17.67221713       3.72209624      13.97932266
O       11.71522761       5.07211693      14.44154996
O        9.09526350       2.61924956      15.22277229
O        4.20071353       2.02128640      13.03663451
O       14.24800772       2.51471228      13.92285086
O        1.85126412       5.04604646      15.20138600
