54
Lattice="21.66 0.0 0.0 0.0 5.10531 0.0 0.0 0.0 22.55266" Properties=species:S:1:pos:R:3 entry_id=29 rank=9 energy=-201.73394775390625 pbc="T T F"
Cu       0.00000000       0.00000000      10.00000000
Cu       3.61000000       0.00000000      10.00000000
Cu       7.22000000       0.00000000      10.00000000
Cu      10.83000000       0.00000000      10.00000000
Cu      14.44000000       0.00000000      10.00000000
Cu      18.05000000       0.00000000      10.00000000
Cu       0.00000000       2.55265548      10.00000000
Cu       3.61000000       2.55265548      10.00000000
Cu       7.22000000       2.55265548      10.00000000
Cu      10.83000000       2.55265548      10.00000000
Cu      14.44000000       2.55265548      10.00000000
Cu      18.05000000       2.55265548      10.00000000
Cu       1.80500000       1.27632774      11.27632774
Cu       5.41500000       1.27632774      11.27632774
Cu       9.02500000       1.27632774      11.27632774
Cu      12.63500000       1.27632774      11.27632774
Cu      16.24500000       1.27632774      11.27632774
Cu      19.85500000       1.27632774      11.27632774
Cu       1.80500000       3.82898322      11.27632774
Cu       5.41500000       3.82898322      11.27632774
Cu       9.02500000       3.82898322      11.27632774
Cu      12.63500000       3.82898322      11.27632774
Cu      16.24500000       3.82898322      11.27632774
Cu      19.85500000       3.82898322      11.27632774
Cu      21.63487272       5.10507399      12.48813058
Cu       1.16799425       1.28959192      14.31351397
Cu       5.53402566       1.26873755      14.01897705
Cu      12.69097984       1.04410104      13.72295413
Cu      14.50049431       5.09179512      12.59985147
Cu      18.02042190       0.01935991      12.58732638
Cu      21.65502784       2.55196325      12.42028063
Cu       3.54437771       2.55033086      12.51599403
Cu       7.23068742       2.56222173      12.51103165
Cu      10.85268777       2.52855488      12.60548793
Cu      10.53497370       1.28484093      14.94994385
Cu      18.10731010       2.56203969      12.56047175
Cu       5.49450583       3.81484318      14.09688569
Cu       7.29082835       0.02961268      12.49591199
Cu      20.04825136       1.30462869      14.10052656
Cu      10.71425396       5.06969281      12.57941286
Cu       8.14170416       3.76898009      14.50909258
Cu       1.16778532       3.81927751      14.31259242
Cu       3.56420286       5.10147625      12.67130936
Cu      10.76265581       3.84280954      14.92449969
Cu      20.03156195       3.80870175      14.07898478
Cu      14.35988154       2.45553750      12.64589497
O        6.82139177       5.09059277      14.45707888
O       21.43220651       2.55973348      14.72363111
O       15.67933318       3.70963461      13.15517882
O       11.94147744       0.10098951      15.15146901
O        9.37949510       2.64988724      15.21276720
O        4.22165895       2.52105557      14.29040505
O       18.74980650       0.01355903      14.33796314
O        2.46486960       5.10449265      14.29150624
