54
Lattice="21.66 0.0 0.0 0.0 5.10531 0.0 0.0 0.0 22.55266" Properties=species:S:1:pos:R:3 entry_id=8 rank=18 energy=-201.2987518310547 pbc="T T F"
Cu       0.00000000       0.00000000      10.00000000
Cu       3.61000000       0.00000000      10.00000000
Cu       7.22000000       0.00000000      10.00000000
Cu      10.83000000       0.00000000      10.00000000
Cu      14.44000000       0.00000000      10.00000000
Cu      18.05000000       0.00000000      10.00000000
Cu       0.00000000       2.55265548      10.00000000
Cu       3.61000000       2.55265548      10.00000000
Cu       7.22000000       2.55265548      10.00000000
Cu      10.83000000       2.55265548      10.00000000
Cu      14.44000000       2.55265548      10.00000000
Cu      18.05000000       2.55265548      10.00000000
Cu       1.80500000       1.27632774      11.27632774
Cu       5.41500000       1.27632774      11.27632774
Cu       9.02500000       1.27632774      11.27632774
Cu      12.63500000       1.27632774      11.27632774
Cu      16.24500000       1.27632774      11.27632774
Cu      19.85500000       1.27632774      11.27632774
Cu       1.80500000       3.82898322      11.27632774
Cu       5.41500000       3.82898322      11.27632774
Cu       9.02500000       3.82898322      11.27632774
Cu      12.63500000       3.82898322      11.27632774
Cu      16.24500000       3.82898322      11.27632774
Cu      19.85500000       3.82898322      11.27632774
Cu      21.65500034       0.03706584      12.46444364
Cu       3.49846851       0.02295980      12.60530680
Cu       5.38118931       1.15293434      13.99871517
Cu      10.89713978       5.07569342      12.58003764
Cu      14.40325350       5.08465462      12.60470428
Cu      18.05999736       5.05258544      12.44333985
Cu      21.60802300       2.61323665      12.53717954
Cu       3.44039736       2.55493184      12.62818485
Cu       7.32829576       2.50926407      12.54752752
Cu      10.82561947       2.58416251      12.55831926
Cu      14.44223999       2.60345860      12.59723892
Cu      18.05474795       2.53671668      12.53185993
Cu       4.00012778       3.97404447      14.85815307
Cu       7.28253940       5.08834181      12.63303460
Cu      19.86816658       1.43257554      13.83965755
Cu       9.02980664       3.65404365      13.84517391
Cu       7.10657573       4.75764166      15.25952593
Cu       1.49008267       1.32441417      14.11965200
Cu       1.30399412       3.91130552      14.33955390
Cu      10.02676620       0.59708995      14.82331617
Cu      19.80294849       3.89298307      13.84427677
Cu      16.71924068       0.88882578      14.16265372
O        5.32386775       5.09334360      15.40911013
O        0.00106873       0.14320744      14.48082630
O       18.45986791       0.20923150      14.43893928
O       11.37148955       1.36003145      13.86762248
O        8.87288050       4.48927077      15.55632031
O        5.45139871       2.76681190      13.06873098
O       14.96940835       1.29911947      13.86044183
O        2.67001826       2.68933088      14.66188832
