60
Lattice="50.0 0.0 0.0 0.0 50.0 0.0 0.0 0.0 50.0" Properties=species:S:1:pos:R:3 pbc="F F F"
C       24.73712359      21.74313240      26.01194642
C       23.96180917      25.24046341      22.48941969
C       25.80170632      19.78321056      20.82221266
C       25.54599670      29.16812944      24.31031208
C       26.66685097      24.37897946      26.95627970
C       27.02085727      23.11427925      20.39094728
C       24.48078139      24.91793984      25.92486302
C       24.79669864      19.99456271      21.58161868
C       26.79980190      26.76423878      26.48789431
C       24.59679398      22.88276012      27.01962292
C       27.96856225      23.50578607      25.09710491
C       21.53166954      27.59475523      26.77902445
C       26.26864301      24.06564057      21.07324555
C       23.40148466      24.21588683      25.16803310
C       26.96334770      20.95239458      22.65663916
C       27.25411442      24.35084205      24.08118732
C       19.38606838      26.63451299      26.01594515
C       24.15669899      27.43190721      25.88451040
C       23.97192413      23.23090579      24.16158049
C       27.90172859      21.22450747      25.34228709
C       24.74569335      20.93169034      23.59231032
C       21.51848102      25.89915790      24.97211407
C       24.05360673      20.62776660      22.45133015
C       27.42499136      23.26556130      26.35748523
C       24.43233128      29.49404214      27.99532982
C       23.80109521      21.90347226      27.27373826
C       24.77989322      26.29113831      25.50453926
C       26.68221015      20.52324039      25.01187487
C       22.25956601      24.84927997      25.27531778
C       20.99651960      28.37201965      27.80616832
C       26.32669713      26.01744503      22.64860279
C       25.20652578      24.17182106      26.78588497
C       26.06219562      28.02203372      24.56806393
C       18.70972528      27.27218444      26.88729012
C       24.43981643      23.94472467      22.89918438
C       24.35350149      21.98354651      24.57768508
C       22.75875711      25.80207772      22.86714309
C       26.71395905      20.79069574      21.28373567
C       22.98371277      27.80993898      26.66209476
C       21.85086887      26.17733342      23.59825147
C       26.19331135      25.46365571      21.37119371
C       26.24017247      26.60524268      25.01116580
C       26.04760109      21.14609489      26.09757860
C       25.24758085      28.50320935      25.79710302
C       18.46119274      28.05860091      27.91969006
C       27.09500053      25.62418749      27.06241671
C       25.07931944      26.00950179      21.98612501
C       26.75866516      25.62697599      23.96932611
C       19.74889471      28.35196154      28.04491637
C       23.50440284      28.74610125      27.52253257
C       26.87453681      23.33092933      23.07547847
C       28.24417546      22.23547788      24.46519105
C       27.25646861      21.84787639      26.49499886
C       25.53391344      28.99598026      27.29555399
C       26.33797041      28.08372564      26.85897528
C       25.65627411      23.53726604      22.28223678
C       27.12168883      21.89765456      20.51586809
C       26.13085878      20.48815393      23.73894514
C       20.74734424      26.73299388      25.94152525
C       27.60226420      22.17258266      23.19957862
