60
Lattice="50.0 0.0 0.0 0.0 50.0 0.0 0.0 0.0 50.0" Properties=species:S:1:pos:R:3 observation_index=0 true_energy_eV=-62150.683820783015 max_force_eV_A=0.025712803020809073 converged=T pbc="F F F"
C       25.65711884      23.26976365      27.23367598
C       24.05271098      26.43550990      27.80754462
C       19.67418276      20.74841619      25.75191739
C       28.44391061      25.60812075      20.07230746
C       27.04540085      21.42205021      23.24680195
C       20.79828185      24.10781977      25.58445004
C       26.85360154      24.73893319      24.68156252
C       20.24198126      19.72752048      26.23553628
C       28.28497305      23.41068739      22.22229407
C       27.66422718      23.23269013      26.20861613
C       25.01867883      22.72649477      23.96853876
C       24.61426572      27.42644729      23.99992547
C       21.77714440      26.08766375      26.80520146
C       26.30195911      25.36682337      25.83129705
C       21.67171417      21.83630683      24.91826901
C       25.09529633      23.46073190      22.73359502
C       22.71505754      26.29118875      23.43066788
C       26.88593610      26.73477724      23.10052546
C       25.42838174      24.62981035      26.81255523
C       24.43644514      21.39822269      25.80033363
C       22.27904808      19.52284907      25.97569146
C       26.76614645      27.73351031      26.98540906
C       21.19964890      18.93467776      26.69884604
C       26.40907225      22.11275530      24.42391135
C       27.21089241      29.95733999      23.14460177
C       27.29332246      23.64983865      27.35190289
C       27.05873986      25.37858714      23.46611022
C       23.44897350      20.28609620      25.73430466
C       26.68255047      26.64656068      26.22287944
C       23.69036797      28.34943055      24.41579769
C       24.71120661      23.90907626      21.46002130
C       27.19287983      23.31522098      24.97107580
C       27.83386078      25.70486518      21.22192665
C       21.48336406      26.77669239      23.34630734
C       24.11173347      25.34284672      27.00728521
C       26.27245491      24.12679595      28.21495460
C       28.96350940      27.59181878      25.36230184
C       20.28044085      21.92684392      25.33357903
C       26.01841630      27.73948869      23.70709079
C       27.83808242      27.52601892      25.99782488
C       22.34171859      26.93188630      27.61715646
C       27.40133409      24.58448518      22.16184703
C       25.43182871      21.90072038      26.78854760
C       27.52999856      27.00709417      21.85377631
C       21.86917427      27.87259085      23.95245140
C       27.78135523      22.31650012      22.66010696
C       23.34133791      27.42070523      28.31415778
C       25.97898632      24.08908849      21.96404690
C       22.52239479      28.86145379      24.55165282
C       26.47631837      28.99591195      23.61460614
C       22.18744996      24.11829340      25.55211161
C       24.00681636      22.46945639      24.80804077
C       25.90161969      21.35788171      25.65643998
C       27.62920915      29.24692773      22.10109903
C       27.80504792      28.25009838      21.33022311
C       22.78864056      25.16810434      26.41080746
C       19.89470407      23.27642496      25.43384008
C       22.30316778      20.59408594      25.09270246
C       23.99240425      26.23529538      23.61840881
C       22.60496275      22.91396011      24.95382293
60
Lattice="50.0 0.0 0.0 0.0 50.0 0.0 0.0 0.0 50.0" Properties=species:S:1:pos:R:3 observation_index=1 true_energy_eV=-62157.33282260243 max_force_eV_A=0.028406940681023982 converged=T pbc="F F F"
C       24.94132280      23.50879012      26.97882200
C       22.35577885      26.28288357      27.01603767
C       20.85953336      19.10100141      27.18903887
C       25.26808326      25.83436001      19.46248142
C       27.10371839      21.90195619      23.31782780
C       20.61522046      22.51445099      26.12846335
C       26.04495020      25.05165148      24.25508204
C       21.73266121      18.36931393      27.70880923
C       27.15034573      23.79742177      21.58991974
C       27.13455309      24.34933303      26.06936270
C       24.86524149      22.39736607      24.11985964
C       26.89614489      29.05773871      24.04887783
C       20.65659683      23.98891729      26.49022764
C       24.98273041      25.44143637      25.01623162
C       22.14712809      20.33332685      25.65945319
C       24.38452225      23.07357661      22.95609964
C       25.51982081      30.39418907      25.34497946
C       26.81011163      26.82282525      22.49739991
C       24.40459146      24.75925781      26.24099151
C       24.99287115      21.03057397      26.01841573
C       23.68142111      18.70668334      27.02858774
C       24.80015229      28.07275218      25.07194678
C       22.98568632      18.08905414      28.10392412
C       26.40404696      22.46543275      24.52761822
C       29.54640527      28.26061523      21.73843519
C       26.95894479      24.98600109      27.17353791
C       26.30081047      25.63999925      22.92519664
C       24.45764299      19.67898164      26.35662067
C       24.54155850      26.78303599      24.98968588
C       27.58922652      30.23262254      24.08830835
C       23.49722130      23.36866721      21.90904523
C       26.78665376      23.91588892      24.84523215
C       25.94538601      25.73067503      20.57221407
C       25.69603009      31.63854183      25.66695539
C       22.91762696      25.04527885      26.42562576
C       25.54508106      24.64879358      27.28630570
C       23.07881712      27.50127756      27.05780078
C       20.90086499      20.24132812      26.37357954
C       27.47523096      27.93710234      23.25412963
C       23.88775495      27.58133207      25.99219026
C       20.27773807      25.08323039      27.21657538
C       25.98134274      24.72888469      21.70813012
C       25.48630883      22.19503877      26.80725477
C       26.82177748      26.84969189      21.00781865
C       26.85414915      31.67683474      25.02872123
C       27.22195878      22.80133411      22.39320776
C       21.02585909      26.05555875      27.36959009
C       24.76237922      23.91940419      22.00948761
C       27.96022516      31.45809555      24.32977998
C       28.65824921      28.19475622      22.70057231
C       21.96054647      22.65749272      25.57685764
C       24.13182037      21.66084098      24.94829042
C       26.31784832      21.70508520      25.85309132
C       28.67068626      28.04115223      20.76135627
C       27.59104399      27.63734274      20.20448636
C       22.03137279      24.07115164      26.07080143
C       20.01020138      21.35161210      26.47136442
C       23.18992033      19.43515976      25.94977373
C       25.69581810      29.16451958      24.80601912
C       22.68271289      21.58063938      25.21478182
60
Lattice="50.0 0.0 0.0 0.0 50.0 0.0 0.0 0.0 50.0" Properties=species:S:1:pos:R:3 observation_index=2 true_energy_eV=-62161.86579807849 max_force_eV_A=0.02905460643229018 converged=T pbc="F F F"
C       26.39333530      22.45276743      26.34068726
C       22.60284629      25.69754322      25.47920356
C       21.50384043      20.69694927      28.50484531
C       24.28023731      27.73610799      21.01168079
C       26.42067727      23.10159848      22.99040732
C       20.23782085      22.36268761      25.59508475
C       25.95861857      25.05310659      24.48824456
C       22.46448753      21.47536451      28.80864549
C       25.96311412      24.92762390      21.41196674
C       27.21903960      23.32975771      25.40301615
C       24.32202993      21.76124605      23.20911902
C       27.05848794      28.95158478      24.76397082
C       21.22829291      23.18065493      24.89659482
C       25.57329792      25.31581199      25.90998443
C       22.69690239      20.53332688      26.35546751
C       23.57293737      22.91808376      22.80953405
C       26.29774268      30.11412935      26.63895318
C       25.95304736      27.16116783      23.06599790
C       24.64931900      24.23231546      26.46570620
C       24.93187782      20.05466466      24.65486531
C       24.22122355      22.02861931      27.57284413
C       25.32358943      27.83960247      26.22915984
C       23.40014398      22.36712315      28.61876178
C       25.71963922      21.84336762      23.37124673
C       28.18901306      27.37294528      21.67205102
C       27.84050021      23.09389472      26.50458585
C       25.44869226      25.96152151      23.44227469
C       25.08283381      20.32665508      26.07042004
C       25.71299606      26.57540830      26.23937818
C       27.93444592      29.99346027      24.77444725
C       22.50813088      23.85398462      22.94473506
C       26.65080377      23.92789563      24.21853730
C       24.22097190      26.56628823      21.56253736
C       26.72544379      31.28118822      27.03335626
C       23.26790578      24.44741534      26.04749112
C       25.12068007      22.99260317      26.87989270
C       23.05189957      26.96324121      25.89853836
C       21.48893773      20.78602494      27.08619166
C       27.06695201      28.02819020      23.60211507
C       23.87968666      27.80262741      26.18809318
C       21.49215847      24.24211498      23.87407353
C       24.66418630      25.33870253      22.22319620
C       26.19474058      21.13834618      25.78255628
C       25.61624183      27.22645655      21.57614288
C       27.68792046      31.30689769      26.13206084
C       26.41871484      23.75829003      21.85314734
C       21.83287143      25.43045644      24.40159039
C       23.71547292      24.24115021      22.48807321
C       28.54259152      31.07964368      25.14653316
C       28.13485299      28.06032309      22.76554416
C       22.38389741      22.27768894      24.90744362
C       23.83153652      20.67432676      24.08112161
C       26.09122145      20.88726218      24.36863378
C       27.88596922      26.45646960      20.82601396
C       26.53932275      26.17139402      20.97641173
C       22.53379662      23.33330109      25.69872103
C       20.45640998      21.41137359      26.34200213
C       24.03347983      20.75252216      26.87311695
C       26.19996231      28.98498410      25.92063955
C       22.75663949      20.92202217      24.92565236
60
Lattice="50.0 0.0 0.0 0.0 50.0 0.0 0.0 0.0 50.0" Properties=species:S:1:pos:R:3 observation_index=3 true_energy_eV=-62163.496804176255 max_force_eV_A=0.023669825357947268 converged=T pbc="F F F"
C       24.73712359      21.74313240      26.01194642
C       23.96180917      25.24046341      22.48941969
C       25.80170632      19.78321056      20.82221266
C       25.54599670      29.16812944      24.31031208
C       26.66685097      24.37897946      26.95627970
C       27.02085727      23.11427925      20.39094728
C       24.48078139      24.91793984      25.92486302
C       24.79669864      19.99456271      21.58161868
C       26.79980190      26.76423878      26.48789431
C       24.59679398      22.88276012      27.01962292
C       27.96856225      23.50578607      25.09710491
C       21.53166954      27.59475523      26.77902445
C       26.26864301      24.06564057      21.07324555
C       23.40148466      24.21588683      25.16803310
C       26.96334770      20.95239458      22.65663916
C       27.25411442      24.35084205      24.08118732
C       19.38606838      26.63451299      26.01594515
C       24.15669899      27.43190721      25.88451040
C       23.97192413      23.23090579      24.16158049
C       27.90172859      21.22450747      25.34228709
C       24.74569335      20.93169034      23.59231032
C       21.51848102      25.89915790      24.97211407
C       24.05360673      20.62776660      22.45133015
C       27.42499136      23.26556130      26.35748523
C       24.43233128      29.49404214      27.99532982
C       23.80109521      21.90347226      27.27373826
C       24.77989322      26.29113831      25.50453926
C       26.68221015      20.52324039      25.01187487
C       22.25956601      24.84927997      25.27531778
C       20.99651960      28.37201965      27.80616832
C       26.32669713      26.01744503      22.64860279
C       25.20652578      24.17182106      26.78588497
C       26.06219562      28.02203372      24.56806393
C       18.70972528      27.27218444      26.88729012
C       24.43981643      23.94472467      22.89918438
C       24.35350149      21.98354651      24.57768508
C       22.75875711      25.80207772      22.86714309
C       26.71395905      20.79069574      21.28373567
C       22.98371277      27.80993898      26.66209476
C       21.85086887      26.17733342      23.59825147
C       26.19331135      25.46365571      21.37119371
C       26.24017247      26.60524268      25.01116580
C       26.04760109      21.14609489      26.09757860
C       25.24758085      28.50320935      25.79710302
C       18.46119274      28.05860091      27.91969006
C       27.09500053      25.62418749      27.06241671
C       25.07931944      26.00950179      21.98612501
C       26.75866516      25.62697599      23.96932611
C       19.74889471      28.35196154      28.04491637
C       23.50440284      28.74610125      27.52253257
C       26.87453681      23.33092933      23.07547847
C       28.24417546      22.23547788      24.46519105
C       27.25646861      21.84787639      26.49499886
C       25.53391344      28.99598026      27.29555399
C       26.33797041      28.08372564      26.85897528
C       25.65627411      23.53726604      22.28223678
C       27.12168883      21.89765456      20.51586809
C       26.13085878      20.48815393      23.73894514
C       20.74734424      26.73299388      25.94152525
C       27.60226420      22.17258266      23.19957862
