60
Properties=species:S:1:pos:R:3 trajectory=trial0001_proposal001_step002_proposal_relax trajectory_step=0 pbc="F F F"
C       -0.75688746       2.51938100       1.95604005
C       -1.30741954      -0.48141693       1.97613774
C        1.58717655      -1.33158984       1.39372782
C        0.07476427       0.34128595      -4.03882932
C        1.60229446       1.99755032      -2.69837675
C        0.34133327       0.66880472       0.36727203
C        0.60111920       2.82503939       1.61996093
C        0.62454321       1.49747696       3.44654934
C        0.77543364      -2.61715037      -2.43805107
C       -1.24897026      -0.21885247      -4.13688955
C        2.75470361       0.29865850      -1.59803534
C        1.21686566      -2.99780014      -0.21864643
C       -1.77573562       2.15862634       1.01937243
C        0.21186592      -1.90816184      -3.51556348
C       -1.01569395      -2.87686145      -0.73340852
C        2.17661608       1.04901647       1.92014541
C       -0.80881701      -2.46076254       0.63948744
C       -2.07881160       1.55320894      -2.64237269
C       -0.72520137       2.04642073      -2.53066905
C       -1.68171678       0.92690060       3.81727040
C       -3.02573891      -0.67207699      -2.80835757
C       -3.44625484       0.67324092      -0.82232353
C        1.65179931       3.14256578      -1.85431744
C        1.22064803       3.11137319       0.38505660
C        2.49385679       2.54007044       0.13442808
C        2.75798527       1.27541194       0.66224722
C       -3.64484287      -0.52519224      -1.56785585
C        1.43367109       2.10171998       2.48990519
C       -2.58471178       1.65801337      -1.29549462
C       -0.35980744       0.17991758       1.28233548
C       -2.95016380      -1.14542961       0.55302940
C       -2.28184013       0.37748575       2.64738735
C        2.90609014       2.76652741      -1.21191076
C       -1.14965355      -1.61876401      -3.71579487
C        1.65671993      -0.21969889       2.34039091
C       -3.28092942       0.27116658       0.52625451
C        0.62885741       3.26747118      -0.88578514
C        2.82598161       1.60615382      -2.05118835
C        2.91207735       0.13462417      -0.17393118
C        2.50910716      -1.15437771       0.32750958
C       -0.72451018       1.85231360       3.26575200
C       -1.63043429       2.26640570      -0.41190281
C        0.62280116      -2.38775377       0.92823939
C        0.24873471      -0.45568063       4.55257387
C       -0.38260126      -0.64833078       5.76077832
C       -3.18509038      -1.64132394      -0.75201935
C        1.88748766      -1.84690752      -1.95354734
C       -1.80306978      -1.62712579       1.25455525
C        2.27498203      -2.15754586      -0.64913763
C       -2.33922071       0.39775030      -3.44587747
C        0.25376534      -3.21253563      -1.26899329
C       -1.06313386       0.02095359       4.75345048
C       -2.18626398      -1.83301897      -2.77333305
C        0.36279097       1.48239350      -3.19307310
C       -2.72851217       1.15850384       1.48547759
C        0.98550033       0.13093335       3.53935632
C       -2.14687579      -2.36536803      -1.44434370
C        1.91538804      -0.56847437      -2.44792594
C       -0.56284489       2.68940103      -1.26115872
C        0.96622296      -0.66094714      -3.62051031
60
Properties=species:S:1:pos:R:3 trajectory=trial0001_proposal001_step002_proposal_relax trajectory_step=1 pbc="F F F"
C       -0.76459420       2.51783915       1.95803479
C       -1.30595900      -0.48790801       1.98049331
C        1.58945313      -1.33083082       1.39616523
C        0.08141698       0.34870879      -4.02808864
C        1.60478487       2.01192480      -2.70661850
C        0.33771610       0.66778135       0.36538146
C        0.60042477       2.83069212       1.61765202
C        0.62493181       1.49320524       3.44989676
C        0.78111653      -2.61628292      -2.43145694
C       -1.24149245      -0.21568712      -4.13765675
C        2.75192160       0.29972926      -1.59933245
C        1.22012179      -2.99496776      -0.21354431
C       -1.78050430       2.15695172       1.01768413
C        0.21410061      -1.90781041      -3.51224167
C       -1.01955650      -2.87428012      -0.72741984
C        2.18469143       1.04993093       1.91542888
C       -0.81124896      -2.45385395       0.64165295
C       -2.06813769       1.54831067      -2.64167311
C       -0.72872803       2.04721765      -2.53367472
C       -1.67871296       0.92397608       3.81670871
C       -3.02908211      -0.66944546      -2.80564674
C       -3.44978549       0.66599967      -0.81866188
C        1.65474228       3.14493884      -1.85651716
C        1.21797553       3.11123089       0.38287234
C        2.50730094       2.54168699       0.13512213
C        2.76033037       1.27433476       0.66456274
C       -3.64217856      -0.52677781      -1.56985312
C        1.43576015       2.09997283       2.48700792
C       -2.59121700       1.65124608      -1.29526339
C       -0.35885430       0.17785515       1.28135947
C       -2.94923353      -1.14432352       0.55136437
C       -2.27746123       0.37847788       2.64580296
C        2.89827644       2.76511790      -1.21280278
C       -1.15347899      -1.61411006      -3.71812518
C        1.66192178      -0.21915942       2.34591794
C       -3.27681691       0.27132756       0.53216138
C        0.63167015       3.26826932      -0.88528362
C        2.81995851       1.60472529      -2.05602324
C        2.90888930       0.12420045      -0.17768853
C        2.51173555      -1.14971032       0.31739125
C       -0.72299062       1.85278282       3.26736309
C       -1.64235707       2.27060557      -0.41018041
C        0.61849117      -2.39043652       0.92812348
C        0.25752690      -0.46000631       4.54273506
C       -0.38614100      -0.65021943       5.77309187
C       -3.18681975      -1.63967890      -0.75213670
C        1.88670820      -1.85636766      -1.94869409
C       -1.80562993      -1.62077730       1.25356065
C        2.26578769      -2.16542772      -0.65259845
C       -2.33954381       0.39564652      -3.44697380
C        0.25229787      -3.21559555      -1.27261453
C       -1.07350493       0.03137749       4.74563429
C       -2.18121383      -1.83572885      -2.77920750
C        0.35783655       1.49060899      -3.20226545
C       -2.72634255       1.15902175       1.48906518
C        0.97845112       0.13085835       3.55349000
C       -2.14970523      -2.36539890      -1.44937549
C        1.92564658      -0.57676550      -2.45524432
C       -0.56500452       2.69180035      -1.25639457
C        0.96973836      -0.66318338      -3.61739958
60
Properties=species:S:1:pos:R:3 trajectory=trial0001_proposal001_step002_proposal_relax trajectory_step=2 pbc="F F F"
C       -0.77291541       2.51673265       1.96018711
C       -1.30165877      -0.49510312       1.98732947
C        1.59432817      -1.32901598       1.39872370
C        0.09102961       0.35523776      -4.01351779
C        1.60550309       2.03143018      -2.72337914
C        0.33231433       0.66657718       0.36126110
C        0.59765238       2.83713019       1.61635432
C        0.62629739       1.49162624       3.45187579
C        0.78519840      -2.61603087      -2.42453587
C       -1.23186727      -0.20946461      -4.13792814
C        2.74648397       0.29887537      -1.60381818
C        1.21727195      -2.99593010      -0.20768023
C       -1.78810723       2.15500869       1.01722820
C        0.21621740      -1.90671122      -3.50688190
C       -1.02439589      -2.87051298      -0.72157760
C        2.19344249       1.04980320       1.91420381
C       -0.81530286      -2.44381969       0.64335215
C       -2.05783773       1.53761744      -2.63850450
C       -0.73133553       2.05121032      -2.53487492
C       -1.67558122       0.92264227       3.81302439
C       -3.03062018      -0.66787237      -2.80603509
C       -3.45480244       0.65680126      -0.81297743
C        1.65614353       3.15223162      -1.85865318
C        1.21896979       3.11043857       0.38012632
C        2.52376872       2.54594668       0.13798167
C        2.76727414       1.27042077       0.66255822
C       -3.64013864      -0.52943288      -1.56964022
C        1.43625457       2.09672177       2.48343670
C       -2.59912308       1.64179763      -1.29588853
C       -0.35846161       0.17295556       1.28244048
C       -2.94806265      -1.14151247       0.54983829
C       -2.27058154       0.37926721       2.64371034
C        2.88989742       2.76082457      -1.21497699
C       -1.15230156      -1.60772670      -3.72294374
C        1.67024090      -0.21765448       2.35582247
C       -3.27200557       0.27021290       0.53955525
C        0.63366318       3.26841706      -0.88585728
C        2.81089986       1.60367129      -2.06320247
C        2.90503042       0.11600965      -0.18452660
C        2.51070154      -1.15062497       0.30546134
C       -0.72090728       1.85363510       3.26933298
C       -1.66016087       2.27753385      -0.40978482
C        0.61417482      -2.39169249       0.93017464
C        0.25157523      -0.47164215       4.54881212
C       -0.39267131      -0.64465916       5.77248589
C       -3.18871778      -1.63876061      -0.75431964
C        1.88737621      -1.86651997      -1.94646980
C       -1.80935404      -1.61297162       1.25197926
C        2.25771517      -2.17245839      -0.65244873
C       -2.33784686       0.39388569      -3.44930333
C        0.24906365      -3.22058611      -1.27187265
C       -1.07460654       0.03517135       4.74604766
C       -2.17842627      -1.83766490      -2.78643188
C        0.35501889       1.50788551      -3.21403971
C       -2.72380734       1.15905249       1.49445921
C        0.97772412       0.13296541       3.56199513
C       -2.15311819      -2.36612603      -1.45507440
C        1.94274245      -0.59091010      -2.46502859
C       -0.56958448       2.69486752      -1.25062254
C        0.97575596      -0.66558154      -3.61189526
60
Properties=species:S:1:pos:R:3 trajectory=trial0001_proposal001_step002_proposal_relax trajectory_step=3 pbc="F F F"
C       -0.78172388       2.51893881       1.96061699
C       -1.28739216      -0.50579050       2.00545304
C        1.60686797      -1.32382631       1.40414976
C        0.11232385       0.35981617      -3.98474255
C        1.60578073       2.07564885      -2.76947402
C        0.31362489       0.65998325       0.35690902
C        0.59185712       2.84363386       1.61561485
C        0.63186685       1.49452067       3.45266891
C        0.77774281      -2.62210938      -2.41448156
C       -1.21057224      -0.19322873      -4.13654457
C        2.73097313       0.29332607      -1.62508375
C        1.19511591      -3.00990837      -0.19617164
C       -1.80598707       2.15465405       1.02211611
C        0.22035058      -1.90149032      -3.49366156
C       -1.03408589      -2.86177040      -0.71811944
C        2.20929508       1.04835748       1.91789352
C       -0.82473571      -2.42245627       0.64180787
C       -2.04901789       1.50558408      -2.62272044
C       -0.73286278       2.06842966      -2.52742648
C       -1.66648130       0.92225701       3.80923584
C       -3.02747822      -0.67074365      -2.81611098
C       -3.46515626       0.64384132      -0.80068537
C        1.65350471       3.17725646      -1.86480156
C        1.23225589       3.10795780       0.37966103
C        2.55202668       2.55650745       0.14669466
C        2.78860187       1.25923218       0.65372290
C       -3.64032669      -0.53746706      -1.56858769
C        1.43031894       2.09287384       2.47227200
C       -2.61217201       1.62190653      -1.29786830
C       -0.35080767       0.16233401       1.28217457
C       -2.94668931      -1.13480282       0.54717851
C       -2.25314914       0.37707312       2.64411939
C        2.87883560       2.74594262      -1.22284191
C       -1.13620155      -1.59550537      -3.73444519
C        1.69531116      -0.21875282       2.37475669
C       -3.26752990       0.26455358       0.55117628
C        0.63161767       3.26473498      -0.88635353
C        2.78528851       1.60354508      -2.08223616
C        2.89796488       0.11333601      -0.20658104
C        2.49697010      -1.16408106       0.29447052
C       -0.71929140       1.85616801       3.27274228
C       -1.69961327       2.29555657      -0.41338438
C        0.60720500      -2.38559636       0.94269767
C        0.24870948      -0.49320444       4.54661714
C       -0.41407103      -0.63312452       5.78647740
C       -3.19041282      -1.64193528      -0.75984879
C        1.89860644      -1.88685915      -1.94834322
C       -1.81592849      -1.60175141       1.24941468
C        2.24765730      -2.18507451      -0.64646615
C       -2.32771176       0.39255169      -3.45694326
C        0.23711434      -3.23173905      -1.25638969
C       -1.08317699       0.04585668       4.74434871
C       -2.18117206      -1.83578911      -2.80281790
C        0.36037815       1.56000322      -3.23833391
C       -2.72242062       1.15430600       1.50500810
C        0.97839780       0.12733020       3.58645429
C       -2.15835036      -2.36949441      -1.46358509
C        1.98650015      -0.62179129      -2.48715133
C       -0.58584138       2.70091957      -1.24265048
C        0.99272598      -0.66702493      -3.59653389
60
Properties=species:S:1:pos:R:3 trajectory=trial0001_proposal001_step002_proposal_relax trajectory_step=4 pbc="F F F"
C       -0.78120371       2.52322621       1.95640052
C       -1.27649969      -0.50709375       2.01057353
C        1.60761997      -1.32374531       1.41187997
C        0.12356404       0.37015186      -3.97362769
C        1.61339448       2.10376850      -2.78638145
C        0.31169022       0.66212710       0.34370272
C        0.59551193       2.83985522       1.60918861
C        0.63054836       1.49229523       3.45454554
C        0.76853979      -2.62892707      -2.40660681
C       -1.19595481      -0.19118735      -4.13522390
C        2.72512021       0.29521453      -1.64291764
C        1.19022342      -3.01354179      -0.18565035
C       -1.81324537       2.16107344       1.02393917
C        0.22515727      -1.89702890      -3.48640451
C       -1.03922416      -2.85756765      -0.72081334
C        2.21648863       1.04706277       1.91507667
C       -0.82630454      -2.41511233       0.63770168
C       -2.04262590       1.49566046      -2.60993867
C       -0.73848195       2.07460782      -2.52348827
C       -1.66511344       0.92932669       3.81060817
C       -3.02760356      -0.67337338      -2.82168546
C       -3.47143645       0.64207910      -0.80149734
C        1.65442367       3.18982363      -1.86960789
C        1.23839675       3.10828134       0.38163611
C        2.55819510       2.55362304       0.14372526
C        2.79612334       1.25994210       0.65607581
C       -3.64172129      -0.54151352      -1.57786473
C        1.42739970       2.08803251       2.46754441
C       -2.61531265       1.61577249      -1.29243614
C       -0.35469177       0.14840534       1.29952459
C       -2.94669137      -1.13854320       0.54591824
C       -2.24566013       0.37217016       2.64904695
C        2.87254032       2.74129367      -1.22787537
C       -1.13292000      -1.59181125      -3.73462304
C        1.71041506      -0.22200657       2.38381871
C       -3.27453835       0.26220982       0.55054683
C        0.63018151       3.25832593      -0.87892394
C        2.76701123       1.60473201      -2.09603508
C        2.89053813       0.10793052      -0.21596239
C        2.49383268      -1.15466653       0.29707703
C       -0.71488507       1.86057170       3.27063150
C       -1.71321490       2.30484522      -0.41063050
C        0.59960188      -2.37981315       0.95088888
C        0.23066703      -0.50287332       4.56258414
C       -0.42713426      -0.61980223       5.78070597
C       -3.18946543      -1.64610954      -0.75851606
C        1.90831704      -1.90821063      -1.95029895
C       -1.81505320      -1.60005093       1.25295635
C        2.23475352      -2.20276924      -0.64451380
C       -2.32166742       0.39023783      -3.46021809
C        0.22581104      -3.23378587      -1.25094398
C       -1.07431918       0.03854328       4.75560383
C       -2.17812067      -1.83440223      -2.81364338
C        0.36080585       1.58167831      -3.25235345
C       -2.72446444       1.14584087       1.50861624
C        0.99358844       0.12947921       3.58072573
C       -2.15984210      -2.37001861      -1.46948415
C        2.00437115      -0.63287503      -2.49992381
C       -0.59556968       2.70665660      -1.24089435
C        1.00356353      -0.66439569      -3.58719163
60
Properties=species:S:1:pos:R:3 trajectory=trial0001_proposal001_step002_proposal_relax trajectory_step=5 pbc="F F F"
C       -0.77903001       2.52289118       1.95606968
C       -1.28181503      -0.50725049       2.00990507
C        1.60608759      -1.32396813       1.41045993
C        0.12020045       0.36728638      -3.97928510
C        1.60971046       2.09500479      -2.78124421
C        0.30939080       0.65896206       0.35221490
C        0.59561050       2.83802230       1.61071104
C        0.63145576       1.49262981       3.45270675
C        0.77010838      -2.62723858      -2.40978165
C       -1.20069122      -0.19291293      -4.13487328
C        2.72749295       0.29449652      -1.63858171
C        1.18986788      -3.01313472      -0.18799523
C       -1.81062871       2.16041001       1.02404826
C        0.22355196      -1.89787388      -3.48819013
C       -1.03753853      -2.85902860      -0.72137916
C        2.21252102       1.04702814       1.91668717
C       -0.82540695      -2.41855997       0.63819991
C       -2.04582167       1.49961965      -2.61317892
C       -0.73631630       2.07221667      -2.52480389
C       -1.66635416       0.92908241       3.81178471
C       -3.02692951      -0.67304238      -2.82205477
C       -3.47020135       0.64343646      -0.80399059
C        1.65322271       3.18758456      -1.86639815
C        1.23749755       3.10841466       0.38070250
C        2.55243865       2.55267968       0.14230368
C        2.79352285       1.26022576       0.65441965
C       -3.64214496      -0.54019322      -1.57546021
C        1.42843740       2.08796969       2.46965926
C       -2.61254300       1.61970475      -1.29245967
C       -0.34721117       0.15658327       1.28988107
C       -2.94698150      -1.13897079       0.54712409
C       -2.24886782       0.37292447       2.64936988
C        2.87534893       2.74337938      -1.22660907
C       -1.13212959      -1.59377735      -3.73355147
C        1.70662523      -0.22151365       2.38019297
C       -3.27521872       0.26222062       0.54893003
C        0.63041095       3.25903210      -0.88089191
C        2.77280217       1.60530176      -2.09226677
C        2.89217954       0.11220580      -0.21261510
C        2.49367479      -1.15855248       0.29733636
C       -0.71628152       1.85969232       3.27045092
C       -1.70645309       2.30194477      -0.41026291
C        0.60189160      -2.38078985       0.94867359
C        0.23483887      -0.49778415       4.55928543
C       -0.42283569      -0.62317980       5.78220493
C       -3.18927058      -1.64535064      -0.75991083
C        1.90628604      -1.90295036      -1.95232099
C       -1.81424949      -1.60246774       1.25278973
C        2.24035149      -2.19545319      -0.64200052
C       -2.32252328       0.39131873      -3.45839047
C        0.22864234      -3.23220057      -1.25179133
C       -1.07567950       0.03985104       4.75244466
C       -2.17946689      -1.83505538      -2.80907606
C        0.36097629       1.57503702      -3.24647277
C       -2.72434901       1.14712437       1.50654103
C        0.99095472       0.12809328       3.58027924
C       -2.15895992      -2.36943242      -1.46806430
C        1.99715959      -0.63030347      -2.49485908
C       -0.59208615       2.70602037      -1.24172582
C        1.00015565      -0.66379062      -3.58982345
60
Properties=species:S:1:pos:R:3 trajectory=trial0001_proposal001_step002_proposal_relax trajectory_step=6 pbc="F F F"
C       -0.77752249       2.52351815       1.95499020
C       -1.28159437      -0.50685313       2.00984588
C        1.60536207      -1.32404985       1.41117956
C        0.12064020       0.36754684      -3.98081153
C        1.60836912       2.09591886      -2.78165209
C        0.30922901       0.65866459       0.35236120
C        0.59667891       2.83575812       1.61023968
C        0.63193283       1.49186101       3.45172924
C        0.76959037      -2.62763094      -2.41016209
C       -1.20043292      -0.19326847      -4.13415657
C        2.72766950       0.29428128      -1.63931523
C        1.18841232      -3.01346184      -0.18724561
C       -1.81073687       2.16115624       1.02481451
C        0.22358362      -1.89727873      -3.48757249
C       -1.03777459      -2.85898613      -0.72212959
C        2.21198644       1.04657565       1.91686771
C       -0.82544445      -2.41908140       0.63790039
C       -2.04639428       1.50001778      -2.61257078
C       -0.73594529       2.07220424      -2.52462361
C       -1.66673877       0.93045718       3.81325331
C       -3.02667200      -0.67338149      -2.82364514
C       -3.47101251       0.64372362      -0.80578688
C        1.65252624       3.18915982      -1.86533754
C        1.23821467       3.10826818       0.38041113
C        2.54984239       2.55127533       0.14046866
C        2.79312810       1.26022226       0.65354901
C       -3.64261502      -0.54038918      -1.57616122
C        1.42882236       2.08670802       2.46972637
C       -2.61147565       1.62089468      -1.29130604
C       -0.34619788       0.15656792       1.29107777
C       -2.94740473      -1.14016801       0.54742416
C       -2.24933680       0.37244255       2.65058757
C        2.87572781       2.74388364      -1.22726693
C       -1.13057712      -1.59418435      -3.73280712
C        1.70773220      -0.22211834       2.37985405
C       -3.27726733       0.26135847       0.54788263
C        0.63030900       3.25823104      -0.88082918
C        2.77268123       1.60611826      -2.09305570
C        2.89133432       0.11405812      -0.21267353
C        2.49240354      -1.15932356       0.29773320
C       -0.71623141       1.85999017       3.26991923
C       -1.70479541       2.30223040      -0.40921445
C        0.60150312      -2.38031610       0.94910081
C        0.23595426      -0.49538527       4.55823729
C       -0.42267878      -0.62309370       5.78412689
C       -3.18901165      -1.64547509      -0.76093299
C        1.90750439      -1.90465296      -1.95332459
C       -1.81375776      -1.60360702       1.25343600
C        2.24096949      -2.19415619      -0.64037615
C       -2.32146948       0.39155169      -3.45763763
C        0.22835890      -3.23155073      -1.25110227
C       -1.07611059       0.04080108       4.75127237
C       -2.17958773      -1.83538423      -2.80853435
C        0.36110503       1.57569863      -3.24553464
C       -2.72436311       1.14604067       1.50580591
C        0.99103159       0.12666337       3.58089509
C       -2.15875375      -2.36913195      -1.46857869
C        1.99637139      -0.63156539      -2.49416400
C       -0.59177099       2.70699512      -1.24169510
C        1.00012908      -0.66272952      -3.58941919
60
Properties=species:S:1:pos:R:3 trajectory=trial0001_proposal001_step002_proposal_relax trajectory_step=7 pbc="F F F"
C       -0.77447128       2.52499284       1.95233130
C       -1.28059860      -0.50740506       2.01178816
C        1.60385878      -1.32423342       1.41400634
C        0.12406222       0.37068245      -3.98266176
C        1.60596166       2.10427787      -2.78488312
C        0.30681986       0.65678839       0.35294303
C        0.60015468       2.82946988       1.60764690
C        0.63268442       1.48844261       3.44944554
C        0.76867006      -2.62983759      -2.40933094
C       -1.19667628      -0.19318049      -4.13185642
C        2.72676764       0.29440545      -1.64340170
C        1.18486600      -3.01362813      -0.18360990
C       -1.81243475       2.16332634       1.02725158
C        0.22507371      -1.89483849      -3.48423459
C       -1.03960719      -2.85801434      -0.72344717
C        2.21330292       1.04445746       1.91609619
C       -0.82664192      -2.41875795       0.63730260
C       -2.04548502       1.49977496      -2.60907343
C       -0.73618999       2.07354649      -2.52330338
C       -1.66791829       0.93554603       3.81632613
C       -3.02665681      -0.67448507      -2.82828460
C       -3.47439992       0.64347946      -0.80980826
C        1.65120290       3.19527144      -1.86426259
C        1.24027039       3.10720668       0.37945836
C        2.54515802       2.54695614       0.13486344
C        2.79241195       1.25994499       0.65141156
C       -3.64354921      -0.54166789      -1.58034717
C        1.43031419       2.08208007       2.46870290
C       -2.61000083       1.62220081      -1.28768358
C       -0.34146553       0.15612838       1.29446571
C       -2.94889944      -1.14393923       0.54727365
C       -2.24936492       0.37111744       2.65403959
C        2.87485692       2.74489463      -1.23045506
C       -1.12675854      -1.59402854      -3.73072316
C        1.71304733      -0.22435938       2.38155469
C       -3.28301900       0.25836895       0.54593744
C        0.63027658       3.25627356      -0.87968687
C        2.76919621       1.60824510      -2.09802431
C        2.88718963       0.11638944      -0.21477716
C        2.48849075      -1.15855200       0.29791574
C       -0.71468376       1.86129020       3.26836287
C       -1.70317318       2.30456277      -0.40572155
C        0.59857661      -2.37903116       0.95148922
C        0.23553916      -0.49057801       4.55960584
C       -0.42391514      -0.61993207       5.78705517
C       -3.18843785      -1.64576191      -0.76376907
C        1.91259287      -1.91325408      -1.95483561
C       -1.81334581      -1.60540099       1.25532955
C        2.23890560      -2.19455815      -0.63713668
C       -2.31750108       0.39149519      -3.45567941
C        0.22635223      -3.23016449      -1.24912530
C       -1.07543961       0.04288222       4.75046300
C       -2.17858435      -1.83648533      -2.80989017
C        0.36058117       1.58078886      -3.24597840
C       -2.72410884       1.14189857       1.50444570
C        0.99315702       0.12382593       3.58226032
C       -2.15872854      -2.36844421      -1.47119781
C        1.99777829      -0.63723966      -2.49429331
C       -0.59232154       2.71052949      -1.24079024
C        1.00168729      -0.66014405      -3.58643291
60
Properties=species:S:1:pos:R:3 trajectory=trial0001_proposal001_step002_proposal_relax trajectory_step=8 pbc="F F F"
C       -0.77273372       2.52393745       1.95265044
C       -1.28042989      -0.50791311       2.01396796
C        1.60301751      -1.32441963       1.41482609
C        0.12712942       0.37337977      -3.98461954
C        1.60239202       2.11062910      -2.78572966
C        0.30675510       0.65588192       0.35181681
C        0.60263566       2.82366600       1.60583846
C        0.63370969       1.48440985       3.44588787
C        0.77218210      -2.63261592      -2.40911834
C       -1.19349069      -0.19151460      -4.12909045
C        2.72432292       0.29512662      -1.64533616
C        1.18192724      -3.01192151      -0.18196427
C       -1.81312837       2.16286450       1.02966077
C        0.22742913      -1.89277367      -3.48005626
C       -1.04092060      -2.85726325      -0.72295858
C        2.21728361       1.04028909       1.91561934
C       -0.82978153      -2.41867502       0.63876880
C       -2.04416667       1.50051699      -2.60638633
C       -0.73581843       2.07605296      -2.52108998
C       -1.66957863       0.94055378       3.81687774
C       -3.02667945      -0.67560940      -2.83274365
C       -3.47677423       0.64248736      -0.81109039
C        1.64980051       3.20122255      -1.86543696
C        1.24045236       3.10384357       0.37725124
C        2.54234098       2.54315498       0.12913803
C        2.78902681       1.25763059       0.64733800
C       -3.64391531      -0.54187315      -1.58419075
C        1.43349703       2.07686901       2.46687224
C       -2.60962946       1.62212879      -1.28546510
C       -0.34056398       0.15342009       1.30180066
C       -2.95171659      -1.14654241       0.54550816
C       -2.24982290       0.37182100       2.65503095
C        2.87395490       2.74659354      -1.23471120
C       -1.12330917      -1.59249267      -3.72865983
C        1.71687957      -0.22763269       2.38468043
C       -3.28611332       0.25518528       0.54528047
C        0.63039493       3.25899017      -0.88010595
C        2.76679407       1.60961339      -2.10293653
C        2.88244016       0.11664453      -0.21773488
C        2.48329064      -1.15776450       0.29590518
C       -0.71257223       1.86134615       3.26758914
C       -1.70217582       2.30533850      -0.40293982
C        0.59580836      -2.37969852       0.95377190
C        0.23716096      -0.48524281       4.56245655
C       -0.42345037      -0.61623542       5.78971094
C       -3.18823364      -1.64490274      -0.76802636
C        1.91785471      -1.91849081      -1.95614109
C       -1.81612704      -1.60498738       1.25595901
C        2.23706142      -2.19429204      -0.63426133
C       -2.31306028       0.39166756      -3.45215199
C        0.22620478      -3.22840777      -1.24779907
C       -1.07650239       0.04887192       4.74984498
C       -2.17775795      -1.83814099      -2.81239760
C        0.35918461       1.58440721      -3.24590888
C       -2.72269978       1.13821899       1.50273632
C        0.99415266       0.12224693       3.58402232
C       -2.15876507      -2.36812550      -1.47305479
C        1.99959859      -0.64146238      -2.49209615
C       -0.59184310       2.71318367      -1.23887786
C        1.00250793      -0.65957649      -3.58266423
60
Properties=species:S:1:pos:R:3 trajectory=trial0001_proposal001_step002_proposal_relax trajectory_step=9 pbc="F F F"
C       -0.77160470       2.52255465       1.95320028
C       -1.28107129      -0.50920074       2.01674905
C        1.60187769      -1.32477079       1.41596594
C        0.13059195       0.37608356      -3.98448745
C        1.60037229       2.11652913      -2.78694653
C        0.30414643       0.65306382       0.35412112
C        0.60472621       2.81855651       1.60386018
C        0.63475051       1.48128697       3.44306265
C        0.77556277      -2.63582332      -2.40859284
C       -1.18955066      -0.18977852      -4.12677792
C        2.72132867       0.29626767      -1.64786930
C        1.17971420      -3.01008052      -0.17994130
C       -1.81352422       2.16190817       1.03125752
C        0.22965763      -1.89105428      -3.47601727
C       -1.04220147      -2.85631030      -0.72249891
C        2.22183009       1.03628062       1.91493217
C       -0.83291967      -2.41831278       0.64030076
C       -2.04240766       1.50087518      -2.60319462
C       -0.73628311       2.07865265      -2.51901374
C       -1.67072983       0.94489491       3.81679746
C       -3.02695774      -0.67629168      -2.83604054
C       -3.47845096       0.64157700      -0.81165884
C        1.64901863       3.20711868      -1.86761271
C        1.24056179       3.10052542       0.37524550
C        2.54102504       2.53991140       0.12433365
C        2.78616641       1.25498299       0.64409239
C       -3.64400475      -0.54198939      -1.58824585
C        1.43623107       2.07223924       2.46445183
C       -2.60986217       1.62123048      -1.28326073
C       -0.33744348       0.15198933       1.30535299
C       -2.95442737      -1.14842668       0.54355980
C       -2.24995160       0.37246982       2.65563576
C        2.87261439       2.74768911      -1.23902794
C       -1.12036110      -1.59061060      -3.72690764
C        1.72113369      -0.23120225       2.38749111
C       -3.28830221       0.25291936       0.54474622
C        0.63014970       3.26270064      -0.88014874
C        2.76337938       1.61079830      -2.10778069
C        2.87779483       0.11547457      -0.22129464
C        2.47888127      -1.15570397       0.29438519
C       -0.71034243       1.86149375       3.26705144
C       -1.70268955       2.30586329      -0.40069955
C        0.59284899      -2.38034573       0.95632408
C        0.23686889      -0.48107379       4.56683107
C       -0.42433415      -0.61090981       5.79037652
C       -3.18821676      -1.64436201      -0.77136515
C        1.92362466      -1.92416022      -1.95574309
C       -1.81916135      -1.60411102       1.25621388
C        2.23438663      -2.19599499      -0.63383030
C       -2.30907172       0.39172458      -3.44929035
C        0.22554706      -3.22684180      -1.24684884
C       -1.07584520       0.05366057       4.75169151
C       -2.17687462      -1.83968007      -2.81564582
C        0.35784802       1.58832814      -3.24685693
C       -2.72173055       1.13502789       1.50166168
C        0.99594829       0.12112741       3.58523295
C       -2.15878427      -2.36802974      -1.47512052
C        2.00216312      -0.64393179      -2.49164201
C       -0.59227712       2.71554206      -1.23695523
C        1.00406110      -0.65873166      -3.57854192
60
Properties=species:S:1:pos:R:3 trajectory=trial0001_proposal001_step002_proposal_relax trajectory_step=10 pbc="F F F"
C       -0.77127490       2.52055780       1.95378637
C       -1.28305433      -0.51054574       2.01835216
C        1.60037800      -1.32563693       1.41620020
C        0.13277254       0.37743906      -3.98210398
C        1.59937102       2.11801119      -2.78709598
C        0.30241067       0.65062867       0.35682434
C        0.60552604       2.81527484       1.60217750
C        0.63632537       1.47996738       3.44159869
C        0.77938628      -2.63825069      -2.40882451
C       -1.18677401      -0.18847310      -4.12533309
C        2.71846377       0.29772855      -1.64946440
C        1.17860265      -3.00851926      -0.17915883
C       -1.81245040       2.15944046       1.03132143
C        0.23156095      -1.89056319      -3.47319397
C       -1.04267572      -2.85550438      -0.72223807
C        2.22552019       1.03297616       1.91451238
C       -0.83547134      -2.41870208       0.64190404
C       -2.04156595       1.50130157      -2.60126064
C       -0.73697152       2.08045819      -2.51794335
C       -1.67065129       0.94641674       3.81620790
C       -3.02680930      -0.67585763      -2.83730153
C       -3.47826876       0.64093597      -0.81154936
C        1.64875548       3.21110272      -1.87028842
C        1.24012371       3.09785861       0.37325349
C        2.54091603       2.53772871       0.12160374
C        2.78403714       1.25230062       0.64170353
C       -3.64375642      -0.54141390      -1.59000122
C        1.43830487       2.06915273       2.46208542
C       -2.61020560       1.62037361      -1.28195725
C       -0.33732549       0.14920257       1.30836328
C       -2.95657922      -1.14839263       0.54196272
C       -2.25017955       0.37322037       2.65554367
C        2.87153687       2.74845820      -1.24180073
C       -1.11880884      -1.58904510      -3.72574767
C        1.72388168      -0.23424717       2.38907875
C       -3.28832240       0.25276978       0.54425652
C        0.62936717       3.26810467      -0.88081414
C        2.76114783       1.61119551      -2.11007958
C        2.87455428       0.11363526      -0.22398355
C        2.47616699      -1.15532264       0.29264604
C       -0.70870639       1.86124876       3.26718881
C       -1.70340832       2.30493561      -0.39972744
C        0.59094598      -2.38126107       0.95818219
C        0.23705694      -0.47785301       4.57006007
C       -0.42579155      -0.60558143       5.79130094
C       -3.18867728      -1.64407566      -0.77341810
C        1.92760176      -1.92551056      -1.95703647
C       -1.82203345      -1.60302377       1.25566145
C        2.23376007      -2.19725382      -0.63299898
C       -2.30682223       0.39209780      -3.44745883
C        0.22541856      -3.22547282      -1.24670676
C       -1.07550498       0.05877438       4.75431419
C       -2.17669516      -1.84080950      -2.81817329
C        0.35692139       1.59006680      -3.24716005
C       -2.72143432       1.13414262       1.50124056
C        0.99749244       0.12058754       3.58559339
C       -2.15869297      -2.36812222      -1.47663888
C        2.00342173      -0.64398157      -2.49170587
C       -0.59287739       2.71690517      -1.23559114
C        1.00549025      -0.65795934      -3.57510096
60
Properties=species:S:1:pos:R:3 trajectory=trial0001_proposal001_step002_proposal_relax trajectory_step=11 pbc="F F F"
C       -0.77020319       2.51816143       1.95358987
C       -1.28691953      -0.51237235       2.01966860
C        1.59872816      -1.32687025       1.41572518
C        0.13359940       0.37717389      -3.97857037
C        1.59809707       2.11771478      -2.78618199
C        0.30101986       0.64776066       0.36076397
C        0.60593184       2.81193757       1.60016635
C        0.63877231       1.47971929       3.44069744
C        0.78336209      -2.63973308      -2.41003814
C       -1.18529869      -0.18756152      -4.12367604
C        2.71601101       0.29804569      -1.64963735
C        1.17767335      -3.00724438      -0.17922291
C       -1.81029012       2.15583041       1.03095461
C        0.23261256      -1.89007922      -3.47203632
C       -1.04274309      -2.85451626      -0.72283633
C        2.22797693       1.02986508       1.91395593
C       -0.83773522      -2.42010716       0.64301439
C       -2.04190927       1.50207356      -2.60054734
C       -0.73755411       2.08208503      -2.51719774
C       -1.66959730       0.94705520       3.81520842
C       -3.02603798      -0.67502345      -2.83735499
C       -3.47710549       0.64112778      -0.81147157
C        1.64802696       3.21386465      -1.87279267
C        1.23972008       3.09601241       0.37077968
C        2.53969653       2.53582136       0.11942828
C        2.78287121       1.24940275       0.63940987
C       -3.64319546      -0.54081548      -1.59066455
C        1.43986086       2.06668974       2.45983908
C       -2.60995983       1.62036125      -1.28181979
C       -0.33895414       0.14513915       1.31124127
C       -2.95817139      -1.14735867       0.54073605
C       -2.25139594       0.37381007       2.65589751
C        2.87076751       2.74925280      -1.24342639
C       -1.11649905      -1.58847831      -3.72468839
C        1.72584169      -0.23717680       2.38960049
C       -3.28763988       0.25377507       0.54366362
C        0.62838198       3.27413095      -0.88280089
C        2.76006372       1.61194576      -2.11049272
C        2.87200058       0.11219936      -0.22611306
C        2.47437732      -1.15604332       0.29257273
C       -0.70699699       1.86074055       3.26731030
C       -1.70241504       2.30323606      -0.39952070
C        0.58942052      -2.38256583       0.95937672
C        0.23759729      -0.47396048       4.57294851
C       -0.42704207      -0.59935648       5.79371586
C       -3.18946322      -1.64399570      -0.77470463
C        1.93188330      -1.92668822      -1.95584453
C       -1.82509676      -1.60321000       1.25444456
C        2.23414787      -2.19803265      -0.63643463
C       -2.30533417       0.39293857      -3.44654990
C        0.22682940      -3.22356605      -1.24688045
C       -1.07534703       0.06484419       4.75710404
C       -2.17755675      -1.84097570      -2.81963654
C        0.35632574       1.59064638      -3.24556426
C       -2.72174005       1.13481525       1.50132533
C        0.99859496       0.11991440       3.58610682
C       -2.15893576      -2.36802980      -1.47756833
C        2.00373461      -0.64195852      -2.49180454
C       -0.59310118       2.71841035      -1.23543857
C        1.00574149      -0.65716230      -3.57266203
60
Properties=species:S:1:pos:R:3 trajectory=trial0001_proposal001_step002_proposal_relax trajectory_step=12 pbc="F F F"
C       -0.76927345       2.51690151       1.95294267
C       -1.28951327      -0.51383320       2.02042982
C        1.59793138      -1.32783894       1.41538121
C        0.13332561       0.37727821      -3.97604040
C        1.59797059       2.11755402      -2.78567300
C        0.30001119       0.64585904       0.36354653
C        0.60623376       2.81027260       1.59860779
C        0.64011982       1.47995415       3.44085084
C        0.78482801      -2.64011041      -2.41080862
C       -1.18467517      -0.18757954      -4.12282568
C        2.71503351       0.29847782      -1.64998529
C        1.17770790      -3.00696783      -0.17977482
C       -1.80884536       2.15409187       1.03048532
C        0.23383552      -1.89019266      -3.47165777
C       -1.04243414      -2.85390063      -0.72385482
C        2.22855681       1.02855164       1.91337493
C       -0.83866628      -2.42115333       0.64279115
C       -2.04221603       1.50262264      -2.60068237
C       -0.73810390       2.08287589      -2.51712718
C       -1.66851577       0.94739025       3.81462195
C       -3.02530639      -0.67435351      -2.83715595
C       -3.47630254       0.64158412      -0.81170112
C        1.64785044       3.21498879      -1.87394613
C        1.23950408       3.09571580       0.36949393
C        2.53876969       2.53473999       0.11869586
C        2.78303073       1.24855939       0.63876108
C       -3.64292816      -0.54037532      -1.59048545
C        1.44042660       2.06577706       2.45853804
C       -2.60960089       1.62067743      -1.28197165
C       -0.34028902       0.14245476       1.31253605
C       -2.95866849      -1.14661227       0.54017985
C       -2.25252684       0.37373920       2.65651591
C        2.87024752       2.74965462      -1.24380788
C       -1.11644664      -1.58845546      -3.72419802
C        1.72662241      -0.23842527       2.38975116
C       -3.28730829       0.25477432       0.54331836
C        0.62779300       3.27677636      -0.88379105
C        2.75951910       1.61201693      -2.11007355
C        2.87104392       0.11121067      -0.22652114
C        2.47421881      -1.15744211       0.29206737
C       -0.70582624       1.86067856       3.26699366
C       -1.70142707       2.30233445      -0.39977104
C        0.58892431      -2.38311783       0.95957749
C        0.23730089      -0.47198321       4.57480700
C       -0.42782643      -0.59524093       5.79548069
C       -3.19006849      -1.64413489      -0.77463114
C        1.93320248      -1.92573705      -1.95876257
C       -1.82653155      -1.60408114       1.25396300
C        2.23505037      -2.19866429      -0.63483257
C       -2.30518192       0.39330322      -3.44674115
C        0.22700693      -3.22246986      -1.24720460
C       -1.07488196       0.06765845       4.75901902
C       -2.17776234      -1.84062812      -2.82014487
C        0.35611040       1.59062004      -3.24441518
C       -2.72234443       1.13548098       1.50183410
C        0.99946035       0.11958099       3.58620905
C       -2.15925530      -2.36793281      -1.47791427
C        2.00382507      -0.64201722      -2.49175690
C       -0.59338670       2.71953477      -1.23599877
C        1.00608141      -0.65682323      -3.57145199
60
Properties=species:S:1:pos:R:3 trajectory=trial0001_proposal001_step002_proposal_relax trajectory_step=13 pbc="F F F"
C       -0.76819568       2.51603046       1.95187237
C       -1.29190621      -0.51553290       2.02117831
C        1.59765177      -1.32869164       1.41521455
C        0.13256321       0.37719046      -3.97383329
C        1.59809339       2.11750660      -2.78544319
C        0.29932755       0.64422883       0.36589183
C        0.60650586       2.80926718       1.59717032
C        0.64136682       1.48040428       3.44132685
C        0.78525187      -2.63982698      -2.41152731
C       -1.18476187      -0.18802283      -4.12220143
C        2.71486711       0.29843208      -1.64979124
C        1.17786824      -3.00720613      -0.18036082
C       -1.80766805       2.15314075       1.02998355
C        0.23426552      -1.89041335      -3.47228563
C       -1.04217203      -2.85327260      -0.72514936
C        2.22805633       1.02805414       1.91277531
C       -0.83897540      -2.42208119       0.64184700
C       -2.04263637       1.50320896      -2.60163806
C       -0.73848667       2.08342935      -2.51762663
C       -1.66724748       0.94774253       3.81413773
C       -3.02470939      -0.67369539      -2.83664081
C       -3.47570430       0.64223677      -0.81207800
C        1.64784202       3.21552849      -1.87424237
C        1.23932878       3.09618978       0.36852890
C        2.53776595       2.53417179       0.11839382
C        2.78391962       1.24841313       0.63877862
C       -3.64269060      -0.53996380      -1.58993466
C        1.44063091       2.06540926       2.45773159
C       -2.60904750       1.62132097      -1.28247641
C       -0.34207482       0.13983400       1.31374721
C       -2.95860556      -1.14595338       0.54008473
C       -2.25396467       0.37333120       2.65749229
C        2.86988147       2.74987466      -1.24349151
C       -1.11656138      -1.58890330      -3.72408347
C        1.72672085      -0.23898052       2.38964324
C       -3.28715362       0.25574723       0.54318875
C        0.62750890       3.27779735      -0.88466186
C        2.75936426       1.61195182      -2.10914268
C        2.87099509       0.11058954      -0.22620970
C        2.47494338      -1.15883526       0.29212000
C       -0.70476686       1.86078436       3.26630581
C       -1.70017027       2.30179169      -0.40024128
C        0.58880051      -2.38359722       0.95900033
C        0.23719258      -0.47051397       4.57597893
C       -0.42804258      -0.59172048       5.79810713
C       -3.19070541      -1.64428832      -0.77417294
C        1.93398610      -1.92574560      -1.96022462
C       -1.82743854      -1.60569666       1.25382401
C        2.23602535      -2.19917245      -0.63463921
C       -2.30572731       0.39365287      -3.44754619
C        0.22726577      -3.22155614      -1.24802274
C       -1.07482989       0.06975114       4.76004008
C       -2.17783741      -1.84001911      -2.81968284
C        0.35603217       1.59040695      -3.24300768
C       -2.72304964       1.13625987       1.50257983
C        0.99987626       0.11932073       3.58671747
C       -2.15976776      -2.36777596      -1.47802195
C        2.00393623      -0.64216809      -2.49200507
C       -0.59354337       2.72080982      -1.23701711
C        1.00603630      -0.65655627      -3.57119357
60
Properties=species:S:1:pos:R:3 trajectory=trial0001_proposal001_step002_proposal_relax trajectory_step=14 pbc="F F F"
C       -0.76617344       2.51441096       1.94985724
C       -1.29622579      -0.51950272       2.02382321
C        1.59792180      -1.33028590       1.41520122
C        0.13167558       0.37717385      -3.97043061
C        1.59824264       2.11862653      -2.78556711
C        0.29764667       0.64050936       0.37058852
C        0.60726669       2.80744112       1.59490858
C        0.64377929       1.48087412       3.44149116
C        0.78602525      -2.63951821      -2.41300728
C       -1.18498049      -0.18831370      -4.12102098
C        2.71460720       0.29769502      -1.64915648
C        1.17774261      -3.00787527      -0.18177406
C       -1.80627750       2.15192234       1.02940817
C        0.23468862      -1.89068111      -3.47359533
C       -1.04215807      -2.85197679      -0.72738141
C        2.22744089       1.02676253       1.91179322
C       -0.83972914      -2.42317584       0.64002774
C       -2.04326954       1.50469645      -2.60357962
C       -0.73902125       2.08539557      -2.51882312
C       -1.66530120       0.94953873       3.81280472
C       -3.02417120      -0.67277073      -2.83601581
C       -3.47510215       0.64339850      -0.81241248
C        1.64817867       3.21742829      -1.87486944
C        1.23906680       3.09647121       0.36681940
C        2.53645430       2.53336409       0.11746361
C        2.78512890       1.24790977       0.63854432
C       -3.64235163      -0.53897971      -1.58953634
C        1.44145511       2.06448436       2.45626744
C       -2.60808869       1.62219917      -1.28351959
C       -0.34543484       0.13471597       1.31723076
C       -2.95889480      -1.14541566       0.53980317
C       -2.25689955       0.37259270       2.65941764
C        2.86937564       2.75002722      -1.24351878
C       -1.11643389      -1.58957464      -3.72402350
C        1.72666121      -0.24012540       2.39007432
C       -3.28718402       0.25668259       0.54329455
C        0.62731692       3.27908040      -0.88622009
C        2.75859696       1.61210561      -2.10825998
C        2.87141293       0.10978893      -0.22579465
C        2.47606020      -1.16098286       0.29214788
C       -0.70239666       1.86097027       3.26458776
C       -1.69845438       2.30136538      -0.40098096
C        0.58834825      -2.38462664       0.95751665
C        0.23681909      -0.46753850       4.57943545
C       -0.42761470      -0.58362451       5.80309621
C       -3.19200974      -1.64406609      -0.77409126
C        1.93606444      -1.92732808      -1.96180224
C       -1.82966804      -1.60915475       1.25408753
C        2.23748210      -2.20051239      -0.63498734
C       -2.30661051       0.39432578      -3.44888915
C        0.22737064      -3.22005537      -1.24983047
C       -1.07455093       0.07363345       4.76207067
C       -2.17762272      -1.83902689      -2.81862016
C        0.35595326       1.59081179      -3.24084898
C       -2.72371494       1.13705724       1.50362056
C        1.00058280       0.11901804       3.58842721
C       -2.16090221      -2.36756554      -1.47832938
C        2.00519918      -0.64352108      -2.49242630
C       -0.59394602       2.72361938      -1.23869016
C        1.00605297      -0.65627883      -3.57073881
60
Properties=species:S:1:pos:R:3 trajectory=trial0001_proposal001_step002_proposal_relax trajectory_step=15 pbc="F F F"
C       -0.76385623       2.51252150       1.94735590
C       -1.30251910      -0.52653619       2.02977136
C        1.59896736      -1.33316457       1.41526006
C        0.13132752       0.37793499      -3.96653780
C        1.59901157       2.12126191      -2.78607334
C        0.29380974       0.63330891       0.37921006
C        0.60894891       2.80582569       1.59214799
C        0.64625919       1.48101618       3.44191046
C        0.78682729      -2.64034032      -2.41522104
C       -1.18466059      -0.18823448      -4.11996464
C        2.71458919       0.29813760      -1.64969644
C        1.17757634      -3.00863425      -0.18414902
C       -1.80539468       2.15101097       1.02846615
C        0.23618624      -1.89086721      -3.47538065
C       -1.04280243      -2.85034456      -0.72977000
C        2.22745856       1.02448447       1.91042585
C       -0.84082598      -2.42376950       0.63769257
C       -2.04414977       1.50769221      -2.60622088
C       -0.74047005       2.08984825      -2.52089941
C       -1.66269020       0.95186423       3.81181934
C       -3.02369963      -0.67159234      -2.83607893
C       -3.47438700       0.64502043      -0.81237364
C        1.64959017       3.22072336      -1.87703487
C        1.23921786       3.09550604       0.36457599
C        2.53636522       2.53215730       0.11651746
C        2.78575327       1.24757795       0.63861887
C       -3.64267730      -0.53690469      -1.58953473
C        1.44361572       2.06365202       2.45428700
C       -2.60724184       1.62273756      -1.28465104
C       -0.35014859       0.12724622       1.32411748
C       -2.96037278      -1.14605361       0.53907614
C       -2.26078415       0.37171325       2.66190066
C        2.86938100       2.75038798      -1.24402660
C       -1.11772279      -1.58951581      -3.72389782
C        1.72609540      -0.24235763       2.39121495
C       -3.28702192       0.25728636       0.54363784
C        0.62777521       3.28043473      -0.88737150
C        2.75683659       1.60968484      -2.10781601
C        2.87290613       0.10721534      -0.22558772
C        2.47813427      -1.16224830       0.29261137
C       -0.69916730       1.86102634       3.26186977
C       -1.69776554       2.30178137      -0.40242625
C        0.58767432      -2.38587795       0.95489177
C        0.23856148      -0.46254304       4.58367184
C       -0.42617203      -0.56943640       5.81309043
C       -3.19373196      -1.64338149      -0.77415517
C        1.93941290      -1.93109709      -1.96359283
C       -1.83383461      -1.61419609       1.25540115
C        2.23851887      -2.20414555      -0.63639613
C       -2.30804097       0.39542386      -3.45023680
C        0.22641471      -3.21858640      -1.25330023
C       -1.07573689       0.08115350       4.76365741
C       -2.17702947      -1.83721170      -2.81843827
C        0.35608435       1.59192238      -3.24004951
C       -2.72380808       1.13663529       1.50423659
C        1.00185567       0.11890626       3.59152473
C       -2.16299079      -2.36721874      -1.47867153
C        2.00817175      -0.64577822      -2.49344389
C       -0.59500905       2.72742616      -1.24093474
C        1.00681442      -0.65686980      -3.56996276
60
Properties=species:S:1:pos:R:3 trajectory=trial0001_proposal001_step002_proposal_relax trajectory_step=16 pbc="F F F"
C       -0.76339482       2.51235190       1.94688608
C       -1.30339496      -0.52784899       2.03112471
C        1.59932960      -1.33350991       1.41548094
C        0.13159904       0.37776303      -3.96653275
C        1.59886753       2.12171570      -2.78651805
C        0.29335485       0.63211209       0.38034259
C        0.60933175       2.80539646       1.59203411
C        0.64697760       1.48116868       3.44125426
C        0.78702166      -2.64054992      -2.41580171
C       -1.18482774      -0.18785994      -4.11969566
C        2.71464891       0.29683035      -1.64926661
C        1.17688536      -3.00897197      -0.18463540
C       -1.80552579       2.15111296       1.02848331
C        0.23568976      -1.89081105      -3.47573716
C       -1.04314537      -2.85008687      -0.73012688
C        2.22733358       1.02399396       1.91056403
C       -0.84112210      -2.42365748       0.63741670
C       -2.04448164       1.50826550      -2.60666544
C       -0.74033783       2.09075001      -2.52158617
C       -1.66284789       0.95300829       3.81114327
C       -3.02405173      -0.67137265      -2.83615352
C       -3.47456574       0.64513332      -0.81237871
C        1.64981038       3.22166283      -1.87687595
C        1.23942119       3.09511299       0.36423932
C        2.53628417       2.53211014       0.11594009
C        2.78580535       1.24688695       0.63811488
C       -3.64273571      -0.53670261      -1.58992423
C        1.44393830       2.06315976       2.45440437
C       -2.60702532       1.62297012      -1.28484425
C       -0.35119313       0.12569287       1.32645195
C       -2.96078580      -1.14638173       0.53922128
C       -2.26148313       0.37158496       2.66244768
C        2.86962952       2.75001334      -1.24464789
C       -1.11674090      -1.58945533      -3.72406575
C        1.72606838      -0.24269670       2.39146555
C       -3.28726796       0.25678356       0.54361946
C        0.62795768       3.28024141      -0.88788536
C        2.75645905       1.61074186      -2.10813561
C        2.87331932       0.10771702      -0.22562630
C        2.47811163      -1.16314729       0.29230180
C       -0.69869603       1.86100926       3.26132617
C       -1.69774794       2.30213569      -0.40244521
C        0.58753958      -2.38605046       0.95436109
C        0.23759206      -0.46154285       4.58614806
C       -0.42549375      -0.56587195       5.81310821
C       -3.19408627      -1.64306890      -0.77484286
C        1.94021611      -1.93223175      -1.96354336
C       -1.83463229      -1.61525415       1.25579947
C        2.23897616      -2.20404793      -0.63654594
C       -2.30787461       0.39579678      -3.45037759
C        0.22619062      -3.21845878      -1.25365127
C       -1.07454109       0.08132138       4.76504430
C       -2.17718481      -1.83717210      -2.81793881
C        0.35599682       1.59274260      -3.23982074
C       -2.72344005       1.13633473       1.50415100
C        1.00224831       0.11901439       3.59186764
C       -2.16332504      -2.36710909      -1.47893856
C        2.00881375      -0.64669759      -2.49350481
C       -0.59492810       2.72829350      -1.24103782
C        1.00688894      -0.65675091      -3.56992495
60
Properties=species:S:1:pos:R:3 trajectory=trial0001_proposal001_step002_proposal_relax trajectory_step=17 pbc="F F F"
C       -0.76336661       2.51245698       1.94675065
C       -1.30421432      -0.52944138       2.03308632
C        1.59988212      -1.33392124       1.41556584
C        0.13220582       0.37782415      -3.96713042
C        1.59884457       2.12217154      -2.78695564
C        0.29239154       0.63039613       0.38216428
C        0.60978105       2.80550052       1.59236998
C        0.64715427       1.48113884       3.44074220
C        0.78718553      -2.64117418      -2.41637222
C       -1.18476879      -0.18719522      -4.11975273
C        2.71489509       0.29598954      -1.64925949
C        1.17631796      -3.00908137      -0.18525744
C       -1.80602509       2.15144567       1.02847085
C        0.23546641      -1.89075065      -3.47591862
C       -1.04371480      -2.85004320      -0.73001679
C        2.22757281       1.02347465       1.91076413
C       -0.84143167      -2.42317632       0.63747682
C       -2.04475191       1.50906739      -2.60694413
C       -0.74040690       2.09199196      -2.52232504
C       -1.66323688       0.95375374       3.81087610
C       -3.02457774      -0.67113624      -2.83650559
C       -3.47475041       0.64505232      -0.81215942
C        1.65036798       3.22237428      -1.87711606
C        1.23981540       3.09424874       0.36410577
C        2.53705309       2.53206939       0.11556458
C        2.78542124       1.24623849       0.63775753
C       -3.64306612      -0.53639613      -1.59046636
C        1.44448337       2.06303965       2.45466429
C       -2.60715817       1.62293643      -1.28493897
C       -0.35170797       0.12464328       1.32893720
C       -2.96156429      -1.14712181       0.53927847
C       -2.26184587       0.37160592       2.66273141
C        2.87019147       2.74966646      -1.24533823
C       -1.11634244      -1.58895044      -3.72421542
C        1.72587133      -0.24309917       2.39176662
C       -3.28726415       0.25597564       0.54367091
C        0.62842872       3.27985847      -0.88800743
C        2.75606218       1.61093538      -2.10870260
C        2.87399563       0.10771381      -0.22585313
C        2.47822029      -1.16346480       0.29200493
C       -0.69858427       1.86086994       3.26094068
C       -1.69841268       2.30287043      -0.40258779
C        0.58740556      -2.38606450       0.95381872
C        0.23776371      -0.46043808       4.58784271
C       -0.42443711      -0.56197717       5.81398210
C       -3.19436859      -1.64264142      -0.77556519
C        1.94081491      -1.93335165      -1.96347007
C       -1.83560272      -1.61602894       1.25641582
C        2.23896581      -2.20436872      -0.63687878
C       -2.30766532       0.39618733      -3.45025631
C        0.22563780      -3.21871544      -1.25406343
C       -1.07408524       0.08210142       4.76568505
C       -2.17731739      -1.83706440      -2.81807204
C        0.35594817       1.59360193      -3.24058078
C       -2.72269179       1.13559563       1.50367683
C        1.00247725       0.11925555       3.59240440
C       -2.16368121      -2.36698696      -1.47916199
C        2.00959699      -0.64763738      -2.49363106
C       -0.59491414       2.72874344      -1.24099299
C        1.00716587      -0.65694871      -3.56995210
60
Properties=species:S:1:pos:R:3 trajectory=trial0001_proposal001_step002_proposal_relax trajectory_step=18 pbc="F F F"
C       -0.76318559       2.51263609       1.94626904
C       -1.30658659      -0.53304275       2.03704121
C        1.60074946      -1.33500334       1.41541172
C        0.13300064       0.37807021      -3.96767092
C        1.59898146       2.12247044      -2.78753099
C        0.29032589       0.62654792       0.38672853
C        0.61063227       2.80579267       1.59263997
C        0.64742947       1.48139724       3.44045206
C        0.78739004      -2.64235677      -2.41765158
C       -1.18455059      -0.18613018      -4.11991424
C        2.71559216       0.29492056      -1.64954550
C        1.17554732      -3.00915956      -0.18659854
C       -1.80641854       2.15174113       1.02807558
C        0.23537419      -1.89078918      -3.47649301
C       -1.04469744      -2.84991456      -0.73016112
C        2.22776327       1.02260967       1.91085432
C       -0.84202501      -2.42265036       0.63736067
C       -2.04543484       1.51086090      -2.60780984
C       -0.74089012       2.09435684      -2.52390985
C       -1.66351857       0.95468232       3.81062160
C       -3.02525274      -0.67026640      -2.83702921
C       -3.47464198       0.64504579      -0.81195300
C        1.65160597       3.22309483      -1.87780338
C        1.24068551       3.09285251       0.36372629
C        2.53853313       2.53161425       0.11514567
C        2.78513739       1.24514179       0.63739650
C       -3.64376433      -0.53569255      -1.59106217
C        1.44545818       2.06314566       2.45498929
C       -2.60747438       1.62320489      -1.28529938
C       -0.35337687       0.12170823       1.33436969
C       -2.96302157      -1.14832151       0.53936972
C       -2.26292167       0.37143640       2.66345453
C        2.87136632       2.74916132      -1.24616584
C       -1.11631357      -1.58798277      -3.72440732
C        1.72545146      -0.24386473       2.39202609
C       -3.28685900       0.25499076       0.54364531
C        0.62935736       3.27923054      -0.88827127
C        2.75557291       1.61035689      -2.10917909
C        2.87536533       0.10691910      -0.22615236
C        2.47909518      -1.16437748       0.29163580
C       -0.69839791       1.86068156       3.26019277
C       -1.69932547       2.30420063      -0.40323846
C        0.58714641      -2.38604957       0.95264741
C        0.23865785      -0.45787587       4.59073321
C       -0.42229935      -0.55318457       5.81712812
C       -3.19512790      -1.64209706      -0.77639204
C        1.94169063      -1.93502323      -1.96410019
C       -1.83762952      -1.61792711       1.25753167
C        2.23905732      -2.20538436      -0.63773598
C       -2.30760275       0.39712743      -3.45035455
C        0.22462264      -3.21906312      -1.25510710
C       -1.07352627       0.08447638       4.76689926
C       -2.17771202      -1.83642428      -2.81858745
C        0.35589229       1.59482732      -3.24205723
C       -2.72149733       1.13453952       1.50296561
C        1.00298198       0.11971972       3.59331711
C       -2.16448931      -2.36661166      -1.47959755
C        2.01075221      -0.64903083      -2.49415874
C       -0.59493928       2.72956542      -1.24144359
C        1.00769359      -0.65728366      -3.57018030
60
Properties=species:S:1:pos:R:3 trajectory=trial0001_proposal001_step002_proposal_relax trajectory_step=19 pbc="F F F"
C       -0.76288758       2.51329630       1.94576907
C       -1.31069746      -0.53843408       2.04262719
C        1.60143489      -1.33611200       1.41466496
C        0.13376423       0.37863453      -3.96889113
C        1.59926252       2.12139583      -2.78790029
C        0.28714396       0.62077004       0.39500059
C        0.61165279       2.80618381       1.59275809
C        0.64760783       1.48224705       3.44051505
C        0.78722507      -2.64390229      -2.41935766
C       -1.18419158      -0.18468838      -4.12009490
C        2.71687249       0.29297751      -1.65007759
C        1.17427152      -3.00873652      -0.18798525
C       -1.80584173       2.15174192       1.02727929
C        0.23478358      -1.89065775      -3.47730967
C       -1.04592987      -2.84986332      -0.73074977
C        2.22757835       1.02201547       1.91065666
C       -0.84321049      -2.42271941       0.63722032
C       -2.04652042       1.51336752      -2.60906525
C       -0.74141355       2.09666622      -2.52612790
C       -1.66404948       0.95546171       3.81069927
C       -3.02595936      -0.66851962      -2.83775606
C       -3.47392680       0.64492642      -0.81221144
C        1.65320289       3.22211467      -1.87815581
C        1.24222958       3.09137265       0.36343624
C        2.54020008       2.53013134       0.11467658
C        2.78563404       1.24312365       0.63688906
C       -3.64463905      -0.53515956      -1.59181985
C        1.44613832       2.06340020       2.45570577
C       -2.60821511       1.62463790      -1.28600353
C       -0.35472851       0.11748722       1.34225270
C       -2.96473416      -1.14972527       0.53961075
C       -2.26488713       0.37094474       2.66479602
C        2.87345883       2.74804944      -1.24700364
C       -1.11613761      -1.58649447      -3.72461023
C        1.72533772      -0.24439211       2.39177069
C       -3.28579115       0.25416053       0.54313869
C        0.63088932       3.27765480      -0.88873064
C        2.75575466       1.60961660      -2.10950275
C        2.87680644       0.10528077      -0.22661736
C        2.48064937      -1.16662301       0.29078384
C       -0.69886728       1.86085087       3.25965904
C       -1.69981780       2.30596377      -0.40431641
C        0.58657688      -2.38568378       0.95141060
C        0.24067144      -0.45374639       4.59402957
C       -0.41826140      -0.53953646       5.82279451
C       -3.19642460      -1.64215243      -0.77728838
C        1.94192333      -1.93651143      -1.96587132
C       -1.84035593      -1.62069024       1.25869909
C        2.23908221      -2.20633374      -0.63909559
C       -2.30724810       0.39886299      -3.45076698
C        0.22354695      -3.21935112      -1.25608847
C       -1.07287073       0.08829086       4.76845888
C       -2.17889562      -1.83517686      -2.81957641
C        0.35553776       1.59626297      -3.24411186
C       -2.71996818       1.13355096       1.50206553
C        1.00330822       0.12039148       3.59401418
C       -2.16545182      -2.36571233      -1.48059852
C        2.01119759      -0.65010449      -2.49518252
C       -0.59443956       2.73013294      -1.24241458
C        1.00804814      -0.65731920      -3.57103356
60
Properties=species:S:1:pos:R:3 trajectory=trial0001_proposal001_step002_proposal_relax trajectory_step=20 pbc="F F F"
C       -0.76234519       2.51428103       1.94509424
C       -1.31656658      -0.54616388       2.05059224
C        1.60222212      -1.33770305       1.41329483
C        0.13466543       0.37982169      -3.97067684
C        1.59959124       2.11955280      -2.78825455
C        0.28386253       0.61313359       0.40613499
C        0.61315722       2.80656150       1.59278261
C        0.64742167       1.48346760       3.44104516
C        0.78680081      -2.64602316      -2.42201987
C       -1.18343130      -0.18256969      -4.12036854
C        2.71863045       0.29111943      -1.65139749
C        1.17262454      -3.00774677      -0.18997432
C       -1.80449751       2.15127770       1.02600923
C        0.23453160      -1.89039665      -3.47823836
C       -1.04772756      -2.84970321      -0.73190367
C        2.22755276       1.02100106       1.91011665
C       -0.84526004      -2.42327751       0.63698577
C       -2.04798115       1.51730250      -2.61093287
C       -0.74238347       2.09994899      -2.52892120
C       -1.66465019       0.95658849       3.81091228
C       -3.02661923      -0.66581762      -2.83916950
C       -3.47246798       0.64487678      -0.81286485
C        1.65567274       3.21993844      -1.87895992
C        1.24458078       3.08910180       0.36285377
C        2.54261108       2.52727694       0.11390433
C        2.78640807       1.24029911       0.63621238
C       -3.64589443      -0.53418299      -1.59272494
C        1.44724190       2.06392210       2.45606203
C       -2.60944038       1.62704730      -1.28712783
C       -0.35903335       0.10890485       1.35731423
C       -2.96736572      -1.15167160       0.53936375
C       -2.26815087       0.37010672       2.66674310
C        2.87658115       2.74656803      -1.24778621
C       -1.11691303      -1.58410674      -3.72469693
C        1.72543370      -0.24521489       2.39142048
C       -3.28389943       0.25324758       0.54214423
C        0.63317367       3.27535492      -0.88914426
C        2.75650360       1.60693744      -2.10996153
C        2.87861534       0.10205416      -0.22757575
C        2.48292943      -1.16960419       0.28980488
C       -0.69938333       1.86137103       3.25905084
C       -1.70006058       2.30834709      -0.40604622
C        0.58535267      -2.38506404       0.94988100
C        0.24354848      -0.44721779       4.59925020
C       -0.41177418      -0.51783165       5.83157166
C       -3.19850232      -1.64245043      -0.77836167
C        1.94211918      -1.93833512      -1.96887999
C       -1.84462930      -1.62482633       1.26029029
C        2.23863797      -2.20832812      -0.64141976
C       -2.30686854       0.40140331      -3.45137240
C        0.22189093      -3.21949448      -1.25747286
C       -1.07161900       0.09435177       4.77133651
C       -2.18045436      -1.83301997      -2.82169430
C        0.35534000       1.59790622      -3.24726381
C       -2.71770141       1.13220673       1.50084272
C        1.00398991       0.12160674       3.59453112
C       -2.16681054      -2.36440839      -1.48213281
C        2.01144520      -0.65149771      -2.49677529
C       -0.59370339       2.73065427      -1.24402194
C        1.00842665      -0.65726428      -3.57233830
60
Properties=species:S:1:pos:R:3 trajectory=trial0001_proposal001_step002_proposal_relax trajectory_step=21 pbc="F F F"
C       -0.76218771       2.51444521       1.94515755
C       -1.31741802      -0.54646823       2.05059673
C        1.60176763      -1.33728144       1.41300619
C        0.13414077       0.38003472      -3.97091425
C        1.59980349       2.11856832      -2.78795688
C        0.28366410       0.61292950       0.40797186
C        0.61298687       2.80644894       1.59247815
C        0.64722726       1.48382340       3.44138664
C        0.78621491      -2.64548727      -2.42189901
C       -1.18355955      -0.18275617      -4.12040871
C        2.71862267       0.29124377      -1.65154846
C        1.17262670      -3.00744780      -0.18960915
C       -1.80356133       2.15078846       1.02587181
C        0.23432673      -1.89020279      -3.47830362
C       -1.04756884      -2.84965094      -0.73236854
C        2.22728664       1.02138130       1.90983204
C       -0.84555469      -2.42402848       0.63682166
C       -2.04787781       1.51730541      -2.61111922
C       -0.74219176       2.09902018      -2.52858084
C       -1.66450531       0.95642482       3.81103496
C       -3.02631927      -0.66559171      -2.83916121
C       -3.47193496       0.64505155      -0.81338242
C        1.65565164       3.21833245      -1.87849661
C        1.24464653       3.08948235       0.36295752
C        2.54217312       2.52661777       0.11399308
C        2.78704651       1.24030964       0.63632121
C       -3.64561494      -0.53426313      -1.59253887
C        1.44680029       2.06398346       2.45578601
C       -2.60951213       1.62782217      -1.28736472
C       -0.35797956       0.10894142       1.35695381
C       -2.96695758      -1.15126020       0.53903714
C       -2.26872916       0.36990831       2.66701081
C        2.87669153       2.74620827      -1.24730919
C       -1.11736961      -1.58411205      -3.72471743
C        1.72575971      -0.24477034       2.39113643
C       -3.28348584       0.25381176       0.54177270
C        0.63324022       3.27476245      -0.88902942
C        2.75739092       1.60632889      -2.10978745
C        2.87826903       0.10160877      -0.22761344
C        2.48300149      -1.16986470       0.28979518
C       -0.69957000       1.86187958       3.25941934
C       -1.69917276       2.30791704      -0.40612594
C        0.58506526      -2.38490843       0.95018148
C        0.24348372      -0.44695620       4.59910575
C       -0.41081087      -0.51660997       5.83203951
C       -3.19870090      -1.64297021      -0.77812263
C        1.94131486      -1.93765280      -1.96931130
C       -1.84456561      -1.62497692       1.25987618
C        2.23838626      -2.20824301      -0.64156031
C       -2.30703702       0.40153567      -3.45164997
C        0.22203939      -3.21910078      -1.25731004
C       -1.07131034       0.09437821       4.77176441
C       -2.18051820      -1.83274628      -2.82181014
C        0.35547397       1.59725848      -3.24696167
C       -2.71793479       1.13265639       1.50110929
C        1.00384554       0.12179472       3.59392986
C       -2.16668773      -2.36432476      -1.48236340
C        2.01050637      -0.65092802      -2.49696584
C       -0.59338199       2.73013118      -1.24422765
C        1.00799246      -0.65691246      -3.57276225
