54
Lattice="21.66 0.0 0.0 0.0 5.10531 0.0 0.0 0.0 22.55266" Properties=species:S:1:pos:R:3 entry_id=13 rank=21 energy=-200.31851196289062 pbc="T T F"
Cu       0.00000000       0.00000000      10.00000000
Cu       3.61000000       0.00000000      10.00000000
Cu       7.22000000       0.00000000      10.00000000
Cu      10.83000000       0.00000000      10.00000000
Cu      14.44000000       0.00000000      10.00000000
Cu      18.05000000       0.00000000      10.00000000
Cu       0.00000000       2.55265548      10.00000000
Cu       3.61000000       2.55265548      10.00000000
Cu       7.22000000       2.55265548      10.00000000
Cu      10.83000000       2.55265548      10.00000000
Cu      14.44000000       2.55265548      10.00000000
Cu      18.05000000       2.55265548      10.00000000
Cu       1.80500000       1.27632774      11.27632774
Cu       5.41500000       1.27632774      11.27632774
Cu       9.02500000       1.27632774      11.27632774
Cu      12.63500000       1.27632774      11.27632774
Cu      16.24500000       1.27632774      11.27632774
Cu      19.85500000       1.27632774      11.27632774
Cu       1.80500000       3.82898322      11.27632774
Cu       5.41500000       3.82898322      11.27632774
Cu       9.02500000       3.82898322      11.27632774
Cu      12.63500000       3.82898322      11.27632774
Cu      16.24500000       3.82898322      11.27632774
Cu      19.85500000       3.82898322      11.27632774
Cu      21.63373521       5.06307402      12.58455565
Cu       3.63364100       5.04706539      12.52322599
Cu       6.00872225       0.13033494      13.44003333
Cu      10.82520176       5.06997705      12.46423086
Cu      14.43163115       5.07342950      12.54565606
Cu      18.02766583       0.04168517      12.42616546
Cu      21.60334581       2.50158010      12.62170918
Cu       3.63137817       2.49287318      12.47866676
Cu       7.21971030       2.81355823      12.49402215
Cu      10.81410821       2.51238140      12.60394231
Cu      13.56010095       2.62386710      13.54433567
Cu      18.00442258       2.55724490      12.48865537
Cu       5.16604426       2.98816259      14.45916123
Cu       8.64969556       1.26704334      13.77363485
Cu      19.70075887       1.21531264      13.83307931
Cu       9.20459814       3.81849900      13.85908425
Cu       7.69953605       4.69472799      15.55072378
Cu       1.93169319       1.20550700      14.08068640
Cu       1.91331427       3.76314288      14.11067489
Cu      10.80837033       0.70426151      14.80272986
Cu      19.76301090       3.66136193      13.81779914
Cu      16.64972128       4.18335723      14.12253060
O        5.93332395       4.49612490      15.26489175
O        0.62623416       5.04553207      14.41505774
O       18.40557770       4.89023991      14.43546640
O       12.12799584       1.42932400      13.68266744
O        9.53924315       4.73778546      15.58670230
O        6.75789414       1.83649851      14.07356551
O       14.84688793       3.87831040      13.96409903
O        3.24734927       2.48762571      14.43837990
