54
Lattice="21.66 0.0 0.0 0.0 5.10531 0.0 0.0 0.0 22.55266" Properties=species:S:1:pos:R:3 entry_id=5 rank=18 energy=-200.58883666992188 pbc="T T F"
Cu       0.00000000       0.00000000      10.00000000
Cu       3.61000000       0.00000000      10.00000000
Cu       7.22000000       0.00000000      10.00000000
Cu      10.83000000       0.00000000      10.00000000
Cu      14.44000000       0.00000000      10.00000000
Cu      18.05000000       0.00000000      10.00000000
Cu       0.00000000       2.55265548      10.00000000
Cu       3.61000000       2.55265548      10.00000000
Cu       7.22000000       2.55265548      10.00000000
Cu      10.83000000       2.55265548      10.00000000
Cu      14.44000000       2.55265548      10.00000000
Cu      18.05000000       2.55265548      10.00000000
Cu       1.80500000       1.27632774      11.27632774
Cu       5.41500000       1.27632774      11.27632774
Cu       9.02500000       1.27632774      11.27632774
Cu      12.63500000       1.27632774      11.27632774
Cu      16.24500000       1.27632774      11.27632774
Cu      19.85500000       1.27632774      11.27632774
Cu       1.80500000       3.82898322      11.27632774
Cu       5.41500000       3.82898322      11.27632774
Cu       9.02500000       3.82898322      11.27632774
Cu      12.63500000       3.82898322      11.27632774
Cu      16.24500000       3.82898322      11.27632774
Cu      19.85500000       3.82898322      11.27632774
Cu      21.62196090       5.05026204      12.49934445
Cu       3.59200463       5.01378386      12.59985102
Cu       5.78235025       0.37879821      13.87229299
Cu      10.82027000       5.07943748      12.55796413
Cu      14.40057863       5.02067089      12.54556188
Cu      18.01749197       0.02935781      12.43434978
Cu      21.58370969       2.49042915      12.57143924
Cu       3.57393167       2.46328940      12.56764252
Cu       7.27463148       3.38594126      13.02180305
Cu      10.79824765       2.52077991      12.51023372
Cu      13.32156633       2.62768418      13.59719881
Cu      18.02349348       2.53459627      12.49272162
Cu       4.34560788       3.57281295      14.77080648
Cu       8.30044861       0.51330025      13.36913592
Cu      19.72183231       1.16135104      13.83554159
Cu       9.48709508       3.59061722      14.18822295
Cu       7.49739693       4.55150310      15.55136538
Cu       1.62677220       1.17159941      14.06028417
Cu       1.56050567       3.75283263      14.18000963
Cu      10.37590385       0.82250142      14.90316183
Cu      19.77676854       3.63194103      13.81864392
Cu      16.56127617       4.09971551      14.05523910
O        5.65816997       4.58189125      15.50910558
O        0.24647118       5.05045137      14.45044487
O       18.32732144       4.80365877      14.39538047
O       11.76793300       1.60936496      13.94387757
O        9.31749659       4.68192011      15.78335316
O        6.71568828       1.58329019      12.78989430
O       14.74937657       3.77024407      13.93088197
O        2.88775524       2.46928655      14.51733880
