54
Lattice="21.66 0.0 0.0 0.0 5.10531 0.0 0.0 0.0 22.55266" Properties=species:S:1:pos:R:3 entry_id=1 rank=24 energy=-198.67715454101562 pbc="T T F"
Cu       0.00000000       0.00000000      10.00000000
Cu       3.61000000       0.00000000      10.00000000
Cu       7.22000000       0.00000000      10.00000000
Cu      10.83000000       0.00000000      10.00000000
Cu      14.44000000       0.00000000      10.00000000
Cu      18.05000000       0.00000000      10.00000000
Cu       0.00000000       2.55265548      10.00000000
Cu       3.61000000       2.55265548      10.00000000
Cu       7.22000000       2.55265548      10.00000000
Cu      10.83000000       2.55265548      10.00000000
Cu      14.44000000       2.55265548      10.00000000
Cu      18.05000000       2.55265548      10.00000000
Cu       1.80500000       1.27632774      11.27632774
Cu       5.41500000       1.27632774      11.27632774
Cu       9.02500000       1.27632774      11.27632774
Cu      12.63500000       1.27632774      11.27632774
Cu      16.24500000       1.27632774      11.27632774
Cu      19.85500000       1.27632774      11.27632774
Cu       1.80500000       3.82898322      11.27632774
Cu       5.41500000       3.82898322      11.27632774
Cu       9.02500000       3.82898322      11.27632774
Cu      12.63500000       3.82898322      11.27632774
Cu      16.24500000       3.82898322      11.27632774
Cu      19.85500000       3.82898322      11.27632774
Cu      21.60665262       0.00436671      12.58473270
Cu       3.74335109       0.08265944      12.66536128
Cu       6.18089184       4.69779007      13.39453906
Cu      10.67821120       5.01291068      12.64933920
Cu      14.51560839       0.02586198      12.59740309
Cu      18.05057453       0.05095285      12.43749917
Cu      21.60202859       2.51651273      12.59018208
Cu       3.62345046       2.69743897      12.58929283
Cu       7.17037623       2.56888984      12.39419391
Cu      10.66405562       2.45414664      12.87143638
Cu      14.57455457       2.51843136      12.70528879
Cu      17.99797181       2.57659162      12.52579017
Cu       5.50166439       2.63910651      14.65960982
Cu       8.64967456       0.94403150      13.63539970
Cu      19.73170367       1.25555109      13.85660223
Cu       8.78213272       3.56210535      13.96375685
Cu       8.14672261       4.98870016      15.90532661
Cu       2.06278931       1.27267758      14.17235109
Cu       1.73191477       3.80088370      13.81345350
Cu      10.10896849       1.82590671      15.26544128
Cu      19.79077644       3.68999269      13.82951846
Cu      16.85288982       4.30527705      14.28080883
O        7.00506505       3.81465411      15.01689107
O        0.62244683       0.14096097      14.42528380
O       18.57598878       4.96067905      14.59051120
O       12.57110622       2.53706158      12.80570754
O        9.35618041       0.95124040      16.63648814
O        6.74587158       1.34678981      13.83497500
O       15.11766535       3.91502799      13.92968256
O        3.90987908       1.64433350      14.20152498
