48
Lattice="10.7943 0.0 0.0 -1.8055431112859115e-05 5.172499999968488 0.0 -5.160518831295406 8.170974220333357e-07 9.475013563676034" Properties=species:S:1:pos:R:3 source_doi=10.1039/c7sc01459g source_section="SI section 7" source_name=brookite reported_vasp_energy_rounded=-429.98 role=reported_phase pbc="T T T"
O       -2.86517757       3.59654254       5.35401141
O        3.15850570       3.18879404       6.40723212
O       -4.21081071       4.34890075       7.80992729
O       -0.83019261       1.01026245       8.77610135
O        7.75513860       5.02267301       0.70319270
O        7.14712020       1.01024199       4.03845079
O        0.35665468       2.43634733       6.41482700
O       -2.55300741       1.01028578       6.59401183
O        3.76633071       4.34888365       3.07247690
O        4.25266030       3.18875359       8.96262492
O        1.43552376       3.18874779       4.22531659
O        5.01958951       5.02269876       5.53323270
O        2.20255545       5.02266883       0.79591640
O        4.34549831       1.76264191       4.04612470
O        2.21768614       0.60251629       5.54069876
O        5.42432987       1.01038992       1.85644576
O       -1.77101446       3.59645998       7.90952144
O        8.33409787       2.43637607       1.67713425
O        5.59855284       2.43650459       6.50711502
O        5.11220986       3.59665313       0.61657718
O       -3.63173677       1.76263434       8.78375794
O       10.19509234       0.60257491       0.80303410
O        9.00778108       4.34896390       3.16420744
O        3.94057303       0.60253369       7.72264596
O        1.03057690       4.34892345       7.90184788
O        1.60973628       1.76268189       8.87562131
O       -1.20737031       1.76271119       4.13820894
O       -0.22242250       5.02267816       5.44082302
O        0.34149028       3.18883174       1.66988118
O        2.78140362       2.43644387       1.76977712
O        1.12333816       0.60249196       2.98531101
O        6.20628252       3.59651725       3.17188747
Ti       9.42735946       4.10648670       1.35653694
Ti       4.56948460       2.67882423       2.26628301
Ti      -2.53855976       0.09262019       8.46333303
Ti       5.43868846       0.09268010       3.72546640
Ti       3.39782332       1.52030306       9.37216456
Ti       1.97821661       4.10654518       2.57582798
Ti      -0.06251789       2.67893502       8.22249044
Ti       1.10912850       1.52025976       1.11644292
Ti       1.45009658       4.10645282       6.09413125
Ti       7.91468679       2.67889240       3.48471137
Ti       0.58050033       1.52020401       4.63511328
Ti       4.79564384       4.10650278       7.31289845
Ti      -2.01056643       0.09248574       4.94420352
Ti      -3.40752499       2.67868992       7.00380186
Ti       3.92605832       1.52023663       5.85388693
Ti       5.96706751       0.09257921       0.20672103
