60
Properties=species:S:1:pos:R:3 checkpoint_path=runs/20260728-direction-conditioned-checkpoint-shooting/output-v3/cases/plateau_accepted-seed42-deep_refinement/macro_checkpoints/step001_checkpoint.xyz pbc="F F F"
C       -0.76764585       2.55374007       1.93808961
C       -1.22694279      -0.42140141       2.00736961
C        1.67722497      -1.38732892       1.39733837
C        0.18673407       0.40638942      -3.74238732
C        1.52076745       2.25495438      -2.82217843
C        0.23639468       0.64335950       0.18040673
C        0.60446082       2.74847100       1.54211759
C        0.60411512       1.38699230       3.34979614
C        0.89030773      -2.73554290      -2.38784588
C       -1.10293171      -0.17102612      -3.90200759
C        2.72682751       0.25869814      -1.73578920
C        1.22759246      -3.05030873      -0.15395060
C       -1.85162304       2.25037598       1.04313429
C        0.30157389      -1.89348406      -3.34697752
C       -0.98617721      -2.80895308      -0.68106646
C        2.23335103       0.93301045       1.85178385
C       -0.77593409      -2.38097404       0.68178365
C       -2.08592139       1.55641529      -2.53082167
C       -0.84175613       2.24634098      -2.51059118
C       -1.70251436       1.07463630       3.80733547
C       -3.00758646      -0.68478568      -2.77454484
C       -3.47699326       0.64728598      -0.76321367
C        1.60362320       3.34894714      -1.90342066
C        1.20794149       3.05251682       0.31241678
C        2.47610993       2.45776672       0.03682672
C        2.74942893       1.17000318       0.56036510
C       -3.60939175      -0.55317299      -1.52291746
C        1.41673216       1.94875823       2.36942928
C       -2.66790742       1.68268426      -1.23999841
C       -0.33949822       0.18909487       1.18846312
C       -2.91324663      -1.12758233       0.59500490
C       -2.20227688       0.45680911       2.64152070
C        2.78115893       2.72135418      -1.30906456
C       -1.04489485      -1.57109725      -3.56939228
C        1.76233108      -0.32943351       2.37130999
C       -3.27082411       0.27400755       0.58436472
C        0.57577132       3.39315476      -0.89943890
C        2.63028210       1.59786705      -2.18454781
C        2.87543888       0.04818539      -0.31304770
C        2.53629739      -1.22586610       0.23629420
C       -0.69245854       1.89177680       3.23193975
C       -1.80117430       2.45969251      -0.38179249
C        0.65679158      -2.39475552       0.98124204
C        0.06895136      -0.54947213       4.47217844
C       -0.75137934      -0.86122329       5.56812493
C       -3.13600442      -1.62632144      -0.70626310
C        2.13502239      -2.11028559      -2.00242111
C       -1.76564063      -1.56258317       1.30696446
C        2.33592346      -2.31881261      -0.63502680
C       -2.25819162       0.39849273      -3.31235110
C        0.27649128      -3.22375663      -1.20652076
C       -1.17141558       0.12468939       4.70263822
C       -2.15695533      -1.86086239      -2.75286984
C        0.28138972       1.72378013      -3.20501182
C       -2.72101811       1.19126167       1.50870740
C        0.91960204       0.02127724       3.52889676
C       -2.13367196      -2.36076985      -1.40656653
C        2.18686676      -0.79122299      -2.53530245
C       -0.69729698       2.91338290      -1.23944594
C        1.07919933      -0.67153029      -3.43400095
