60
Properties=species:S:1:pos:R:3 checkpoint_path=runs/20260728-direction-conditioned-checkpoint-shooting/output-v3/cases/plateau_accepted-seed42-deep_refinement/macro_checkpoints/step005_checkpoint.xyz pbc="F F F"
C        0.68347461       3.10684584       0.71153811
C       -2.34760784       1.19407287       1.77199841
C       -0.49761648      -1.14205590       2.16570508
C        0.75333361      -1.49378003      -3.36374091
C        2.80527799      -0.47989931      -2.48368943
C       -0.42736608       0.07166936       2.93344781
C        1.99598900       2.56864630       0.78603492
C        1.26315057       2.82022906       2.97310723
C       -1.01613413      -3.47940492      -1.09337759
C       -0.54992935      -1.29543966      -3.89917301
C        2.11753716      -1.89774415      -0.45240804
C       -1.43925762      -2.95718530       1.08476364
C       -0.23022813       2.93961522      -0.39648884
C       -0.72993858      -3.01803980      -2.39197279
C       -2.83620022      -1.85838111      -0.38944389
C        1.93929181       0.71243250       2.31697905
C       -2.69678007      -1.06129365       0.81421716
C       -0.36340852       1.09825646      -3.54858172
C        1.01525253       0.93052576      -3.21704177
C       -1.09806639       3.00211466       2.43064215
C       -2.47557028      -0.13117502      -3.55506090
C       -2.25798905       1.95744348      -2.26581379
C        3.47932643       0.67369175      -1.96487458
C        2.70288374       1.79619156      -0.14467012
C        3.21050284       0.55179041       0.32358504
C        2.41033495      -0.14720199       1.27799078
C       -3.03481259       0.84508387      -2.72291898
C        2.17390796       2.12144347       2.13198450
C       -0.90852341       2.06768080      -2.65209814
C       -1.60848517       0.90712392       3.00014891
C       -3.26932357       0.95769656      -0.42806458
C       -1.88986349       2.48455123       1.36674094
C        3.82070767      -0.09765323      -0.76580438
C       -1.47885598      -2.18281687      -3.23880949
C        0.83154234       0.64509193       3.22699325
C       -2.53624984       2.11317731      -0.87561286
C        2.60396720       1.74474254      -1.55204748
C        3.05262725      -1.19652053      -1.25670843
C        1.79733057      -1.38920531       0.87857502
C        0.58580223      -1.89223845       1.51395335
C        0.23358253       3.24787529       2.09469050
C        0.12993329       2.51939255      -1.74132835
C       -1.73666410      -1.69799450       1.66819756
C        0.50207819       2.12790510       5.45863424
C       -0.50035762       2.23492107       4.61790430
C       -3.54956557       0.16922776      -1.56433835
C        0.22731247      -3.44506251      -0.35736232
C       -2.93784165       0.33919412       0.81158519
C       -0.02659020      -3.06291930       0.96362592
C       -1.12725418      -0.00053010      -3.99897979
C       -2.04257948      -3.03966329      -0.21660440
C       -1.40440833       2.21195965       3.59417028
C       -2.63115578      -1.43044947      -2.91798069
C        1.60780406      -0.36461657      -3.20921421
C       -1.61201362       2.73207710      -0.00311601
C        0.88058688       1.89325355       4.01746394
C       -3.20229874      -1.21711698      -1.61326392
C        1.21443833      -2.77670900      -1.12347785
C        1.37434680       1.89984020      -2.21506903
C        0.65603634      -2.57703478      -2.43051435
