115
Lattice="13.75323 0.0 0.0 0.0 13.75323 0.0 0.0 0.0 23.89" Properties=species:S:1:pos:R:3 entry_id=33 rank=0 energy=-574.8656005859375 pbc="T T F"
Pd       0.00000000       0.00000000      10.00000000
Pd       2.75064538       0.00000000      10.00000000
Pd       5.50129076       0.00000000      10.00000000
Pd       8.25193614       0.00000000      10.00000000
Pd      11.00258152       0.00000000      10.00000000
Pd       0.00000000       2.75064538      10.00000000
Pd       2.75064538       2.75064538      10.00000000
Pd       5.50129076       2.75064538      10.00000000
Pd       8.25193614       2.75064538      10.00000000
Pd      11.00258152       2.75064538      10.00000000
Pd       0.00000000       5.50129076      10.00000000
Pd       2.75064538       5.50129076      10.00000000
Pd       5.50129076       5.50129076      10.00000000
Pd       8.25193614       5.50129076      10.00000000
Pd      11.00258152       5.50129076      10.00000000
Pd       0.00000000       8.25193614      10.00000000
Pd       2.75064538       8.25193614      10.00000000
Pd       5.50129076       8.25193614      10.00000000
Pd       8.25193614       8.25193614      10.00000000
Pd      11.00258152       8.25193614      10.00000000
Pd       0.00000000      11.00258152      10.00000000
Pd       2.75064538      11.00258152      10.00000000
Pd       5.50129076      11.00258152      10.00000000
Pd       8.25193614      11.00258152      10.00000000
Pd      11.00258152      11.00258152      10.00000000
Pd       1.33305437       1.38035701      12.05221797
Pd       4.08925664       1.38750338      11.98771029
Pd       6.82888190       1.38154444      11.99332965
Pd       9.57512057       1.39592898      11.89594876
Pd      12.38684272       1.37174114      11.92044161
Pd       1.37065655       4.09970544      12.00656864
Pd       4.10125007       4.12393621      12.00820233
Pd       6.82444734       4.12497179      12.00908219
Pd       9.56728621       4.13975942      11.94281254
Pd      12.36578195       4.13265160      11.93417299
Pd       1.37110082       6.89256210      11.94010419
Pd       4.13935064       6.87026939      11.96482277
Pd       6.87097415       6.85831372      11.95140951
Pd       9.64205429       6.82915781      11.94515418
Pd      12.39111484       6.85622887      11.94896407
Pd       1.35216595       9.69735034      11.99083951
Pd       4.11777592       9.66324146      11.95099537
Pd       6.89476706       9.64088005      11.95142944
Pd       9.64982872       9.59779534      11.89439304
Pd      12.42487279       9.60955999      11.94161946
Pd       1.35802606      12.41462245      12.04582394
Pd       4.10624816      12.40887780      12.00662317
Pd       6.86816975      12.39901143      11.97280504
Pd       9.63028672      12.36702810      11.91406436
Pd      12.41879361      12.34804731      11.97632258
Pd      13.72559923      13.69726162      14.03900992
Pd       2.76544114       0.00056485      13.99682973
Pd       5.53602004       0.03806508      14.02495058
Pd       8.25512415       0.00925471      14.01083084
Pd      10.94239060      13.72947744      13.90174126
Pd      13.65056026       2.72207279      14.10624856
Pd       2.73500955       2.72958077      13.99920620
Pd       5.42808684       2.78288567      14.02677263
Pd       8.16711280       2.74047078      13.94229623
Pd      10.88929359       2.71368567      13.92600036
Pd      13.73764797       5.52722568      13.92774973
Pd       2.72680918       5.53023765      13.94479291
Pd       5.47106828       5.49845641      14.00275011
Pd       8.24453405       5.49809119      13.96963483
Pd      10.97154764       5.49262920      14.00533479
Pd       0.02476616       8.27175491      14.04111258
Pd       2.76481829       8.27834861      13.91389289
Pd       5.51269402       8.24764179      13.94641425
Pd       8.25003602       8.26655351      13.98804483
Pd      11.07370007       8.24416862      13.96152836
Pd       0.07289691      11.00724497      14.09036398
Pd       2.77410095      10.99361944      14.05696062
Pd       5.54480746      11.03184409      14.05841994
Pd       8.31305194      11.02932351      13.88297870
Pd      11.07616399      11.00600165      13.93164970
Pd      12.96315034       6.80958997      16.43577819
Pd      10.28648887       7.15154323      16.62071557
Pd       1.68024101      11.10567265      16.66431660
Pd       1.65619034       7.74433160      16.34457043
Pd      12.77459617       9.96764315      16.33124496
Pd       8.02259046       1.40234368      16.45795416
Pd       5.27660635       1.53188933      16.36727963
Pd       6.91249845       9.60045611      16.18299109
Pd       4.07618646      12.36678999      15.97190232
Pd       9.92656363      12.37226399      16.56523205
Pd       1.85581179       0.92215492      16.48426617
Pd       2.96229744       3.89829822      16.50646718
Pd      12.28525425       3.96427644      16.05055037
Pd       4.09217801       9.53624406      15.96731880
Pd       6.92941231       6.78448117      15.93141812
Pd       6.80498832      12.39549659      16.36936369
Pd       9.52923821       4.36731915      16.52500797
Pd       6.12119443       4.13853213      16.41183670
Pd      12.16308338       1.15580311      16.13613820
Pd       4.26734312       6.86084343      16.36117572
O        7.89356499       3.32571101      15.93930816
O       11.12953675      10.93761429      15.90605663
O       11.22849064      13.59268230      17.24411023
O       10.75235314       2.65837170      16.05253580
O        8.36609475      13.42135024      17.26436259
O        5.65055667       8.23272489      16.92413441
O        1.45664859       2.73806683      15.68809722
O        0.07199271       0.10137516      16.03863860
O        8.27945714      11.11014011      15.91586592
O        0.80428823       9.39293193      16.95552526
O        2.45232468      12.86449718      17.08101578
O        2.53394009       5.93317081      15.94526564
O        4.52411569       4.90894792      17.20911512
O       11.09323843       5.39055073      17.33542291
O        3.44986702       2.03823369      17.12473942
O        0.06104277       5.15671337      15.92427336
O        9.66854549       8.54182344      15.40664556
O       11.92092716       8.27738182      17.15997942
O        5.33877569      13.43677369      17.15695660
O        8.56845312       6.09552507      16.86345311
