115
Lattice="13.75323 0.0 0.0 0.0 13.75323 0.0 0.0 0.0 23.89" Properties=species:S:1:pos:R:3 trial_index=9 seed_entry_id=8 discovered_entry_id=9 energy=-571.4554443359375 status=accepted pbc="T T F"
Pd       0.00000000       0.00000000      10.00000000
Pd       2.75064538       0.00000000      10.00000000
Pd       5.50129076       0.00000000      10.00000000
Pd       8.25193614       0.00000000      10.00000000
Pd      11.00258152       0.00000000      10.00000000
Pd       0.00000000       2.75064538      10.00000000
Pd       2.75064538       2.75064538      10.00000000
Pd       5.50129076       2.75064538      10.00000000
Pd       8.25193614       2.75064538      10.00000000
Pd      11.00258152       2.75064538      10.00000000
Pd       0.00000000       5.50129076      10.00000000
Pd       2.75064538       5.50129076      10.00000000
Pd       5.50129076       5.50129076      10.00000000
Pd       8.25193614       5.50129076      10.00000000
Pd      11.00258152       5.50129076      10.00000000
Pd       0.00000000       8.25193614      10.00000000
Pd       2.75064538       8.25193614      10.00000000
Pd       5.50129076       8.25193614      10.00000000
Pd       8.25193614       8.25193614      10.00000000
Pd      11.00258152       8.25193614      10.00000000
Pd       0.00000000      11.00258152      10.00000000
Pd       2.75064538      11.00258152      10.00000000
Pd       5.50129076      11.00258152      10.00000000
Pd       8.25193614      11.00258152      10.00000000
Pd      11.00258152      11.00258152      10.00000000
Pd       1.33305437       1.38035701      12.05221797
Pd       4.08925664       1.38750338      11.98771029
Pd       6.82888190       1.38154444      11.99332965
Pd       9.57512057       1.39592898      11.89594876
Pd      12.38684272       1.37174114      11.92044161
Pd       1.37065655       4.09970544      12.00656864
Pd       4.10125007       4.12393621      12.00820233
Pd       6.82444734       4.12497179      12.00908219
Pd       9.56728621       4.13975942      11.94281254
Pd      12.36578195       4.13265160      11.93417299
Pd       1.37110082       6.89256210      11.94010419
Pd       4.13935064       6.87026939      11.96482277
Pd       6.87097415       6.85831372      11.95140951
Pd       9.64205429       6.82915781      11.94515418
Pd      12.39111484       6.85622887      11.94896407
Pd       1.35216595       9.69735034      11.99083951
Pd       4.11777592       9.66324146      11.95099537
Pd       6.89476706       9.64088005      11.95142944
Pd       9.64982872       9.59779534      11.89439304
Pd      12.42487279       9.60955999      11.94161946
Pd       1.35802606      12.41462245      12.04582394
Pd       4.10624816      12.40887780      12.00662317
Pd       6.86816975      12.39901143      11.97280504
Pd       9.63028672      12.36702810      11.91406436
Pd      12.41879361      12.34804731      11.97632258
Pd      13.73191304       0.03678588      14.04445126
Pd       2.72135171      13.71272110      14.07843822
Pd       5.50542346       0.01570994      14.03430248
Pd       8.23962955       0.01541325      14.01688708
Pd      10.98170533       0.05638170      13.87203537
Pd      13.67606187       2.80673720      14.04266462
Pd       2.69008736       2.68275487      13.96627047
Pd       5.51215916       2.76340017      14.04527345
Pd       8.25283855       2.71970210      14.02995505
Pd      10.96458581       2.72546262      13.91571632
Pd       0.01598328       5.56869814      13.95138352
Pd       2.68520170       5.50675889      14.05153753
Pd       5.40359377       5.57675609      14.09788359
Pd       8.15294727       5.46523576      14.05742021
Pd      10.96597961       5.50612395      13.89802256
Pd      13.73613100       8.34029932      13.89937230
Pd       2.80616345       8.23727538      14.03052951
Pd       5.52726157       8.25613848      13.87594977
Pd       8.32098446       8.25155591      13.85425533
Pd      11.02884184       8.27314683      13.93358391
Pd       0.01255310      11.06463740      14.12174189
Pd       2.76148668      10.98357329      13.92654182
Pd       5.50277473      11.02635694      13.89360228
Pd       8.26019275      10.98974190      13.93802631
Pd      10.98348581      10.96988606      14.07841415
Pd      12.34363186       6.16605886      16.25529395
Pd       9.07595824      10.08428521      16.68877516
Pd       1.59137013      12.42793310      16.48077031
Pd       1.08691517       7.43382588      15.99479431
Pd      12.26001199       9.53659181      16.01398248
Pd       7.47660392       1.75194426      16.90266056
Pd       4.44352142       0.96703866      16.62410509
Pd       4.99722362       9.61246120      16.10844857
Pd       4.20064862      12.08901762      15.91741960
Pd      10.12308558      13.57868398      16.63364178
Pd       1.09661915       4.70916670      16.50271706
Pd       3.57151271       3.79804161      16.19599106
Pd       9.72925815       4.11000083      16.10973961
Pd       2.30852831       9.79584472      16.27476865
Pd       7.02684306       7.24460834      15.98266332
Pd       6.86074876      12.31768957      16.24996668
Pd       9.74657436       6.88317675      15.85525499
Pd       6.54578689       4.66974255      16.47018128
Pd       0.81050268       1.23641012      16.45394601
Pd       3.71162690       7.22364762      16.87336575
O        8.11283592       3.64858757      17.04963287
O       10.86496286       9.91956764      17.31139903
O       11.23250685      12.52740795      15.37960368
O       11.68993466       1.13401386      16.63169466
O        9.06666478       1.01680599      17.67456671
O        5.50540438       7.98440917      17.11849668
O        2.73745992       1.97130842      16.03968459
O       12.81242889       0.60162730      17.15367892
O        8.84224151      12.09113243      16.91809001
O        0.42476915      10.84670695      16.13155460
O        3.22801821      13.25431981      17.26683746
O        2.02664351       6.25886558      17.30412020
O        4.70391225       5.40532731      16.18261898
O        8.64063115       8.15015502      16.89244917
O        5.69294842       2.52876552      16.12045536
O        0.13349327       3.09795002      16.01618427
O       11.56828738       4.45855484      15.59637327
O       13.06040212       7.86467310      16.90161922
O        6.25419254       0.19746433      17.16686769
O        7.29484202      10.43042198      15.75078699
