115
Lattice="13.75323 0.0 0.0 0.0 13.75323 0.0 0.0 0.0 23.89" Properties=species:S:1:pos:R:3 trial_index=33 seed_entry_id=27 discovered_entry_id=28 energy=-570.6702880859375 status=accepted pbc="T T F"
Pd       0.00000000       0.00000000      10.00000000
Pd       2.75064538       0.00000000      10.00000000
Pd       5.50129076       0.00000000      10.00000000
Pd       8.25193614       0.00000000      10.00000000
Pd      11.00258152       0.00000000      10.00000000
Pd       0.00000000       2.75064538      10.00000000
Pd       2.75064538       2.75064538      10.00000000
Pd       5.50129076       2.75064538      10.00000000
Pd       8.25193614       2.75064538      10.00000000
Pd      11.00258152       2.75064538      10.00000000
Pd       0.00000000       5.50129076      10.00000000
Pd       2.75064538       5.50129076      10.00000000
Pd       5.50129076       5.50129076      10.00000000
Pd       8.25193614       5.50129076      10.00000000
Pd      11.00258152       5.50129076      10.00000000
Pd       0.00000000       8.25193614      10.00000000
Pd       2.75064538       8.25193614      10.00000000
Pd       5.50129076       8.25193614      10.00000000
Pd       8.25193614       8.25193614      10.00000000
Pd      11.00258152       8.25193614      10.00000000
Pd       0.00000000      11.00258152      10.00000000
Pd       2.75064538      11.00258152      10.00000000
Pd       5.50129076      11.00258152      10.00000000
Pd       8.25193614      11.00258152      10.00000000
Pd      11.00258152      11.00258152      10.00000000
Pd       1.33305437       1.38035701      12.05221797
Pd       4.08925664       1.38750338      11.98771029
Pd       6.82888190       1.38154444      11.99332965
Pd       9.57512057       1.39592898      11.89594876
Pd      12.38684272       1.37174114      11.92044161
Pd       1.37065655       4.09970544      12.00656864
Pd       4.10125007       4.12393621      12.00820233
Pd       6.82444734       4.12497179      12.00908219
Pd       9.56728621       4.13975942      11.94281254
Pd      12.36578195       4.13265160      11.93417299
Pd       1.37110082       6.89256210      11.94010419
Pd       4.13935064       6.87026939      11.96482277
Pd       6.87097415       6.85831372      11.95140951
Pd       9.64205429       6.82915781      11.94515418
Pd      12.39111484       6.85622887      11.94896407
Pd       1.35216595       9.69735034      11.99083951
Pd       4.11777592       9.66324146      11.95099537
Pd       6.89476706       9.64088005      11.95142944
Pd       9.64982872       9.59779534      11.89439304
Pd      12.42487279       9.60955999      11.94161946
Pd       1.35802606      12.41462245      12.04582394
Pd       4.10624816      12.40887780      12.00662317
Pd       6.86816975      12.39901143      11.97280504
Pd       9.63028672      12.36702810      11.91406436
Pd      12.41879361      12.34804731      11.97632258
Pd      13.68381220      13.74633342      14.14851026
Pd       2.75427240      13.65837622      14.02893456
Pd       5.48605050       0.07756682      13.98531623
Pd       8.27411956       0.01112913      13.95000320
Pd      10.98212774      13.73020037      13.97323753
Pd      13.69210279       2.71733848      14.00242243
Pd       2.67287163       2.76468253      14.01077610
Pd       5.36246224       2.83826544      13.99395092
Pd       8.03103014       2.78135398      14.12171234
Pd      10.91831642       2.73218198      13.96029831
Pd      13.67940916       5.48209279      13.93181628
Pd       2.64948549       5.60075688      14.11440770
Pd       5.41616335       5.58355201      13.91944019
Pd       8.16179289       5.48010386      13.96802894
Pd      10.94246805       5.49883883      14.00288043
Pd       0.17691412       8.20719480      14.08525278
Pd       2.92691127       8.30048781      13.97361860
Pd       5.66828152       8.35690515      13.98880698
Pd       8.38628340       8.22996141      13.92696174
Pd      11.26159578       8.31666030      13.85069719
Pd      13.69681449      10.94155839      14.01107834
Pd       2.75204966      10.94388967      14.07829250
Pd       5.43064950      11.05284708      14.14765151
Pd       8.20822397      10.94712325      13.91285297
Pd      10.98049922      11.00129918      13.85167716
Pd      13.73042067       6.13868501      16.55727314
Pd      10.54689725       7.95742428      16.79690852
Pd       1.15666727      11.61978934      16.24229248
Pd       1.73401063       8.08460460      16.39064411
Pd      12.69355583       9.84036246      16.34225751
Pd       8.96414839       1.30033343      16.34686159
Pd       6.17274156       2.04110132      16.40905934
Pd       6.54696903       9.58383690      16.47162877
Pd       4.19408730      12.70359829      16.58729821
Pd       9.82603214      11.90576715      16.30866781
Pd       2.77672841       1.12830135      16.43781104
Pd       3.31671652       4.15948904      16.48569965
Pd      12.39521843       3.98198365      15.85781395
Pd       3.79303248       9.96305058      16.84584133
Pd       7.23306983       7.08114303      16.03603967
Pd       6.97114792      12.32541500      16.06755288
Pd       9.20900348       4.87375604      16.44074502
Pd       6.53202112       4.52027489      16.07853966
Pd      11.89001665       1.11970505      16.37305094
Pd       4.46966778       7.02101716      15.97169239
O        9.45655939       3.05846656      15.62071993
O       10.84822835      10.29505480      15.75294653
O       11.40617848      13.06490074      15.92136029
O       12.64312259       2.61804803      17.19388711
O        8.57966995      13.29180131      17.05259212
O        5.06423361       8.52547805      17.18696371
O        1.88387406       2.91520683      15.89390936
O        1.36531757      13.57166460      15.70053928
O        8.14413233      10.70806954      16.02579283
O        0.80457690       9.75989621      16.92273185
O        2.81446903      11.60282912      17.37988366
O        1.95517836       5.98739023      16.12248861
O        4.86626899       5.25801121      17.00783359
O       11.24136559       5.00088046      17.24878272
O        4.21124061       2.38692257      17.05315904
O       11.86597148       6.26056962      17.34688757
O       10.01806867       7.24291373      14.96203856
O       11.70641167       9.01392383      17.87367349
O        5.71351579       0.08229076      16.06829200
O        8.87980938       6.68323483      17.13653350
