115
Lattice="13.75323 0.0 0.0 0.0 13.75323 0.0 0.0 0.0 23.89" Properties=species:S:1:pos:R:3 trial_index=16 seed_entry_id=13 discovered_entry_id=14 energy=-571.5157470703125 status=accepted pbc="T T F"
Pd       0.00000000       0.00000000      10.00000000
Pd       2.75064538       0.00000000      10.00000000
Pd       5.50129076       0.00000000      10.00000000
Pd       8.25193614       0.00000000      10.00000000
Pd      11.00258152       0.00000000      10.00000000
Pd       0.00000000       2.75064538      10.00000000
Pd       2.75064538       2.75064538      10.00000000
Pd       5.50129076       2.75064538      10.00000000
Pd       8.25193614       2.75064538      10.00000000
Pd      11.00258152       2.75064538      10.00000000
Pd       0.00000000       5.50129076      10.00000000
Pd       2.75064538       5.50129076      10.00000000
Pd       5.50129076       5.50129076      10.00000000
Pd       8.25193614       5.50129076      10.00000000
Pd      11.00258152       5.50129076      10.00000000
Pd       0.00000000       8.25193614      10.00000000
Pd       2.75064538       8.25193614      10.00000000
Pd       5.50129076       8.25193614      10.00000000
Pd       8.25193614       8.25193614      10.00000000
Pd      11.00258152       8.25193614      10.00000000
Pd       0.00000000      11.00258152      10.00000000
Pd       2.75064538      11.00258152      10.00000000
Pd       5.50129076      11.00258152      10.00000000
Pd       8.25193614      11.00258152      10.00000000
Pd      11.00258152      11.00258152      10.00000000
Pd       1.33305437       1.38035701      12.05221797
Pd       4.08925664       1.38750338      11.98771029
Pd       6.82888190       1.38154444      11.99332965
Pd       9.57512057       1.39592898      11.89594876
Pd      12.38684272       1.37174114      11.92044161
Pd       1.37065655       4.09970544      12.00656864
Pd       4.10125007       4.12393621      12.00820233
Pd       6.82444734       4.12497179      12.00908219
Pd       9.56728621       4.13975942      11.94281254
Pd      12.36578195       4.13265160      11.93417299
Pd       1.37110082       6.89256210      11.94010419
Pd       4.13935064       6.87026939      11.96482277
Pd       6.87097415       6.85831372      11.95140951
Pd       9.64205429       6.82915781      11.94515418
Pd      12.39111484       6.85622887      11.94896407
Pd       1.35216595       9.69735034      11.99083951
Pd       4.11777592       9.66324146      11.95099537
Pd       6.89476706       9.64088005      11.95142944
Pd       9.64982872       9.59779534      11.89439304
Pd      12.42487279       9.60955999      11.94161946
Pd       1.35802606      12.41462245      12.04582394
Pd       4.10624816      12.40887780      12.00662317
Pd       6.86816975      12.39901143      11.97280504
Pd       9.63028672      12.36702810      11.91406436
Pd      12.41879361      12.34804731      11.97632258
Pd      13.56067924       0.05598532      14.02327239
Pd       2.77938453       0.02422194      14.00853186
Pd       5.51674272      13.75151755      14.01064764
Pd       8.25324157      13.74353869      13.91366736
Pd      10.91574063       0.03907377      13.89555149
Pd       0.05214475       2.85805644      13.97463966
Pd       2.82892796       2.76247467      14.16236475
Pd       5.52275689       2.77640644      14.08930452
Pd       8.35243548       2.76885464      13.98050055
Pd      11.07634656       2.70009741      13.90091713
Pd      13.61206182       5.54989803      14.03811835
Pd       2.59705046       5.45584607      14.03903680
Pd       5.34777621       5.53792247      14.00569390
Pd       8.12900858       5.50468202      13.89219567
Pd      10.89642041       5.41667050      14.01616575
Pd       0.05268680       8.21607462      13.95861027
Pd       2.79930561       8.18925597      13.96082508
Pd       5.51696266       8.28398408      13.86681079
Pd       8.27472964       8.26017025      14.05233900
Pd      11.03837139       8.24351003      14.01512358
Pd       0.03695509      11.01468709      13.99695243
Pd       2.76806907      10.94599934      13.97525346
Pd       5.56442156      11.04961039      13.99258822
Pd       8.31756521      11.02579350      13.95575364
Pd      11.06628935      11.04334836      14.03358388
Pd      11.63969772       6.62551240      16.48109111
Pd       9.31401034       9.59649181      16.52229167
Pd       0.91002079      12.20830458      16.29453249
Pd       0.61552997       6.87728323      16.42839345
Pd      12.63249086       9.54617287      15.94020969
Pd       6.98292279       1.40121757      15.89478267
Pd       4.31734126       1.13837585      16.10335337
Pd       4.39013868       9.64488438      15.89886155
Pd       3.82009728      12.17768911      15.95856891
Pd       9.57108673      13.08567646      16.44835518
Pd       1.74404100       2.46621640      16.71154569
Pd       4.26719415       3.87485676      16.62216781
Pd      10.33856712       2.97752568      16.48784068
Pd       1.68871320       9.44005610      16.00578626
Pd       6.49424305       7.25974120      16.25496746
Pd       6.58203743      12.29332827      16.42890991
Pd       8.89242573       6.31133751      16.21738280
Pd       6.94675763       4.33948194      16.12418609
Pd      12.38815067       1.46168616      16.17378798
Pd       3.40342964       7.12627912      16.52539848
O        8.32725229       2.95761981      16.18724180
O       11.04357630      10.62857740      16.89493645
O       11.12085973      11.83835778      16.06884091
O       10.60225719       1.00741411      16.91042288
O        7.84583947       0.05211184      17.10569603
O        4.86897926       8.23461762      17.20459221
O        1.29684007       0.11101443      15.36198607
O        0.13943234       0.92297009      17.74461937
O        8.43904110      11.41483915      16.01871669
O        0.37561555      10.50494868      17.08542113
O        0.36531269      13.40605914      17.94352414
O        2.13406566       5.72707488      16.00993882
O        5.35591645       5.54433187      16.12998719
O        9.93561335       7.78407515      17.14284502
O        3.48870741       2.31626943      17.53214179
O        0.01569701       2.85235761      15.94654689
O       10.51493030       4.96914482      16.07029096
O       12.88843098       7.93633984      17.15670338
O        4.98279882      13.21009938      17.16979691
O        7.56949908       8.85903622      15.93959165
