115
Lattice="13.75323 0.0 0.0 0.0 13.75323 0.0 0.0 0.0 23.89" Properties=species:S:1:pos:R:3 trial_index=28 seed_entry_id=24 discovered_entry_id=25 energy=-572.8106079101562 status=accepted pbc="T T F"
Pd       0.00000000       0.00000000      10.00000000
Pd       2.75064538       0.00000000      10.00000000
Pd       5.50129076       0.00000000      10.00000000
Pd       8.25193614       0.00000000      10.00000000
Pd      11.00258152       0.00000000      10.00000000
Pd       0.00000000       2.75064538      10.00000000
Pd       2.75064538       2.75064538      10.00000000
Pd       5.50129076       2.75064538      10.00000000
Pd       8.25193614       2.75064538      10.00000000
Pd      11.00258152       2.75064538      10.00000000
Pd       0.00000000       5.50129076      10.00000000
Pd       2.75064538       5.50129076      10.00000000
Pd       5.50129076       5.50129076      10.00000000
Pd       8.25193614       5.50129076      10.00000000
Pd      11.00258152       5.50129076      10.00000000
Pd       0.00000000       8.25193614      10.00000000
Pd       2.75064538       8.25193614      10.00000000
Pd       5.50129076       8.25193614      10.00000000
Pd       8.25193614       8.25193614      10.00000000
Pd      11.00258152       8.25193614      10.00000000
Pd       0.00000000      11.00258152      10.00000000
Pd       2.75064538      11.00258152      10.00000000
Pd       5.50129076      11.00258152      10.00000000
Pd       8.25193614      11.00258152      10.00000000
Pd      11.00258152      11.00258152      10.00000000
Pd       1.33305437       1.38035701      12.05221797
Pd       4.08925664       1.38750338      11.98771029
Pd       6.82888190       1.38154444      11.99332965
Pd       9.57512057       1.39592898      11.89594876
Pd      12.38684272       1.37174114      11.92044161
Pd       1.37065655       4.09970544      12.00656864
Pd       4.10125007       4.12393621      12.00820233
Pd       6.82444734       4.12497179      12.00908219
Pd       9.56728621       4.13975942      11.94281254
Pd      12.36578195       4.13265160      11.93417299
Pd       1.37110082       6.89256210      11.94010419
Pd       4.13935064       6.87026939      11.96482277
Pd       6.87097415       6.85831372      11.95140951
Pd       9.64205429       6.82915781      11.94515418
Pd      12.39111484       6.85622887      11.94896407
Pd       1.35216595       9.69735034      11.99083951
Pd       4.11777592       9.66324146      11.95099537
Pd       6.89476706       9.64088005      11.95142944
Pd       9.64982872       9.59779534      11.89439304
Pd      12.42487279       9.60955999      11.94161946
Pd       1.35802606      12.41462245      12.04582394
Pd       4.10624816      12.40887780      12.00662317
Pd       6.86816975      12.39901143      11.97280504
Pd       9.63028672      12.36702810      11.91406436
Pd      12.41879361      12.34804731      11.97632258
Pd       0.02625138       0.07512784      14.01042918
Pd       2.79132361       0.00897578      14.01684424
Pd       5.52785572       0.01115840      14.00344616
Pd       8.26773650       0.01688554      14.01843392
Pd      11.01189772      13.60899793      14.09158547
Pd      13.68990832       2.86568445      14.09163725
Pd       2.70670086       2.75082760      14.01252442
Pd       5.44482311       2.77821305      14.03817101
Pd       8.20644588       2.72110410      13.94367083
Pd      10.96608097       2.58534417      13.88931889
Pd      13.69957272       5.55906325      13.98971812
Pd       2.69538556       5.51902860      13.95321249
Pd       5.41679158       5.52975205      14.05550998
Pd       8.06094533       5.46233950      14.02531974
Pd      11.02098533       5.27136439      14.02275504
Pd       0.02783544       8.32990477      14.02356665
Pd       2.75401870       8.31588115      13.98016587
Pd       5.47540663       8.27133667      13.96293408
Pd       8.17195716       8.34213619      13.99922393
Pd      11.15165141       8.20577570      13.94150133
Pd       0.01341114      11.07141119      14.02024134
Pd       2.75513276      11.03418241      14.05331247
Pd       5.49927618      11.02202617      14.06159796
Pd       8.27156094      11.04555884      13.89270366
Pd      11.02791986      10.88789147      13.91718421
Pd      12.34054785       6.55224021      16.12284195
Pd      10.26548201       8.36618656      16.63552386
Pd       1.07203975      12.05951500      16.36454283
Pd       1.26351829       6.97741026      15.91481585
Pd      13.00467526       9.95810456      16.30251295
Pd       8.80506133       1.34755952      16.48596745
Pd       5.97590667       1.42229190      16.33062132
Pd       6.60413143       9.64420827      16.23627746
Pd       4.13247378      12.32315224      16.02660541
Pd       9.96221611      11.95299565      16.36713587
Pd       2.49947723       1.12613643      16.63543405
Pd       3.86230583       3.96010825      16.53263517
Pd      11.64452536       3.86800882      16.25859360
Pd       2.95382471       9.68386433      16.47774554
Pd       6.87425797       6.67363920      16.38661558
Pd       6.93887468      12.35969464      16.33710792
Pd       9.35775352       4.98670504      16.46636185
Pd       6.72706614       4.01813316      16.25392426
Pd      12.46628338       1.03944007      16.33421080
Pd       4.14076220       7.25562910      16.22582222
O        8.52889832       3.22336380      15.92772946
O       10.99017631      10.27358475      15.94085333
O       11.58672390      13.05105789      16.06371310
O       10.81865290       2.03511205      16.87891870
O        8.72398440      13.28424530      17.14572604
O        4.80887404       9.01716026      16.76851619
O        2.25181797       2.94842834      15.96131166
O        0.61091346       0.24625943      16.03194690
O        8.23823480      10.88186090      15.95128245
O        1.11945561      10.18717331      16.94781587
O        2.70150663      13.02385304      17.27918116
O        2.92899303       5.69392714      16.01505857
O        5.43918225       5.26200501      17.07223024
O       10.41773505       6.44731192      17.14394077
O        4.25626275       2.08833644      17.20275023
O       13.32622925       2.80320773      16.11844270
O        9.62552902       6.82548969      14.15028318
O       12.19479067       8.31257350      17.19825591
O        5.50420273      13.39253570      17.12004716
O        8.23150379       8.18356981      16.12990119
