60
Properties=species:S:1:pos:R:3 pbc="F F F"
C        0.24522060      -3.12114258       2.31723900
C        0.92168642      -2.78397161      -1.06984824
C        2.53049642       1.21079198      -2.51788047
C        1.36119040      -3.27662066       1.52175864
C       -1.71127510       3.52583032       0.14459634
C        2.59731718      -1.11238202      -1.93305850
C        0.83571042      -0.42844513       2.36267251
C        2.91349292       0.87438781       3.53882954
C       -3.78195311      -0.42731795      -1.84801234
C        1.76303596      -0.47122761       1.15571632
C        0.64923366       3.72866155      -0.62174228
C        0.27945416       0.55193603      -3.80071275
C       -0.84060768      -2.26611441       1.98513645
C       -1.80626895       1.27560687      -4.04910029
C       -1.61123107      -0.92492171      -3.29089551
C        2.22971097       0.48950740       0.17581657
C       -0.64547061      -1.81990358      -2.65656902
C       -0.74887304       1.30222629       2.52092018
C       -1.57230556       2.45466623       2.50047261
C        1.61641931      -2.13383619      -2.12036208
C       -3.77772940       0.94603519      -1.43094432
C       -2.66536242      -0.05686351       1.54895604
C        1.90296793       1.64670917       2.69796247
C       -2.06430454       3.34692637       1.51820299
C        0.62042922       0.98693678       2.71344488
C        2.07969804       1.93824628       0.21817504
C       -3.27584584       1.18642795       1.12070875
C        2.73255739      -0.47978287       3.77255686
C       -1.41471540       0.10515643       2.16567379
C        2.43255495      -0.08493210      -2.93419304
C       -4.02624226      -1.60812756       0.20361344
C        1.59440944      -2.79130558       0.20036330
C        2.14746168       2.34944019       1.55270297
C       -3.07150635       0.86993667      -3.61075398
C        5.05015783       2.25272272       4.29563147
C       -2.96889521      -1.37774438       1.06526856
C        1.80901281      -1.28761688       3.20328296
C       -0.49068299       4.06455509      -0.24275417
C        1.52352459       2.69571453      -0.91168976
C        1.44902997       2.01161017      -2.21083444
C        1.52302442      -2.67463366       2.82371097
C       -0.51927312      -0.96186862       2.23748450
C        1.21790353      -0.44393465      -3.61074215
C        2.66682843      -0.65818802      -0.63015199
C        2.20381000      -1.55396805       0.39521542
C       -3.27841405       1.58829266      -0.25562229
C       -1.44733997      -2.66127494      -0.33181529
C       -0.54039290      -2.58409481      -1.33617660
C        0.22312878       1.74103335      -3.00952227
C       -3.37663713       1.72660524      -2.54372798
C       -1.02275079       0.11120232      -4.10918140
C        0.69956787      -1.64490148      -3.07452857
C       -2.96474222      -0.45823692      -3.04275207
C       -2.39371341       2.64504799      -0.71752301
C       -1.83531584      -2.33865996       0.92564671
C        4.04467018       1.60568543       3.94555719
C       -4.30909700      -1.39331568      -1.00049564
C       -1.18558237       2.16532071      -3.07010523
C       -2.87530729       2.29054805       1.94364698
C       -2.24459923       2.49740424      -2.15218263
