60
Properties=species:S:1:pos:R:3 system=runs/20260728-safe-lbfgs-strict-quench-200-production/output-c60-seed42 state_id=intermediate_accepted pbc="F F F"
C       -1.95278630      -3.65698164      -1.37738709
C        3.13126801      -2.15768630      -1.81391922
C        1.96848495      -0.15274629       1.74053371
C       -1.97114672       3.04243825      -0.13599508
C       -2.95043067       2.65328638       2.03990446
C        3.50700646      -1.42543852       0.07185210
C       -2.58315120      -1.50772052       2.53732333
C       -0.71584332      -2.54756320       0.74785545
C        1.44282425       3.51949926      -0.44866428
C       -1.77474701       2.62445212      -1.45789041
C       -0.43242476       2.69649095       2.49803446
C        2.99005849       2.04912479       0.32185372
C       -3.12602810      -3.48229952      -1.99551149
C        0.12445108       3.78630504      -0.90154115
C        2.48008879       1.48493321      -1.89336777
C       -0.31461766      -0.88706350       2.39947885
C        3.40675055       0.46422528      -1.31533261
C       -2.92581818       0.36375900      -1.27037425
C       -3.47379373       0.95889406       0.15371922
C        0.53263896      -3.16834932      -1.22978002
C       -0.96009752       0.99719648      -2.69756546
C       -1.51124369      -1.26260250      -2.86148724
C       -3.65318203       1.88305461       3.02344010
C       -2.92219802      -0.30429056       3.09897835
C       -1.88506469       0.53562719       3.60649388
C       -0.58464760       0.33355991       3.08314882
C       -0.49527997      -0.26532795      -3.03313661
C       -1.37629344      -1.77360890       1.90484963
C       -2.76889933      -0.99310412      -2.03675030
C        3.12845291      -0.32007890       0.89854181
C        2.02329855      -1.06553663      -3.49833438
C        0.96906749      -3.09730517      -2.58555032
C       -2.40192784       1.84715578       3.78828454
C       -0.46422403       3.02784923      -1.91640375
C        0.93254033      -1.15258311       1.77289623
C       -1.10461282      -2.45519950      -3.47179482
C       -3.97302546       0.56141922       2.56282891
C       -1.79132813       2.78301470       2.88738594
C        0.26036263       1.45076512       2.73749494
C        1.55539008       1.20529184       2.12543405
C       -0.85667239      -3.23503996      -0.66037259
C       -3.50602226      -2.19351080      -2.09908758
C        3.48695454       0.78945843       0.08784566
C        2.77812112      -2.52983939      -0.46760003
C        2.17471522      -2.28128626      -2.86009743
C        1.02283045      -0.14615507      -3.24783086
C        1.34609579       3.39091209       1.00490233
C        3.71759985      -0.94391276      -1.31982012
C        2.15496672       2.31075513       1.43763450
C       -2.08066107       1.30978452      -1.88650145
C        2.42403563       2.55803686      -0.89373515
C        1.41737811      -2.73907975      -0.21950721
C        0.09737298       1.93195227      -2.61170631
C       -2.88224496       2.28292471       0.65718017
C       -0.05215126      -3.16176994      -3.57759441
C        0.66746675      -2.22176609       0.85243742
C        1.34792640       1.22456757      -2.72872415
C        0.00365779       3.51352316       1.41773896
C       -4.17786473       0.42764155       1.21179757
C       -0.78284819       3.76021458       0.25165771
