115
Lattice="13.75323 0.0 0.0 0.0 13.75323 0.0 0.0 0.0 23.89" Properties=species:S:1:pos:R:3 entry_id=1 rank=0 energy=-568.3721313476562 pbc="T T F"
Pd       0.00000000       0.00000000      10.00000000
Pd       2.75064538       0.00000000      10.00000000
Pd       5.50129076       0.00000000      10.00000000
Pd       8.25193614       0.00000000      10.00000000
Pd      11.00258152       0.00000000      10.00000000
Pd       0.00000000       2.75064538      10.00000000
Pd       2.75064538       2.75064538      10.00000000
Pd       5.50129076       2.75064538      10.00000000
Pd       8.25193614       2.75064538      10.00000000
Pd      11.00258152       2.75064538      10.00000000
Pd       0.00000000       5.50129076      10.00000000
Pd       2.75064538       5.50129076      10.00000000
Pd       5.50129076       5.50129076      10.00000000
Pd       8.25193614       5.50129076      10.00000000
Pd      11.00258152       5.50129076      10.00000000
Pd       0.00000000       8.25193614      10.00000000
Pd       2.75064538       8.25193614      10.00000000
Pd       5.50129076       8.25193614      10.00000000
Pd       8.25193614       8.25193614      10.00000000
Pd      11.00258152       8.25193614      10.00000000
Pd       0.00000000      11.00258152      10.00000000
Pd       2.75064538      11.00258152      10.00000000
Pd       5.50129076      11.00258152      10.00000000
Pd       8.25193614      11.00258152      10.00000000
Pd      11.00258152      11.00258152      10.00000000
Pd       1.33305437       1.38035701      12.05221797
Pd       4.08925664       1.38750338      11.98771029
Pd       6.82888190       1.38154444      11.99332965
Pd       9.57512057       1.39592898      11.89594876
Pd      12.38684272       1.37174114      11.92044161
Pd       1.37065655       4.09970544      12.00656864
Pd       4.10125007       4.12393621      12.00820233
Pd       6.82444734       4.12497179      12.00908219
Pd       9.56728621       4.13975942      11.94281254
Pd      12.36578195       4.13265160      11.93417299
Pd       1.37110082       6.89256210      11.94010419
Pd       4.13935064       6.87026939      11.96482277
Pd       6.87097415       6.85831372      11.95140951
Pd       9.64205429       6.82915781      11.94515418
Pd      12.39111484       6.85622887      11.94896407
Pd       1.35216595       9.69735034      11.99083951
Pd       4.11777592       9.66324146      11.95099537
Pd       6.89476706       9.64088005      11.95142944
Pd       9.64982872       9.59779534      11.89439304
Pd      12.42487279       9.60955999      11.94161946
Pd       1.35802606      12.41462245      12.04582394
Pd       4.10624816      12.40887780      12.00662317
Pd       6.86816975      12.39901143      11.97280504
Pd       9.63028672      12.36702810      11.91406436
Pd      12.41879361      12.34804731      11.97632258
Pd      13.67409424      13.73256068      14.12416423
Pd       2.72573868       0.13313150      14.15604309
Pd       5.57273659      13.59676414      14.02631895
Pd       8.31098357       0.10586932      14.01973634
Pd      10.99896887       0.07385499      13.76757794
Pd      13.56352495       2.75528048      13.99197501
Pd       2.61591619       2.88537489      14.11242946
Pd       5.38309201       2.66932622      14.14554046
Pd       8.18914764       2.74594613      13.97331197
Pd      10.87077387       2.71941252      13.87762984
Pd       0.02400836       5.53160575      13.94877123
Pd       2.72653841       5.58112786      14.00541271
Pd       5.45614999       5.48453496      14.06261433
Pd       8.28379257       5.48476106      14.03419540
Pd      11.00755976       5.40141653      13.97104630
Pd       0.04666888       8.32707393      13.97708637
Pd       2.75120621       8.28901635      13.88819957
Pd       5.49081088       8.26831388      13.95461702
Pd       8.39604982       8.22292440      13.82725761
Pd      11.07864962       8.19924317      13.93375723
Pd      13.59087787      10.97323302      14.48686737
Pd       2.75742607      11.08054764      14.00859798
Pd       5.55907598      10.91507603      13.95988208
Pd       8.34553589      11.01533796      13.93101755
Pd      11.03811502      10.88562496      13.82987054
Pd      12.43918148       6.60761862      16.10394559
Pd       8.72661198       9.62150443      16.24028490
Pd       2.03359578      12.72700107      16.62061378
Pd       1.41897950       7.02909655      16.26969420
Pd      11.87164944       9.40365810      16.29510430
Pd       8.32653765       1.37097248      16.92589933
Pd       4.99092538       0.38161460      17.14240898
Pd       5.63121359       9.60590350      17.06829465
Pd       4.39873448      11.75782392      16.16232607
Pd      10.86270115      12.42744167      15.91156007
Pd       0.86153817       4.29635624      16.30263505
Pd       3.87372475       4.40063652      16.32101133
Pd      11.16071635       3.16481127      16.54263919
Pd       2.98285233       9.50299330      16.27695851
Pd       7.26349646       7.12629334      16.87759960
Pd       6.97636922      11.95004837      16.18847819
Pd       9.73233694       6.98882223      15.97130374
Pd       7.43164329       3.70537790      16.41997755
Pd       1.07611619       1.49158785      16.03755787
Pd       4.08812621       7.07911665      15.90894768
O        9.23340601       3.11378916      17.08218795
O       10.38312130      10.53679436      16.84665589
O       12.86275198      12.54833442      15.64561420
O       11.40869884       1.29915085      17.21625788
O       10.37209747       0.45238325      17.12696639
O        5.26329425       7.59926062      17.38959505
O        4.37512090       1.02473707      15.18448917
O        2.39380362       1.63692134      17.52932408
O        8.87812286      12.46912792      15.44185352
O        1.53578960      10.98737689      15.77166826
O        3.01738141       0.38209666      17.68116826
O        2.31610328       5.39557719      17.02189232
O        6.98039540       5.57292826      15.66308909
O        7.53914523       8.87393287      17.78557808
O        5.50796439       3.34180844      16.07212138
O       13.15577947       2.99125497      16.01494993
O       11.04301252       5.18566298      16.05734207
O       13.54563168       8.26757740      16.06194174
O        6.93478050       0.02458967      17.12605025
O        7.06933441       8.64681448      15.27403165
