60
Properties=species:S:1:pos:R:3 system=runs/20260728-safe-lbfgs-strict-quench-200-production/output-c60-seed42 state_id=intermediate_accepted pbc="F F F"
C       -2.48215673      -2.09777828       0.63910972
C        2.17543072      -2.87432797       0.05374749
C        1.22649361       0.03773284       2.61797148
C       -0.97405886       3.22779479      -1.96134823
C       -2.79788448       3.05943397      -0.30962378
C        2.78026139      -1.88035010       1.74358011
C       -2.87499467      -1.05633902       1.54389756
C       -1.49175703      -2.45929440       2.73072212
C        2.21058326       2.93106730      -0.64084963
C       -0.32431581       2.64797835      -3.08913537
C       -0.78735784       3.01880395       1.27624650
C        3.00683863       1.54708345       0.93914599
C       -2.24743073      -1.98611524      -0.78840572
C        1.33358901       3.29252392      -1.66194057
C        2.92716293       0.44689127      -1.14943536
C       -1.19933387      -0.21212689       3.06992241
C        3.27197519      -0.49402874      -0.07885727
C       -1.90494308       0.81107102      -3.11298979
C       -2.62987612       1.44283035      -2.06101610
C       -0.43672213      -3.43111770       0.96017780
C        0.40540787       0.65843781      -3.87524966
C       -0.83168104      -1.37185436      -3.29472156
C       -3.81554806       2.25539524       0.30445771
C       -3.29215692       0.26068372       1.28044962
C       -2.81325317       1.28793273       2.14792617
C       -1.49895164       1.11486844       2.67106550
C        0.38041979      -0.70650925      -3.64931877
C       -2.15364120      -1.22245296       2.76991796
C       -1.92439762      -0.59360193      -2.86455699
C        2.47798232      -0.53101349       2.14787043
C        0.96752823      -2.27769905      -2.11388404
C       -0.16220008      -3.33134157      -0.40223183
C       -3.21848445       2.52667041       1.61332484
C        1.09239634       2.55159074      -2.82327695
C        0.10874606      -0.78487419       3.02313773
C       -0.43445044      -2.40553932      -2.43738508
C       -3.68915231       0.84110655       0.05450627
C       -2.15389645       3.23483931       0.96759144
C       -0.43631511       1.95442956       2.20613281
C        0.93496587       1.44863895       2.28104755
C       -1.70292650      -3.00832334       1.42667785
C       -2.61949695      -0.85264240      -1.61488242
C        3.17343833       0.20483794       1.15800773
C        1.85808578      -2.91817648       1.46881011
C        1.14617142      -2.97904016      -0.88574061
C        1.44554200      -1.07123412      -2.73884111
C        1.53382089       3.17810218       0.61082552
C        3.16485788      -1.86026141       0.28565078
C        1.91725671       2.20677364       1.56396526
C       -0.77314329       1.44077980      -3.68031973
C        2.97920858       1.75457174      -0.49478188
C        0.54949026      -3.04356247       1.91740219
C        1.50587831       1.22554781      -3.13495660
C       -2.23460229       2.70865084      -1.54979447
C       -1.15960616      -2.79621341      -1.28830563
C       -0.07878770      -2.20950255       2.88204197
C        2.14709484       0.17810417      -2.34770116
C        0.18606713       3.51174193       0.36075375
C       -3.17775608       0.43415079      -1.19387217
C        0.05515838       3.65454029      -1.06445172
