60
Properties=species:S:1:pos:R:3 trial_index=22 seed_entry_id=9 discovered_entry_id=16 energy=-497.01251220703125 status=accepted pbc="F F F"
C        0.70487332      -3.52714259      -0.05820216
C        0.96253730       0.67094302      -2.61239100
C        2.32089750       1.15046801       1.64968991
C        2.08330388      -3.22757978      -0.38383916
C       -3.67866140       1.42363342       2.65776989
C        2.61437273       0.47420356      -0.71772643
C        0.12104690      -2.69759883       0.92209128
C        4.27716960      -1.98170170       2.20267712
C       -1.85197807       0.31489033      -2.33973809
C        2.02876315      -0.98972417       1.07682522
C       -1.31575193       1.25265943       2.85896282
C        1.15358480       3.38132365       0.32839119
C       -0.15869713      -3.85083781      -1.16521985
C       -1.14338251       3.56806579       0.13012344
C        0.22648044       4.13120713      -1.86267222
C        0.42400785      -0.61470778      -2.65231592
C        0.84977753       2.95779441      -2.34644779
C       -1.27945772      -2.50066363       1.19521671
C       -2.40833879      -2.80968593       0.40891308
C        2.14140570       1.06963053      -1.93270803
C       -3.16726679       0.59503646      -0.08911215
C       -2.47264030      -2.49293116      -1.84361806
C       -0.10690816      -0.75484114       2.26652503
C       -3.25156606      -0.51038250       0.85893181
C       -1.37827749      -1.36573711       2.06686397
C       -0.99430389      -0.75813824      -2.73562395
C       -3.18829023      -1.42592711      -1.24929264
C        3.92769622      -2.97960971       1.39725597
C       -2.27522872      -3.54527926      -0.83364906
C        2.62503768       1.49224359       0.28354308
C       -0.84888654       4.67257804      -2.59755292
C        0.97719918      -1.84355691      -2.12510926
C       -2.56259855      -0.58480350       2.10374682
C       -1.92290349       4.01109182      -2.64618498
C        2.81742715      -0.15250381       1.98483581
C       -1.29172628      -2.12977797      -2.47502085
C        0.83207704      -1.58390713       1.52331971
C       -2.58414851       0.55528429       2.92389686
C       -0.02931300       0.65891322       2.57702098
C        1.01163760       1.58165902       2.08260610
C        3.11116361      -3.36992760       0.51559043
C       -1.35253502      -4.52924798      -0.99376854
C        2.18505510       2.70584153      -0.32175380
C        2.38212575      -0.87422243      -0.31613943
C        2.00409608      -1.97660907      -1.15378429
C       -2.89637390      -0.02981977      -1.40884707
C       -1.34146582       1.66317149      -2.48803379
C        0.07185728       1.81686740      -2.70121648
C        0.57827472       2.81536665       1.50526157
C       -2.97474845       1.95117945       0.29109420
C        0.09237716       3.96716620      -0.46698185
C        2.03985588       2.48038798      -1.71501907
C       -2.11534093       2.78260247      -1.98063721
C       -3.04064475       2.22901912       1.70888460
C       -0.09021548      -2.78369367      -2.11059587
C        3.92594220      -0.78320506       2.53254058
C       -2.20959369       2.87618450      -0.52939423
C       -0.79323779       3.14652473       1.45447902
C       -3.28411591      -1.71524812       0.12448258
C       -1.69559032       2.43297154       2.20067538
