60
Properties=species:S:1:pos:R:3 trial_index=14 seed_entry_id=8 discovered_entry_id=9 energy=-494.3072509765625 status=accepted pbc="F F F"
C        0.55290215      -3.80428446       0.02165853
C        0.93102586       0.50801268      -2.37239840
C        2.55399352       1.57592147       1.69381723
C        1.94447352      -3.60148437      -0.31997257
C       -3.46112423       1.49179842       2.78843520
C        2.82703076       0.73422648      -0.53392997
C        0.08613766      -2.79325475       0.89224126
C        4.04367024      -1.83888247       1.81635438
C       -1.90276613       0.19949414      -2.19039925
C        1.88095669      -1.39062104       0.09172314
C       -1.09490600       1.34053686       2.75026250
C        1.15851671       3.58211602       0.17417239
C       -0.36505625      -4.05598044      -1.04893805
C       -1.15190898       3.61774440       0.03495291
C        0.14518478       4.05208366      -2.04274098
C        0.36335990      -0.78745526      -2.44000654
C        0.77566015       2.83634683      -2.40286332
C       -1.25239078      -2.49095102       1.25716816
C       -2.46163040      -2.82083979       0.61440371
C        2.11793388       1.04258657      -1.75584216
C       -3.14543940       0.59351906       0.05174983
C       -2.61414268      -2.55362588      -1.63523994
C        0.09756598      -0.65272494       1.94735969
C       -3.19824921      -0.48073679       1.03237806
C       -1.18868839      -1.27134728       2.00805166
C       -1.05748402      -0.89013036      -2.54318334
C       -3.27627462      -1.45759934      -1.03788033
C        3.64560389      -2.90737212       1.22045616
C       -2.43639265      -3.59819326      -0.61587860
C        2.82529587       1.88104535       0.28603408
C       -0.95662518       4.48884784      -2.79951204
C        0.84669203      -2.09159304      -1.99907300
C       -2.37799802      -0.52005383       2.19290385
C       -2.03288445       3.83049514      -2.75954985
C        3.30470602       0.57386074       2.25889081
C       -1.42950291      -2.24356171      -2.28505677
C        0.89326480      -1.61890293       1.12005377
C       -2.33730775       0.64079435       2.97038668
C        0.16980050       0.78211869       2.33189666
C        1.15042220       1.81936621       1.95540525
C        3.01311931      -3.78856906       0.51922416
C       -1.59622939      -4.64188763      -0.82199881
C        2.23488174       2.95095917      -0.44728538
C        2.91178210      -0.46597730       0.20093666
C        1.82077789      -2.31269153      -1.00625011
C       -2.94261127      -0.08181150      -1.24743192
C       -1.38287835       1.52276088      -2.39880846
C        0.02854219       1.64527569      -2.59930588
C        0.64627109       3.01908968       1.37456236
C       -2.92743192       1.95947006       0.36827111
C        0.04398071       4.03477857      -0.63155231
C        1.98106712       2.46395911      -1.75392902
C       -2.17086264       2.66767176      -1.97481800
C       -2.92530135       2.29195304       1.77519734
C       -0.26446190      -2.96929609      -1.97191883
C        3.57743851      -0.54378247       1.52728833
C       -2.22226177       2.85722359      -0.53304179
C       -0.73798611       3.28260263       1.36186548
C       -3.31948442      -1.70662443       0.34353779
C       -1.55592751       2.53347947       2.16678718
