60
Properties=species:S:1:pos:R:3 trial_index=1 seed_entry_id=0 discovered_entry_id=1 energy=-482.1226501464844 status=accepted pbc="F F F"
C        0.98353897      -3.74383877      -1.02296131
C        1.60258793       0.07659599      -2.53307334
C        2.18159634       2.01477423       1.61295747
C        2.08684293      -2.94887933      -0.57072889
C       -3.08002436       1.19957948       2.39094371
C        2.60826254       0.67770431      -0.35401878
C       -0.11077526      -3.91519170      -0.06745839
C        3.59602806      -1.28721847       2.07311009
C       -1.35462174       0.89878479       0.07438736
C        0.36342000      -1.69336701       0.37489810
C       -0.83710824       1.70149581       3.46597651
C        1.15952180       3.59684334      -0.52303390
C       -0.05373612      -3.20759011      -1.87636582
C       -1.03479691       3.75151095      -1.15477518
C        0.42849553       3.23745502      -2.83447350
C        0.51537043      -0.37606059       0.87327489
C        1.46668635       2.33659784      -3.01712599
C       -3.27887297      -3.28475860       0.15089508
C       -3.85156706      -2.46675040       0.94496994
C        2.52841643       0.81784223      -1.75878255
C       -3.39507743       1.65761420      -1.13613642
C       -2.26276834      -1.59225624      -1.19758387
C       -0.74506194      -2.64945521       2.14314561
C       -3.08121102      -0.16021671       1.88386636
C       -1.22812937      -1.65640760       2.73027293
C       -0.63074663       0.49553963       1.35559043
C       -3.03559268      -0.69834679      -0.38408863
C        3.49841440      -2.31148504       1.29939879
C       -2.30851931      -2.95506908      -0.82819739
C        2.66224106       1.95281220       0.25694647
C       -1.06273492       0.34317406      -2.29083880
C        1.12771215      -1.17687701      -2.06029550
C       -1.66477063      -0.31972681       2.37041088
C       -1.77071154       3.09181468      -2.17287350
C        2.75354994       1.05743765       2.44183135
C       -1.27592277      -1.11095870      -2.12401636
C       -0.10257264      -2.87204619       0.92649744
C       -1.93691836       0.90223857       3.28792854
C       -0.16135479       1.65252217       2.28738521
C        0.82172094       2.52042563       1.67715686
C        3.07264916      -3.09095984       0.35526031
C       -1.11690377      -3.66946455      -1.06924496
C        2.33653973       2.89185331      -0.76459043
C        1.74173276      -0.28966319       0.13620017
C        1.46338534      -1.55865356      -0.63675826
C       -2.74906920       0.70585660      -0.38020026
C       -0.51550551       1.18025203      -3.34243858
C        0.91147870       1.05904089      -3.31686698
C        0.35351281       3.34473854       0.63019597
C       -3.01705643       2.57930682      -1.88835673
C        0.30419948       3.86576447      -1.59848874
C        2.42640668       2.20640005      -2.01693994
C       -0.79756272       2.59395060      -3.12044056
C       -2.88712326       2.37710470       1.69237624
C       -0.08514502      -1.86625848      -2.33248329
C        3.31817392      -0.08208847       2.49359580
C       -0.71172795       0.94807732      -1.11715517
C       -1.05603742       3.54340096       0.27424227
C       -3.58084036      -1.06712590       0.87599498
C       -2.13499905       3.13334150       1.04608308
