60
Properties=species:S:1:pos:R:3 trial_index=23 seed_entry_id=16 discovered_entry_id=17 energy=-493.384033203125 status=accepted pbc="F F F"
C        1.19111388      -3.49574530      -0.30930930
C        0.91572506       0.83459182      -2.70568707
C        2.37741872       1.38704081       1.38825505
C        2.37382786      -2.73395703      -0.36875015
C       -3.23111666       0.85968055       2.94771956
C        2.71863937       0.83572717      -0.96038942
C        0.47090300      -2.79817076       0.73032279
C        0.75793748      -1.65803184       2.67157092
C       -1.77634117       0.11896120      -2.15477561
C        2.90385464      -0.85275343       0.80298557
C       -0.93659551       1.07148721       2.83062095
C        0.97230347       3.59544521       0.22479571
C        0.45613233      -3.88424404      -1.44341260
C       -1.33904766       3.43782955       0.25623416
C       -0.22926337       4.15625681      -1.86631082
C        0.54893058      -0.51274250      -2.73014805
C        0.52084142       3.08349077      -2.39486781
C       -0.79929869      -2.96428585       1.40004253
C       -1.91859498      -3.23691962       0.59291630
C        2.08008404       1.38184174      -2.11865082
C       -2.80306162       0.19026203       0.27197535
C       -1.98556385      -2.70057278      -1.65512007
C        0.14141197      -0.10854342       0.85044783
C       -2.62403387      -0.94990906       1.18355859
C       -0.73594752      -1.94621235       2.43320194
C       -0.84811049      -0.82512798      -2.69523490
C       -2.74582329      -1.75456139      -0.95824961
C        1.44691676      -2.46164785       1.73778951
C       -1.68997813      -3.79523971      -0.74715528
C        2.65135817       1.81429874       0.07062265
C       -1.43244756       4.53131753      -2.49718548
C        1.29488312      -1.66773548      -2.27304210
C       -1.85601831      -1.04449401       2.38999763
C       -2.40812142       3.73509270      -2.42036412
C        2.48302363       0.01311794       1.80300087
C       -0.95266358      -2.22261620      -2.44845577
C        0.15629926      -1.22400492       0.22554533
C       -1.99627135       0.17303986       3.08753656
C        0.31737035       0.67931884       2.17293718
C        1.17687911       1.88239833       1.91551423
C        2.58415767      -2.19217783       0.95522615
C       -0.68445549      -4.61365927      -1.12995273
C        2.01947269       2.98993817      -0.47956672
C        2.81496446      -0.51225724      -0.58282952
C        2.33965731      -1.66030860      -1.30244272
C       -2.63250709      -0.35080556      -1.10023194
C       -1.46817300       1.51617644      -2.32763100
C       -0.12315090       1.85104116      -2.68505649
C        0.57415812       3.05572318       1.47633278
C       -2.85115409       1.55755930       0.60690715
C       -0.22880085       3.98747790      -0.47044982
C        1.80569451       2.76170810      -1.85881512
C       -2.35291567       2.50137689      -1.74203964
C       -2.87459414       1.84215978       2.01823156
C        0.34822913      -2.74932462      -2.28350464
C        1.30968868      -0.35217866       2.61477059
C       -2.33573649       2.57748728      -0.28961195
C       -0.83989508       3.13734617       1.55899293
C       -2.72477664      -2.10655884       0.39907692
C       -1.54156560       2.25549015       2.36172916
