60
Properties=species:S:1:pos:R:3 trial_index=24 seed_entry_id=15 discovered_entry_id=18 energy=-493.1756591796875 status=accepted pbc="F F F"
C        0.20130475      -2.97211793       1.37091796
C       -0.33494542      -0.27940747      -3.21131511
C        1.94945574       1.10382915       0.77061491
C        8.30846965      -4.69699995       0.90583289
C       -3.33601010       2.79088251       2.89423730
C        1.90425580      -1.05639765      -2.95611414
C        0.15929157      -1.81501878       2.17931366
C        5.15491909      -2.58244889       0.88568633
C       -2.71731468      -0.21835831      -1.65290386
C        2.71376073      -2.18099966      -2.86203025
C       -0.98221649       2.56008217       2.70444120
C        0.80237766       2.99461147      -0.99253515
C       -0.12183357      -3.55074438       0.08551946
C       -1.40777613       3.58804824      -0.71417661
C       -0.57809539       3.29861472      -3.03688686
C       -0.84325202      -1.46732991      -2.71798133
C       -0.16469636       1.97291283      -3.25032825
C       -1.12868026      -1.51426674       2.72203132
C       -2.32022235      -2.08781083       2.25051179
C        1.05653723       0.03195097      -3.12937627
C       -3.34215863       0.91872523       0.66192008
C       -2.74668022      -2.58908303       0.07195601
C        0.11345088       0.41612236       2.81324385
C       -3.17916541       0.25007688       1.95423024
C       -1.14319162      -0.15266141       3.12969448
C       -2.05742075      -1.44971892      -1.97460717
C       -3.44559513      -1.38861746       0.37460523
C        6.17984303      -3.29804803       0.83788116
C       -2.23914597      -3.15123271       1.29216120
C        2.26317411       1.20522151      -0.56793911
C       -1.79569293       3.73711537      -3.61445727
C        0.02442975      -2.50439423      -2.24870171
C       -2.31349439       0.64646683       3.01235344
C       -2.85490930       3.21146325      -3.16845079
C        2.11536259      -0.18795405       1.49446205
C       -1.97552539      -2.56779166      -1.07987278
C        0.96307894      -0.58817205       2.25770670
C       -2.20568830       2.02727406       3.27768664
C        0.19189872       1.77859449       2.44490311
C        1.01711705       2.09251733       1.31032289
C        7.21804964      -4.08787548       0.66971542
C       -0.97416472      -3.75282691       1.19640857
C        1.60157345       1.94037508      -1.54179974
C        4.12375077      -1.79085594       1.06049228
C        1.37387895      -2.35284987      -2.54059138
C       -3.34552943      -0.16219573      -0.35557588
C       -2.35002789       0.96603877      -2.41566462
C       -1.11773292       0.91548220      -3.15225447
C        0.55071021       3.06877528       0.40121447
C       -3.14213549       2.30958403       0.43810561
C       -0.34765564       3.52238294      -1.67525141
C        1.12320377       1.44194651      -2.82821921
C       -2.91418221       2.26463048      -2.11943487
C       -2.90027084       3.12340372       1.60703003
C       -0.65946740      -3.12378512      -1.14763487
C        3.14669840      -1.03369316       1.19891198
C       -2.61392438       2.82376299      -0.81412171
C       -0.74397493       3.62869018       0.55381323
C       -3.28058543      -1.14801182       1.75013012
C       -1.47848503       3.39452898       1.69273675
