60
Properties=species:S:1:pos:R:3 system=runs/20260728-safe-lbfgs-strict-quench-200-production/output-c60-seed42 state_id=intermediate_accepted pbc="F F F"
C        1.30260305      -2.24078635       2.30596634
C        2.11436959      -1.60645802      -2.44691629
C        2.51880862       1.66334952      -0.88664049
C       -3.21048028       1.65837654       0.54823944
C       -2.06925540       1.91331301       2.71140915
C        3.12017358       0.14945613      -2.71069196
C        1.09775265      -0.84701908       2.49846746
C        0.20161102      -0.59907139       0.15490525
C       -1.49925220       2.83991833      -2.21059138
C       -3.72170753       0.77079270      -0.43408630
C       -0.40845310       3.12488896       1.16341334
C        0.67693879       2.70748783      -2.78938530
C        0.13086622      -2.72865415       1.60496270
C       -2.66606098       2.41089411      -1.58607721
C       -0.49646689       0.74191021      -3.34251440
C        2.04314668       0.67116458       1.18605222
C        0.94892834       0.53299934      -3.49056659
C       -3.00909944      -1.14108428       0.84262008
C       -2.59708331      -0.27808027       1.89033355
C        2.60663313      -1.94560748       0.31463009
C       -3.24721891      -1.11685200      -1.57073388
C       -1.89312587      -2.87356206      -0.40734175
C       -1.31408183       1.29423394       3.75344349
C        0.58789760       0.11645075       3.38328134
C        0.89989496       1.49744928       3.10456242
C        1.53596071       1.82311527       1.87874675
C       -2.26670267      -2.09252502      -1.54637684
C        0.98243567      -0.29683692       1.19631570
C       -2.12960766      -2.24944448       0.81104864
C        2.73877019       1.44700942      -2.27137937
C       -0.09395309      -2.65836757      -1.88586026
C        1.59638079      -2.68965096      -0.36704014
C       -0.23083574       2.23258844       3.48515922
C       -3.27713957       1.16074585      -1.73843039
C        2.81468408       0.58331751       0.00351621
C       -0.57165483      -3.28047210      -0.67777712
C       -0.81630271      -0.02291925       3.50134355
C       -0.98121714       2.81582544       2.42276732
C        0.96527530       2.73732456       0.92440710
C        1.50463606       2.67552946      -0.45699376
C        2.53415467      -2.24710404       1.65565003
C       -1.13027764      -2.09477285       1.82395807
C        1.61951171       1.74032780      -3.10639860
C        3.20433166      -0.92733430      -1.78865765
C        1.29512720      -2.48521714      -1.72677842
C       -1.00366955      -1.44377138      -1.99326411
C       -0.69161397       3.48941941      -1.21420740
C        1.93914874      -0.47959212      -3.34529852
C        0.67203373       3.24667153      -1.47788712
C       -3.63171493      -0.62763873      -0.30372602
C       -0.63208281       2.15787337      -3.08573748
C        3.12846835      -0.75955417      -0.40238216
C       -2.79376530       0.00180149      -2.40567733
C       -2.79506643       1.12539148       1.79928545
C        0.42930101      -3.15084544       0.30200338
C       -0.59040060      -0.73545249      -0.78625525
C       -1.45567548      -0.24085607      -2.89045794
C       -1.28211292       3.33368292       0.05744102
C       -1.50692651      -0.87320665       2.59371671
C       -2.55623891       2.70984619      -0.16324230
