60
Properties=species:S:1:pos:R:3 system=runs/20260728-safe-lbfgs-strict-quench-200-production/output-c60-seed42 state_id=intermediate_accepted pbc="F F F"
C        0.36507291      -2.25322571       2.06489360
C        2.08542275      -2.00403697      -2.36411389
C        2.72191335       1.21755217      -0.08756004
C       -3.18730748       2.24900641      -0.05651940
C       -2.50209293       2.14155836       2.31019648
C        3.35897186      -0.43316725      -2.01770853
C        0.56030717      -1.11762504       2.91924949
C        2.64349863      -1.71815712       2.15223785
C       -0.67292889       3.15112546      -2.25538207
C       -3.63635929       1.53568635      -1.20539353
C       -0.34565878       3.07249917       1.28892230
C        1.48849483       2.54283849      -2.32203869
C       -0.76473611      -2.52085751       1.19492749
C       -2.01682019       2.96411881      -1.93726958
C        0.13888053       0.88312299      -3.32415771
C        2.19582978       0.52796454       2.23619956
C        1.52472043       0.42032972      -3.19790283
C       -3.61052915      -0.55268525       0.02344961
C       -3.27406503       0.16718944       1.20663613
C        1.97580156      -2.88690861       0.31331312
C       -3.23751771      -0.35592227      -2.37711605
C       -2.49517702      -2.35761061      -1.18019308
C       -2.10664283       1.33494763       3.42925794
C       -0.32759016      -0.08390869       3.26719932
C        0.20031876       1.24004599       3.33869890
C        1.24020601       1.55946280       2.41796058
C       -2.54385054      -1.55320211      -2.35849103
C        1.93660579      -0.72765251       2.85118597
C       -2.88102828      -1.77853304       0.04470062
C        3.05999463       0.85837124      -1.45405271
C       -0.43437120      -2.39847103      -2.27663363
C        0.92065855      -3.13532172      -0.56243193
C       -0.87799820       2.12318292       3.54318399
C       -2.79815338       1.87332226      -2.33223698
C        2.90991465       0.30580941       1.01875342
C       -1.22981288      -2.95718809      -1.20818751
C       -1.72725510      -0.01322466       3.08619613
C       -1.24463667       2.84375305       2.36075970
C        0.97306012       2.45537089       1.33315144
C        1.78931250       2.34693714       0.12300912
C        1.68281257      -2.66689991       1.67925273
C       -2.03157573      -1.81358992       1.22332246
C        2.24615527       1.41107482      -2.47260530
C        3.14515486      -1.69869485      -1.42130329
C        0.92320126      -2.63411212      -1.91121806
C       -1.21320047      -1.35589075      -2.89413099
C       -0.00568567       3.58750566      -1.05114195
C        2.30030435      -0.75653025      -3.04152613
C        1.31013113       3.07129675      -1.01728113
C       -3.85500630       0.13567950      -1.18712222
C        0.20869195       2.29811472      -2.95666477
C        3.02777209      -2.00089907      -0.07067542
C       -2.38621525       0.65823403      -2.94948878
C       -3.16644449       1.58430297       1.20262368
C       -0.42644604      -3.15184592      -0.06104241
C        3.25410849      -1.09640085       1.00238187
C       -1.07361027       0.08509798      -3.22575908
C       -0.89257335       3.49096175       0.04188636
C       -2.39841324      -0.63756558       2.01567689
C       -2.18303267       3.16409658      -0.50339443
