60
Properties=species:S:1:pos:R:3 input=/mnt/d/download/trae-research-code/ssw/runs/20260428-c60-mace-production/prerelaxed_c60.xyz system=c60 pbc="F F F"
C        3.40820524      -2.39006689      -1.58783124
C        0.45442482       0.45037052      -3.24301468
C        1.26544834       2.69864978       0.86521784
C        3.60090795      -1.39908137      -2.59271897
C       -2.45945470      -0.54048737       2.54997587
C        1.73286381       1.56350275      -1.48971349
C        3.08599549      -0.57825751       0.88456183
C        4.60090557       1.17779767       0.99767655
C       -4.40424537      -1.41849124      -1.25720527
C        2.46231348      -0.68224077      -0.34934933
C       -1.47179782       1.51272722       2.98171707
C       -1.10850398       3.51104823      -0.53030195
C        0.97664260      -2.27696802      -1.04611456
C       -3.18494414       2.63862221      -0.00833844
C       -2.43782645       2.20200270      -2.12895448
C        1.93406119       0.96861345       2.36182814
C       -1.28743411       1.90763861      -2.85909311
C        0.12777671      -2.15333117       1.39907971
C       -1.06450096      -2.59903145       2.04999198
C        0.96515426       1.64371231      -2.67993972
C       -4.29443332      -0.91855868       0.09375830
C       -1.28603546      -2.30554117      -0.72121398
C        2.12860768      -0.37484178       1.93334753
C       -2.27423275      -1.92335789       2.36307446
C        0.82554525      -1.09326058       2.12840931
C        0.71774144       1.05436702       3.03353511
C       -2.45802373      -2.69050138      -0.02645161
C        5.09878750      -0.79814889      -0.46439835
C       -0.02392100      -2.38819419      -0.03227896
C        1.18358444       2.58206165      -0.56957757
C       -1.74900352      -0.51842116      -2.63710403
C        1.16421682      -0.74594126      -2.97542404
C        0.05622533      -0.21133782       2.96823389
C       -3.71851162       1.36586612      -0.39012375
C        2.37197542       2.09035564       1.58017472
C       -1.03175500      -1.60570326      -2.00742713
C        4.46538130      -0.16443989       0.59643705
C       -1.32002554       0.09281981       3.10037941
C       -0.19518940       2.09855105       2.76023171
C        0.01572658       2.87669859       1.58074494
C        4.51800794      -1.42833698      -1.44227295
C        2.32362084      -2.06881146      -0.74973123
C        0.05187634       3.17056087      -1.24315340
C        2.53814163      -0.46599977      -2.62501282
C        2.42111700       0.29276219      -1.38344089
C       -3.70509581      -2.11351010      -0.24241409
C       -3.15011844      -0.15222692      -2.41444218
C       -0.95418946       0.54411972      -3.14763503
C       -1.15445742       3.28873243       0.87868566
C       -3.90937161       0.34278406       0.59789689
C       -2.37673337       3.13897734      -1.07115632
C       -0.08324280       2.59331156      -2.53310113
C       -3.29157386       1.12213829      -1.74145734
C       -3.21526641       0.49080029       1.84395986
C        0.41069720      -1.67097345      -2.19494070
C        3.71471577       2.03797477       1.23966158
C       -4.23883003      -1.02306956      -2.51724386
C       -2.46106840       2.76593531       1.19865009
C       -2.25600798      -2.90719105       1.37195598
C       -2.58645038       1.75493048       2.15914045
