60
Properties=species:S:1:pos:R:3 system=runs/20260728-safe-lbfgs-strict-quench-200-production/output-c60-seed42 state_id=plateau_accepted pbc="F F F"
C       -0.69780203       2.44633893       1.82235892
C       -1.33124082      -1.17710263       2.41620879
C        2.17831118      -1.31222526       1.73864853
C       -0.06728818       0.69115300      -4.19765144
C        1.46683653       2.38553508      -2.89648284
C        0.95947791      -2.11587536       1.96986899
C        0.66620280       2.77877390       1.56623300
C        0.60609854       1.83630290       3.63645928
C        0.66075309      -2.37515347      -2.50606267
C       -1.67229466       0.02612000      -4.81640322
C        2.48510804       0.49885971      -1.54484470
C        1.13047460      -2.98637507      -0.29852809
C       -1.70200930       1.95919165       0.92239542
C        0.02767823      -1.55826186      -3.53995185
C       -1.12746911      -2.97205905      -0.93614666
C        2.39126568       1.15162208       2.09229935
C       -0.99377886      -2.77517177       0.51824175
C       -2.12827514       1.52289309      -2.71262830
C       -0.89848222       2.28519547      -2.66053447
C       -1.64173080       1.00326769       3.66612974
C       -3.11241374      -0.62139034      -2.97450519
C       -3.47668056       0.52734164      -0.85309273
C        1.58288904       3.41980665      -1.88875545
C        1.26039794       3.09341531       0.34314395
C        2.62360742       2.67950158       0.15313327
C        2.89779049       1.35897971       0.73965143
C       -3.68427127      -0.61522117      -1.68184216
C        1.48651756       2.15518483       2.56388085
C       -2.63190435       1.53581975      -1.36605707
C        0.07839538      -1.37319408       2.88173919
C       -2.90094247      -1.35586664       0.41933099
C       -1.97926445       0.11779585       2.60987681
C        2.81992633       2.91308599      -1.25808051
C       -1.29452014      -1.41690138      -4.06979838
C        2.07322839      -0.15955520       2.56464379
C       -3.15032733       0.03588536       0.47372492
C        0.57491706       3.32387388      -0.88108916
C        2.53379660       1.78966190      -2.08909253
C        2.92316310       0.20398672      -0.13463281
C        2.88728118      -1.22041582       0.48535966
C       -0.71658132       1.96955510       3.16616658
C       -1.74939472       2.24561066      -0.48757160
C        0.39450087      -2.85219385       0.89545512
C        0.74532137       0.67182110       4.44642824
C       -0.21731340       0.60965602       5.53414268
C       -3.16692266      -1.73963492      -0.94185409
C        1.78166401      -1.67214735      -1.93442383
C       -1.84897567      -1.91097045       1.24051942
C        2.17849465      -2.06505227      -0.58902329
C       -2.50541122       0.50329165      -3.64880017
C        0.19009736      -3.13262370      -1.41826655
C       -1.40161880       0.67127708       5.02071100
C       -2.25820457      -1.75365791      -3.08042086
C        0.19576867       1.94585022      -3.48209668
C       -2.42194324       0.80179212       1.39750771
C        0.97667723      -0.36716144       3.49759260
C       -2.18835456      -2.39633385      -1.72621068
C        1.77360878      -0.37715587      -2.43523980
C       -0.68516241       2.80372175      -1.30489943
C        0.70575549      -0.30684231      -3.54179465
