60
Properties=species:S:1:pos:R:3 system=runs/20260728-safe-lbfgs-strict-quench-200-production/output-c60-seed42 state_id=plateau_accepted pbc="F F F"
C       -3.13257600       1.00644368       1.05410251
C       -0.80283864      -0.39154174       2.01686564
C        1.69971471       1.19999402       1.86158814
C        0.87732519       0.17770022      -3.58283413
C       -0.27789462       2.30808769      -3.21241628
C       -0.44939932       0.77024799      -0.33731245
C       -2.42531132       2.20015872       0.73402969
C       -1.79974022       1.58191548       2.80628338
C        3.45801362      -0.51272943      -1.32587256
C        0.78713393      -1.24224587      -3.59758550
C        1.66477357       2.55971609      -1.53982076
C        3.34883463      -0.09886956       0.91298023
C       -3.11380049      -0.16771398       0.23489134
C        2.73509979      -0.74992079      -2.50759172
C        2.13997753      -1.94345993       0.27927733
C       -0.18072416       2.66644759       1.65209000
C        1.49893568      -1.35331875       1.44476538
C       -1.51520009      -1.13133608      -2.88650316
C       -1.50860157       0.28131946      -3.05613898
C       -2.95989559      -0.38352397       3.27513345
C       -0.01565636      -3.00868430      -2.41736402
C       -1.92735875      -2.52839810      -0.95704381
C       -1.40308271       2.99118570      -2.65854640
C       -2.00853175       2.73595624      -0.49171439
C       -0.80645958       3.50654320      -0.49561141
C        0.23739482       3.16051951       0.39268895
C       -0.76422603      -3.28476074      -1.27423341
C       -1.56338347       2.49940405       1.80416576
C       -2.29051101      -1.42551867      -1.73493334
C       -0.69393926       0.22001880       0.74215977
C       -0.56364461      -2.55238328       0.91763157
C       -2.18612118      -0.95943995       2.25874518
C       -0.48827947       3.76876554      -1.83657132
C        1.88651900      -1.80741022      -2.85917015
C        0.50321851       1.68154878       2.42172341
C       -1.90143164      -2.30883207       0.43745747
C       -2.25635567       2.23898973      -1.79468363
C        0.62152173       3.03827631      -2.36080167
C        1.50046798       2.72264690      -0.11452038
C        2.28489206       1.91933941       0.75934319
C       -2.93563899       0.82640911       2.49517137
C       -2.81630884      -0.20571746      -1.16964443
C        2.20734534      -0.14794738       1.77352159
C       -0.85405307       0.22528214       4.39353047
C       -1.36060844      -0.30432177       5.57507924
C        0.11124972      -3.20152914      -0.14665875
C        3.43713311       0.91171057      -1.11386255
C        0.12023463      -1.60460510       1.74046867
C        3.36833209       1.16102258       0.25711132
C       -0.40299534      -1.91701141      -3.24601887
C        3.26774660      -1.13610524      -0.06634852
C       -2.16150392      -0.30647299       4.43332803
C        1.36533783      -2.80910024      -2.01547182
C       -0.32564334       0.93779930      -3.48803064
C       -2.71770987      -1.32477463       0.99416968
C       -0.55185525       0.80257341       3.09200177
C        1.40727592      -2.81374226      -0.57738105
C        2.50733281       1.51331744      -2.01101064
C       -2.38520277       0.86847546      -2.06482364
C        2.11610179       0.49322054      -2.93467853
