54
Lattice="21.66 0.0 0.0 0.0 5.10531 0.0 0.0 0.0 22.55266" Properties=species:S:1:pos:R:3 trial_index=5 seed_entry_id=2 discovered_entry_id=4 energy=-198.68804931640625 status=accepted pbc="T T F"
Cu       0.00000000       0.00000000      10.00000000
Cu       3.61000000       0.00000000      10.00000000
Cu       7.22000000       0.00000000      10.00000000
Cu      10.83000000       0.00000000      10.00000000
Cu      14.44000000       0.00000000      10.00000000
Cu      18.05000000       0.00000000      10.00000000
Cu       0.00000000       2.55265548      10.00000000
Cu       3.61000000       2.55265548      10.00000000
Cu       7.22000000       2.55265548      10.00000000
Cu      10.83000000       2.55265548      10.00000000
Cu      14.44000000       2.55265548      10.00000000
Cu      18.05000000       2.55265548      10.00000000
Cu       1.80500000       1.27632774      11.27632774
Cu       5.41500000       1.27632774      11.27632774
Cu       9.02500000       1.27632774      11.27632774
Cu      12.63500000       1.27632774      11.27632774
Cu      16.24500000       1.27632774      11.27632774
Cu      19.85500000       1.27632774      11.27632774
Cu       1.80500000       3.82898322      11.27632774
Cu       5.41500000       3.82898322      11.27632774
Cu       9.02500000       3.82898322      11.27632774
Cu      12.63500000       3.82898322      11.27632774
Cu      16.24500000       3.82898322      11.27632774
Cu      19.85500000       3.82898322      11.27632774
Cu      21.60966916       0.00979863      12.57803800
Cu       3.72684379       0.07918491      12.66203243
Cu       6.11690420       4.61593346      13.45204180
Cu      10.67673748       5.00022372      12.66256107
Cu      14.51580042       0.02560406      12.59618746
Cu      18.05350698       0.05313211      12.43495386
Cu      21.60992080       2.52058137      12.58906601
Cu       3.62368232       2.70160281      12.60530124
Cu       7.17713153       2.56438342      12.38808936
Cu      10.66896478       2.43488149      12.84629526
Cu      14.57819006       2.52031284      12.70100691
Cu      18.00156825       2.57709360      12.52547621
Cu       5.50984913       2.55617627      14.67663521
Cu       8.60433588       0.86155863      13.60682309
Cu      19.74190066       1.25324211      13.85297695
Cu       8.79367541       3.48814210      13.97296281
Cu       8.17155381       4.90279045      15.90860641
Cu       2.04497448       1.27007292      14.17840555
Cu       1.71888904       3.81339289      13.81892965
Cu      10.14249167       1.66962037      15.18540497
Cu      19.79787642       3.68917438      13.82663085
Cu      16.85474291       4.30091853      14.27384183
O        7.01791217       3.72802252      15.03403920
O        0.59245116       0.15076166      14.43126686
O       18.57877616       4.95825778      14.58118952
O       12.57557540       2.53971162      12.80676636
O        9.40822939       0.85689079      16.60501024
O        6.71080404       1.27927267      13.76211388
O       15.11852198       3.91569503      13.92871645
O        3.90181176       1.60126768      14.19404818
