60
Properties=species:S:1:pos:R:3 source_escape=runs/20260728-block-krylov-fixed-starter-escape/output/cases/plateau_accepted-seed43-deep_refinement/escape.xyz pbc="F F F"
C        1.66917321       2.62970104      -0.85707158
C       -1.15011497       2.57555304       1.79464730
C        1.13404094       0.03227411       2.51962680
C       -1.03451241      -2.58110377      -2.43265795
C        1.36665125      -2.21582562      -2.79245603
C       -0.12237943       0.68611552       2.93789975
C        2.73123437       1.67496753      -0.95123244
C        2.90205878       2.69988366       1.10888512
C       -2.02429460      -2.83502322       0.89584053
C       -2.35534827      -2.07677638      -2.57801579
C        1.37351435      -2.59168820      -0.25690579
C       -1.34032587      -1.41835687       2.55917807
C        0.35822685       2.52759493      -1.44645342
C       -2.25000643      -3.01381685      -0.48234486
C       -3.11618608      -0.55478517       1.32037356
C        3.09813699       0.42004944       1.07224924
C       -2.41820357       0.51758158       1.99876350
C       -1.49574538       0.04768995      -3.37690386
C       -0.18810052      -0.51764045      -3.42989371
C        0.79409384       3.88673593       1.11436277
C       -3.63748550      -0.22601259      -2.24503220
C       -2.41877481       1.90715129      -2.08616145
C        2.43705874      -1.30255933      -3.06682232
C        2.82539257       0.48472995      -1.69882555
C        3.28462644      -0.68241336      -1.01392445
C        2.92046403      -0.78083610       0.35753310
C       -3.57156811       1.10392225      -1.80808892
C        3.35950204       1.60607713       0.32799481
C       -1.36964555       1.36960572      -2.84983207
C       -0.36278023       2.10551118       2.90002348
C       -2.88025707       2.04746622       0.17673958
C       -0.46659258       3.34070623       0.78616501
C        3.12488631      -1.78671669      -1.86823543
C       -3.08370711      -2.27819649      -1.34818161
C        2.31741211       0.79738859       2.21593937
C       -2.06292851       2.57505190      -0.87517446
C        2.09845775       0.08501895      -2.83913836
C        1.97899755      -2.58694035      -1.54279886
C        1.87235059      -1.67051604       0.75198881
C        1.04257117      -1.30386386       1.90431866
C        1.85979317       3.33617647       0.39175068
C        0.02208498       1.64376126      -2.55292362
C       -1.33895884      -0.03353505       2.75649974
C        1.89081631       3.10652347       3.18685464
C        0.51164420       3.07654465       3.39764565
C       -3.75916404       1.09124012      -0.38404806
C       -0.60249215      -2.98339754       1.11592950
C       -2.30118497       1.81271893       1.44062574
C       -0.16230532      -2.05092934       2.08614136
C       -2.60881560      -0.76555870      -3.06958968
C       -2.46964025      -1.77727183       1.72278992
C        1.04208546       4.05612676       2.51255234
C       -3.80723639      -1.08999220      -1.08839875
C        0.03193293      -1.87553360      -3.06005970
C       -0.73529379       2.98601642      -0.59956280
C        2.58077074       2.19550356       2.39511385
C       -3.77575268      -0.26571541       0.08868118
C        0.06078693      -3.13255651      -0.12594681
C        0.77473944       0.49487525      -3.07930430
C       -0.95829995      -3.18699651      -1.13603455
