60
Properties=species:S:1:pos:R:3 trial_index=35 seed_entry_id=4 discovered_entry_id=30 energy=-474.2913513183594 status=accepted pbc="F F F"
C        7.45279359      -3.69494133       3.29523367
C        0.39755186       1.57023692      -6.05209623
C        3.07359740      -0.14825785       1.00935780
C       -0.52715529       1.26785497      -6.89099619
C       -4.25068351       1.55465698       0.82282082
C        4.34202144      -4.86740011       4.79620009
C       -7.44945391      -3.07853110       5.08629504
C        6.67182729      -0.93836982       1.06665555
C       -4.50996776       3.00104363      -3.39343510
C        0.88462307      -3.53704249       4.19025016
C       -1.52304676      -0.47340561       1.91093752
C        2.05426721       1.15254715      -0.71558672
C        6.70219439      -4.42447428       4.04034872
C       -0.51890960       2.35078336      -0.14517023
C        0.91238052       5.57160858      -3.46387395
C        1.91741153      -1.63864304       2.66015959
C        0.78027610       4.41386879      -4.15778734
C       -1.92169460      -4.96532734       5.61352991
C       -0.06989633      -2.69862767       3.61238448
C        0.58959675       2.59689200      -5.20932314
C       -7.94813052       3.11854072      -3.62288105
C       -4.77970046       2.80730402      -5.62847531
C       -5.02039038      -2.76667680       4.32751036
C       -1.43978809      -2.94427464       3.95117863
C       -3.85945339      -2.56060477       3.96514941
C        0.51985592      -1.68573614       2.73449549
C       -5.45460443       2.95420905      -4.41704622
C        7.40105751      -1.78533682       1.67280399
C        1.90658232      -4.15553857       4.56048890
C        1.79419053       2.39457978      -2.91413869
C       -2.29620824       3.43226126      -6.22114495
C       -1.71714297       1.32451281      -7.43696995
C       -2.59065870      -2.18911760       3.48091949
C       -1.45101141       3.04571405      -1.06044829
C        4.37128911       0.04376505       0.55789254
C       -3.66472328       2.76496517      -6.25032121
C       -6.23129700      -3.08519245       4.77429423
C       -2.41016294      -1.16777453       2.61184838
C       -0.07917579      -0.69483987       1.90074082
C        1.87206200       0.44605308       0.43735388
C        7.69519111      -2.76021420       2.45942221
C        3.10003320      -4.64010990       4.79380755
C        2.00887716       1.75949304      -1.82308065
C        2.82975310      -1.05110710       2.04074550
C        5.61033370      -4.82862473       4.56044941
C       -6.84077397       3.03182694      -4.18583110
C       -1.33292504       4.11352182      -5.71153242
C       -0.10362627       3.90920665      -5.21244810
C        0.52680362       0.26758911       0.98461209
C       -2.49462901       2.99316578      -1.82699932
C       -0.30184466       3.65314854      -0.41425797
C        1.32812889       3.01426175      -3.97924293
C        1.01461106       6.69661338      -2.91526307
C       -3.04126682       1.21622413       0.84635224
C       -2.57202435       2.24570453      -6.95944342
C        5.56102065      -0.34448290       0.73407717
C       -3.50209481       2.99990218      -2.63986527
C       -0.55344306       1.13176962       0.53316560
C       -1.70080398      -4.00609472       4.83201648
C       -1.79652765       0.67160210       1.04214555
