60
Properties=species:S:1:pos:R:3 trial_index=11 seed_entry_id=10 discovered_entry_id=11 energy=-473.2276916503906 status=accepted pbc="F F F"
C        5.78979171      -1.63562644      -0.28857448
C        2.72344846      -0.01559656      -1.48311196
C       -3.24660646       4.10075576      -0.50660541
C        3.26963662      -1.03483697      -0.62037890
C       -5.40181804       2.40582148       3.66832492
C        1.35808238      -0.03296693      -2.06342389
C       -4.99789712      -2.57761626       8.09927262
C        9.33260105      -2.99025499       0.37926962
C       -6.61968447       9.85543963      -5.72616252
C        0.86602572      -1.33467246       0.51816290
C       -2.16647389       0.32000461       2.30700343
C       -1.43460882       2.57199868      -1.25412652
C        4.60655955      -1.28589144      -0.45229563
C       -2.26859937       4.27294995      -2.86801823
C        0.29332295       2.15092975      -4.21199663
C       -0.03013209      -0.40991818       0.58087690
C        1.34666420       1.35403820      -3.75392929
C       -0.10107349      -4.71099541       2.77231393
C       -0.82223743      -4.68971638       3.84503504
C        3.05188684       1.27027284      -1.85179601
C       -4.32261026       7.07226205      -4.44041838
C        0.51321198      -4.61520669       1.68301949
C       -3.30167467      -2.88493202       6.15918491
C       -2.44701475      -3.84351873       5.62215968
C       -3.20833132      -1.77026099       5.29546994
C       -0.79837646       0.68591917       0.29796274
C       -5.78041981       8.92223078      -5.48632952
C        8.18411650      -2.47569570       0.11021861
C        1.07496811      -4.05909494       0.56540995
C       -4.06114151       5.04181900      -0.33129525
C        1.39697815      -3.44267814      -3.08966610
C        1.18258120      -4.44218138      -0.75176718
C       -2.89971517      -1.02991271       4.36137181
C       -2.88817750       5.19369329      -3.44162343
C       11.53981534      -4.13349728       0.92738806
C        1.31815011      -4.03754978      -1.94706924
C       -4.12330573      -2.94694457       7.28994446
C       -2.56549225      -0.25420832       3.32192022
C       -1.87980681       1.05595346       1.16653045
C       -2.43714382       2.96656794      -0.32916373
C        7.01934249      -2.02725568      -0.08311880
C        1.45885298      -2.65616212       0.59633631
C       -0.52375083       1.50455826      -0.89559139
C        0.63212509       1.17315685      -1.58631497
C        2.24790973      -1.69960220       0.09606391
C       -5.07224434       8.01006270      -4.89670039
C        1.40109530      -1.14620751      -4.40789830
C        1.34675859      -0.06719072      -3.58444484
C       -2.68010036       2.20221456       0.85899239
C       -3.61439728       6.15972209      -3.92522348
C       -1.42090452       3.22955949      -2.54762612
C        1.75553934       1.69775919      -2.36092126
C       -0.59014606       2.76482380      -3.56335319
C       -6.14406681       2.14755058       4.65138697
C        1.42918698      -2.64039590      -4.10470566
C       10.53398590      -3.44996663       0.53600199
C        1.43329147      -2.06279309      -5.41328584
C       -3.71458449       2.49711102       1.73887886
C       -1.63739950      -4.28025588       4.75954016
C       -4.50913056       2.41750145       2.69385876
