60
Properties=species:S:1:pos:R:3 trial_index=5 seed_entry_id=3 discovered_entry_id=5 energy=-471.53887939453125 status=accepted pbc="F F F"
C        5.50906566      -3.70748516       1.82383161
C        0.81281524      -0.02025215      -3.19889626
C        2.32965853       1.37097543       2.52190580
C        0.58843805      -1.36059631      -3.44545284
C       -4.61586977       2.21602268       2.26160727
C        2.10710212      -0.02437936      -1.05885769
C       -6.52746356      -2.92206166       6.40692154
C        3.91250812      -0.63857141       3.15556917
C       -4.18602916       2.98479346      -3.95047333
C        2.69458585      -1.23886074      -1.36463395
C       -1.46625085       0.33630150       2.59680028
C        2.25860289       2.84040248       0.70698394
C        5.48313920      -4.29143495       0.66430751
C       -1.44110338       3.01728154       0.24037545
C       -0.04600778       4.68396320      -4.49280221
C        1.52192967      -0.87271490       1.14294821
C        0.62740156       2.30869455      -3.61686515
C       -0.10755066      -5.25352247       4.24186134
C       -0.41851214      -1.74324090       2.73374014
C        1.52457074       0.67576684      -2.16632505
C       -6.94483121       3.60336676      -5.83860873
C       -3.97735933       1.28578919      -5.49871325
C       -4.32960849      -2.62110845       5.14603883
C       -0.85791878      -2.85989288       3.51575606
C       -3.27341066      -2.41330153       4.51056257
C        0.54034272      -0.85567558       2.09889572
C       -4.75660442       2.40572505      -5.08255431
C        4.58372998      -1.68897992       3.02937633
C        3.38293094      -2.28479059      -1.42491737
C        1.94534655       3.12668110      -1.72925894
C       -1.82610795      -0.11606254      -5.24073365
C       -0.35021303      -1.73595638      -4.29360247
C       -2.17695034      -2.07995651       3.81186952
C       -2.11775381       3.34215292      -0.78066187
C        2.54973866       1.62039698       3.83118790
C       -3.09069164       0.43620085      -5.55202787
C       -5.40263972      -2.94045130       5.82330571
C       -1.64774755      -1.00249770       3.00767082
C       -0.12190856       0.40337800       2.18450735
C        1.67969090       1.58658880       1.17789931
C        5.16412192      -2.77362295       2.61475281
C        4.15258584      -3.31241803      -1.18608025
C        2.38007316       3.48405547      -0.56886721
C        1.87622273       0.21851212       0.38436918
C        4.90449791      -4.04760494      -0.47592217
C       -5.93512941       2.89048346      -5.66230618
C       -0.92454024       0.82343396      -4.82490855
C        0.12084493       1.02380972      -4.02825241
C        0.21025754       1.56142632       1.53331094
C       -2.80452474       3.44489584      -1.85384964
C        2.90799698       4.02785634       0.68682940
C        1.43830806       2.10717117      -2.43550942
C        0.22597948       3.53533534      -4.06748928
C       -3.41371536       1.87297959       2.16206761
C       -1.35143830      -1.44751579      -5.05606887
C        3.17362501       0.46630631       3.18001852
C       -3.49696438       3.24501096      -2.93528396
C       -1.04632768       2.24951736       1.28315065
C       -0.46486347      -4.10415586       3.88251302
C       -2.08918236       1.52298349       2.10401241
