60
Properties=species:S:1:pos:R:3 trial_index=25 seed_entry_id=20 discovered_entry_id=21 energy=-471.2746887207031 status=accepted pbc="F F F"
C        3.84291096      -2.72248897      -0.37717686
C        1.88637739      -1.41058818      -0.89325358
C        1.81425068       1.96132816       1.65192789
C        2.82350152      -2.69048451      -2.72067443
C       -5.12363611       2.59801688       4.04274014
C        1.57334465      -0.41070975      -1.91028017
C       -2.73531862      -1.76329973       8.75316340
C        4.40021714      -0.37186813       2.57169345
C       -2.08863242       0.52119213      -4.94274206
C       -0.19382813      -2.27163331      -0.00507469
C        0.39551977      -0.84770767       2.68985998
C       -0.22012500       3.06326095       0.65415368
C        2.89843189      -2.38167031      -1.33772060
C       -0.70825435       3.43777816      -0.42455572
C       -0.35634290       2.44126167      -2.59655262
C        1.37111349      -1.37838451       1.65304835
C        1.01271593       2.22228584      -2.36603911
C       -1.29501296      -2.50393162      -2.04305654
C       -2.21741049      -3.42675284       0.17250155
C        2.27862930       1.81011147      -3.14514987
C       -3.29576834       2.66484412      -4.34371813
C       -3.10005560       0.14800349      -5.81264770
C       -2.25821656      -2.08030648       6.25482000
C       -2.28945179      -3.01722276       2.68715868
C       -2.03922631      -2.17513499       5.04398118
C        2.67883129      -1.05694895       1.97845672
C       -4.06927370       1.08021422      -5.85966156
C        4.03149681      -1.48866229       1.71501790
C       -0.94175393      -1.82234085      -3.01566737
C        2.36433451       1.95765983      -0.79795462
C       -0.82787717       0.29786780      -4.18757784
C        1.99710247      -2.10594529      -3.49527331
C       -1.70019200      -2.22222894       3.67877759
C       -3.32183519       4.81214044      -2.57125467
C        2.02741639       1.04721685       2.74659521
C       -0.17948354      -0.85490765      -3.69588905
C       -2.56030035      -2.09625746       7.55222938
C       -0.68891142      -1.43772578       3.18245321
C        0.71728646       0.55552883       3.01680164
C        0.41685202       2.40051775       1.68990621
C        4.33424965      -2.38150440       0.72447547
C       -1.27501253      -2.80457142      -0.65648783
C        3.07047829       2.93805574      -2.93599302
C        2.53584386       1.93499447       0.50279283
C        1.00671453      -1.72770046       0.29115477
C       -4.29101827       2.23882630      -5.26652277
C       -0.98308042       1.65422514      -3.57894871
C        1.85894997       0.99268573      -1.86730092
C       -0.23941202       1.59929786       2.70421671
C       -3.18027557       3.70095471      -3.39319810
C       -1.10876481       3.35683257      -1.76254555
C        2.17938496       3.05340418      -1.81113483
C       -2.26803852       3.91082260      -2.33124551
C       -3.99060458       2.14793187       3.71716703
C        1.19570487      -0.98707113      -3.21342794
C        3.06542920       0.09990630       2.71085390
C       -2.19549989       1.79399808      -4.28436250
C       -1.55537997       1.70976061       3.06023524
C       -2.35078912      -3.32580123       1.45317593
C       -2.73137349       1.97404510       3.37874304
