60
Properties=species:S:1:pos:R:3 system=runs/20260728-safe-lbfgs-strict-quench-200-production/output-c60-seed42 state_id=intermediate_accepted pbc="F F F"
C        0.26145934      -2.46667897      -1.90322307
C        3.69115164       0.13484583       0.13664634
C        0.88578398      -1.20433556       2.54789926
C       -3.16108350       2.30017243      -0.54837850
C       -4.05093039       0.04062369      -0.56102771
C        3.38578141      -0.44215913       2.10572571
C       -0.75850362      -2.96237118      -1.08049223
C        1.20806821      -3.68138254      -0.10297358
C       -0.90028278       2.86853202       2.04983724
C       -2.37759754       3.30398517      -1.18285047
C       -2.69519000      -0.10641842       1.62972964
C        0.68436714       1.61451277       3.06437030
C        0.22457885      -1.24187649      -2.67472276
C       -1.75921737       3.28525296       1.02881313
C        1.47048227       2.63105755       1.08367967
C       -0.40135414      -2.93564561       1.31009473
C        2.47146757       1.68983128       1.66313514
C       -1.86386136       1.74948486      -2.98861356
C       -2.80500511       0.81600425      -2.44426283
C        2.49670826      -2.07634188      -0.99565063
C       -0.35122350       3.47137896      -2.13809808
C        0.56573559       1.58966273      -3.32712677
C       -4.00793570      -1.29317130      -1.08355087
C       -2.04958761      -2.44246855      -0.96801613
C       -2.57830433      -2.47328795       0.33564867
C       -1.64193926      -2.26787963       1.40219389
C        0.75088712       2.79379252      -2.60673130
C       -0.17670483      -3.58133096       0.07841182
C       -0.71307246       0.99712722      -3.38400029
C        2.08461428      -0.39068040       2.74291039
C        2.37387902       1.38742425      -1.81402073
C        2.49629773      -0.87319439      -1.66357260
C       -3.82529860      -1.82514245       0.27152237
C       -1.42745178       3.81337748      -0.20724605
C        0.84770663      -2.45264575       1.83242771
C        1.63273861       0.79179335      -2.90023471
C       -2.79287301      -1.56278448      -1.79748154
C       -3.71838908      -0.48791341       0.73904773
C       -1.64487629      -1.01370733       2.04715413
C       -0.42521257      -0.54561923       2.70960968
C        1.46892687      -2.96682403      -1.30696561
C       -0.90168359      -0.39804276      -3.03425900
C        1.86527498       1.00581234       2.74186834
C        3.58323693      -1.12737929       0.88483107
C        3.00577050       0.31596453      -1.09563696
C        1.68759311       2.58325528      -1.51290904
C       -1.48394090       1.68440734       2.63360989
C        3.57982093       0.86233600       1.36224040
C       -0.47195007       0.81366241       3.12589295
C       -1.68736270       3.02446407      -2.38999819
C        0.48939181       2.70437225       2.13059714
C        2.86263489      -2.19286600       0.36849109
C       -0.13182569       3.71447778      -0.73928738
C       -3.53511672       1.13742054      -1.26854913
C        1.50539207      -0.58610696      -2.66614696
C        1.87323002      -2.99853997       0.99178045
C        1.11086050       3.06701760      -0.28160428
C       -2.54043697       1.26914654       1.79437299
C       -2.26282320      -0.51534968      -2.56718224
C       -2.78227555       2.29148352       0.83027413
