60
Properties=species:S:1:pos:R:3 system=runs/20260728-safe-lbfgs-strict-quench-200-production/output-c60-seed42 state_id=plateau_accepted pbc="F F F"
C       -1.27295233       2.27722375       2.03114562
C       -1.13030709      -1.42891045       2.21792204
C        2.25608070      -0.93941302       1.49997920
C        0.13222043       0.86700910      -3.77850582
C        1.06212614       2.84241653      -2.64173626
C        1.24544200      -1.93265313       1.69926534
C        0.03394258       2.78474446       1.75164634
C        0.17936003       1.62148246       3.72348751
C        1.38990764      -2.19870977      -2.69839847
C       -1.01591734       0.06792599      -4.04700877
C        2.58720676       1.03541048      -1.63751393
C        1.71044844      -2.79319146      -0.50479210
C       -2.17448116       1.71915938       1.06482378
C        0.69569747      -1.39366860      -3.61620033
C       -0.50703975      -3.02456417      -1.18288559
C        2.03039265       1.42075323       2.08723611
C       -0.46637310      -2.87362020       0.26435684
C       -2.35929526       1.42301572      -2.55581503
C       -1.26979481       2.34009500      -2.42972989
C       -1.90753539       0.47326273       3.68269390
C       -2.80129706      -0.93223845      -3.04090330
C       -3.49719574       0.03612154      -0.89336326
C        0.91564653       3.84827901      -1.63017354
C        0.56327794       3.26877531       0.54424684
C        1.93150218       2.99533163       0.26287272
C        2.46105665       1.76822000       0.74856958
C       -3.42076211      -1.06968859      -1.79101388
C        0.95850818       2.17644437       2.66017634
C       -2.95440620       1.28002715      -1.26642404
C        0.26618775      -1.42269778       2.64210336
C       -2.61255913      -1.78363051       0.26413601
C       -2.03237697      -0.31775539       2.52228160
C        2.19400380       3.43200012      -1.05286099
C       -0.68626093      -1.32495983      -3.86629616
C        2.03536462       0.06707243       2.46858427
C       -3.13008827      -0.46050677       0.39230755
C       -0.11451993       3.56970806      -0.66043557
C        2.26647840       2.36569673      -2.00768142
C        2.77716030       0.73981061      -0.22596678
C        2.75514968      -0.65340425       0.19957685
C       -1.17403181       1.64565626       3.32128583
C       -2.25230451       2.12140966      -0.32201354
C        0.89744586      -2.77733116       0.65028309
C        0.54003286       0.41169523       4.39250220
C       -0.39585116      -0.11072922       5.32583056
C       -2.77194744      -2.15013005      -1.09968722
C        2.42569724      -1.37044177      -2.12180737
C       -1.46945576      -2.18608381       1.01391703
C        2.59797064      -1.69696770      -0.76256763
C       -2.27679173       0.33212517      -3.44711611
C        0.85416567      -2.99639699      -1.65300501
C       -1.61492655      -0.09291590       4.94958372
C       -1.74502128      -1.92618709      -3.14324049
C       -0.04417520       2.11942119      -3.12196231
C       -2.61561469       0.37929899       1.38871891
C        1.01037680      -0.41722824       3.36836565
C       -1.67450911      -2.62194659      -1.88436687
C        2.26935618      -0.02475919      -2.54769675
C       -1.26544558       2.88000304      -1.09439008
C        1.21641025      -0.03522312      -3.52727649
