60
Properties=species:S:1:pos:R:3 trial_index=9 seed_entry_id=3 discovered_entry_id=7 energy=-481.8941345214844 status=accepted pbc="F F F"
C        1.64584632      -3.51019458      -0.69900009
C        2.56972778      -0.14373285      -2.24497582
C        2.04823909       1.96501695       1.97956193
C        2.75915335      -2.58774734      -0.87005592
C       -2.75086074       1.14296303       2.49399987
C        2.79131472       0.71784386       0.08359008
C       -0.56293037      -3.03259012       0.89011402
C        2.30350655      -1.60085285       2.46630265
C       -3.26008248       0.28829724      -2.55291353
C        0.03912997      -1.19927295      -0.28923205
C       -0.91542735       1.45163662       3.70910954
C        1.14024966       3.48830644      -0.26322440
C        0.49399885      -3.18267376      -1.43476706
C       -1.05215381       3.65372639      -0.96972989
C        0.43639899       2.71498383      -2.45905824
C        0.19040136      -0.12465534       0.71739626
C        1.60860031       1.95445338      -2.55518511
C       -3.03514806      -2.47543017      -1.01412484
C       -3.41171210      -1.44944188      -0.26759925
C        3.13944608       0.81653069      -1.32005845
C       -3.75167229       1.59942287      -2.16975856
C       -1.37231148      -1.46857801      -2.55673435
C       -0.80048201      -2.57460325       2.24276598
C       -2.17621851       0.32962538       1.40949148
C       -1.42895117      -1.79314246       3.17671977
C       -0.75173005       0.55491123       1.48723397
C       -4.14105526      -0.21286434      -0.33165316
C        1.86316218      -2.64350837       1.72645843
C       -1.75051242      -2.32977426      -1.48129011
C        2.72236907       2.00261649       0.69627519
C        0.29840666      -0.00041402      -3.18507656
C        2.11236999      -1.48047063      -1.74931864
C       -1.85615833      -0.75917883       3.73781816
C       -1.83656841       2.92344651      -1.94899075
C        2.34843815       0.87694707       2.77151420
C       -0.00155617      -1.36851626      -2.95231487
C        0.47358732      -3.00118136       1.77357703
C       -2.04525270       0.62677425       3.68250906
C       -0.29610614       1.54003219       2.49364369
C        0.70205420       2.46178365       1.94238592
C        2.28922706      -3.00624835       0.40673756
C       -0.55514613      -2.52956648      -0.54417131
C        2.37614492       2.85418845      -0.38840026
C        1.57029838       0.03872220       0.19969764
C        1.28108502      -0.91044704      -0.73851553
C       -4.24887607       0.40235011      -1.59007615
C       -0.90575672       0.76736425      -3.04411823
C        1.55434015       0.57739128      -2.93485108
C        0.29965045       3.28325914       0.86443535
C       -3.19169048       2.78382900      -2.02820627
C        0.30366190       3.62239378      -1.38940482
C        2.63805777       2.12987757      -1.61105433
C       -0.84907627       2.13088813      -2.69386905
C       -2.84517618       2.46969468       2.06514319
C        0.96064921      -2.21135691      -2.41298744
C        2.45613262      -0.39904045       2.88859032
C       -1.98192243      -0.17077139      -2.80004881
C       -1.08853371       3.49737029       0.46789607
C       -2.98650709      -0.31633705       0.47823891
C       -2.16915367       3.17708512       1.27455787
