60
Properties=species:S:1:pos:R:3 trial_index=4 seed_entry_id=0 discovered_entry_id=4 energy=-477.65252685546875 status=accepted pbc="F F F"
C        1.59896883      -3.22980283      -1.15130339
C        2.56809089       0.39514304      -2.19368054
C        1.69108281       1.88247612       2.35639976
C        2.42322893      -2.10127986      -1.42322411
C       -2.73477760       1.09550397       2.26769224
C        2.23095379       0.67967727       0.25564324
C       -0.02505380      -3.64802528       0.83769791
C        2.53647301      -1.51495382       2.15635633
C       -2.87996377       0.49579662      -3.29477176
C       -0.48734110      -1.08646200      -0.78569384
C       -1.13123809       1.83797437       3.95274714
C        1.38708224       3.83928564       0.30223482
C        0.28105717      -3.54949242      -1.55095633
C       -0.65489805       4.07354849      -0.71598484
C        1.08048348       3.62792181      -2.20234703
C       -0.29466619      -0.54367129       0.52106778
C        2.16104081       2.68684926      -2.27245015
C       -2.94809257      -3.06266598       0.36119028
C       -3.61979892      -2.04049877       0.71253906
C        2.90696787       1.01355731      -0.95503263
C       -2.78780336       1.66172013      -2.49167752
C       -1.72375099      -1.72930168      -1.33688632
C        0.14896801      -2.53517303       2.95769961
C       -2.59876545       0.03137461       1.28931842
C       -0.47052431      -1.57020429       3.46689972
C       -1.24756185      -0.38238324       1.54096288
C       -2.81740799      -0.69560753      -1.05199881
C        2.03333052      -2.46000846       1.31528826
C       -1.86775883      -2.97885074      -0.48981180
C        2.33961861       1.83627562       1.09492509
C       -1.90252918      -1.66726786      -3.92378036
C        1.92856492      -0.89296426      -2.00973576
C       -1.10863017      -0.43449488       2.97634547
C       -1.22902216       3.63027615      -1.98636651
C        1.91905891       0.74260487       3.09945894
C       -1.31636925      -2.20915900      -2.76673216
C        0.73742314      -3.05988149       1.76877429
C       -1.81743811       0.76263860       3.37309628
C       -0.28064909       2.64347382       3.50436587
C        0.64794738       2.89414453       2.49015774
C        2.24230349      -2.65211530      -0.08849474
C       -0.58584413      -3.64483985      -0.36548712
C        2.46012201       2.94989494       0.22231182
C        1.01745673      -0.01007453       0.04194131
C        0.77189909      -0.60432592      -1.23169755
C       -3.04710561       0.31262813      -1.94319525
C       -2.34104962      -1.39244561      -5.20977970
C        2.19122357       1.47841773      -3.01287151
C        0.38442901       3.68421293       1.32351479
C       -2.32419990       2.83357315      -2.18487425
C        0.73599839       4.11912976      -0.90551918
C        2.83285802       2.42436420      -1.04614050
C       -0.11978300       3.56638967      -2.91099842
C       -2.73282485       2.39695291       1.79246995
C       -0.26699355      -3.06670451      -2.69793564
C        2.38106224      -0.44779010       2.84447028
C       -2.54861275      -0.43324405      -4.22390465
C       -0.91932573       3.82657632       0.68561280
C       -3.32721785      -0.71452741       0.31823631
C       -2.08377466       3.29696776       1.22891307
