60
Properties=species:S:1:pos:R:3 trial_index=23 seed_entry_id=18 discovered_entry_id=19 energy=-493.5834655761719 status=accepted pbc="F F F"
C        1.17094030      -4.37506656      -1.01462856
C        2.49907711       0.27864598      -1.83537737
C        1.11642582       3.03779267       1.81855761
C        1.44656217      -5.74790543      -1.06056732
C       -2.49119147       1.07202250       3.31466055
C        2.60142019       1.39534169       0.45020070
C        0.23148400      -2.54492453       0.89045393
C        0.65766995      -5.67265065       2.69149391
C       -3.03133784       0.08507131      -2.58478376
C        1.26261276      -1.59440165       1.00442842
C       -0.56162394       2.39089841       3.25024717
C        0.68600772       4.14000564      -0.84690190
C        0.77012835      -3.06612931      -1.29339306
C       -1.37061114       3.92650112      -1.88717278
C        0.38898330       2.88610895      -2.95056732
C        1.73248063      -0.72325414       2.07461716
C        1.61296073       2.23079230      -2.72788024
C       -2.49964648      -1.22410316      -0.44317929
C       -2.73698332      -0.91267616       0.91369650
C        2.84333914       1.35976153      -0.96810938
C       -3.63980504       1.25272296      -3.03942314
C       -1.00986451      -1.33395290      -2.36264970
C        0.64416272      -3.46220479       3.24720791
C       -2.88896569       1.39034308       1.99738516
C        1.04111969      -2.25331973       3.77879800
C       -2.34128213       2.62517442       1.47523187
C       -3.47824235       0.85648365      -0.33456476
C        0.56725132      -4.94733552       1.43464424
C       -1.36756782      -1.84793541      -1.09315538
C        2.00611552       2.70656049       0.73766350
C        0.55322041       0.08100734      -3.27720657
C        2.17996012      -0.99818336      -1.31219259
C        1.50913801      -1.13234889       3.37379655
C       -1.91741212       2.87032606      -2.65465623
C        0.83618898       2.45600865       3.07403076
C        0.34836578      -1.23090668      -2.74886197
C        0.36284213      -3.59314440       1.82656965
C       -1.45527458       1.52185422       3.92333202
C       -1.16950511       3.07735072       2.12402890
C       -0.12411907       3.66386422       1.38967915
C        0.93423191      -5.21060773       0.11997911
C       -0.33696058      -2.62425161      -0.46208602
C        1.83803235       3.38250728      -0.53433047
C        2.39511466       0.11128878       1.01607548
C        2.09842583      -0.96280593       0.06936863
C       -3.20313206      -0.21203452      -1.20023396
C       -0.73684064       0.72539014      -3.39024097
C        1.69111864       0.80571954      -2.89227558
C       -0.35371694       4.18474813       0.12710654
C       -3.14613734       2.27940953      -2.23552653
C        0.04495543       3.98203028      -2.11313878
C        2.36285403       2.55941669      -1.55909472
C       -0.82260974       2.13777341      -3.23202905
C       -3.26326235       2.17224975      -0.78051356
C        1.33154692      -1.93430124      -2.01528332
C        0.68760383      -4.84950977       3.71535775
C       -1.70978555      -0.23970444      -2.97609651
C       -1.62345496       3.95469755      -0.49279889
C       -3.22362948       0.40838756       1.01229179
C       -2.55246860       3.04656068       0.10302266
