60
Properties=species:S:1:pos:R:3 trial_index=20 seed_entry_id=15 discovered_entry_id=16 energy=-487.4179382324219 status=accepted pbc="F F F"
C        1.82646505      -3.63845610      -0.61092089
C        2.50179659      -0.24149105      -1.89982361
C        1.49973468       2.09156968       2.06107306
C        2.81535702      -2.60794245      -0.73985948
C       -2.57333310       0.26531665       3.10354183
C        2.39269592       0.66823389       0.41702096
C       -0.23713189      -3.08862957       0.71489243
C        1.53918760      -1.71433857       2.70249069
C       -3.17982897       0.30507514      -2.54570608
C        0.10279357      -1.74838245       0.35566005
C       -0.27335808       1.14815180       3.15941642
C        1.15205654       3.66261299      -0.37620401
C        0.65163264      -3.41175032      -1.41406616
C       -0.93558256       3.87869196      -1.36677454
C        0.60463274       2.67681105      -2.55212002
C       -0.03913380      -0.61907268       1.19501793
C        1.73121087       1.86142962      -2.45478880
C       -2.67134276      -1.87681975      -0.42086646
C       -3.21530003      -1.00324211       0.29926590
C        2.94586617       0.69954364      -0.91975694
C       -3.67171855       1.64727188      -2.61770974
C       -1.29841926      -1.51879088      -2.35462551
C       -0.39124852      -3.19438037       2.31278336
C       -2.84487486       0.93519226       1.92619464
C        0.11331773      -2.00869998       2.92623209
C       -2.02385801       2.10668455       1.68123364
C       -3.80973708       1.18280734      -0.31415586
C        1.91600785      -2.83600766       1.81136019
C       -1.66062576      -2.39009522      -1.27974810
C        2.35071572       1.98119493       0.94680027
C        0.38138020      -0.09260855      -3.10767293
C        2.02336897      -1.53970533      -1.43655720
C       -0.57447883      -0.88029215       2.52176808
C       -1.66334574       3.01462606      -2.24846807
C        1.16802105       0.91489494       2.90855940
C        0.04102174      -1.45697271      -2.79875639
C        0.75032014      -3.66447949       1.61999079
C       -1.21448742       0.09572320       3.29497229
C       -0.77475595       2.19780445       2.36763983
C        0.33705835       2.86239260       1.80319434
C        2.42159779      -3.04488036       0.53475414
C       -0.59191718      -3.29402610      -0.72666995
C        2.26918854       2.82649536      -0.22946751
C        1.20509135      -0.10900644       0.52289058
C        1.07977533      -1.15107739      -0.38112120
C       -4.17165151       0.67244167      -1.61707155
C       -0.80994755       0.70043861      -3.02272635
C        1.62538558       0.46761696      -2.76430308
C        0.15652126       3.63213804       0.64214615
C       -2.95831937       2.65135763      -1.87995611
C        0.46407888       3.74262126      -1.62812668
C        2.62035497       2.02169198      -1.36177460
C       -0.69922321       2.11252362      -2.82904618
C       -3.12148503       2.39757189      -0.48449483
C        0.99861996      -2.28406878      -2.22158033
C        1.79461970      -0.33584915       2.83622274
C       -1.88708479      -0.19872580      -2.67551011
C       -1.13357478       3.70486736       0.03037857
C       -3.46459618       0.31587349       0.73740689
C       -2.19259955       2.86927996       0.48252523
