60
Properties=species:S:1:pos:R:3 system=runs/20260728-safe-lbfgs-strict-quench-200-production/output-c60-seed42 state_id=plateau_accepted pbc="F F F"
C        0.14631814       0.76067437       2.99672139
C       -2.65390314       0.46456938       1.35808386
C       -1.78530992      -2.14346434      -0.24055169
C        2.29849765       0.59434680      -2.70002224
C        3.44093962      -0.51301701      -0.83937405
C       -0.04227924       0.88768352      -0.73329134
C        0.84013150      -0.45568856       2.86642038
C       -1.26535485      -0.90387518       3.62284028
C       -0.62293401      -0.95360923      -3.79755053
C        1.61198513       1.74600531      -3.14962912
C        1.64001593      -2.26269778      -1.38659760
C       -2.21362557      -1.87770274      -2.45806580
C        0.06794983       1.60481748       1.78023658
C        0.42529889      -0.03404382      -3.93631889
C       -2.28214953       0.42305217      -2.49027254
C       -0.39302843      -2.14830953       1.73270967
C       -2.72429335      -0.00572724      -1.17570434
C        1.77416768       2.79005990      -0.97867485
C        2.61553003       1.72285583      -0.55942835
C       -2.23937400       1.23417843       3.63692636
C       -0.00735144       3.19586746      -2.56891197
C       -0.39918747       3.50062232      -0.17238235
C        3.66329169      -0.57750572       0.56569055
C        1.95101668      -0.67679884       2.03854017
C        1.99500631      -1.92973757       1.38266076
C        0.76643974      -2.46250923       0.92969419
C       -0.84076242       3.46606826      -1.50158775
C       -0.15019206      -1.46443862       2.94339781
C        0.94304361       3.17697784       0.10954949
C       -0.07372054       0.79420824       0.53120302
C       -2.33253304       2.21552404      -0.30585642
C       -2.30141062       1.52769441       2.26419087
C        3.14758999      -1.94096668       0.56725219
C        0.41158000       1.35536242      -3.83338962
C       -1.63805960      -1.82954697       1.12015951
C       -1.47690553       2.94135930       0.57050535
C        2.79195768       0.24376178       1.36236486
C        2.87236579      -1.83426022      -0.83265552
C        0.60785377      -2.69004237      -0.47505750
C       -0.73124010      -2.77791160      -0.96363079
C       -1.04061860       0.48025083       3.73331859
C        1.27784568       2.33469005       1.22789297
C       -2.59585084      -1.43070555      -1.15620691
C       -2.59491841      -1.17530787       3.20133365
C       -3.58866096      -0.56519815       3.98616253
C       -1.97084728       2.62142163      -1.59731013
C       -0.06559397      -2.11942154      -3.16522518
C       -2.70852449       0.87236332      -0.04112625
C       -1.03915332      -2.68659148      -2.33903629
C        1.33038697       2.83600991      -2.30413920
C       -1.90626775      -0.72763903      -3.24645414
C       -3.37311167       0.66544900       4.22787945
C       -0.63235157       2.16954464      -3.37332465
C        2.94293033       0.65565554      -1.43946109
C       -1.22337662       2.36188328       1.79887109
C       -2.50898599      -0.89595894       1.80182610
C       -1.81713086       1.73893748      -2.68859186
C        1.24281072      -1.80819436      -2.67956642
C        2.41430825       1.50078004       0.83087755
C        1.58871743      -0.53386295      -3.22925531
