54
Lattice="21.66 0.0 0.0 0.0 5.10531 0.0 0.0 0.0 22.55266" Properties=species:S:1:pos:R:3 trial_index=25 seed_entry_id=23 discovered_entry_id=24 energy=-200.52081298828125 status=accepted pbc="T T F"
Cu       0.00000000       0.00000000      10.00000000
Cu       3.61000000       0.00000000      10.00000000
Cu       7.22000000       0.00000000      10.00000000
Cu      10.83000000       0.00000000      10.00000000
Cu      14.44000000       0.00000000      10.00000000
Cu      18.05000000       0.00000000      10.00000000
Cu       0.00000000       2.55265548      10.00000000
Cu       3.61000000       2.55265548      10.00000000
Cu       7.22000000       2.55265548      10.00000000
Cu      10.83000000       2.55265548      10.00000000
Cu      14.44000000       2.55265548      10.00000000
Cu      18.05000000       2.55265548      10.00000000
Cu       1.80500000       1.27632774      11.27632774
Cu       5.41500000       1.27632774      11.27632774
Cu       9.02500000       1.27632774      11.27632774
Cu      12.63500000       1.27632774      11.27632774
Cu      16.24500000       1.27632774      11.27632774
Cu      19.85500000       1.27632774      11.27632774
Cu       1.80500000       3.82898322      11.27632774
Cu       5.41500000       3.82898322      11.27632774
Cu       9.02500000       3.82898322      11.27632774
Cu      12.63500000       3.82898322      11.27632774
Cu      16.24500000       3.82898322      11.27632774
Cu      19.85500000       3.82898322      11.27632774
Cu       3.66084673       5.08986988      12.57541453
Cu       5.55518753       3.77358825      13.87730725
Cu       3.81556669       1.25346832      14.82406619
Cu      10.78610156       0.02636268      12.48975813
Cu      12.36958002       1.27432239      13.89977176
Cu      17.79225799       3.83133701      13.36247649
Cu       0.02172207       0.02015086      12.49453975
Cu       3.61532829       2.53895177      12.57047098
Cu       7.27464254       2.50504627      12.52959204
Cu      10.70914228       2.56463168      12.57823175
Cu      14.43539527       2.56827644      12.65617633
Cu      14.46814330       0.00316459      12.57378420
Cu       1.80235162       3.79692476      13.80560094
Cu       9.09449805       3.99531735      13.80573682
Cu      20.24293707       3.85854638      14.16043289
Cu       7.20406967       0.00199665      12.48467483
Cu       6.45324639       1.13987415      14.63984383
Cu       1.16759681       1.30243644      14.48165345
Cu       0.04175930       2.56116766      12.47455814
Cu      12.29482285       3.85873251      13.95739299
Cu      20.17866361       1.27302095      14.19353560
Cu      17.75308117       1.22542332      13.38354778
O        5.20793275       2.38433437      15.13017665
O       21.45551132       2.55318094      14.74152743
O       18.79859223       5.08859764      14.35856127
O       13.66047214       5.09899867      14.29520188
O       13.56387577       2.58179529      14.38891103
O        7.41569113       4.68904576      14.43289849
O       16.52705143       2.54129723      12.92189904
O        2.44270596       0.06039179      14.95523854
