54
Lattice="21.66 0.0 0.0 0.0 5.10531 0.0 0.0 0.0 22.55266" Properties=species:S:1:pos:R:3 trial_index=37 seed_entry_id=35 discovered_entry_id=36 energy=-197.819091796875 status=accepted pbc="T T F"
Cu       0.00000000       0.00000000      10.00000000
Cu       3.61000000       0.00000000      10.00000000
Cu       7.22000000       0.00000000      10.00000000
Cu      10.83000000       0.00000000      10.00000000
Cu      14.44000000       0.00000000      10.00000000
Cu      18.05000000       0.00000000      10.00000000
Cu       0.00000000       2.55265548      10.00000000
Cu       3.61000000       2.55265548      10.00000000
Cu       7.22000000       2.55265548      10.00000000
Cu      10.83000000       2.55265548      10.00000000
Cu      14.44000000       2.55265548      10.00000000
Cu      18.05000000       2.55265548      10.00000000
Cu       1.80500000       1.27632774      11.27632774
Cu       5.41500000       1.27632774      11.27632774
Cu       9.02500000       1.27632774      11.27632774
Cu      12.63500000       1.27632774      11.27632774
Cu      16.24500000       1.27632774      11.27632774
Cu      19.85500000       1.27632774      11.27632774
Cu       1.80500000       3.82898322      11.27632774
Cu       5.41500000       3.82898322      11.27632774
Cu       9.02500000       3.82898322      11.27632774
Cu      12.63500000       3.82898322      11.27632774
Cu      16.24500000       3.82898322      11.27632774
Cu      19.85500000       3.82898322      11.27632774
Cu       3.55101489       5.08591620      12.50185143
Cu       7.32460541       1.31626409      15.14084573
Cu       5.13971217       1.24835289      13.90614997
Cu       7.14491830       5.09902624      12.61367200
Cu      12.64054168       1.23220250      14.15138684
Cu      17.93491684       3.34770286      13.43001491
Cu       0.00153840       0.02991171      12.47057137
Cu       3.57058864       2.52092076      12.54048644
Cu       5.12657344       3.80699911      13.90970928
Cu      10.98796866       2.54357377      12.48524562
Cu      14.39116536       2.53317848      12.61457873
Cu      14.45633006       5.07307105      12.51711603
Cu       1.84639200       3.73712933      13.80719284
Cu       9.35223948       2.51776582      14.79891094
Cu      19.86683557       1.38662589      13.72814011
Cu       7.02912368       2.54311690      12.84009584
Cu       7.32186768       3.72460169      15.14395343
Cu       1.80352705       1.20087029      13.88214416
Cu      21.64245915       2.57267415      12.55272808
Cu      12.64901262       3.76275481      14.17884544
Cu      20.56241706       4.06031191      14.44088069
Cu      17.47757264       0.74648981      13.47645767
O        5.97001585       5.07510963      15.21960604
O        0.62981028       4.15911692      15.28150114
O       18.80357747       4.78559057      14.31029535
O       13.93858094       5.05337083      14.33037344
O       11.31471049       2.49919034      14.47103867
O        9.02327228       2.55881643      12.78048000
O       16.42144337       2.24519130      13.07145508
O        0.90133269       0.48573039      15.41486624
