54
Lattice="21.66 0.0 0.0 0.0 5.10531 0.0 0.0 0.0 22.55266" Properties=species:S:1:pos:R:3 trial_index=26 seed_entry_id=23 discovered_entry_id=25 energy=-202.1302490234375 status=accepted pbc="T T F"
Cu       0.00000000       0.00000000      10.00000000
Cu       3.61000000       0.00000000      10.00000000
Cu       7.22000000       0.00000000      10.00000000
Cu      10.83000000       0.00000000      10.00000000
Cu      14.44000000       0.00000000      10.00000000
Cu      18.05000000       0.00000000      10.00000000
Cu       0.00000000       2.55265548      10.00000000
Cu       3.61000000       2.55265548      10.00000000
Cu       7.22000000       2.55265548      10.00000000
Cu      10.83000000       2.55265548      10.00000000
Cu      14.44000000       2.55265548      10.00000000
Cu      18.05000000       2.55265548      10.00000000
Cu       1.80500000       1.27632774      11.27632774
Cu       5.41500000       1.27632774      11.27632774
Cu       9.02500000       1.27632774      11.27632774
Cu      12.63500000       1.27632774      11.27632774
Cu      16.24500000       1.27632774      11.27632774
Cu      19.85500000       1.27632774      11.27632774
Cu       1.80500000       3.82898322      11.27632774
Cu       5.41500000       3.82898322      11.27632774
Cu       9.02500000       3.82898322      11.27632774
Cu      12.63500000       3.82898322      11.27632774
Cu      16.24500000       3.82898322      11.27632774
Cu      19.85500000       3.82898322      11.27632774
Cu       3.69078329       5.09814471      12.56052772
Cu       5.52017380       3.71718746      13.84846569
Cu       3.88326745       1.25860369      14.79749757
Cu      10.78899710       0.03356651      12.48961889
Cu      12.29548995       1.45901535      14.08821973
Cu      17.45923463       3.55165416      13.53665494
Cu       0.00062425       5.08651964      12.50578216
Cu       3.60884569       2.53798930      12.55341004
Cu       7.26705268       2.47110827      12.52641151
Cu      10.76919899       2.56191769      12.44386753
Cu      14.27558722       2.58425993      12.61024718
Cu      14.43028384       0.00240891      12.59484103
Cu       1.85835344       3.85039249      13.79741240
Cu       9.25618269       3.78164626      14.07671165
Cu      19.91472069       1.08420953      14.02155018
Cu       7.26341305       5.04396438      12.51057006
Cu       6.59948004       1.05309808      14.64642553
Cu       1.07609707       1.31136761      14.50613545
Cu       0.06437653       2.54343849      12.50753654
Cu      12.32886127       4.00674285      14.15233552
Cu      20.03457682       3.69168147      13.99999113
Cu      17.33979237       0.93040697      13.56246197
O        5.34995867       2.30145701      15.11705627
O       21.18735765       2.34304315      14.61246080
O       18.57189426       4.85685377      14.33248959
O       13.62608874       0.19049597      14.32234365
O       10.91719135       2.79023536      14.43481129
O        7.62241022       4.63184760      14.41778187
O       16.16731560       2.29159839      13.13679448
O        2.43272107       0.15504376      14.94551599
