60
Properties=species:S:1:pos:R:3 system=runs/20260728-safe-lbfgs-strict-quench-200-production/output-c60-seed42 state_id=plateau_accepted pbc="F F F"
C        2.04907239      -0.30144907       2.16144688
C       -0.88830073      -0.94106128       1.94980808
C       -0.84497298      -2.51810357      -0.76102093
C       -0.15038625       2.72663355      -2.71682519
C        2.12415515       1.78731835      -2.70088635
C        0.43828944      -0.15849335      -0.10954639
C        2.66486608      -0.77513204       0.94710049
C        1.55047748      -2.51689550       1.86978022
C       -2.73599424       0.38397937      -2.97340278
C       -1.14606228       3.45033791      -2.00537462
C        0.77282525      -0.33434997      -3.27752479
C       -2.68710245      -1.57259521      -1.79519819
C        1.32196073       0.93121706       2.29096145
C       -2.22583254       1.69230507      -3.00233943
C       -3.27409268       0.21348624      -0.49385858
C        1.55283719      -2.51202560      -0.39060824
C       -2.68037332      -0.80344241       0.34279155
C        0.25575967       3.52834332      -0.04133094
C        1.32791742       2.96681550      -0.78942778
C        0.51277683      -1.56634912       3.77879764
C       -2.20838154       3.45538958      -0.08767255
C       -0.91200812       2.78407037       1.95079154
C        3.25532909       1.37113051      -1.92911135
C        3.04336704      -0.13105575      -0.24024118
C        2.89773604      -0.85916426      -1.46018841
C        1.83559913      -1.79129360      -1.57142699
C       -2.14834947       3.07560978       1.30021864
C        2.26757363      -2.11149141       0.74709521
C        0.29166345       2.95484109       1.25942424
C       -0.08705719      -0.68607895       0.89087233
C       -2.25350243       0.91320950       2.08232430
C       -0.34726982      -0.58049668       3.25299360
C        3.13203589       0.03875416      -2.51543535
C       -2.40446063       2.75908310      -2.10879284
C        0.25779782      -2.98525820       0.03737223
C       -1.07214739       1.55055520       2.62058552
C        3.03168462       1.25089616      -0.51509986
C        1.95860399       0.45703128      -3.22108376
C        0.75436697      -1.55449780      -2.47169338
C       -0.50442753      -2.12556834      -2.12039573
C        1.56963040      -1.50357286       2.83061165
C        1.39512358       2.02304241       1.35585816
C       -2.17108433      -1.88779494      -0.50008803
C       -0.35506313      -3.58419373       2.60441186
C       -0.89217995      -3.96603111       3.84326218
C       -2.91326079       1.86854652       1.28146974
C       -1.68496338      -0.47831966      -3.51572098
C       -2.20380462      -0.43462410       1.63944458
C       -1.67510507      -1.67732577      -2.77150745
C       -0.95735804       3.87384226      -0.66707406
C       -3.27386157      -0.27231307      -1.83835487
C       -0.12460907      -2.82303454       3.79268396
C       -2.97662675       2.68789919      -0.84565027
C        1.16247563       2.65509222      -2.16522431
C        0.06753351       0.80199644       3.03469343
C        0.39532066      -3.23434344       1.48431449
C       -3.31937577       1.57223528      -0.05294848
C       -0.47440017       0.28724822      -3.63124088
C        2.11639561       2.12982528       0.08132081
C       -0.82606437       1.64882392      -3.37816168
