60
Properties=species:S:1:pos:R:3 input=/mnt/d/download/trae-research-code/ssw/runs/20260428-c60-mace-production/prerelaxed_c60.xyz system=c60 pbc="F F F"
C        1.26173027      -3.60148775      -0.41925638
C        1.25015081      -0.58173324      -2.59908667
C        2.68717503       2.14707730       0.93221569
C        1.91073198      -2.64610411      -1.25566927
C       -2.62774007       2.26452228       2.34694557
C        2.57459618       0.43346842      -0.69153045
C        0.51539448      -3.41345692       2.18701428
C        3.36998293      -1.24163234       1.74955263
C       -2.93851425       0.19751869      -1.75045462
C        0.23511127      -1.35693729       0.83271932
C       -0.27331595       3.29923765       2.82338614
C        1.51661559       3.42772378      -1.34952635
C       -0.12271123      -3.37181330      -0.25893727
C       -0.61095004       4.08090764      -1.75763609
C        0.23976956       2.71339123      -3.35199084
C        0.78073858      -0.06745376       1.34658308
C        1.06956779       1.56561740      -3.42670054
C       -2.47737086      -2.46515003       2.46430060
C       -3.18402260      -1.47572070       2.85662407
C        2.33347173       0.23158439      -2.08673595
C       -3.02388947       1.49658125      -1.17603933
C       -2.29389713      -1.66760449       0.21948111
C       -0.06806297      -4.33121236       3.07952275
C       -2.39689274       0.84467235       2.56670294
C       -0.52476660      -5.25267239       3.78927091
C        0.15210152       0.96980997       2.18328707
C       -3.05040802      -0.51502506       0.64493620
C        2.69529559      -2.39323491       1.39988431
C       -1.76949974      -2.49248524       1.26210301
C        2.96967757       1.77383511      -0.44176459
C       -2.33229312      -0.91746611      -2.09057138
C        0.79112963      -1.69151275      -1.67061522
C       -1.07727060       0.59865097       2.59581379
C       -1.68437292       3.30945608      -2.31880727
C        3.19547923       1.25722453       1.85899770
C       -1.77565693      -1.77371738      -1.13798810
C        1.80224103      -3.05290140       2.22429486
C       -1.55647953       3.22934285       2.55383683
C        0.54448252       2.39746696       2.14700292
C        1.40999285       2.81140287       1.05495166
C        2.34212086      -2.89973904       0.08648978
C       -0.32349173      -2.73700389       1.08534254
C        2.52167118       2.49461315      -1.58946448
C        1.51041023      -0.01096690       0.08886145
C        0.69586762      -1.00943298      -0.40626864
C       -3.29177581       0.46054686      -0.31773338
C       -4.99109670       0.40126751      -6.93143743
C        0.60280423       0.22988521      -3.52404551
C        0.85494999       3.48467231      -0.07746828
C       -2.40660854       2.76654677      -1.20423347
C        0.58958739       3.70278554      -2.37672314
C        2.23875904       1.54520602      -2.61370382
C       -1.17295018       2.64773365      -3.42584482
C       -2.22431392       3.04937360       1.29329435
C       -0.53854213      -2.50213897      -1.33009295
C        3.53012970       0.00506434       1.99317002
C       -4.59639427      -0.77929314      -7.18283609
C       -0.52076345       3.85325501      -0.35625776
C       -3.17882468      -0.29366003       2.09445483
C       -1.77882013       3.25691483       0.00227671
