60
Properties=species:S:1:pos:R:3 input=/mnt/d/download/trae-research-code/ssw/runs/20260428-c60-mace-production/prerelaxed_c60.xyz system=c60 pbc="F F F"
C        1.72360490      -4.48617608      -2.36261275
C       -1.07175373      -1.95663560      -1.71207283
C        1.80225626       1.59142649      -2.41132609
C        0.95584047      -3.65373657      -1.58685885
C       -0.02811187       3.04477021       2.29262315
C        0.87642701      -0.59398610      -2.54175901
C        3.38864681      -1.61794953       1.36366934
C        3.78942249      -1.23833048      -1.20431953
C       -3.82830774       1.06953796       1.27767825
C        0.82990424      -1.24535930       0.72507689
C        1.67685178       3.79418829       0.51031534
C       -0.92567892       2.19663963      -2.92780249
C       -0.59378351      -3.13424419       0.56119020
C       -2.54113897       3.29207715      -1.77386883
C       -2.96946767       1.12018216      -2.25098177
C        1.38771698       0.04564881       0.11089309
C       -2.33240988      -0.11629602      -2.38237445
C        0.17990996      -0.61730338       3.22633250
C        1.58568990      -0.72319741       3.21372477
C       -0.40168945      -1.23759570      -2.76902473
C       -3.36730021       2.39112505       1.53908805
C       -1.93518259      -0.90722686       2.25293821
C        2.75183716      -0.98714337       2.34373170
C        0.43171322       1.76930814       2.66002434
C        2.31739074       0.31676756       2.71563755
C        1.72813068       1.34087464       0.60714712
C       -1.78586443       0.45875532       2.63885908
C        3.31985958      -2.54178277      -1.13290124
C       -0.67990197      -1.55510549       2.56036051
C        0.92257015       0.69638296      -3.11883787
C       -2.94872512      -0.75009978      -0.06869563
C       -0.11292855      -2.84668005      -0.88161186
C        1.71441638       1.40472328       2.05961232
C       -3.46580898       2.81494833      -0.79713227
C        3.05679239       1.03094946      -2.08966253
C       -2.80464410      -1.43992812       1.22307514
C        3.64371374      -1.88223349       0.10437050
C        0.68971938       3.91028595       1.37134142
C        1.63789145       2.57144333      -0.17666350
C        1.10050474       2.47971497      -1.53283204
C        2.36427542      -3.42700820      -1.64000705
C       -0.03671828      -2.14689987       1.46102092
C       -0.42371941       1.00043753      -3.43734905
C        1.22173013      -0.63784384      -1.19196041
C        0.78551104      -1.75477435      -0.53562468
C       -2.83190069       1.29803242       2.24123241
C       -1.87287766      -3.56323211       0.85689722
C       -2.22377536      -1.09917988      -1.31701856
C       -0.25431754       2.86842638      -1.85360149
C       -2.98443038       3.21767219       0.47007645
C       -2.33105313       2.29441448      -2.74809635
C       -1.21448839      -0.17492259      -3.23108557
C       -3.64345600       1.43302138      -1.05034766
C       -0.72805388       3.73966891       1.34604787
C       -2.87309639      -2.86037898       1.17353019
C        3.70615321       0.00462492      -1.76133451
C       -3.68081611       0.47744412      -0.01097284
C       -1.29746223       3.54533073      -1.10007454
C       -0.39849428       0.66768961       3.03813496
C       -1.63589145       3.65023113       0.29388178
