60
Properties=species:S:1:pos:R:3 input=/mnt/d/download/trae-research-code/ssw/runs/20260428-c60-mace-production/prerelaxed_c60.xyz system=c60 pbc="F F F"
C        0.08616652      -2.75895744      -2.98995030
C        0.92499964       1.05490190      -3.38390560
C        3.18895507       1.03602259       0.75530852
C        0.79802985      -1.60388905      -3.47803868
C       -1.43577032       0.48569192       3.29928039
C        2.43558536       0.68720363      -1.45247911
C        0.03954839      -3.50834190      -0.19037722
C        3.18381174      -2.16612829      -0.77247541
C       -4.14221986       1.74876620       0.05704117
C       -0.19828136      -1.23397266      -0.66259813
C        1.06237727       0.91129349       3.71256892
C        1.90394187       3.48935671       0.03721062
C       -1.12898397      -2.76396701      -2.28595384
C       -0.10017527       4.32760041       0.65809315
C        0.12061712       4.04576198      -1.58257820
C        0.78172313      -0.64332065       0.29242422
C        0.77076346       3.22152540      -2.55262217
C       -2.30365504      -2.55364760       1.31149986
C       -1.35242891      -3.40642724       1.88440319
C        2.10127279       1.39491835      -2.63977679
C       -3.11772649       2.26757844       0.83048176
C       -3.20192802      -1.21632877      -0.29893181
C       -0.13973755      -3.74502513       1.22218723
C       -1.41904914      -0.78396116       2.69887408
C       -0.16801880      -2.74543765       2.22058060
C        0.84675260      -0.52946147       1.72706262
C       -3.19354664      -0.45572869       0.93556559
C        2.16128096      -2.82478663      -1.42128508
C       -2.31095334      -2.34746893      -0.06818481
C        3.14431075       1.55881546      -0.58129750
C       -4.65016432       0.23244376      -1.61668461
C        0.43761312      -0.28333399      -3.09871798
C       -0.10839080      -1.35890029       2.43292133
C       -1.40261662       4.05596199       0.12021050
C        3.62109034      -0.27256170       0.81397454
C       -3.81672031      -0.87645700      -1.55401635
C        1.26546747      -3.51913950      -0.66137385
C       -0.23100574       1.11686653       3.80820689
C        1.45681186       0.59405108       2.40448662
C        2.13901217       1.56782427       1.57518899
C        1.40847073      -2.60025293      -2.63819325
C       -0.97599384      -2.51675415      -0.80466901
C        2.67065300       2.85583064      -0.93400094
C        1.33343819       0.03979389      -0.87279707
C        0.27739399      -0.38937786      -1.69846001
C       -3.45240633       0.91506663       0.99823257
C       -2.31890506      -2.35367433      -2.85094843
C        0.18743744       2.25341759      -3.39943103
C        1.52869301       2.80907583       1.24347711
C       -2.01955556       3.12193505       1.03375789
C        0.84340891       4.31768016      -0.37931280
C        2.07115647       2.74634959      -2.22338845
C       -1.25720386       4.03305449      -1.25926320
C       -1.18813025       1.78739883       2.97458328
C       -3.34526005      -1.67355419      -2.61645046
C        3.65107544      -1.35649562       0.10129533
C       -4.85315489       1.34621679      -1.03764421
C        0.23500689       3.34104785       1.62169723
C       -2.46602937      -1.27741206       1.88783483
C       -1.01361028       2.74282711       1.98703246
