60
Properties=species:S:1:pos:R:3 input=/mnt/d/download/trae-research-code/ssw/runs/20260428-c60-mace-production/prerelaxed_c60.xyz system=c60 pbc="F F F"
C        2.17746021      -3.55916098      -0.80228160
C        1.76372339       0.05036785      -2.52793342
C        1.96811302       2.47687005       1.26769094
C        3.07610116      -2.49443238      -0.48379457
C       -2.90977181       1.22708112       2.30619157
C        2.74394319       1.17982118      -0.59162507
C        0.68797538      -3.18212355       1.44319015
C        2.94119082      -0.83253853       2.78609877
C       -3.76053852       0.16461333      -2.44352811
C        0.99559605      -1.40481763       0.24375152
C       -1.03793847       2.11542315       3.17809155
C        0.50243913       3.69154051      -0.89711239
C        0.83748008      -3.23913091      -1.17589341
C       -1.70694247       3.82079526      -1.40192502
C       -0.43769968       2.78072967      -2.93141431
C        0.98453510      -0.17623977       0.89626607
C        0.69131622       1.98819892      -3.03829855
C       -1.66497792      -3.23895394       1.12653687
C       -2.41410675      -2.25658717       1.78126854
C        2.53410204       1.12990188      -2.00377711
C       -3.95869871       1.06783087      -1.34248865
C       -1.64924283      -1.76368949      -0.93850256
C       -0.54381515      -3.13101274       2.12348175
C       -2.41188912      -0.07001333       1.98643335
C       -1.22329068      -1.92686958       2.51369014
C        0.08392945       0.33089259       1.95458032
C       -2.81745556      -1.09355713      -0.32986892
C        2.62625239      -2.00289307       2.44380576
C       -1.10914177      -2.70974446      -0.06673886
C        2.41594469       2.45928318      -0.09326449
C       -0.69041916      -0.09587429      -2.82938777
C        1.72182647      -1.19754733      -1.93242190
C       -1.05198605      -0.51037324       2.32018997
C       -2.55076077       2.88245267      -2.09449371
C        2.59070060       1.61486407       2.20091663
C       -0.69673265      -1.36863857      -2.06253628
C        2.08973667      -3.09615228       1.76430943
C       -2.26416380       1.94667335       3.41518681
C       -0.05505884       1.74394136       2.27195640
C        0.55280164       2.69824842       1.36102480
C        2.73726517      -3.42484418       0.51108336
C        0.31706431      -2.72505001       0.09373137
C        1.75366867       3.13729089      -1.15675019
C        2.24610126       0.08352412       0.12204101
C        2.25994511      -1.25196364      -0.51780303
C       -3.63925483      -0.23849312      -1.07235801
C       -1.82897594       0.71781179      -3.25012336
C        0.55473285       0.57256507      -3.00899931
C       -0.19725061       3.35778175       0.30449475
C       -3.38889462       2.31077096      -1.12015495
C       -0.42444152       3.82320802      -1.97178430
C        1.87674472       2.34991837      -2.34578661
C       -1.71643188       2.13926699      -2.96947915
C       -3.27662031       1.94978676       1.25102038
C        0.60704907      -2.07486532      -2.05000928
C        2.94462849       0.51700653       2.70630216
C       -3.06807501       0.13873635      -3.57368668
C       -1.62005015       3.44166669      -0.03466152
C       -2.93721172      -1.11465266       1.12151577
C       -2.83360020       2.63248765       0.19904016
