60
Properties=species:S:1:pos:R:3 input=/mnt/d/download/trae-research-code/ssw/runs/20260428-c60-mace-production/prerelaxed_c60.xyz system=c60 pbc="F F F"
C        1.23303238      -3.32134200      -1.54028479
C        1.96752239       0.22096400      -2.99896724
C        2.63297793       1.97538373       1.32890694
C        2.02667621      -2.28265170      -2.12522454
C       -2.39862191       1.57987066       2.67982848
C        2.70896392       0.81024144      -0.70994134
C        0.38593088      -3.10939829       1.32356210
C        3.34814032      -1.48856946       1.12241276
C       -3.80576780       0.48488489      -1.76433772
C        0.12243823      -1.21908301      -0.07190884
C       -0.34353459       2.25231356       3.40742671
C        1.40671245       3.70699607      -0.59181701
C       -0.16640535      -3.20017237      -1.28816144
C       -0.77301707       4.13532276      -0.96270081
C        0.31218982       3.34538629      -2.78608919
C        0.69230419      -0.20665021       0.83842637
C        1.36692526       2.45720578      -3.14348252
C       -1.97442892      -3.15968704       1.75078528
C       -2.43549899      -2.01412222       2.41696812
C        2.76370571       1.01613458      -2.11402826
C       -3.29445833       1.51257640      -0.99208760
C       -2.64162189      -2.01005721      -0.34193500
C       -0.63028445      -3.03243851       2.35794475
C       -2.19134377       0.17908819       2.49162790
C       -1.09935779      -1.78580924       2.87662567
C        0.27035012       0.30599202       2.11040420
C       -3.18915432      -0.87853749       0.37179183
C        2.64863845      -2.53169479       0.55390111
C       -1.79230485      -2.80983278       0.41852750
C        3.00051664       2.03815429      -0.05587696
C       -3.23441510      -1.63386121      -2.74426833
C        1.48725376      -0.99910673      -2.38322885
C       -0.86580969      -0.38507088       2.69779338
C       -1.72104339       3.39898099      -1.75037606
C        3.13732007       0.85964882       1.96927961
C       -2.35611533      -2.18312339      -1.78269706
C        1.69891379      -3.12192551       1.37261445
C       -1.57300544       2.26511064       3.68657820
C        0.51504311       1.68535630       2.47026405
C        1.31558096       2.48799602       1.56507013
C        2.30771678      -2.83304966      -0.81686717
C       -0.36189527      -2.62892888       0.10196188
C        2.55485040       3.02793494      -0.98354761
C        1.52707603       0.18734378      -0.28435442
C        0.83254714      -0.66561308      -1.17148065
C       -3.52978369       0.25817263      -0.39910231
C       -4.02351687      -1.31616221      -3.83394890
C        1.21478196       1.17252033      -3.70760392
C        0.70064628       3.34897273       0.60687437
C       -2.52604515       2.66745304      -0.81639976
C        0.48346922       4.09641479      -1.58285097
C        2.48211851       2.39308300      -2.26272539
C       -1.06711076       3.05425501      -2.92352575
C       -2.52054673       2.25142305       1.54619072
C       -1.19523754      -2.88656977      -2.10304096
C        3.47503334      -0.37146014       1.73886574
C       -3.90573762      -0.39045955      -2.79785205
C       -0.70268415       3.62148429       0.34830237
C       -2.95155717      -0.83846084       1.79801476
C       -1.95211706       2.86831106       0.51475385
