60
Properties=species:S:1:pos:R:3 input=/mnt/d/download/trae-research-code/ssw/runs/20260428-c60-mace-production/prerelaxed_c60.xyz system=c60 pbc="F F F"
C        1.92091108      -3.00127047      -1.47341267
C        2.10102216       0.66025185      -2.83902290
C        2.11554814       2.49721346       1.47946693
C        2.49309831      -1.85621496      -2.09354643
C       -2.73924575       1.00670540       1.92475982
C        2.60295009       1.36042043      -0.49700693
C        1.04029626      -2.71876827       1.59120643
C        3.08400904      -1.01168661       1.60412870
C       -3.59166549      -0.08839052      -1.55682184
C        0.43372546      -1.11472772       0.02071858
C       -1.20203004       2.34512692       2.97179282
C        0.74790377       3.90786221      -0.57914664
C        0.55460537      -3.16524638      -1.10896549
C       -1.41893666       3.93911675      -1.23197309
C        0.03224084       3.56605674      -2.93313478
C        0.68147721       0.02419082       0.92050609
C        1.22240297       2.79600405      -3.11211424
C       -1.19666260      -3.35367740       1.98992638
C       -2.02402417      -2.42745556       2.63814375
C        2.69341753       1.56570161      -1.90065299
C       -3.51584284       1.14634620      -2.14790640
C       -2.10503171      -2.52685002      -0.15851973
C        0.04691316      -2.85418073       2.59815107
C       -2.25625270      -0.23409246       2.37864994
C       -0.79782703      -1.81777829       3.11105928
C        0.10962395       0.43370135       2.17266264
C       -2.89363190      -1.49135136       0.46596919
C        3.11375312      -1.88007538       0.48943971
C       -1.08995873      -3.04590152       0.64300558
C        2.60654451       2.62639572       0.14974812
C       -2.93710916      -2.41299881      -2.38330418
C        1.79526183      -0.64109497      -2.26827430
C       -0.89364887      -0.43520116       2.76616595
C       -2.12863168       3.27292839      -2.27206128
C        2.72870966       1.43212876       2.16918083
C       -1.82943828      -2.75492265      -1.57017698
C        2.32080959      -2.19910078       1.61565883
C       -2.41893659       2.12239768       2.73767002
C       -0.00896459       1.84335813       2.44330872
C        0.70834988       2.70507581       1.55114423
C        2.93733560      -2.31157110      -0.79090658
C        0.27943199      -2.58348161       0.30374483
C        2.06022587       3.51659599      -0.83221177
C        1.54019503       0.52019768      -0.13448366
C        1.09807753      -0.46281214      -1.04588190
C       -3.19191148      -0.20990751      -0.17192814
C       -4.06182384      -2.30566799      -3.19900017
C        1.29780850       1.49383654      -3.64186343
C       -0.00964573       3.30692829       0.47662007
C       -2.87031385       2.20917866      -1.61882691
C       -0.10679534       4.19286655      -1.65910109
C        2.22388783       2.88168361      -2.09964343
C       -1.27114617       3.18783127      -3.35952898
C       -2.88069498       1.02214864       0.53048539
C       -0.55063149      -3.16635795      -1.89507505
C        3.15314417       0.25229157       2.12023815
C       -3.75112885      -1.29352705      -2.29535990
C       -1.41177740       3.18115521      -0.02017613
C       -2.75097716      -1.45588013       1.88920539
C       -2.44206595       2.16560650      -0.22772163
