60
Properties=species:S:1:pos:R:3 input=/mnt/d/download/trae-research-code/ssw/runs/20260428-c60-mace-production/prerelaxed_c60.xyz system=c60 pbc="F F F"
C        0.28813415      -0.90532657      -4.18230656
C        2.66914604       1.32167013      -2.14170930
C        2.23920114      -1.43948071       1.65875241
C        1.63925871      -0.44549030      -3.86329428
C       -2.91088717      -0.36536588       2.76336810
C        2.72491292      -0.41194029      -0.38537547
C       -1.76029986      -2.40539230      -2.55882368
C        1.71362849      -3.10806885      -1.55478493
C       -2.98664842       3.67747088       0.57240144
C       -0.35562266      -0.70203000      -1.56536883
C       -0.85914429      -1.71730946       3.46335589
C        2.27440380       1.39125159       2.21404278
C       -0.92430105      -0.27695016      -3.78839970
C        0.59320618       2.78179377       2.74066805
C        1.43889112       3.06393581       0.64661302
C        0.01397867      -1.03792197      -0.18171978
C        2.38720076       2.64813131      -0.31823546
C       -3.22307055      -0.87095379      -0.81221788
C        0.14114042      -3.76721953      -3.42031487
C        3.32017057       0.73271680      -1.00075450
C       -2.86031863       2.94217762       1.81961778
C       -2.47437526       1.24485264      -1.18452642
C       -2.27089172      -2.93178587      -1.41336070
C       -3.02811580      -0.78639117       1.44044365
C       -2.65833192      -2.11681603      -0.41985102
C       -0.68176990      -1.52201470       0.99198608
C       -3.34164141       1.25357593      -0.03698844
C        1.24084857      -2.98535923      -2.82837283
C       -2.53557638      -0.09829112      -1.74252114
C        3.07634093      -0.47885233       0.98649768
C       -1.04789989       3.30600931      -0.52712490
C        1.73598307       0.43458173      -2.76840771
C       -2.10137030      -1.74418539       0.86952420
C       -0.45437528       3.27260649       1.91288983
C        2.04273266      -2.60117413       0.90902621
C       -1.49441854       2.25596947      -1.52251550
C       -1.03184527      -3.31712123      -3.35453962
C       -1.87946058      -0.91390187       3.64570998
C       -0.09449287      -1.48491402       2.32500344
C        1.20230377      -0.82140644       2.43412191
C        1.18417661      -1.80099872      -3.63895913
C       -1.47497332      -0.87873837      -2.52790780
C        3.20445197       0.89916182       1.31847888
C        1.33123561      -0.43690193      -0.55123921
C        0.84382658       0.01178079      -1.77023911
C       -3.54236420       2.36581433       0.77064662
C       -0.94052631       1.11182832      -3.68563876
C        2.27487044       2.59214865      -1.71253954
C        1.25215563       0.56611542       2.78806703
C       -1.63686725       2.69551185       2.42951163
C        1.74606346       2.68231992       1.97484869
C        3.31430179       1.63403257       0.08951855
C       -0.01650839       3.30947630       0.55902966
C       -2.10425155       0.49026011       3.47006610
C       -1.07841653       2.03394721      -2.84355438
C        1.98387556      -3.10549277      -0.28998315
C       -2.12279039       4.17244420      -0.29465164
C        0.19910096       1.48783857       3.20945440
C       -3.57972785      -0.10123810       0.31924778
C       -1.23899064       1.54112832       3.20303210
