60
Properties=species:S:1:pos:R:3 input=/mnt/d/download/trae-research-code/ssw/runs/20260428-c60-mace-production/prerelaxed_c60.xyz system=c60 pbc="F F F"
C        1.64465392      -3.41520237       0.00033691
C        0.11641072      -1.12358445      -2.69279943
C        2.46029586       2.65252521      -1.18410082
C        1.66457902      -2.75708628      -1.28922624
C       -1.50456299       2.99851970       2.50982118
C        1.95831523       0.47358973      -2.04099595
C        0.55627488      -4.25319697       2.74273379
C        4.04000986      -0.31772955       0.03757118
C       -3.81723445       0.14775638      -0.16672151
C        0.70262355      -0.57930870       0.87908989
C        0.57585375       4.31213112       1.56296913
C        0.19970476       3.14334038      -2.84879128
C        0.30680472      -3.28405600       0.50678679
C       -1.94347155       3.66973381      -2.34335687
C       -1.73165546       1.80102517      -3.62421544
C        1.29004787       0.72560119       0.59156589
C       -0.85800012       0.68576678      -3.76848402
C       -0.90204926      -1.82594835       3.64439010
C       -1.13419380      -0.60013281       3.91957316
C        1.13344676      -0.14852401      -3.03281576
C       -3.43328769       1.46376655       0.01088605
C       -1.69228561      -1.55165140       1.38215848
C        1.49427217      -5.29331033       2.57849905
C       -0.94591060       1.69578570       2.87746299
C        2.30406788      -6.29164410       2.60976429
C        1.07528482       1.94733244       1.32947182
C       -2.13823081      -0.23177150       1.78084785
C        3.55880671      -1.47954029      -0.04116630
C       -0.94843657      -2.33699465       2.32975017
C        2.14951301       1.85660900      -2.34706899
C       -2.97882833      -2.03833722      -0.69905787
C        0.37184681      -1.94479503      -1.42696756
C        0.29669788       1.66108134       2.39403973
C       -3.04246393       2.78804409      -2.06239365
C        3.47521954       2.09544813      -0.38995782
C       -1.79290311      -2.11365472       0.03956461
C        0.83240182      -4.75402253       3.97014096
C       -0.64509495       4.06073381       1.98911520
C        1.15222843       3.30956843       0.78673720
C        1.32628369       3.35939892      -0.65335898
C        2.68980270      -2.45834858      -0.34013814
C       -0.09649166      -3.37164977       1.85413034
C        1.10254514       2.16730686      -3.26177612
C        1.45013951       0.25583289      -0.76361594
C        0.69487710      -0.90090463      -0.47178552
C       -2.98356137       0.48895730       0.92178205
C       -4.13787568      -2.27217660      -1.43381811
C       -1.04912964      -0.63104283      -3.26413924
C        0.20562267       3.62958900      -1.49854764
C       -3.08512723       2.65704923      -0.63492650
C       -1.12825578       3.06456602      -3.31311708
C        0.54109512       0.94330492      -3.71809147
C       -2.99600285       1.75970760      -2.99474937
C       -1.76912249       3.54246174       1.27337010
C       -0.55145620      -2.64764565      -0.43131746
C        4.05014341       1.00381889      -0.08401036
C       -3.98179236      -1.03846335      -0.80594820
C       -1.18127660       3.89693097      -1.15893368
C       -1.54896366       0.35544041       2.99086384
C       -2.02216454       3.45375973      -0.08310117
