60
Properties=species:S:1:pos:R:3 system=runs/20260728-safe-lbfgs-strict-quench-200-production/output-c60-seed42 state_id=intermediate_accepted pbc="F F F"
C       -0.13053933      -2.83542750       0.10878940
C        3.23738688      -0.09186073       1.93729829
C       -1.04161487      -0.32967978       4.92064504
C       -1.73211781       1.99922709      -3.14631632
C       -3.39375641       0.19943382      -2.69060822
C        2.12272820       0.59811622       3.48152546
C       -1.47948539      -2.42979101       0.36333750
C       -0.39554299      -2.35881640       2.39828856
C       -0.84285640       3.65753244      -0.28083231
C       -0.37578588       2.27240639      -3.48037919
C       -3.47944203       1.53863744      -0.54851802
C       -0.59651256       2.26191629       1.57503374
C        0.68118192      -2.51417778      -1.05346702
C       -0.85979007       3.61284931      -1.68697449
C        1.45725470       2.55293588       0.38043358
C       -2.45121787      -0.95804412       2.07487334
C        1.69044566       1.89573405       1.64755734
C        0.16257217      -0.07037277      -3.72580412
C       -1.19112053      -0.37790354      -3.40294568
C        1.77966429      -2.47901816       1.69932073
C        1.77604206       1.66554736      -3.16950289
C        2.28757770      -0.67976416      -2.69378456
C       -3.60563694      -1.17536970      -2.32479780
C       -2.48472979      -2.00177728      -0.51806344
C       -3.49699955      -1.14665173      -0.01769240
C       -3.12055640      -0.26839418       1.07814000
C        2.60929724       0.71069363      -2.61079717
C       -1.61668275      -1.98966239       1.76194576
C        0.98762092      -1.04483558      -3.08518158
C        0.70190068       0.77959186       3.45153656
C        3.18608294      -0.18584202      -0.60545360
C        2.52058136      -2.01503256       0.61423777
C       -4.29057876      -0.72744981      -1.11045029
C        0.19097296       3.14936105      -2.49058593
C       -0.05428144      -0.34905980       3.94669694
C        2.74743895      -1.23384757      -1.49060557
C       -2.41974254      -1.88440617      -1.92900847
C       -4.01812716       0.63289909      -1.47005006
C       -2.97322501       1.13227829       0.73030562
C       -1.87091571      -0.34018200       5.85992154
C        0.46736473      -2.90982438       1.40843716
C        0.16182293      -1.93033093      -2.28014741
C        0.46560475       1.65894501       2.34438603
C        2.62668352      -0.67954013       3.10506519
C        3.17070838      -0.74053939       0.70188672
C        2.88426202       1.06420505      -1.23036899
C       -2.12298500       3.20653176       0.17331347
C        2.73761799       1.21089235       2.29751353
C       -2.00985891       2.17434090       1.17046574
C        0.57172452       1.27887656      -3.83589166
C        0.09964966       3.02443919       0.54278029
C        1.73630428      -1.73825292       2.91812950
C        1.47721881       2.65501064      -2.15960060
C       -2.17666254       0.64081939      -3.24726323
C        2.06738401      -2.22712849      -0.74573933
C        0.37383009      -1.57074648       3.30535940
C        2.06452090       2.24529413      -0.90044802
C       -2.86914221       2.74638367      -0.94587563
C       -1.22161834      -1.57711199      -2.60485208
C       -2.08139453       2.93615820      -2.10700682
