10
Properties=species:S:1:pos:R:3 pbc="F F F"
C        0.31943826      -1.32142754       0.80357787
C       -0.57248157      -0.34405369       0.69492221
C       -0.40000066       0.86884802      -0.11885453
C        0.35838232       0.95564950      -1.20509040
H        0.12229290      -2.19362717       1.41149065
H        1.27781062      -1.27500921       0.30041999
H       -1.50156760      -0.41965919       1.25061640
H       -0.95372607       1.74462930       0.20380211
H        0.89975891       0.09990607      -1.59033276
H        0.45009289       1.88474390      -1.75055151
