10
Properties=species:S:1:pos:R:3 pbc="F F F"
C        0.49014970      -0.79295795       0.28506865
C       -0.69209138      -0.07739907       0.90091263
C       -0.74994956       0.85558088      -0.04670689
C        0.42233836       0.30054371      -0.82558901
H        0.29928179      -1.80857244      -0.06396260
H        1.40745318      -0.78595520       0.87520259
H       -1.27332306      -0.26757197       1.79380911
H       -1.39583235       1.70795308      -0.21271131
H        0.19190350      -0.07712058      -1.82259559
H        1.30006984       0.94549953      -0.88342754
