10
Properties=species:S:1:pos:R:3 pbc="F F F"
C        0.32208068      -1.31127317       0.79781426
C       -0.57924381      -0.34259121       0.69417664
C       -0.40189932       0.87205709      -0.11298458
C        0.35643939       0.94511138      -1.19974893
H        0.13202373      -2.19319512       1.39501517
H        1.28228795      -1.24374607       0.29743511
H       -1.51307345      -0.42795927       1.24229815
H       -0.94477010       1.75431317       0.21363294
H        0.88234652       0.07562321      -1.57967795
H        0.46380841       1.87165997      -1.74796078
