10
Properties=species:S:1:pos:R:3 pbc="F F F"
C        0.42212972      -0.96556272       0.50819148
C       -0.74539687      -0.22523001       0.75178959
C       -0.55681770       0.92795634       0.01958895
C        0.35998304       0.54350385      -0.97148299
H        0.44833341      -2.05804571       0.45726461
H        1.37859477      -0.48940621       0.70549387
H       -1.62741726      -0.56580714       1.28933335
H       -0.91302946       1.93673235       0.21552314
H        0.11314396      -0.31559487      -1.58913878
H        1.12047641       1.21145411      -1.38656321
