10
Properties=species:S:1:pos:R:3 pbc="F F F"
C        0.33813023      -1.25261059       0.76910818
C       -0.61549327      -0.33575164       0.68840677
C       -0.41013532       0.88922213      -0.08086652
C        0.34209523       0.88553335      -1.17204788
H        0.18817314      -2.18835968       1.29926648
H        1.30447740      -1.06404426       0.29288683
H       -1.57763772      -0.47801853       1.18403736
H       -0.88390774       1.80637004       0.27408584
H        0.77235146      -0.05669882      -1.52311658
H        0.54194658       1.79435797      -1.73176045
