10
Properties=species:S:1:pos:R:3 pbc="F F F"
C        0.33813616      -1.25260524       0.76911741
C       -0.61549104      -0.33575064       0.68840859
C       -0.41012986       0.88922631      -0.08086059
C        0.34209553       0.88553209      -1.17204565
H        0.18817253      -2.18835954       1.29926085
H        1.30448176      -1.06403901       0.29289340
H       -1.57764560      -0.47802902       1.18402170
H       -0.88390259       1.80637486       0.27409003
H        0.77233336      -0.05670808      -1.52312440
H        0.54194976       1.79435825      -1.73176131
