60
Properties=species:S:1:pos:R:3 trajectory=trial0001_proposal001_step004_proposal_relax trajectory_step=0 pbc="F F F"
C       -2.60305207      -2.29589574       0.77620704
C        2.21059737      -2.78637123      -0.13170300
C        1.32953247       0.09510478       2.64091284
C       -0.93643088       3.21014211      -1.82636079
C       -2.94827227       3.09887717      -0.35484709
C        2.61648539      -1.94398472       1.74174575
C       -2.99671457      -0.98789443       1.60049352
C       -1.44529966      -2.16377608       1.88702844
C        2.05013602       2.82144367      -0.61549864
C       -0.33586626       2.67628054      -3.03137969
C       -0.87216407       3.14441504       1.21058554
C        3.14039596       1.68176639       1.03823807
C       -1.89377810      -1.91316059      -0.42330000
C        1.32922517       3.22816209      -1.66943281
C        2.77242389       0.42528750      -0.94013147
C       -1.10981040      -0.11259696       2.76618205
C        3.21357931      -0.37522412       0.12975982
C       -1.74827509       0.72649979      -2.62061727
C       -2.43629415       1.31421856      -1.55504059
C       -0.49200584      -3.94381220       0.93797108
C        0.33026227       0.57448778      -3.71763177
C       -0.83987180      -1.56032852      -3.31410680
C       -3.96386641       2.27429457       0.28101763
C       -3.44228115       0.38170096       1.45624659
C       -2.72549872       1.45981836       1.96406313
C       -1.44660952       1.21824858       2.46390855
C        0.41118769      -0.84724702      -3.58674465
C       -2.07261375      -1.08541528       2.57471208
C       -1.72523344      -0.66580584      -2.50558067
C        2.56510199      -0.56417675       2.33199998
C        0.98421304      -2.56324458      -2.31623688
C       -0.07346742      -3.62389451      -0.40201724
C       -3.36347597       2.67419036       1.54179074
C        1.12622968       2.56984922      -2.91408875
C        0.15962808      -0.64337370       2.31635578
C       -0.43194081      -2.57356873      -2.42451982
C       -4.06024089       0.81815638       0.24991781
C       -2.28019825       3.38500397       0.89327001
C       -0.36057311       2.15302295       2.18403736
C        1.00845578       1.54726355       2.29045853
C       -1.86448940      -3.50543405       1.43548026
C       -2.36897744      -0.85067954      -1.18780805
C        3.25887364       0.33502913       1.36951148
C        1.86421822      -3.09610607       1.30015851
C        1.24432682      -3.19935361      -1.06392402
C        1.56077138      -1.26155415      -2.77269542
C        1.49196785       3.26606275       0.62145644
C        3.04072283      -1.74103763       0.38255498
C        1.99590738       2.36756311       1.62012908
C       -0.83513099       1.42091067      -3.54534182
C        2.84329566       1.72886010      -0.42452329
C        0.48756503      -2.99902785       1.43901640
C        1.42388740       1.14089625      -3.02176808
C       -2.25127591       2.72579573      -1.44741239
C       -0.92681690      -2.72796681      -1.03527425
C       -0.15856116      -1.69154633       1.33125981
C        2.08303231       0.10321246      -2.21571263
C        0.17283865       3.78464887       0.45289301
C       -3.16662528       0.32526878      -0.76023925
C        0.10142399       3.68627734      -0.99721576
60
Properties=species:S:1:pos:R:3 trajectory=trial0001_proposal001_step004_proposal_relax trajectory_step=1 pbc="F F F"
C       -2.59188243      -2.28711802       0.76812869
C        2.20477717      -2.79912506      -0.13350517
C        1.32203382       0.09415182       2.63030836
C       -0.93842325       3.21129581      -1.83493613
C       -2.96664293       3.10808052      -0.32679814
C        2.63601806      -1.92521812       1.74600041
C       -3.02486778      -0.97506947       1.59466624
C       -1.43897272      -2.18092391       1.88128078
C        2.05869682       2.82284375      -0.60044327
C       -0.33784342       2.66878286      -3.03720057
C       -0.86008760       3.16108904       1.21711474
C        3.12341619       1.69514299       1.04037870
C       -1.91291621      -1.92717539      -0.43302318
C        1.31393114       3.24009794      -1.67940577
C        2.76630878       0.42456480      -0.95754761
C       -1.09310274      -0.09501803       2.76511290
C        3.21328781      -0.38569920       0.13501047
C       -1.72409516       0.72260521      -2.63800775
C       -2.43985382       1.31583849      -1.55619867
C       -0.48787206      -3.93944178       0.93346475
C        0.33233797       0.56137313      -3.71261457
C       -0.85065430      -1.53556289      -3.29274665
C       -3.97879297       2.28350760       0.28258680
C       -3.45169692       0.36683823       1.44706641
C       -2.73281212       1.45347811       1.98034571
C       -1.42929225       1.23470708       2.46264804
C        0.40522755      -0.83231987      -3.59652620
C       -2.06201090      -1.09979365       2.57682148
C       -1.72924063      -0.66607516      -2.50600323
C        2.56762398      -0.55883414       2.33694253
C        1.00022748      -2.56709711      -2.30401113
C       -0.06857083      -3.61813356      -0.41099232
C       -3.34657363       2.67131998       1.54208966
C        1.11980596       2.57046478      -2.89456591
C        0.15763661      -0.63804821       2.31465239
C       -0.43336511      -2.57788791      -2.41689518
C       -4.05326508       0.81743434       0.23866084
C       -2.27880910       3.38700152       0.89049076
C       -0.38233062       2.13330710       2.17716178
C        1.01957510       1.56339421       2.29401773
C       -1.85956529      -3.49255841       1.43886135
C       -2.37495526      -0.87012187      -1.18551480
C        3.26505508       0.31053494       1.37346857
C        1.86534312      -3.09085453       1.29955628
C        1.24678531      -3.20067723      -1.05353060
C        1.53546279      -1.25813282      -2.78232253
C        1.50105651       3.26047025       0.63718471
C        3.03528221      -1.73393772       0.38044096
C        1.99610002       2.36129616       1.62200451
C       -0.84119515       1.41158842      -3.51889657
C        2.85987470       1.72430442      -0.40406414
C        0.47405558      -2.99657326       1.42803965
C        1.42535090       1.14165351      -3.02210754
C       -2.23572974       2.70309090      -1.45412434
C       -0.93120094      -2.73376073      -1.05455506
C       -0.14284003      -1.69787358       1.35441001
C        2.08389612       0.09377678      -2.21213598
C        0.17781460       3.77329604       0.43331731
C       -3.15514699       0.34276566      -0.78251846
C        0.08820022       3.69321772      -1.01283264
60
Properties=species:S:1:pos:R:3 trajectory=trial0001_proposal001_step004_proposal_relax trajectory_step=2 pbc="F F F"
C       -2.58230692      -2.27544852       0.76208744
C        2.20665731      -2.80965781      -0.12333108
C        1.31943820       0.09952309       2.61522363
C       -0.94865801       3.20977243      -1.85099052
C       -2.97462361       3.11378919      -0.32574106
C        2.65482108      -1.91337064       1.74891488
C       -3.04152763      -0.97543281       1.60208250
C       -1.42897048      -2.18607018       1.87901609
C        2.06133277       2.83088571      -0.59616211
C       -0.34183851       2.66138683      -3.04287496
C       -0.84914679       3.18397221       1.22292571
C        3.11396578       1.68078364       1.05125996
C       -1.93325941      -1.95300648      -0.45026663
C        1.31037721       3.25228087      -1.66470277
C        2.76625361       0.42020231      -0.96259094
C       -1.08259240      -0.08742549       2.76117538
C        3.21069818      -0.38797563       0.12905873
C       -1.70910985       0.71600896      -2.63880525
C       -2.43283127       1.31252590      -1.57174409
C       -0.48507307      -3.93667929       0.92167071
C        0.33343639       0.56248899      -3.70685516
C       -0.85662081      -1.51315530      -3.26037351
C       -4.00193869       2.28969743       0.29279762
C       -3.46368040       0.36287348       1.43613128
C       -2.74281375       1.44354846       1.99997065
C       -1.42552765       1.24317688       2.46072655
C        0.39033205      -0.82713994      -3.60667201
C       -2.05420609      -1.10604475       2.56691197
C       -1.73546127      -0.66710466      -2.50196822
C        2.57044666      -0.55240940       2.34681147
C        1.01127919      -2.56806727      -2.29549728
C       -0.06475583      -3.61081570      -0.42109249
C       -3.32715848       2.66288054       1.54227632
C        1.10754199       2.56224426      -2.87825009
C        0.15968390      -0.62975535       2.31012463
C       -0.43106786      -2.57530183      -2.41668693
C       -4.04254724       0.82207932       0.21945514
C       -2.26856203       3.39176944       0.89434980
C       -0.38993642       2.12634386       2.15977615
C        1.02464684       1.57597035       2.30467450
C       -1.85411932      -3.48259937       1.43886015
C       -2.38738271      -0.88017716      -1.19409159
C        3.27230888       0.30563878       1.37623432
C        1.86760899      -3.07665968       1.30115788
C        1.24680065      -3.20405080      -1.04456266
C        1.50589426      -1.25577120      -2.79070926
C        1.50638950       3.25905467       0.64559823
C        3.02313258      -1.73782333       0.37774770
C        1.99354216       2.35745245       1.63153957
C       -0.83391684       1.39692016      -3.49174047
C        2.87400577       1.72289802      -0.38686137
C        0.47244631      -2.99224897       1.41313124
C        1.42792263       1.14141473      -3.02071177
C       -2.23174551       2.68752910      -1.43295457
C       -0.94021957      -2.74431580      -1.07319328
C       -0.12692041      -1.70682900       1.38272024
C        2.08016040       0.08346812      -2.21364950
C        0.18504120       3.75548697       0.41329230
C       -3.14382096       0.35737080      -0.80544582
C        0.07674886       3.70418091      -1.03096796
60
Properties=species:S:1:pos:R:3 trajectory=trial0001_proposal001_step004_proposal_relax trajectory_step=3 pbc="F F F"
C       -2.57642751      -2.26582851       0.76304511
C        2.21040903      -2.83112854      -0.10782088
C        1.32673906       0.11843523       2.59213507
C       -0.97355259       3.21241447      -1.87021468
C       -2.99101393       3.12109402      -0.30600705
C        2.67294556      -1.90577900       1.75929545
C       -3.05700619      -0.98884550       1.61203262
C       -1.40577867      -2.17413283       1.87939538
C        2.08680262       2.82875111      -0.57110008
C       -0.35160804       2.65263458      -3.04390197
C       -0.83679020       3.21699694       1.22710781
C        3.10141143       1.66041187       1.07321695
C       -1.96839982      -1.98382615      -0.49183678
C        1.29944040       3.26211164      -1.66605143
C        2.77001147       0.41791725      -0.95807935
C       -1.08412889      -0.08825974       2.74957959
C        3.20400623      -0.40007829       0.12362020
C       -1.70126519       0.70201281      -2.61885026
C       -2.41663992       1.31407202      -1.59392524
C       -0.48109270      -3.93337733       0.89536267
C        0.33542655       0.56863034      -3.70379965
C       -0.85514333      -1.49621342      -3.21545275
C       -4.02198392       2.30868571       0.30619063
C       -3.48054987       0.36092662       1.42332598
C       -2.76379637       1.43266304       2.02070207
C       -1.43620190       1.23502113       2.45787513
C        0.35797628      -0.82388844      -3.61878884
C       -2.03986936      -1.09167023       2.54748057
C       -1.75305154      -0.66990538      -2.48283278
C        2.58433345      -0.54148100       2.35793992
C        1.00998624      -2.56343072      -2.29423504
C       -0.06219516      -3.60217497      -0.43542188
C       -3.29549930       2.64657793       1.53499979
C        1.09457104       2.55277112      -2.84026319
C        0.17128047      -0.61544401       2.29727511
C       -0.42267129      -2.56980359      -2.42039155
C       -4.02058684       0.83689941       0.18969939
C       -2.26185696       3.39752426       0.89647525
C       -0.37943718       2.13951322       2.12739524
C        1.01490503       1.58451346       2.32928575
C       -1.84585152      -3.47617396       1.42877701
C       -2.41197496      -0.89238777      -1.21487346
C        3.28360441       0.29023765       1.38188980
C        1.87446043      -3.05307288       1.31433223
C        1.24906130      -3.20655341      -1.03711338
C        1.47400233      -1.25326185      -2.79403421
C        1.51276212       3.25761643       0.64529993
C        3.01286231      -1.72664077       0.37376669
C        1.99795318       2.36007222       1.64661868
C       -0.80583733       1.37530067      -3.46513717
C        2.87722605       1.73192884      -0.37786547
C        0.48922574      -2.98881642       1.38921685
C        1.43389331       1.13790555      -3.01211498
C       -2.21777438       2.66552374      -1.40666165
C       -0.95934405      -2.77032412      -1.09671148
C       -0.11219240      -1.71727965       1.41786325
C        2.06726977       0.06951701      -2.22173958
C        0.18657813       3.73170175       0.39135395
C       -3.13540909       0.35795044      -0.82784825
C        0.06636004       3.72172857      -1.05127155
60
Properties=species:S:1:pos:R:3 trajectory=trial0001_proposal001_step004_proposal_relax trajectory_step=4 pbc="F F F"
C       -2.57708985      -2.26916189       0.75962118
C        2.21873478      -2.82951151      -0.10330404
C        1.33004674       0.12360699       2.58994149
C       -0.97682218       3.21973767      -1.86808034
C       -2.98456564       3.12151351      -0.31575913
C        2.67316340      -1.90568489       1.76181224
C       -3.05719838      -0.99188122       1.61076863
C       -1.40257715      -2.16981154       1.87730675
C        2.07364987       2.84767400      -0.58862033
C       -0.35265161       2.65229162      -3.03950321
C       -0.83977468       3.21925496       1.22461958
C        3.10251967       1.65406420       1.07605945
C       -1.97901564      -1.99180853      -0.49248975
C        1.31315499       3.25805180      -1.64426860
C        2.76967609       0.41910970      -0.95582751
C       -1.08131799      -0.08413267       2.74294913
C        3.20257769      -0.38959585       0.12164788
C       -1.69410744       0.70188318      -2.61871074
C       -2.41857990       1.31136420      -1.58410204
C       -0.47709119      -3.93075147       0.88922273
C        0.34114688       0.56624945      -3.70742912
C       -0.85917259      -1.49823771      -3.21293938
C       -4.02222054       2.30909492       0.30693930
C       -3.48554680       0.35808700       1.42103829
C       -2.76575176       1.42768351       2.01980433
C       -1.43485221       1.24100249       2.45097066
C        0.35583439      -0.82361288      -3.61693071
C       -2.04338739      -1.08676668       2.53804912
C       -1.75586628      -0.67442010      -2.47972640
C        2.59043599      -0.54094315       2.36154626
C        1.00581309      -2.56112651      -2.29548844
C       -0.06325972      -3.60373017      -0.43974107
C       -3.29351844       2.64497411       1.53332190
C        1.09120339       2.54280155      -2.83976438
C        0.17802966      -0.61031892       2.29234194
C       -0.42302902      -2.57412867      -2.41867655
C       -4.01377380       0.84270642       0.19024745
C       -2.25836775       3.40163575       0.90186795
C       -0.38653154       2.13702420       2.12911136
C        1.01552628       1.59098417       2.33067314
C       -1.84113699      -3.47191191       1.42323244
C       -2.42534627      -0.89606166      -1.21818131
C        3.28695144       0.29343979       1.38151482
C        1.88216677      -3.05262531       1.32046949
C        1.24852209      -3.20466842      -1.04347565
C        1.47403818      -1.25124631      -2.79311792
C        1.51249316       3.25585135       0.64507944
C        3.00895426      -1.73976069       0.37701732
C        1.99723922       2.36345719       1.65625570
C       -0.80845808       1.37153196      -3.46059826
C        2.88110604       1.71684994      -0.37402051
C        0.49182643      -2.98941997       1.38627428
C        1.43512727       1.13605789      -3.00752691
C       -2.22153477       2.67185051      -1.39294815
C       -0.96787650      -2.77879865      -1.10324671
C       -0.10907994      -1.71732554       1.41359569
C        2.06436758       0.06845871      -2.21882818
C        0.18780949       3.73370342       0.38675922
C       -3.13884567       0.35266757      -0.82679444
C        0.06680645       3.72306166      -1.05174978
60
Properties=species:S:1:pos:R:3 trajectory=trial0001_proposal001_step004_proposal_relax trajectory_step=5 pbc="F F F"
C       -2.57935777      -2.27275975       0.75891453
C        2.21904525      -2.82898617      -0.10594198
C        1.33189220       0.12379738       2.59189410
C       -0.97442087       3.22243345      -1.86490306
C       -2.98142840       3.12232969      -0.31811485
C        2.67131332      -1.90623049       1.76253118
C       -3.05593289      -0.99225129       1.60797534
C       -1.40354496      -2.16873707       1.87618122
C        2.07799236       2.84338809      -0.58703845
C       -0.35191455       2.65243359      -3.03655030
C       -0.84194861       3.21618128       1.22299439
C        3.10384428       1.65529194       1.07438546
C       -1.97886553      -1.99188845      -0.49014694
C        1.31193928       3.25617585      -1.64781242
C        2.76865629       0.41855578      -0.95533268
C       -1.08062978      -0.08310064       2.74043655
C        3.20256750      -0.39169159       0.12363932
C       -1.69605530       0.70241786      -2.61512843
C       -2.41846089       1.30999218      -1.57922497
C       -0.47594304      -3.93020966       0.88979831
C        0.34145004       0.56630480      -3.70962751
C       -0.86020845      -1.50247027      -3.21721715
C       -4.01848608       2.30802402       0.30501857
C       -3.48535235       0.35793814       1.42243649
C       -2.76403980       1.42815022       2.01612725
C       -1.43556482       1.24133387       2.44849556
C        0.35889394      -0.82567594      -3.61414116
C       -2.04393784      -1.08527467       2.53605425
C       -1.75496877      -0.67479027      -2.48122787
C        2.59155730      -0.54179565       2.36181392
C        1.00448612      -2.56038859      -2.29632917
C       -0.06372571      -3.60529072      -0.44087228
C       -3.29655576       2.64588032       1.53343979
C        1.09254189       2.54214957      -2.83982522
C        0.17876826      -0.61021232       2.29077169
C       -0.42564718      -2.57544576      -2.41980094
C       -4.01450083       0.84274370       0.19424301
C       -2.25910113       3.40271538       0.90268882
C       -0.38786145       2.13816833       2.13224682
C        1.01548771       1.59145479       2.32955120
C       -1.83981557      -3.47079600       1.42187535
C       -2.42844113      -0.89725856      -1.21712187
C        3.28715541       0.29588107       1.38142886
C        1.88291080      -3.05671916       1.32180294
C        1.24959195      -3.20317375      -1.04460437
C        1.47756272      -1.25108636      -2.79210722
C        1.51081412       3.25626253       0.64432727
C        3.01118339      -1.73830867       0.37853554
C        1.99790857       2.36587378       1.65548786
C       -0.80965548       1.37335854      -3.46347319
C        2.87605050       1.72083131      -0.37493951
C        0.49305251      -2.98954426       1.38795124
C        1.43445488       1.13494482      -3.00681898
C       -2.22364420       2.67444662      -1.39265219
C       -0.97014300      -2.77985184      -1.10189827
C       -0.10923874      -1.71512367       1.40673188
C        2.06455529       0.06970064      -2.21663075
C        0.18694917       3.73722989       0.39010789
C       -3.14181126       0.35080935      -0.82350865
C        0.06915067       3.72214538      -1.04868664
60
Properties=species:S:1:pos:R:3 trajectory=trial0001_proposal001_step004_proposal_relax trajectory_step=6 pbc="F F F"
C       -2.58609022      -2.28332988       0.75583430
C        2.22312975      -2.83073882      -0.10819823
C        1.33860311       0.12814222       2.59254491
C       -0.97359413       3.23113376      -1.85872338
C       -2.97746072       3.12893222      -0.31712174
C        2.67105890      -1.90551749       1.76668579
C       -3.05768921      -0.99545050       1.59988486
C       -1.39894868      -2.16351688       1.87029955
C        2.08557175       2.84020371      -0.58380778
C       -0.35171129       2.64987794      -3.02682872
C       -0.84584298       3.21460302       1.21997372
C        3.10351375       1.65733864       1.07428670
C       -1.98970394      -2.00134505      -0.49375937
C        1.31187567       3.25159119      -1.64900638
C        2.76546723       0.41691233      -0.95154213
C       -1.07686512      -0.07838665       2.72734415
C        3.20117941      -0.39537220       0.12754113
C       -1.69497901       0.70081591      -2.60174817
C       -2.41445193       1.30650443      -1.56497430
C       -0.46999846      -3.92667799       0.88510567
C        0.34267999       0.56508045      -3.71540357
C       -0.86488237      -1.50907699      -3.22106469
C       -4.01120494       2.30983433       0.30149749
C       -3.48950044       0.35576802       1.42430369
C       -2.76378578       1.42716409       2.00892948
C       -1.43835920       1.24241200       2.43843619
C        0.36098878      -0.82938615      -3.60860715
C       -2.04047095      -1.07832377       2.52302751
C       -1.75761339      -0.67789287      -2.48090481
C        2.59888597      -0.54078736       2.36710249
C        1.00089192      -2.55747200      -2.29718314
C       -0.06444057      -3.60852255      -0.44906857
C       -3.29829441       2.64573883       1.53229399
C        1.09203022       2.53553212      -2.83228591
C        0.18491945      -0.60529696       2.28109926
C       -0.43292612      -2.58085382      -2.42335208
C       -4.01294308       0.84581845       0.19939605
C       -2.26089725       3.40836597       0.90556476
C       -0.39149423       2.14432580       2.13473673
C        1.01534785       1.59763966       2.33137000
C       -1.83217944      -3.46382016       1.41537511
C       -2.44555860      -0.90724568      -1.21893202
C        3.29120834       0.29871929       1.38280297
C        1.88877225      -3.06523287       1.32775451
C        1.25185378      -3.19845271      -1.04694787
C        1.47946561      -1.25072082      -2.78970522
C        1.50868568       3.25713315       0.64378865
C        3.01328160      -1.73696241       0.38407044
C        2.00027940       2.37388649       1.65792054
C       -0.81046948       1.37333563      -3.46226324
C        2.86678259       1.72397842      -0.37273357
C        0.49955431      -2.98813059       1.38752452
C        1.43340335       1.13043997      -3.00273566
C       -2.22374648       2.67545081      -1.38811191
C       -0.98212006      -2.79072568      -1.10573488
C       -0.10456158      -1.71005141       1.39165972
C        2.06233293       0.06982532      -2.20995093
C        0.18663696       3.74309077       0.39418581
C       -3.14946223       0.34624128      -0.81907424
C        0.07441923       3.72373676      -1.04436133
60
Properties=species:S:1:pos:R:3 trajectory=trial0001_proposal001_step004_proposal_relax trajectory_step=7 pbc="F F F"
C       -2.59903060      -2.30185986       0.74824298
C        2.23066064      -2.83542307      -0.10797960
C        1.34852487       0.13648909       2.59123173
C       -0.97363645       3.24198811      -1.85089111
C       -2.97417729       3.14209167      -0.31443506
C        2.67436397      -1.90395702       1.77443718
C       -3.06257422      -1.00158671       1.58832666
C       -1.38395503      -2.15356933       1.85623763
C        2.09226096       2.84074633      -0.57640639
C       -0.35192730       2.64354205      -3.01020703
C       -0.84925249       3.21817425       1.21692602
C        3.10083796       1.66035340       1.07718650
C       -2.01561382      -2.02454167      -0.50586159
C        1.31223153       3.24663471      -1.64704252
C        2.75868189       0.41377638      -0.94320292
C       -1.06844565      -0.06964967       2.70037291
C        3.19929700      -0.39841314       0.13475685
C       -1.68683064       0.69441483      -2.57834817
C       -2.40378231       1.29983008      -1.54046846
C       -0.45816916      -3.91919424       0.87451910
C        0.34292321       0.56116238      -3.72183493
C       -0.87284291      -1.51502709      -3.22382586
C       -4.00347524       2.31436541       0.29859597
C       -3.49985186       0.35225928       1.42595566
C       -2.76545327       1.42516176       1.99935643
C       -1.44047628       1.24616314       2.42003562
C        0.35868661      -0.83286483      -3.60284651
C       -2.03093531      -1.06850879       2.49409905
C       -1.76643745      -0.68449524      -2.47721428
C        2.61278704      -0.53657303       2.37883564
C        0.99435724      -2.55380047      -2.29642526
C       -0.06530725      -3.61328089      -0.46379211
C       -3.29841285       2.64597552       1.53002900
C        1.08829864       2.52232252      -2.81595597
C        0.19794503      -0.59411764       2.26031577
C       -0.44402053      -2.59122767      -2.43102175
C       -4.01334933       0.85134965       0.20286092
C       -2.26332951       3.41982479       0.91134489
C       -0.39632929       2.15603821       2.13479342
C        1.01643862       1.61111153       2.33722041
C       -1.81678840      -3.45052408       1.40495357
C       -2.47714502      -0.92644195      -1.22624233
C        3.29920444       0.30196029       1.38695917
C        1.90074751      -3.07784926       1.33650894
C        1.25307746      -3.18989874      -1.04862080
C        1.47645021      -1.25180178      -2.78482413
C        1.50841380       3.26088145       0.64589883
C        3.01292862      -1.73642951       0.39434551
C        2.00345325       2.38681486       1.66387966
C       -0.81172943       1.36988782      -3.45203472
C        2.85749186       1.72131360      -0.36516927
C        0.51176619      -2.98395287       1.38383441
C        1.43129142       1.12238071      -2.99607771
C       -2.21966758       2.67575595      -1.37652544
C       -1.00225931      -2.81283853      -1.11865192
C       -0.09220540      -1.70126114       1.36747150
C        2.05672531       0.06726106      -2.19938199
C        0.18785796       3.75022929       0.39830128
C       -3.16074854       0.33920886      -0.81485554
C        0.08102995       3.72990207      -1.03948000
60
Properties=species:S:1:pos:R:3 trajectory=trial0001_proposal001_step004_proposal_relax trajectory_step=8 pbc="F F F"
C       -2.62951925      -2.34083241       0.73024101
C        2.24008449      -2.84173516      -0.10716916
C        1.36509248       0.15105611       2.59046757
C       -0.96830498       3.25030424      -1.83285739
C       -2.97592130       3.16519121      -0.30701708
C        2.68261009      -1.90419938       1.78898723
C       -3.07219874      -1.01056024       1.56734106
C       -1.34586541      -2.13752866       1.81751976
C        2.09433430       2.83883089      -0.56770325
C       -0.35246447       2.62936194      -2.98291957
C       -0.85205370       3.23289171       1.21681213
C        3.09926789       1.66548361       1.08634470
C       -2.06577515      -2.07161318      -0.53714449
C        1.31896936       3.24404405      -1.62981730
C        2.74286974       0.40492438      -0.92483244
C       -1.05204849      -0.05574076       2.64320051
C        3.19848087      -0.40028411       0.15296603
C       -1.66950508       0.68113634      -2.53139028
C       -2.37691740       1.28890561      -1.49100699
C       -0.43682861      -3.90533392       0.85985823
C        0.33603208       0.55646929      -3.72270723
C       -0.88829478      -1.52361258      -3.23059542
C       -3.99563251       2.32287661       0.29462257
C       -3.51997099       0.34862380       1.42866631
C       -2.76640868       1.42766055       1.98254222
C       -1.43733842       1.25565623       2.38684376
C        0.35084525      -0.84051331      -3.59686538
C       -2.00250651      -1.05426714       2.43482712
C       -1.78228340      -0.70188347      -2.47375426
C        2.63417624      -0.52904324       2.40080088
C        0.98008037      -2.55186373      -2.29374201
C       -0.06806177      -3.62080680      -0.48424382
C       -3.30065503       2.65169712       1.52766770
C        1.08075821       2.49929981      -2.79315025
C        0.22178365      -0.57231599       2.21481981
C       -0.46076078      -2.60983445      -2.45236685
C       -4.03184460       0.85559147       0.20642295
C       -2.26954151       3.44258144       0.91923035
C       -0.39691042       2.17842595       2.13445527
C        1.02024057       1.63497074       2.34838632
C       -1.78597710      -3.42678729       1.39198976
C       -2.52855881      -0.96181115      -1.23880892
C        3.31071950       0.30983843       1.40124548
C        1.92182765      -3.10057310       1.34806185
C        1.24766968      -3.17468618      -1.04523614
C        1.46422449      -1.25635863      -2.77415303
C        1.51222098       3.27690010       0.65580114
C        3.00795121      -1.73374537       0.41402900
C        2.00868278       2.40585939       1.67562085
C       -0.81443364       1.36006027      -3.42738183
C        2.84122313       1.72105540      -0.35008147
C        0.53693778      -2.97538192       1.37586945
C        1.42537532       1.10764794      -2.98670377
C       -2.20530545       2.67164943      -1.35823722
C       -1.03379245      -2.85034534      -1.14530059
C       -0.06215643      -1.68223394       1.31426121
C        2.04358922       0.05814720      -2.18315551
C        0.19194503       3.76645900       0.40568637
C       -3.17760687       0.32640560      -0.80731296
C        0.08802404       3.74416855      -1.03172397
60
Properties=species:S:1:pos:R:3 trajectory=trial0001_proposal001_step004_proposal_relax trajectory_step=9 pbc="F F F"
C       -2.68477868      -2.41060935       0.69144756
C        2.25414965      -2.84608002      -0.10155572
C        1.38662072       0.17406475       2.58730339
C       -0.95954864       3.24982264      -1.80634522
C       -2.97584579       3.19555037      -0.31192704
C        2.69956394      -1.90642644       1.81439096
C       -3.07696550      -1.02883506       1.54039972
C       -1.27093759      -2.09939952       1.73766791
C        2.08795885       2.84769769      -0.52948172
C       -0.34930931       2.60689763      -2.93627534
C       -0.85270116       3.27334102       1.22084677
C        3.09401889       1.68075344       1.10586021
C       -2.15978257      -2.16580498      -0.58981663
C        1.31361784       3.23849013      -1.63374371
C        2.71340347       0.39751550      -0.88755763
C       -1.01434960      -0.02606955       2.53523970
C        3.19556537      -0.39262773       0.18448517
C       -1.63304825       0.64424722      -2.45274568
C       -2.32629413       1.25882173      -1.40113804
C       -0.40112786      -3.88646094       0.83877167
C        0.32313098       0.53399696      -3.71521878
C       -0.91290977      -1.53826796      -3.24542694
C       -3.99686800       2.33256824       0.29471601
C       -3.55459464       0.34932481       1.43202565
C       -2.76645105       1.43173061       1.95586969
C       -1.43009575       1.27516470       2.32914641
C        0.32971470      -0.84464964      -3.59318548
C       -1.96005143      -1.03922598       2.30832041
C       -1.81536025      -0.72325326      -2.46163780
C        2.66607649      -0.51744153       2.44228529
C        0.95546418      -2.55297801      -2.28872848
C       -0.07926429      -3.62710791      -0.51398505
C       -3.30442175       2.66477161       1.52179970
C        1.07446784       2.47805034      -2.73782123
C        0.27133110      -0.52937989       2.12765589
C       -0.48827493      -2.64790860      -2.48510882
C       -4.07398000       0.86145508       0.20509056
C       -2.27636243       3.48406429       0.93388193
C       -0.39283540       2.21807617       2.13272469
C        1.02996071       1.67413312       2.37046235
C       -1.73068045      -3.38558116       1.37106783
C       -2.60967547      -1.01437890      -1.26920628
C        3.33054212       0.31825213       1.43002500
C        1.96318429      -3.13487186       1.36673010
C        1.22932984      -3.15089993      -1.03853539
C        1.43289200      -1.26496933      -2.75717275
C        1.52617129       3.30793373       0.67451052
C        2.99171815      -1.73355430       0.44842364
C        2.01956271       2.43851312       1.69684145
C       -0.82715102       1.33891538      -3.37293772
C        2.82505911       1.69445800      -0.32225337
C        0.58185866      -2.96018330       1.35856271
C        1.41537453       1.08413606      -2.96881893
C       -2.18588130       2.67064500      -1.30365451
C       -1.08127415      -2.91584065      -1.19966920
C        0.00091556      -1.65205661       1.21502193
C        2.01792826       0.03531093      -2.15572753
C        0.19902221       3.79857115       0.41979653
C       -3.20387222       0.30512861      -0.78992227
C        0.10666380       3.77274363      -1.01356378
60
Properties=species:S:1:pos:R:3 trajectory=trial0001_proposal001_step004_proposal_relax trajectory_step=10 pbc="F F F"
C       -2.67584352      -2.39994701       0.69808322
C        2.24541724      -2.84327953      -0.10239378
C        1.37946420       0.16870675       2.58623895
C       -0.96051059       3.24149152      -1.80918895
C       -2.98400503       3.18557484      -0.30540511
C        2.69861654      -1.90627138       1.81064077
C       -3.07852977      -1.02304344       1.54473174
C       -1.27619911      -2.10720237       1.74081798
C        2.08312420       2.84545771      -0.54174210
C       -0.35159078       2.60982219      -2.94830585
C       -0.84898915       3.27558854       1.22616405
C        3.09726097       1.67413535       1.10602953
C       -2.14335878      -2.14967800      -0.58578403
C        1.32033740       3.24883454      -1.61638481
C        2.71748211       0.39726303      -0.89546244
C       -1.02139409      -0.03452896       2.55013155
C        3.19546348      -0.39438794       0.18139223
C       -1.63909814       0.65063557      -2.46813418
C       -2.33459894       1.26229299      -1.41698078
C       -0.41053464      -3.89411323       0.84698616
C        0.32164129       0.54331605      -3.70725835
C       -0.90869412      -1.53331868      -3.24048317
C       -4.00525959       2.33125942       0.29683519
C       -3.54611471       0.35077487       1.43015062
C       -2.76755242       1.43359710       1.96332467
C       -1.42597456       1.27424006       2.34193560
C        0.32807877      -0.84712170      -3.59773132
C       -1.95902834      -1.04011672       2.32657747
C       -1.80796317      -0.72234755      -2.46369642
C        2.65480987      -0.52133619       2.43442651
C        0.95989254      -2.55647711      -2.28932326
C       -0.07969605      -3.62150276      -0.50128362
C       -3.30136844       2.66338540       1.52167011
C        1.07495962       2.47941487      -2.75988731
C        0.26267485      -0.53673265       2.13794867
C       -0.47957917      -2.63903583      -2.48046881
C       -4.07362630       0.85748853       0.20226411
C       -2.27572085       3.47551388       0.92739479
C       -0.38969076       2.20972740       2.13182687
C        1.02969623       1.66542239       2.36723117
C       -1.74134723      -3.39143019       1.37594689
C       -2.58515709      -1.00163331      -1.26291498
C        3.32447227       0.31687441       1.42786460
C        1.95489743      -3.12375721       1.36144089
C        1.22859663      -3.15839168      -1.03633209
C        1.43124214      -1.26388519      -2.76140682
C        1.52552403       3.30597269       0.67490533
C        2.99135828      -1.72892847       0.43881676
C        2.01772214       2.42945637       1.69532168
C       -0.82181650       1.33942694      -3.37777040
C        2.82848584       1.70518993      -0.32488470
C        0.57418184      -2.96457353       1.35884084
C        1.41739080       1.09139394      -2.97103516
C       -2.18326324       2.66072953      -1.31399104
C       -1.06847164      -2.90110603      -1.19037130
C       -0.00432323      -1.65870947       1.23443139
C        2.02074065       0.03669342      -2.16314232
C        0.20128615       3.79511761       0.41536808
C       -3.19257406       0.31026815      -0.79375909
C        0.09763035       3.76807340      -1.02200597
60
Properties=species:S:1:pos:R:3 trajectory=trial0001_proposal001_step004_proposal_relax trajectory_step=11 pbc="F F F"
C       -2.67683069      -2.40100547       0.69678694
C        2.23972369      -2.83823332      -0.10171871
C        1.37610546       0.16678716       2.58545275
C       -0.95966989       3.23147526      -1.80734104
C       -2.98954598       3.17776016      -0.30395091
C        2.69948881      -1.90709348       1.80931929
C       -3.07754114      -1.02052849       1.54537583
C       -1.27142382      -2.10580804       1.73067179
C        2.07624578       2.84624157      -0.54377098
C       -0.35196676       2.60972454      -2.95256205
C       -0.84574885       3.28423184       1.23180519
C        3.09928043       1.67279115       1.10839137
C       -2.14121163      -2.14782683      -0.58871639
C        1.32274670       3.25279537      -1.61285623
C        2.71724929       0.39766262      -0.89525158
C       -1.02061625      -0.03540330       2.54678421
C        3.19428274      -0.38988946       0.18154408
C       -1.64014448       0.65055815      -2.47091306
C       -2.33377375       1.26114225      -1.41795877
C       -0.41438518      -3.90020226       0.85328417
C        0.31877834       0.54398049      -3.69842347
C       -0.90916760      -1.53302502      -3.23999818
C       -4.01424491       2.32990505       0.29877747
C       -3.54298634       0.35309283       1.42851236
C       -2.76585915       1.43670204       1.96580421
C       -1.42257578       1.27506906       2.34526609
C        0.32439501      -0.84653706      -3.60147837
C       -1.95324516      -1.04100257       2.32045121
C       -1.80444153      -0.72371245      -2.46459104
C        2.64818440      -0.52384752       2.43310390
C        0.95984629      -2.56045679      -2.28977195
C       -0.08211564      -3.61708894      -0.49263866
C       -3.30082199       2.66444889       1.52044220
C        1.07748568       2.48668217      -2.76605173
C        0.26181047      -0.53795889       2.13331013
C       -0.47584745      -2.63740189      -2.48051593
C       -4.08062486       0.85388024       0.20079020
C       -2.27541949       3.47380022       0.92379514
C       -0.38456752       2.20965275       2.13166232
C        1.03095877       1.66219312       2.36704450
C       -1.74308624      -3.39097791       1.37763111
C       -2.57234142      -0.99812451      -1.25948781
C        3.32092190       0.31563095       1.43077025
C        1.95376358      -3.11912900       1.35857920
C        1.22405241      -3.16194535      -1.03398557
C        1.42602215      -1.26481825      -2.76236413
C        1.52761691       3.30873758       0.67795114
C        2.98696254      -1.72854354       0.43606121
C        2.01808017       2.42610907       1.69677818
C       -0.82120607       1.33794551      -3.37429295
C        2.82985430       1.70674150      -0.32452346
C        0.57389233      -2.96748506       1.35777008
C        1.41750156       1.09336921      -2.97068855
C       -2.18059369       2.65232409      -1.31219007
C       -1.06366945      -2.89542186      -1.18833001
C        0.00114963      -1.66010263       1.23434124
C        2.01952702       0.03507689      -2.16565248
C        0.20329219       3.79896501       0.41523572
C       -3.18706449       0.31055120      -0.79168793
C        0.09409254       3.76782522      -1.02357128
60
Properties=species:S:1:pos:R:3 trajectory=trial0001_proposal001_step004_proposal_relax trajectory_step=12 pbc="F F F"
C       -2.68813136      -2.41514966       0.68679345
C        2.23309894      -2.83202211      -0.10199624
C        1.37574545       0.16840520       2.58253932
C       -0.95832002       3.21886872      -1.79769889
C       -2.99550249       3.16901252      -0.30255587
C        2.70215322      -1.90779222       1.81146455
C       -3.07774215      -1.02121648       1.53812690
C       -1.25401643      -2.09553672       1.69953574
C        2.06934204       2.84810151      -0.53843918
C       -0.35171891       2.60790499      -2.94763396
C       -0.84241773       3.30317768       1.24007225
C        3.10036791       1.67410956       1.11451685
C       -2.15435707      -2.16206757      -0.59887297
C        1.32408678       3.25812385      -1.60817750
C        2.71185350       0.39944884      -0.88970670
C       -1.01146610      -0.03061791       2.52060676
C        3.18914628      -0.38689865       0.18794303
C       -1.63688676       0.64461641      -2.46133659
C       -2.32563568       1.25110532      -1.40311199
C       -0.41303246      -3.90834765       0.85928709
C        0.31477862       0.54219609      -3.68655802
C       -0.91458199      -1.53780234      -3.24331751
C       -4.02710346       2.32849883       0.30080582
C       -3.54379116       0.35581651       1.42698985
C       -2.76372492       1.44020911       1.96276980
C       -1.41679157       1.28198199       2.33824611
C        0.31652314      -0.84874853      -3.60336218
C       -1.93717597      -1.03463370       2.28557872
C       -1.80413719      -0.72853625      -2.46187313
C        2.64613425      -0.52648950       2.43817183
C        0.95486776      -2.56520836      -2.29080888
C       -0.08731313      -3.61170084      -0.48675103
C       -3.30035995       2.66634719       1.51621746
C        1.08071527       2.49009642      -2.76900613
C        0.27103662      -0.53143972       2.11007959
C       -0.47813793      -2.64353830      -2.48338012
C       -4.09247765       0.85077463       0.20123219
C       -2.27563008       3.47854033       0.92186173
C       -0.37884043       2.21840364       2.13252010
C        1.03419509       1.66536039       2.37061360
C       -1.73574479      -3.38011037       1.37415668
C       -2.56941303      -1.00271154      -1.25761088
C        3.31895260       0.31528109       1.43813155
C        1.96067551      -3.12086788       1.35967088
C        1.21665968      -3.16191788      -1.03089182
C        1.41539994      -1.26765308      -2.76062854
C        1.53088815       3.31614767       0.68380671
C        2.97911876      -1.72271328       0.43716858
C        2.02186676       2.42927861       1.70365344
C       -0.82170164       1.33407582      -3.36156311
C        2.82624431       1.70533899      -0.31909867
C        0.58055942      -2.97193240       1.35533741
C        1.41591213       1.09358983      -2.96481315
C       -2.17463265       2.63962602      -1.29666702
C       -1.06813306      -2.89913987      -1.19253639
C        0.01970913      -1.65828339       1.21433323
C        2.01353199       0.03094828      -2.16199186
C        0.20731143       3.81302699       0.41913224
C       -3.18497850       0.30404323      -0.78234584
C        0.09359549       3.77090337      -1.02041910
60
Properties=species:S:1:pos:R:3 trajectory=trial0001_proposal001_step004_proposal_relax trajectory_step=13 pbc="F F F"
C       -2.70669769      -2.43436607       0.67934569
C        2.22882127      -2.82122077      -0.10114695
C        1.38011036       0.17236175       2.57481404
C       -0.95472285       3.20845807      -1.77802642
C       -3.00220444       3.15535792      -0.29248957
C        2.70337983      -1.90663846       1.81064813
C       -3.07782870      -1.02351383       1.52447588
C       -1.23306990      -2.07784736       1.65487308
C        2.06783198       2.84930839      -0.53326283
C       -0.35361869       2.60466284      -2.93949194
C       -0.83952581       3.32764855       1.24981213
C        3.10101029       1.67135660       1.12075046
C       -2.17071146      -2.17774616      -0.61145641
C        1.32453954       3.26000235      -1.61008156
C        2.70622480       0.39929329      -0.88363156
C       -0.99589699      -0.01370283       2.48033910
C        3.17806319      -0.37071038       0.18884230
C       -1.63658126       0.63826642      -2.45116465
C       -2.32163524       1.23612445      -1.38421480
C       -0.41152446      -3.92325272       0.86544803
C        0.31187462       0.53911480      -3.67525291
C       -0.92470563      -1.54784558      -3.24312189
C       -4.04153999       2.32594590       0.30157047
C       -3.54417458       0.35464838       1.42687616
C       -2.75894311       1.44269387       1.95823895
C       -1.41045610       1.28973411       2.32684570
C        0.31103626      -0.84971255      -3.60097809
C       -1.92166830      -1.02125243       2.22766561
C       -1.80040662      -0.73579555      -2.45649415
C        2.64611608      -0.52988041       2.44482383
C        0.94729252      -2.57136540      -2.28986752
C       -0.09326639      -3.60631251      -0.47980754
C       -3.29812998       2.66526535       1.50891711
C        1.08562883       2.50440238      -2.76351688
C        0.28424998      -0.52574428       2.07498375
C       -0.48657135      -2.64992229      -2.48565079
C       -4.09649949       0.84649849       0.20594910
C       -2.27684095       3.48291445       0.92081412
C       -0.37508333       2.23442363       2.13578002
C        1.03736486       1.67365608       2.37611902
C       -1.72718004      -3.36183591       1.36394930
C       -2.56737874      -1.01121894      -1.25002903
C        3.31467151       0.31657531       1.44352297
C        1.96787738      -3.12666486       1.36283331
C        1.20842714      -3.16053307      -1.03056432
C        1.40545267      -1.26965897      -2.75769034
C        1.53259391       3.32227614       0.69353517
C        2.96304414      -1.72822790       0.43716107
C        2.02646970       2.43888408       1.71323542
C       -0.81961865       1.33357451      -3.34863270
C        2.81746488       1.71120858      -0.30961913
C        0.59200882      -2.98405498       1.35752317
C        1.41449130       1.08963642      -2.95635452
C       -2.16621615       2.61333512      -1.27624210
C       -1.07536760      -2.90775433      -1.19101273
C        0.04302380      -1.65915669       1.18930397
C        2.00620518       0.03193537      -2.15365770
C        0.21192069       3.83378500       0.42750064
C       -3.17967883       0.29147838      -0.77027012
C        0.09112180       3.77139175      -1.01455803
60
Properties=species:S:1:pos:R:3 trajectory=trial0001_proposal001_step004_proposal_relax trajectory_step=14 pbc="F F F"
C       -2.70932159      -2.43645764       0.67719193
C        2.22658645      -2.82451521      -0.10386742
C        1.38002697       0.17274149       2.57323059
C       -0.95685301       3.20683038      -1.77743427
C       -2.99953043       3.15389948      -0.29508521
C        2.70266443      -1.90636458       1.81153530
C       -3.07920460      -1.02505169       1.52192646
C       -1.23221882      -2.07588925       1.65113271
C        2.06743273       2.85192534      -0.53093458
C       -0.35260168       2.60664937      -2.93611175
C       -0.84036103       3.32872735       1.25018728
C        3.09905019       1.67514110       1.12117114
C       -2.17330512      -2.18144479      -0.60944112
C        1.32388522       3.26080238      -1.60864923
C        2.70482850       0.40340408      -0.88404997
C       -0.99507170      -0.01616012       2.47457880
C        3.17627187      -0.37918337       0.19154760
C       -1.63628750       0.63680874      -2.45035479
C       -2.32071922       1.23332482      -1.38376675
C       -0.41065732      -3.92385548       0.86564766
C        0.31281908       0.53911346      -3.67581235
C       -0.92466587      -1.54786118      -3.24389917
C       -4.04200479       2.32458539       0.30210693
C       -3.54497032       0.35506863       1.42748614
C       -2.75926443       1.44164689       1.95727299
C       -1.41058956       1.29306772       2.32431098
C        0.31020141      -0.85087827      -3.59953790
C       -1.91740148      -1.01707885       2.22204127
C       -1.80129702      -0.73510342      -2.45480234
C        2.64819307      -0.52999728       2.44495432
C        0.94606019      -2.57004082      -2.29060687
C       -0.09269042      -3.60696633      -0.48056599
C       -3.29831706       2.66438251       1.50883579
C        1.08509763       2.50095846      -2.76444268
C        0.28718826      -0.52295715       2.07212186
C       -0.48782387      -2.65258355      -2.48375519
C       -4.09453169       0.84627722       0.20635114
C       -2.27595598       3.48410229       0.92226378
C       -0.37571688       2.23687595       2.13656005
C        1.03746554       1.67544057       2.37696656
C       -1.72541230      -3.35948236       1.36222711
C       -2.56898600      -1.01206077      -1.25083353
C        3.31494062       0.31517216       1.44306372
C        1.97016343      -3.12897052       1.36462507
C        1.20912246      -3.15997645      -1.02946212
C        1.40544871      -1.27003770      -2.75666868
C        1.53251901       3.32305216       0.69182749
C        2.96518569      -1.71861216       0.43673776
C        2.02772803       2.43986287       1.71442749
C       -0.82084346       1.33262647      -3.34750168
C        2.81761255       1.70830394      -0.30949178
C        0.59139545      -2.98534918       1.35803156
C        1.41414268       1.09191750      -2.95492645
C       -2.16712889       2.61534552      -1.27066773
C       -1.07791398      -2.90917114      -1.19229561
C        0.04558493      -1.66004240       1.18647988
C        2.00567978       0.03167218      -2.15219919
C        0.21233792       3.83523726       0.42813671
C       -3.18115396       0.28951964      -0.76801683
C        0.09374120       3.77189188      -1.01158634
60
Properties=species:S:1:pos:R:3 trajectory=trial0001_proposal001_step004_proposal_relax trajectory_step=15 pbc="F F F"
C       -2.71365806      -2.43901607       0.67654574
C        2.22703572      -2.82632852      -0.10466253
C        1.38154241       0.17399728       2.57068818
C       -0.95773411       3.20705321      -1.77453843
C       -2.99748961       3.15290455      -0.29397139
C        2.70159390      -1.90584759       1.81091184
C       -3.08034763      -1.02696880       1.51898742
C       -1.23082860      -2.07340285       1.64631539
C        2.06985381       2.85313332      -0.52908253
C       -0.35283214       2.60737012      -2.93246009
C       -0.84135615       3.32985592       1.25043206
C        3.09744409       1.67635884       1.12118239
C       -2.17626428      -2.18458915      -0.60805448
C        1.32297422       3.26116271      -1.60790039
C        2.70389708       0.40562255      -0.88403915
C       -0.99284286      -0.01412321       2.46670899
C        3.17376692      -0.38154019       0.19133037
C       -1.63686339       0.63602498      -2.44989153
C       -2.32133591       1.23085901      -1.38339517
C       -0.40988907      -3.92500147       0.86518231
C        0.31378395       0.53960694      -3.67722235
C       -0.92503939      -1.54842226      -3.24299695
C       -4.04105122       2.32332974       0.30203236
C       -3.54607899       0.35394167       1.42885199
C       -2.75937959       1.44048785       1.95634752
C       -1.41042951       1.29510310       2.32119590
C        0.31039721      -0.85168089      -3.59690125
C       -1.91535137      -1.01286416       2.21237499
C       -1.80171758      -0.73537318      -2.45288169
C        2.65089525      -0.52974497       2.44541799
C        0.94455505      -2.56886263      -2.29004812
C       -0.09209000      -3.60849431      -0.48182403
C       -3.29813113       2.66286124       1.50865578
C        1.08426235       2.49895220      -2.76305944
C        0.29040957      -0.52112177       2.06755757
C       -0.49021518      -2.65433081      -2.48220566
C       -4.09027876       0.84579258       0.20759110
C       -2.27587341       3.48487607       0.92408009
C       -0.37712327       2.24051386       2.13789194
C        1.03725165       1.67849786       2.37825835
C       -1.72371442      -3.35614375       1.35944404
C       -2.57131949      -1.01418888      -1.25044973
C        3.31481647       0.31538420       1.44152146
C        1.97193839      -3.13210678       1.36629946
C        1.20942919      -3.15925149      -1.02942780
C        1.40610276      -1.26992630      -2.75516976
C        1.53201690       3.32360412       0.69128270
C        2.96420515      -1.71619212       0.43617235
C        2.02832401       2.44257965       1.71544228
C       -0.82089546       1.33295032      -3.34722856
C        2.81629518       1.70906455      -0.30882079
C        0.59212610      -2.98798652       1.35983954
C        1.41378070       1.09321524      -2.95366571
C       -2.16677516       2.61391855      -1.26656482
C       -1.08054671      -2.91212004      -1.19181707
C        0.04824012      -1.66143591       1.18415280
C        2.00519182       0.03314837      -2.15018110
C        0.21256095       3.83672711       0.42961999
C       -3.18167310       0.28684346      -0.76671897
C        0.09500862       3.77160701      -1.00892480
60
Properties=species:S:1:pos:R:3 trajectory=trial0001_proposal001_step004_proposal_relax trajectory_step=16 pbc="F F F"
C       -2.72443258      -2.44512674       0.67551672
C        2.22740436      -2.82924118      -0.10543795
C        1.38447361       0.17657148       2.56534687
C       -0.95825353       3.20521313      -1.76750101
C       -2.99498515       3.14975619      -0.29009525
C        2.69955249      -1.90515641       1.80884107
C       -3.08290085      -1.03040104       1.51362170
C       -1.22554718      -2.06846639       1.63421297
C        2.07283772       2.85644948      -0.52667607
C       -0.35408575       2.60752858      -2.92649048
C       -0.84248732       3.33408273       1.25257695
C        3.09496242       1.67804912       1.12136496
C       -2.18178877      -2.19048002      -0.60667711
C        1.32197359       3.26247823      -1.60588577
C        2.70179048       0.40940690      -0.88390672
C       -0.98770674      -0.00950951       2.44844065
C        3.16875452      -0.38185594       0.18976226
C       -1.63851931       0.63446699      -2.45023192
C       -2.32290131       1.22649183      -1.38329666
C       -0.40943440      -3.92850055       0.86560467
C        0.31452967       0.54039287      -3.67802557
C       -0.92555992      -1.54937742      -3.24006205
C       -4.04003229       2.32022331       0.30224144
C       -3.54820986       0.35166618       1.43203211
C       -2.75904732       1.43908727       1.95576135
C       -1.40913955       1.29914730       2.31544253
C        0.31054871      -0.85173919      -3.59226731
C       -1.90959769      -1.00528699       2.19019705
C       -1.80179034      -0.73664245      -2.44973713
C        2.65481848      -0.52945764       2.44578579
C        0.94161445      -2.56770657      -2.28767523
C       -0.09173187      -3.61148448      -0.48223315
C       -3.29808488       2.66050983       1.50879781
C        1.08267137       2.49836455      -2.75960449
C        0.29661553      -0.51803286       2.05648562
C       -0.49394247      -2.65660289      -2.47965540
C       -4.08373045       0.84337768       0.20966110
C       -2.27628496       3.48592691       0.92737104
C       -0.37848076       2.24807162       2.14111540
C        1.03716456       1.68443949       2.38093537
C       -1.72097270      -3.34967705       1.35466879
C       -2.57283130      -1.01805522      -1.24859984
C        3.31351687       0.31607240       1.43873610
C        1.97477212      -3.13794403       1.36847923
C        1.20861568      -3.15896828      -1.02850377
C        1.40620547      -1.26933495      -2.75177907
C        1.53209585       3.32616867       0.69224464
C        2.95980639      -1.71433988       0.43430003
C        2.02882656       2.44757088       1.71726595
C       -0.82117707       1.33365375      -3.34620373
C        2.81456737       1.71167120      -0.30730388
C        0.59448724      -2.99422467       1.36366198
C        1.41309121       1.09526993      -2.95182742
C       -2.16469004       2.60842786      -1.25926121
C       -1.08422509      -2.91721150      -1.18974185
C        0.05532746      -1.66455796       1.17972346
C        2.00394049       0.03649099      -2.14725230
C        0.21314262       3.83998494       0.43288358
C       -3.18081278       0.28173825      -0.76482579
C        0.09585091       3.77091484      -1.00411030
60
Properties=species:S:1:pos:R:3 trajectory=trial0001_proposal001_step004_proposal_relax trajectory_step=17 pbc="F F F"
C       -2.74550220      -2.45706043       0.67448601
C        2.22843375      -2.83608646      -0.10510793
C        1.38819530       0.18107845       2.55723868
C       -0.95772248       3.19932859      -1.75698382
C       -2.99096403       3.14434900      -0.28400140
C        2.69643381      -1.90483027       1.80385080
C       -3.08595951      -1.03615288       1.50967722
C       -1.21375198      -2.06368391       1.61530573
C        2.07592797       2.86434415      -0.52353462
C       -0.35687399       2.60643866      -2.91817144
C       -0.84362385       3.34140792       1.25839965
C        3.09200933       1.68087486       1.12102870
C       -2.18979207      -2.19947975      -0.60473666
C        1.32084769       3.26659821      -1.60088824
C        2.69797020       0.41597414      -0.88466977
C       -0.97925171      -0.00098396       2.41580037
C        3.16146412      -0.38088315       0.18593917
C       -1.64240124       0.63252616      -2.45395939
C       -2.32632746       1.22179420      -1.38699103
C       -0.41000080      -3.93405503       0.86792438
C        0.31400561       0.54327137      -3.67789342
C       -0.92405903      -1.54842700      -3.23393088
C       -4.03662583       2.31388899       0.30367478
C       -3.55301030       0.34773461       1.43847250
C       -2.75924415       1.43793884       1.95835338
C       -1.40586827       1.30369300       2.30724633
C        0.31070463      -0.85032782      -3.58530686
C       -1.90141413      -0.99721746       2.15227586
C       -1.80181705      -0.73942407      -2.44640106
C        2.65936987      -0.52863385       2.44439107
C        0.93842146      -2.56566191      -2.28107268
C       -0.09253314      -3.61842092      -0.48063593
C       -3.29992306       2.65817230       1.51214782
C        1.07864546       2.49869942      -2.75379172
C        0.30750398      -0.51303527       2.03805055
C       -0.49636489      -2.65842845      -2.47431197
C       -4.07605774       0.83779397       0.21180967
C       -2.27771875       3.48736885       0.93368607
C       -0.37883335       2.25906376       2.14797831
C        1.03755966       1.69333235       2.38521741
C       -1.71842429      -3.34040094       1.34952850
C       -2.57122372      -1.02293446      -1.24558652
C        3.31075473       0.31805867       1.43391947
C        1.97957489      -3.14766483       1.37001227
C        1.20561225      -3.16181522      -1.02546983
C        1.40536562      -1.26688051      -2.74467573
C        1.53387905       3.33388476       0.69526331
C        2.95074924      -1.71238732       0.42992583
C        2.02843316       2.45364590       1.71890286
C       -0.82318822       1.33373726      -3.34602297
C        2.81429379       1.71764184      -0.30652373
C        0.59806685      -3.00436455       1.36970416
C        1.41182971       1.09931167      -2.95115697
C       -2.16116866       2.60135123      -1.24950744
C       -1.08786514      -2.92418069      -1.18620499
C        0.06912490      -1.67019902       1.17421170
C        2.00243870       0.04242373      -2.14558352
C        0.21350928       3.84293777       0.43792053
C       -3.17803149       0.27504074      -0.76407459
C        0.09499166       3.77019833      -0.99693704
60
Properties=species:S:1:pos:R:3 trajectory=trial0001_proposal001_step004_proposal_relax trajectory_step=18 pbc="F F F"
C       -2.77040281      -2.47403087       0.67260580
C        2.22909255      -2.84439558      -0.10518919
C        1.39325951       0.18663681       2.54989869
C       -0.95717956       3.19255477      -1.74542361
C       -2.98780409       3.13886075      -0.27602597
C        2.69424260      -1.90419162       1.79888463
C       -3.09475915      -1.04278246       1.50350589
C       -1.19809205      -2.05780458       1.59359133
C        2.07934536       2.87436301      -0.51942824
C       -0.36025494       2.60335741      -2.91002140
C       -0.84451680       3.35067957       1.26681809
C        3.08967212       1.68431688       1.12054656
C       -2.20004687      -2.21066653      -0.60358786
C        1.31860544       3.27132457      -1.59795036
C        2.69364299       0.42301471      -0.88516331
C       -0.97117843       0.00108441       2.37547492
C        3.15324125      -0.37621427       0.18120684
C       -1.64778334       0.62908959      -2.45745827
C       -2.33003084       1.21756993      -1.39008899
C       -0.41105704      -3.94115323       0.87171559
C        0.31294739       0.54386636      -3.67726610
C       -0.92188431      -1.54976407      -3.22694924
C       -4.03292222       2.30758645       0.30586976
C       -3.55878712       0.34395974       1.44618488
C       -2.76087409       1.43665791       1.96285893
C       -1.40304551       1.31120779       2.29744337
C        0.31070505      -0.84657102      -3.57852673
C       -1.88196158      -0.98558723       2.11170263
C       -1.80191024      -0.74155496      -2.44343891
C        2.66338583      -0.52773077       2.44295102
C        0.93591247      -2.56348225      -2.27232111
C       -0.09509710      -3.62635791      -0.47837764
C       -3.30244354       2.65667275       1.51729770
C        1.07504174       2.50142857      -2.74538443
C        0.31835406      -0.50692498       2.01517110
C       -0.49784532      -2.65850069      -2.46944291
C       -4.07014401       0.83119863       0.21441515
C       -2.28003706       3.48954836       0.94089785
C       -0.37801141       2.27041368       2.15631843
C        1.03848040       1.70247280       2.39031230
C       -1.71537499      -3.33059365       1.34382479
C       -2.56890541      -1.02834489      -1.24193798
C        3.30809947       0.31933531       1.42934066
C        1.98515556      -3.15885422       1.37174709
C        1.20277986      -3.16698661      -1.02056495
C        1.40324207      -1.26303676      -2.73622149
C        1.53681663       3.34351726       0.70033803
C        2.93963930      -1.71170742       0.42520776
C        2.02873451       2.46014673       1.72027038
C       -0.82620960       1.33473546      -3.34587911
C        2.81415214       1.72487385      -0.30583637
C        0.60512673      -3.01549270       1.37507756
C        1.41022784       1.10367283      -2.95090095
C       -2.15706925       2.59257407      -1.24051405
C       -1.09220046      -2.93246892      -1.18256556
C        0.08614089      -1.67510387       1.16587308
C        2.00066556       0.04838237      -2.14458186
C        0.21302866       3.84708392       0.44380873
C       -3.17507354       0.26827847      -0.76260965
C        0.09373902       3.77011995      -0.98929213
60
Properties=species:S:1:pos:R:3 trajectory=trial0001_proposal001_step004_proposal_relax trajectory_step=19 pbc="F F F"
C       -2.78203541      -2.48163376       0.67336392
C        2.22960543      -2.84952819      -0.10449949
C        1.39384495       0.18851111       2.54753720
C       -0.95658211       3.18845303      -1.74212714
C       -2.98616336       3.13598462      -0.27266369
C        2.69324820      -1.90434091       1.79534765
C       -3.09433461      -1.04532959       1.50644702
C       -1.19093238      -2.05833188       1.58638000
C        2.07972701       2.88064870      -0.51988227
C       -0.36209174       2.60195936      -2.90825678
C       -0.84466581       3.35397553       1.27186808
C        3.08972957       1.68552437       1.11939346
C       -2.20197496      -2.21320080      -0.60219129
C        1.31862064       3.27474669      -1.59445358
C        2.69217209       0.42685409      -0.88714482
C       -0.96673035       0.00667695       2.35887670
C        3.15012248      -0.37457705       0.17811986
C       -1.65162865       0.62963847      -2.46266194
C       -2.33349087       1.21779741      -1.39547693
C       -0.41280124      -3.94445834       0.87490460
C        0.31150497       0.54643397      -3.67665572
C       -0.91929025      -1.54809343      -3.22339145
C       -4.03011239       2.30417521       0.30778316
C       -3.56155194       0.34169927       1.45018191
C       -2.76192658       1.43687794       1.96806091
C       -1.40162147       1.31054013       2.29524458
C        0.31124937      -0.84495020      -3.57593564
C       -1.88161325      -0.98666490       2.09363872
C       -1.80122081      -0.74315461      -2.44356213
C        2.66352943      -0.52738175       2.44026582
C        0.93668166      -2.56209160      -2.26665615
C       -0.09676230      -3.63123571      -0.47551221
C       -3.30486493       2.65677249       1.52189382
C        1.07256743       2.50319305      -2.74344200
C        0.32333429      -0.50524038       2.00678386
C       -0.49524246      -2.65670658      -2.46530069
C       -4.06876572       0.82774903       0.21528746
C       -2.28140462       3.48949159       0.94461210
C       -0.37678852       2.27315657       2.16100876
C        1.03931896       1.70482396       2.39192748
C       -1.71593382      -3.32772736       1.34322019
C       -2.56421007      -1.02886084      -1.23944183
C        3.30635905       0.32044931       1.42650458
C        1.98751391      -3.16333164       1.37121540
C        1.20111060      -3.17215470      -1.01792927
C        1.40267530      -1.26000664      -2.73175925
C        1.53849245       3.34913670       0.70283079
C        2.93449650      -1.71120370       0.42159842
C        2.02809448       2.46083256       1.71973233
C       -0.82835185       1.33450075      -3.34823167
C        2.81585577       1.72984634      -0.30721449
C        0.60690574      -3.02015930       1.37717950
C        1.40970701       1.10635559      -2.95265349
C       -2.15629168       2.59060732      -1.23945524
C       -1.09200173      -2.93397729      -1.18004000
C        0.09373293      -1.67832785       1.16453830
C        2.00092764       0.05183149      -2.14660886
C        0.21229075       3.84683396       0.44604436
C       -3.17280237       0.26710053      -0.76347668
C        0.09134406       3.76977451      -0.98695498
60
Properties=species:S:1:pos:R:3 trajectory=trial0001_proposal001_step004_proposal_relax trajectory_step=20 pbc="F F F"
C       -2.78834968      -2.48826551       0.67358946
C        2.23038171      -2.85212072      -0.10368078
C        1.39376243       0.18911789       2.54794722
C       -0.95638873       3.18642320      -1.74174458
C       -2.98568840       3.13470068      -0.27107022
C        2.69378898      -1.90453346       1.79365740
C       -3.09467853      -1.04663057       1.50888697
C       -1.18576026      -2.05926617       1.58201343
C        2.07964653       2.88496776      -0.52018140
C       -0.36291047       2.60085962      -2.90812088
C       -0.84457236       3.35610672       1.27587250
C        3.09092755       1.68607420       1.11860506
C       -2.20355952      -2.21506437      -0.60220453
C        1.31846049       3.27707306      -1.59305060
C        2.69148736       0.42905386      -0.88826844
C       -0.96525029       0.00805213       2.34848464
C        3.14840769      -0.37265935       0.17665237
C       -1.65413984       0.62995223      -2.46533640
C       -2.33543246       1.21844193      -1.39756824
C       -0.41350658      -3.94665080       0.87750255
C        0.31009287       0.54756293      -3.67603153
C       -0.91790922      -1.54767546      -3.22261437
C       -4.02903423       2.30313094       0.30983261
C       -3.56325245       0.34076699       1.45251841
C       -2.76358815       1.43730060       1.97229118
C       -1.40106216       1.30951009       2.29429198
C        0.31135889      -0.84418213      -3.57542525
C       -1.87958603      -0.98764779       2.08479764
C       -1.80098983      -0.74408532      -2.44408764
C        2.66285101      -0.52733725       2.43897246
C        0.93822441      -2.56114194      -2.26266780
C       -0.09870939      -3.63409706      -0.47335506
C       -3.30681366       2.65769759       1.52557157
C        1.07164181       2.50462955      -2.74299621
C        0.32608703      -0.50401400       2.00124371
C       -0.49228850      -2.65502099      -2.46261126
C       -4.07051450       0.82642106       0.21636985
C       -2.28241598       3.48972252       0.94690650
C       -0.37552613       2.27317130       2.16376433
C        1.04052856       1.70483002       2.39266740
C       -1.71552032      -3.32652674       1.34317302
C       -2.56139520      -1.02873959      -1.23763415
C        3.30581440       0.32113947       1.42565371
C        1.99000474      -3.16564915       1.37097414
C        1.20014898      -3.17669140      -1.01648695
C        1.40198461      -1.25774645      -2.72891754
C        1.53948216       3.35273427       0.70461152
C        2.93147074      -1.71151886       0.41979325
C        2.02826311       2.46036257       1.71937036
C       -0.83016149       1.33408868      -3.34979904
C        2.81682605       1.73293777      -0.30840445
C        0.60885914      -3.02174772       1.37667478
C        1.40932611       1.10752998      -2.95407561
C       -2.15704170       2.59071814      -1.24011991
C       -1.09184902      -2.93466871      -1.17938485
C        0.09855963      -1.67913301       1.16155058
C        2.00121894       0.05336014      -2.14838233
C        0.21159987       3.84722889       0.44743489
C       -3.17216779       0.26732567      -0.76298474
C        0.08943158       3.77010568      -0.98625942
60
Properties=species:S:1:pos:R:3 trajectory=trial0001_proposal001_step004_proposal_relax trajectory_step=21 pbc="F F F"
C       -2.79414235      -2.49710387       0.67388600
C        2.23151207      -2.85554135      -0.10348517
C        1.39385740       0.18898003       2.54937094
C       -0.95735835       3.18625158      -1.74246432
C       -2.98536063       3.13411694      -0.26838799
C        2.69515311      -1.90433978       1.79253604
C       -3.09612337      -1.04832641       1.51095183
C       -1.18039933      -2.05928045       1.57708743
C        2.08043422       2.89003032      -0.52041424
C       -0.36368859       2.59989971      -2.90848205
C       -0.84471160       3.35765145       1.28047647
C        3.09251152       1.68711336       1.11741527
C       -2.20605563      -2.21772702      -0.60202173
C        1.31769384       3.27936717      -1.59257015
C        2.69109224       0.43190644      -0.88970245
C       -0.96333972       0.00863516       2.33675990
C        3.14582787      -0.37116057       0.17540202
C       -1.65755570       0.63012395      -2.46748427
C       -2.33820763       1.21932301      -1.39890510
C       -0.41312410      -3.94947391       0.88008520
C        0.30886790       0.54777883      -3.67637832
C       -0.91685875      -1.54858693      -3.22241642
C       -4.02824187       2.30331085       0.31295572
C       -3.56521315       0.33972084       1.45560441
C       -2.76616962       1.43733249       1.97761746
C       -1.40162216       1.30862192       2.29312593
C        0.31185081      -0.84353568      -3.57514238
C       -1.87675558      -0.98903881       2.07586870
C       -1.80116108      -0.74463160      -2.44408240
C        2.66286374      -0.52743800       2.43805961
C        0.94030082      -2.55936116      -2.25794484
C       -0.10060123      -3.63754100      -0.47169827
C       -3.30884908       2.65866296       1.53037185
C        1.07107657       2.50599208      -2.74294060
C        0.32858571      -0.50268904       1.99439620
C       -0.48919147      -2.65234719      -2.45945781
C       -4.07256561       0.82632392       0.21902712
C       -2.28354773       3.48974437       0.94994834
C       -0.37462936       2.27226523       2.16646643
C        1.04207124       1.70406680       2.39341477
C       -1.71342064      -3.32545291       1.34225531
C       -2.55971512      -1.02866697      -1.23498839
C        3.30568097       0.32148934       1.42458094
C        1.99344400      -3.16840546       1.37184713
C        1.20071726      -3.18224973      -1.01484630
C        1.40202171      -1.25510422      -2.72568438
C        1.53991519       3.35544532       0.70628990
C        2.92916278      -1.71072713       0.41792440
C        2.02908268       2.45990016       1.71889228
C       -0.83211908       1.33429890      -3.35180856
C        2.81745726       1.73650160      -0.30974466
C        0.61237359      -3.02275047       1.37465687
C        1.40875747       1.10858481      -2.95565453
C       -2.15916261       2.59169168      -1.24233075
C       -1.09225422      -2.93601633      -1.17860980
C        0.10337241      -1.67940924       1.15585887
C        2.00178858       0.05538842      -2.14991221
C        0.21046265       3.84822793       0.44920962
C       -3.17252924       0.26792249      -0.76097790
C        0.08731366       3.77051882      -0.98559565
60
Properties=species:S:1:pos:R:3 trajectory=trial0001_proposal001_step004_proposal_relax trajectory_step=22 pbc="F F F"
C       -2.80106498      -2.51304493       0.67452555
C        2.23708238      -2.86007337      -0.10115969
C        1.39437237       0.18610617       2.55102873
C       -0.96138259       3.18918392      -1.74685465
C       -2.98280927       3.13320923      -0.26522626
C        2.69809879      -1.90389078       1.78978074
C       -3.09918870      -1.05250989       1.51348628
C       -1.17170416      -2.06138245       1.56591346
C        2.08249673       2.89839797      -0.52083375
C       -0.36484901       2.60129624      -2.90962568
C       -0.84525234       3.35783244       1.28693503
C        3.09506753       1.68854632       1.11507513
C       -2.21052189      -2.22348435      -0.59984746
C        1.31481407       3.28269569      -1.59301154
C        2.69138848       0.43810926      -0.89220034
C       -0.96355642       0.00785007       2.31823988
C        3.14028090      -0.36704193       0.17202634
C       -1.66329114       0.63166193      -2.47142755
C       -2.34514003       1.22100077      -1.40185932
C       -0.40894192      -3.95441878       0.88319036
C        0.30708888       0.54918641      -3.67857939
C       -0.91638135      -1.54781239      -3.22252723
C       -4.02854183       2.30497651       0.32107539
C       -3.56917810       0.33837656       1.46298133
C       -2.77137001       1.43596379       1.98787132
C       -1.40263111       1.30625457       2.29189549
C        0.31332322      -0.84531783      -3.57414021
C       -1.87316296      -0.98713933       2.06354610
C       -1.80223831      -0.74574604      -2.44221388
C        2.66499131      -0.52783027       2.43745764
C        0.94366704      -2.55496294      -2.24922175
C       -0.10098003      -3.64444887      -0.47065885
C       -3.31202214       2.65963531       1.54050077
C        1.06967960       2.50758955      -2.74427708
C        0.33398593      -0.50073361       1.98236942
C       -0.48442565      -2.64852594      -2.45058519
C       -4.07403650       0.82838994       0.22617471
C       -2.28408447       3.48803526       0.95718891
C       -0.37434123       2.27026641       2.16996554
C        1.04416782       1.70169124       2.39424208
C       -1.70613655      -3.32379159       1.33947668
C       -2.55903998      -1.02827304      -1.22913786
C        3.30509253       0.32327838       1.42164426
C        2.00145381      -3.17208900       1.37465229
C        1.20263318      -3.19133964      -1.01480556
C        1.40422508      -1.25088409      -2.72072847
C        1.53856254       3.35756257       0.70694610
C        2.92525784      -1.71283140       0.41518994
C        2.02981025       2.45855420       1.71841488
C       -0.83590044       1.33327413      -3.35488931
C        2.81915684       1.74196858      -0.31260545
C        0.61778117      -3.02327649       1.36913787
C        1.40760980       1.11089761      -2.95865000
C       -2.16771699       2.59792096      -1.24534132
C       -1.09220414      -2.93831121      -1.17700452
C        0.11009742      -1.67997273       1.14340549
C        2.00333039       0.06028799      -2.15175691
C        0.20807609       3.84892862       0.45224808
C       -3.17464210       0.26991107      -0.75512490
C        0.08371908       3.77057676      -0.98408057
60
Properties=species:S:1:pos:R:3 trajectory=trial0001_proposal001_step004_proposal_relax trajectory_step=23 pbc="F F F"
C       -2.80206958      -2.51676584       0.67470352
C        2.23689240      -2.86196445      -0.10228620
C        1.39505590       0.18539689       2.55098278
C       -0.96278985       3.19064394      -1.74691453
C       -2.98391874       3.13346123      -0.26182618
C        2.69901838      -1.90329261       1.79028782
C       -3.10006706      -1.05326028       1.51306282
C       -1.17068831      -2.05803370       1.56294055
C        2.08300127       2.89926950      -0.52094138
C       -0.36576869       2.60102192      -2.91027550
C       -0.84532567       3.35800610       1.28822573
C        3.09515617       1.68952571       1.11489188
C       -2.21207361      -2.22518765      -0.60029729
C        1.31411947       3.28301576      -1.59328137
C        2.69119866       0.43941164      -0.89283763
C       -0.96147562       0.00834722       2.31415944
C        3.13850836      -0.36823357       0.17245385
C       -1.66502638       0.63101104      -2.47049633
C       -2.34666499       1.22167583      -1.40133085
C       -0.40709818      -3.95611226       0.88333779
C        0.30700930       0.54773212      -3.67886572
C       -0.91646960      -1.54966215      -3.22167734
C       -4.02899830       2.30624869       0.32282212
C       -3.57017313       0.33786660       1.46475477
C       -2.77203964       1.43584202       1.98984387
C       -1.40320604       1.30664693       2.29134011
C        0.31349367      -0.84449688      -3.57408131
C       -1.87162456      -0.98909285       2.05845778
C       -1.80270217      -0.74510084      -2.44107488
C        2.66622570      -0.52827057       2.43759701
C        0.94382134      -2.55398196      -2.24791580
C       -0.10044738      -3.64553969      -0.47083856
C       -3.31210870       2.65950792       1.54249019
C        1.06956061       2.50845062      -2.74453780
C        0.33412031      -0.50075558       1.97857953
C       -0.48469805      -2.64678188      -2.45009323
C       -4.07413397       0.82921031       0.22857789
C       -2.28442863       3.48732648       0.95822112
C       -0.37438983       2.27000488       2.17043810
C        1.04433460       1.70124943       2.39451368
C       -1.70380801      -3.32392731       1.33805962
C       -2.55957639      -1.02893931      -1.22740060
C        3.30479783       0.32285962       1.42115782
C        2.00262255      -3.17299386       1.37594392
C        1.20456697      -3.19248052      -1.01379474
C        1.40461015      -1.25045110      -2.71995922
C        1.53815337       3.35709477       0.70737236
C        2.92562450      -1.70976065       0.41440457
C        2.03009644       2.45868479       1.71828757
C       -0.83579444       1.33437782      -3.35477999
C        2.81905552       1.74379303      -0.31268022
C        0.62048197      -3.02348446       1.36759525
C        1.40719660       1.11126121      -2.95884623
C       -2.16853845       2.59729503      -1.24727952
C       -1.09266087      -2.93937411      -1.17602502
C        0.11204322      -1.67952264       1.13924124
C        2.00326636       0.06142612      -2.15171103
C        0.20761785       3.84968070       0.45273077
C       -3.17499301       0.27001824      -0.75326364
C        0.08268308       3.77038611      -0.98395229
60
Properties=species:S:1:pos:R:3 trajectory=trial0001_proposal001_step004_proposal_relax trajectory_step=24 pbc="F F F"
C       -2.80130760      -2.51860059       0.67494351
C        2.23760512      -2.86264595      -0.10268778
C        1.39566999       0.18417809       2.54992478
C       -0.96455178       3.19243899      -1.74750776
C       -2.98428993       3.13362286      -0.25984039
C        2.69968144      -1.90280086       1.79049456
C       -3.10071052      -1.05394404       1.51213559
C       -1.17050496      -2.05639483       1.55962474
C        2.08308709       2.89907264      -0.52106979
C       -0.36660653       2.60183260      -2.91080171
C       -0.84543400       3.35717464       1.28803624
C        3.09469533       1.69018016       1.11489696
C       -2.21291235      -2.22667093      -0.60015381
C        1.31316849       3.28270186      -1.59360267
C        2.69128661       0.44037548      -0.89307509
C       -0.96057487       0.00822742       2.31294147
C        3.13711714      -0.36871512       0.17244128
C       -1.66580045       0.63102981      -2.46943565
C       -2.34825348       1.22217606      -1.40115605
C       -0.40453067      -3.95700504       0.88264442
C        0.30716199       0.54709389      -3.67919826
C       -0.91697172      -1.54999005      -3.22056253
C       -4.02987641       2.30735638       0.32470822
C       -3.57092917       0.33758687       1.46663059
C       -2.77209853       1.43526638       1.99112424
C       -1.40354505       1.30687483       2.29128292
C        0.31355817      -0.84465358      -3.57371385
C       -1.87128171      -0.98897134       2.05584491
C       -1.80330637      -0.74463346      -2.43943776
C        2.66788909      -0.52868114       2.43805576
C        0.94341011      -2.55304736      -2.24753260
C       -0.09865882      -3.64620699      -0.47179419
C       -3.31171891       2.65904242       1.54409313
C        1.06905903       2.50874212      -2.74517152
C        0.33434756      -0.50095576       1.97642124
C       -0.48558175      -2.64599766      -2.44920394
C       -4.07302884       0.83028738       0.23077561
C       -2.28408247       3.48611385       0.95920159
C       -0.37482234       2.26996774       2.17024241
C        1.04392426       1.70081982       2.39450169
C       -1.70116119      -3.32409814       1.33673217
C       -2.56075506      -1.02938121      -1.22608784
C        3.30427213       0.32277179       1.42052064
C        2.00354890      -3.17295351       1.37703219
C        1.20637311      -3.19212903      -1.01387270
C        1.40537576      -1.25058556      -2.72008997
C        1.53724031       3.35565446       0.70682643
C        2.92615742      -1.70845753       0.41412319
C        2.02968059       2.45872955       1.71821890
C       -0.83560301       1.33468630      -3.35397556
C        2.81937335       1.74441065      -0.31269563
C        0.62202069      -3.02324379       1.36630578
C        1.40683775       1.11178210      -2.95887445
C       -2.17019064       2.59800011      -1.24794545
C       -1.09259497      -2.94008930      -1.17517541
C        0.11261767      -1.67923029       1.13618865
C        2.00319860       0.06251479      -2.15130990
C        0.20725843       3.84951474       0.45261991
C       -3.17545581       0.27024214      -0.75151068
C        0.08209845       3.76989762      -0.98383984
60
Properties=species:S:1:pos:R:3 trajectory=trial0001_proposal001_step004_proposal_relax trajectory_step=25 pbc="F F F"
C       -2.80145722      -2.52382946       0.67558821
C        2.24002865      -2.86420301      -0.10268111
C        1.39692499       0.18206144       2.54728704
C       -0.96804199       3.19507431      -1.74884933
C       -2.98469866       3.13346127      -0.25598921
C        2.70123666      -1.90200088       1.78994586
C       -3.10203669      -1.05574125       1.51138427
C       -1.16845418      -2.05427785       1.55102914
C        2.08285795       2.89935000      -0.52141148
C       -0.36889722       2.60340152      -2.91184674
C       -0.84552055       3.35564163       1.28839733
C        3.09402624       1.69130709       1.11468446
C       -2.21466879      -2.23006498      -0.59975750
C        1.31073510       3.28249825      -1.59397756
C        2.69122159       0.44275698      -0.89391918
C       -0.95894942       0.00790836       2.30815435
C        3.13413113      -0.36826018       0.17155742
C       -1.66785002       0.63156553      -2.46820618
C       -2.35233047       1.22381284      -1.40196453
C       -0.39931174      -3.95902633       0.88189204
C        0.30672235       0.54685828      -3.67922322
C       -0.91755982      -1.54914808      -3.21744525
C       -4.03109367       2.30877231       0.32956721
C       -3.57305915       0.33684226       1.47149877
C       -2.77265951       1.43412614       1.99533536
C       -1.40347954       1.30645856       2.29137601
C        0.31343426      -0.84471709      -3.57261809
C       -1.86966042      -0.98853441       2.04831718
C       -1.80446536      -0.74393412      -2.43618217
C        2.67077545      -0.52944206       2.43849178
C        0.94320915      -2.55090243      -2.24574494
C       -0.09518014      -3.64835013      -0.47307984
C       -3.31145090       2.65837949       1.54894991
C        1.06717746       2.50993458      -2.74628297
C        0.33592466      -0.50115198       1.97095362
C       -0.48600641      -2.64424878      -2.44621015
C       -4.07107373       0.83174381       0.23541154
C       -2.28348253       3.48349007       0.96196077
C       -0.37522387       2.26970028       2.17079364
C        1.04322992       1.69980302       2.39451483
C       -1.69578093      -3.32454085       1.33437373
C       -2.56199280      -1.03002847      -1.22303626
C        3.30280531       0.32324764       1.41894418
C        2.00630446      -3.17308687       1.37858355
C        1.20931418      -3.19231858      -1.01415633
C        1.40652971      -1.24999047      -2.71986057
C        1.53554246       3.35396892       0.70593502
C        2.92609724      -1.70722782       0.41308447
C        2.02821210       2.45833323       1.71770420
C       -0.83610402       1.33464668      -3.35247211
C        2.82079952       1.74647248      -0.31332988
C        0.62526680      -3.02287707       1.36381356
C        1.40598969       1.11344252      -2.95954665
C       -2.17423390       2.60022333      -1.24899162
C       -1.09181956      -2.94155048      -1.17349637
C        0.11526887      -1.67894525       1.12980437
C        2.00315083       0.06512362      -2.15138235
C        0.20610613       3.84831082       0.45235772
C       -3.17603291       0.27105647      -0.74816256
C        0.08012789       3.76890846      -0.98365658
60
Properties=species:S:1:pos:R:3 trajectory=trial0001_proposal001_step004_proposal_relax trajectory_step=26 pbc="F F F"
C       -2.80238230      -2.53267745       0.67660511
C        2.24420860      -2.86577377      -0.10304651
C        1.39861602       0.17986849       2.54254771
C       -0.97364942       3.19783312      -1.75050592
C       -2.98619938       3.13293534      -0.24999340
C        2.70431340      -1.90081271       1.78870473
C       -3.10325625      -1.05827888       1.51201012
C       -1.16388877      -2.05242034       1.53500603
C        2.08022121       2.90008453      -0.52342881
C       -0.37374402       2.60520132      -2.91358652
C       -0.84554856       3.35275792       1.28920923
C        3.09308988       1.69295516       1.11420978
C       -2.21685363      -2.23506381      -0.60008275
C        1.30688507       3.28136884      -1.59375326
C        2.69079621       0.44583791      -0.89546215
C       -0.95592254       0.00629028       2.30023842
C        3.13001583      -0.36613252       0.16983338
C       -1.67135390       0.63309659      -2.46572332
C       -2.35919291       1.22692868      -1.40301989
C       -0.39127029      -3.96169034       0.88138059
C        0.30483145       0.54754279      -3.67764739
C       -0.91807435      -1.54686982      -3.21095945
C       -4.03185149       2.30968597       0.33812285
C       -3.57618906       0.33529564       1.47967568
C       -2.77300918       1.43213274       2.00364335
C       -1.40301642       1.30469232       2.29250853
C        0.31206751      -0.84324949      -3.57059461
C       -1.86613572      -0.98762559       2.03478886
C       -1.80598764      -0.74245683      -2.43087119
C        2.67393007      -0.53040496       2.43858860
C        0.94417933      -2.54771485      -2.24349223
C       -0.09005463      -3.65091531      -0.47434493
C       -3.31094640       2.65765508       1.55763243
C        1.06307576       2.51269361      -2.74814725
C        0.33937107      -0.50135509       1.96256499
C       -0.48530122      -2.64107978      -2.44225744
C       -4.06868123       0.83285340       0.24269544
C       -2.28292144       3.47944215       0.96623103
C       -0.37514606       2.26840891       2.17265040
C        1.04243670       1.69798270       2.39414443
C       -1.68808931      -3.32579934       1.33131986
C       -2.56277239      -1.03053238      -1.21812863
C        3.30033319       0.32403467       1.41696147
C        2.01113165      -3.17285309       1.37955394
C        1.21360631      -3.19224720      -1.01468266
C        1.40720319      -1.24788829      -2.72001249
C        1.53290052       3.35197950       0.70465520
C        2.92607796      -1.70595149       0.41125488
C        2.02516631       2.45709183       1.71614537
C       -0.83801614       1.33452671      -3.34946645
C        2.82380296       1.74899430      -0.31463389
C        0.63103156      -3.02189978       1.36067154
C        1.40438965       1.11636419      -2.96087126
C       -2.18074191       2.60371410      -1.25021986
C       -1.09005210      -2.94392242      -1.17154587
C        0.12111731      -1.67829872       1.12012133
C        2.00289058       0.06888718      -2.15247470
C        0.20357404       3.84515127       0.45112579
C       -3.17649011       0.27257438      -0.74337602
C        0.07605009       3.76733593      -0.98426154
60
Properties=species:S:1:pos:R:3 trajectory=trial0001_proposal001_step004_proposal_relax trajectory_step=27 pbc="F F F"
C       -2.80533349      -2.54302100       0.67724143
C        2.24912125      -2.86703678      -0.10343083
C        1.40058366       0.17886653       2.53767855
C       -0.97938377       3.19915156      -1.75182453
C       -2.98771480       3.13181985      -0.24417264
C        2.70773846      -1.89978933       1.78652773
C       -3.10477967      -1.06125990       1.51351634
C       -1.15810854      -2.04932748       1.51702408
C        2.07990111       2.89863845      -0.52304396
C       -0.37920097       2.60738876      -2.91446279
C       -0.84570799       3.34991354       1.29087099
C        3.09245264       1.69425409       1.11323229
C       -2.21929189      -2.24046026      -0.60026568
C        1.30036492       3.28112852      -1.59558357
C        2.69000104       0.44911422      -0.89751888
C       -0.95215464       0.00620046       2.28986666
C        3.12606111      -0.36435637       0.16804927
C       -1.67550420       0.63492491      -2.46380915
C       -2.36648632       1.23016877      -1.40421127
C       -0.38339674      -3.96451165       0.88170469
C        0.30155123       0.54987654      -3.67528471
C       -0.91849099      -1.54253330      -3.20409069
C       -4.03175071       2.30898241       0.34769109
C       -3.57921037       0.33342668       1.48892463
C       -2.77419840       1.43031931       2.01323314
C       -1.40098924       1.30152936       2.29438181
C        0.30992472      -0.84142054      -3.56782361
C       -1.86020116      -0.98873782       2.01721987
C       -1.80718480      -0.74110511      -2.42520895
C        2.67640497      -0.53105627       2.43791888
C        0.94587546      -2.54424674      -2.24130697
C       -0.08530004      -3.65336879      -0.47478096
C       -3.31046270       2.65628420       1.56786651
C        1.05828424       2.51566321      -2.74989666
C        0.34370129      -0.50169526       1.95282903
C       -0.48295507      -2.63882378      -2.43717523
C       -4.06647423       0.83267638       0.25036095
C       -2.28262280       3.47564455       0.97135901
C       -0.37482011       2.26696940       2.17561885
C        1.04180732       1.69637717       2.39396410
C       -1.68077992      -3.32705386       1.32836280
C       -2.56229054      -1.03073881      -1.21283486
C        3.29780675       0.32572870       1.41478445
C        2.01737729      -3.17300477       1.37949126
C        1.21701043      -3.19252591      -1.01545935
C        1.40737938      -1.24463111      -2.71973543
C        1.52991464       3.35120183       0.70286410
C        2.92582515      -1.70448546       0.40878736
C        2.02223062       2.45591816       1.71375859
C       -0.84153876       1.33404252      -3.34656001
C        2.82553190       1.75417986      -0.31692026
C        0.63724236      -3.02161404       1.35835099
C        1.40224927       1.12027373      -2.96243938
C       -2.18783923       2.60708104      -1.25020797
C       -1.08793104      -2.94628187      -1.17062138
C        0.12932153      -1.67812241       1.11016442
C        2.00253502       0.07290169      -2.15439020
C        0.20027040       3.84133414       0.45025226
C       -3.17696652       0.27368304      -0.73816705
C        0.07117610       3.76582838      -0.98445857
60
Properties=species:S:1:pos:R:3 trajectory=trial0001_proposal001_step004_proposal_relax trajectory_step=28 pbc="F F F"
C       -2.80715295      -2.54901093       0.67734172
C        2.25195200      -2.86690710      -0.10431910
C        1.40127532       0.17891426       2.53498525
C       -0.98294939       3.19927603      -1.75203200
C       -2.98924846       3.13123567      -0.24085123
C        2.71009064      -1.89923302       1.78527092
C       -3.10477765      -1.06287680       1.51531163
C       -1.15383646      -2.04909363       1.50521729
C        2.07645546       2.89972370      -0.52540122
C       -0.38307670       2.60814519      -2.91503623
C       -0.84601236       3.34779129       1.29195678
C        3.09213479       1.69518621       1.11245437
C       -2.22031775      -2.24318562      -0.60089456
C        1.29795761       3.28031642      -1.59458403
C        2.68947991       0.45058138      -0.89858045
C       -0.94978687       0.00436783       2.28401848
C        3.12449505      -0.36239086       0.16682683
C       -1.67819658       0.63613772      -2.46199465
C       -2.37047566       1.23173038      -1.40408119
C       -0.37926922      -3.96553565       0.88221964
C        0.29895493       0.55154804      -3.67323653
C       -0.91839720      -1.54035280      -3.19960846
C       -4.03094365       2.30774219       0.35339554
C       -3.58034157       0.33207858       1.49417636
C       -2.77409494       1.42875879       2.01943886
C       -1.40014594       1.29981904       2.29618722
C        0.30799985      -0.83914812      -3.56611491
C       -1.85685759      -0.98799161       2.00723920
C       -1.80767914      -0.73981649      -2.42179602
C        2.67707235      -0.53108564       2.43722528
C        0.94757790      -2.54252106      -2.24085179
C       -0.08293924      -3.65377716      -0.47473636
C       -3.30997040       2.65551648       1.57368384
C        1.05485540       2.51735731      -2.75139176
C        0.34682455      -0.50149187       1.94803641
C       -0.48124960      -2.63715347      -2.43575910
C       -4.06571828       0.83178733       0.25482538
C       -2.28287414       3.47366740       0.97418123
C       -0.37430472       2.26568665       2.17774904
C        1.04191232       1.69567981       2.39355452
C       -1.67710483      -3.32751389       1.32697808
C       -2.56161414      -1.03064944      -1.20981578
C        3.29664068       0.32659487       1.41379011
C        2.02123590      -3.17288585       1.37848292
C        1.21890336      -3.19207445      -1.01595107
C        1.40687257      -1.24221238      -2.72001005
C        1.52831691       3.35066734       0.70184399
C        2.92628446      -1.70399453       0.40745362
C        2.02043548       2.45510960       1.71222742
C       -0.84426461       1.33445556      -3.34469463
C        2.82722609       1.75448297      -0.31811546
C        0.64115668      -3.02136875       1.35771309
C        1.40064506       1.12255901      -2.96336280
C       -2.19171430       2.60868631      -1.24980291
C       -1.08667319      -2.94767282      -1.17062674
C        0.13465584      -1.67795583       1.10493443
C        2.00219788       0.07488205      -2.15580658
C        0.19813289       3.83867090       0.44932107
C       -3.17715616       0.27414535      -0.73536663
C        0.06797652       3.76488155      -0.98500771
60
Properties=species:S:1:pos:R:3 trajectory=trial0001_proposal001_step004_proposal_relax trajectory_step=29 pbc="F F F"
C       -2.80868595      -2.55319800       0.67706933
C        2.25411050      -2.86553836      -0.10575085
C        1.40157420       0.17988864       2.53390697
C       -0.98554921       3.19874515      -1.75158364
C       -2.99096922       3.13087000      -0.23875675
C        2.71225168      -1.89888464       1.78428970
C       -3.10390952      -1.06405184       1.51737163
C       -1.15044040      -2.04897834       1.49619889
C        2.07385251       2.89959427      -0.52727093
C       -0.38630499       2.60867399      -2.91510240
C       -0.84654520       3.34588377       1.29291761
C        3.09217994       1.69577109       1.11130301
C       -2.22064249      -2.24456624      -0.60183468
C        1.29563740       3.27963807      -1.59461862
C        2.68907426       0.45073776      -0.89940185
C       -0.94791069       0.00315369       2.28028219
C        3.12463873      -0.36075692       0.16603502
C       -1.68028722       0.63741669      -2.46036239
C       -2.37279089       1.23220889      -1.40244899
C       -0.37705116      -3.96562896       0.88291985
C        0.29596754       0.55352873      -3.67137708
C       -0.91838616      -1.53858823      -3.19680163
C       -4.02968604       2.30570032       0.35752301
C       -3.58003692       0.33066909       1.49772173
C       -2.77346630       1.42726982       2.02422182
C       -1.39931673       1.29775001       2.29864463
C        0.30593873      -0.83668298      -3.56472554
C       -1.85426424      -0.98787739       1.99995978
C       -1.80762270      -0.73890609      -2.41931466
C        2.67679898      -0.53051684       2.43623177
C        0.94945338      -2.54162232      -2.24176549
C       -0.08183797      -3.65262484      -0.47440145
C       -3.30928078       2.65436929       1.57753769
C        1.05209631       2.51881839      -2.75238314
C        0.34937199      -0.50136352       1.94550608
C       -0.47952102      -2.63639117      -2.43615357
C       -4.06585586       0.83015493       0.25814084
C       -2.28357642       3.47267937       0.97625853
C       -0.37374091       2.26440029       2.17962728
C        1.04251345       1.69554034       2.39314631
C       -1.67520316      -3.32734601       1.32611874
C       -2.56075002      -1.03041598      -1.20765450
C        3.29650418       0.32733766       1.41337569
C        2.02447716      -3.17270850       1.37654822
C        1.21984984      -3.19096635      -1.01665259
C        1.40604773      -1.23983976      -2.72057630
C        1.52696406       3.35023287       0.70082228
C        2.92766395      -1.70382254       0.40656042
C        2.01971152       2.45482657       1.71068120
C       -0.84756852       1.33530211      -3.34353396
C        2.82713445       1.75441424      -0.31927592
C        0.64432242      -3.02146462       1.35822189
C        1.39885536       1.12404494      -2.96394119
C       -2.19436708       2.60910870      -1.24860810
C       -1.08583906      -2.94845298      -1.17172955
C        0.13932359      -1.67783709       1.10196580
C        2.00176491       0.07597698      -2.15713517
C        0.19612409       3.83653879       0.44884321
C       -3.17748457       0.27384615      -0.73316647
C        0.06526322       3.76422251      -0.98541316
60
Properties=species:S:1:pos:R:3 trajectory=trial0001_proposal001_step004_proposal_relax trajectory_step=30 pbc="F F F"
C       -2.81087757      -2.55884507       0.67663310
C        2.25710241      -2.86363207      -0.10812887
C        1.40228591       0.18112050       2.53346990
C       -0.98941199       3.19844984      -1.75082938
C       -2.99330681       3.13049152      -0.23571453
C        2.71539492      -1.89836718       1.78300738
C       -3.10350876      -1.06625731       1.51931062
C       -1.14608502      -2.04720900       1.48496214
C        2.07083820       2.89936190      -0.52965363
C       -0.39059903       2.61001445      -2.91499673
C       -0.84761082       3.34329752       1.29454215
C        3.09239759       1.69657333       1.10931964
C       -2.22123618      -2.24657360      -0.60284157
C        1.29228002       3.27950754      -1.59493081
C        2.68862976       0.45105681      -0.90076989
C       -0.94541051       0.00169239       2.27531019
C        3.12558582      -0.35948945       0.16504221
C       -1.68346348       0.63871674      -2.45822110
C       -2.37542303       1.23227257      -1.39935131
C       -0.37423209      -3.96580592       0.88349792
C        0.29160110       0.55628314      -3.66965905
C       -0.91880969      -1.53634607      -3.19431846
C       -4.02843653       2.30282880       0.36298117
C       -3.57912074       0.32845402       1.50252508
C       -2.77293859       1.42505282       2.03022255
C       -1.39788946       1.29539224       2.30238031
C        0.30341661      -0.83376814      -3.56297943
C       -1.84986448      -0.98830069       1.99078186
C       -1.80751542      -0.73775270      -2.41608609
C        2.67703149      -0.52942945       2.43473295
C        0.95157272      -2.54029773      -2.24348396
C       -0.08033037      -3.65068249      -0.47425681
C       -3.30817508       2.65179667       1.58245179
C        1.04832982       2.52036922      -2.75391660
C        0.35242964      -0.50122216       1.94241676
C       -0.47760278      -2.63605372      -2.43700078
C       -4.06610212       0.82780592       0.26308030
C       -2.28467251       3.47139616       0.97950172
C       -0.37322695       2.26283440       2.18205732
C        1.04357190       1.69577985       2.39284811
C       -1.67229440      -3.32654463       1.32431954
C       -2.55992293      -1.03036841      -1.20463642
C        3.29704668       0.32874756       1.41235984
C        2.02912015      -3.17279030       1.37390542
C        1.22113775      -3.18910910      -1.01779615
C        1.40524985      -1.23679899      -2.72126856
C        1.52490638       3.34935529       0.69913947
C        2.93054205      -1.70294407       0.40530698
C        2.01953947       2.45493150       1.70887782
C       -0.85245185       1.33694699      -3.34273698
C        2.82586148       1.75431561      -0.32106967
C        0.64868258      -3.02209509       1.35895816
C        1.39585284       1.12609070      -2.96456130
C       -2.19795447       2.60926015      -1.24652256
C       -1.08493120      -2.94922215      -1.17357621
C        0.14556534      -1.67774676       1.09826567
C        2.00105373       0.07758470      -2.15874794
C        0.19355315       3.83408852       0.44878804
C       -3.17827018       0.27272181      -0.72945410
C        0.06167030       3.76334477      -0.98527670
60
Properties=species:S:1:pos:R:3 trajectory=trial0001_proposal001_step004_proposal_relax trajectory_step=31 pbc="F F F"
C       -2.81562010      -2.57175233       0.67580588
C        2.26429690      -2.85987152      -0.11387973
C        1.40467918       0.18272317       2.53330645
C       -0.99866093       3.19948315      -1.74863134
C       -2.99882651       3.12965703      -0.22705948
C        2.72315286      -1.89695545       1.77999974
C       -3.10042188      -1.07287293       1.52335212
C       -1.13544192      -2.04398373       1.46008136
C        2.06583143       2.89805470      -0.53321618
C       -0.40098393       2.61363538      -2.91524813
C       -0.84998479       3.33802665       1.29860338
C        3.09229414       1.69955882       1.10387590
C       -2.22316000      -2.25200394      -0.60429082
C        1.28298758       3.28055093      -1.59857285
C        2.68802542       0.45171126      -0.90415973
C       -0.93885237       0.00017779       2.26511614
C        3.12913021      -0.35609187       0.16136973
C       -1.69090403       0.64163254      -2.45360768
C       -2.38107110       1.23127559      -1.39147995
C       -0.36726605      -3.96652091       0.88327668
C        0.28219332       0.56074004      -3.66756203
C       -0.92005237      -1.53357454      -3.18999711
C       -4.02727536       2.29700493       0.37556750
C       -3.57746858       0.32226918       1.51361530
C       -2.77041324       1.41855013       2.04382902
C       -1.39579712       1.29050050       2.31084108
C        0.29825387      -0.82701246      -3.56012360
C       -1.84543545      -0.98847389       1.97114810
C       -1.80811552      -0.73550695      -2.40893742
C        2.67993231      -0.52639179       2.43101931
C        0.95482914      -2.53706979      -2.24735879
C       -0.07593776      -3.64637490      -0.47542254
C       -3.30589616       2.64507912       1.59284455
C        1.03956353       2.52511665      -2.75586016
C        0.35999430      -0.50043576       1.93644606
C       -0.47563801      -2.63453938      -2.44073486
C       -4.06626481       0.82253200       0.27524913
C       -2.28745254       3.46747252       0.98788759
C       -0.37188214       2.26039048       2.18740545
C        1.04611241       1.69667111       2.39307218
C       -1.66379441      -3.32242080       1.31855482
C       -2.55908749      -1.03130951      -1.19777848
C        3.29950855       0.33123068       1.40904489
C        2.03941543      -3.17325516       1.36833549
C        1.22503310      -3.18394983      -1.02041851
C        1.40380859      -1.23071535      -2.72311028
C        1.52052566       3.34651000       0.69578089
C        2.93849978      -1.70139722       0.40243518
C        2.02001439       2.45615749       1.70507542
C       -0.86421518       1.34144083      -3.34172267
C        2.82143774       1.75512447      -0.32561081
C        0.65893295      -3.02396996       1.35966597
C        1.38776050       1.13069330      -2.96581117
C       -2.20605770       2.60915028      -1.24131388
C       -1.08304437      -2.95088459      -1.17678094
C        0.15947190      -1.67748038       1.09047980
C        1.99879857       0.08184618      -2.16219358
C        0.18752953       3.82915803       0.44990187
C       -3.17987746       0.26947410      -0.71998305
C        0.05346048       3.76149969      -0.98391078
60
Properties=species:S:1:pos:R:3 trajectory=trial0001_proposal001_step004_proposal_relax trajectory_step=32 pbc="F F F"
C       -2.81799162      -2.57810504       0.67591107
C        2.26794412      -2.85865299      -0.11646394
C        1.40682837       0.18328701       2.53355933
C       -1.00348274       3.20043426      -1.74763363
C       -3.00119551       3.12903859      -0.22264759
C        2.72698384      -1.89622719       1.77843259
C       -3.10170222      -1.07660248       1.52359143
C       -1.13126398      -2.03981072       1.44998249
C        2.06288420       2.89836473      -0.53579525
C       -0.40603323       2.61590269      -2.91527940
C       -0.85118181       3.33579067       1.30091756
C        3.09229476       1.70054703       1.10133379
C       -2.22430900      -2.25494715      -0.60477823
C        1.27936715       3.28182961      -1.59862659
C        2.68772249       0.45263776      -0.90629566
C       -0.93687400      -0.00125420       2.26011749
C        3.13106109      -0.35572207       0.15959011
C       -1.69448030       0.64257894      -2.45169300
C       -2.38367858       1.23092524      -1.38774456
C       -0.36352451      -3.96718532       0.88258764
C        0.27762231       0.56345281      -3.66722318
C       -0.92138169      -1.53155077      -3.18896612
C       -4.02759474       2.29446460       0.38164968
C       -3.57693903       0.31915055       1.51928656
C       -2.77030464       1.41558470       2.04964672
C       -1.39396238       1.28879840       2.31460240
C        0.29611146      -0.82524335      -3.55905493
C       -1.83889724      -0.98893868       1.96260568
C       -1.80859380      -0.73492984      -2.40588995
C        2.68231827      -0.52505712       2.42919833
C        0.95563070      -2.53514394      -2.24907450
C       -0.07334260      -3.64478494      -0.47654324
C       -3.30486867       2.64109101       1.59813251
C        1.03485082       2.52673638      -2.75741696
C        0.36287362      -0.50035284       1.93345997
C       -0.47510371      -2.63467638      -2.44144666
C       -4.06597006       0.82013816       0.28125862
C       -2.28853045       3.46535129       0.99230887
C       -0.37148068       2.25958023       2.18999582
C        1.04738731       1.69729023       2.39354191
C       -1.65906966      -3.32065662       1.31491999
C       -2.55913688      -1.03220403      -1.19451571
C        3.30100561       0.33321834       1.40669092
C        2.04430204      -3.17364820       1.36613255
C        1.22692528      -3.18144195      -1.02190520
C        1.40326842      -1.22814023      -2.72402937
C        1.51823019       3.34531473       0.69423739
C        2.94276304      -1.69990438       0.40074154
C        2.02035160       2.45678316       1.70393223
C       -0.86938224       1.34326524      -3.34171182
C        2.81928522       1.75571841      -0.32779022
C        0.66379659      -3.02501133       1.35940532
C        1.38367588       1.13305613      -2.96622017
C       -2.21003504       2.60910785      -1.23852114
C       -1.08221357      -2.95157740      -1.17830038
C        0.16591053      -1.67709809       1.08687571
C        1.99750536       0.08413870      -2.16366398
C        0.18519349       3.82715875       0.45064358
C       -3.18059510       0.26764347      -0.71498243
C        0.04960032       3.76077132      -0.98286561
60
Properties=species:S:1:pos:R:3 trajectory=trial0001_proposal001_step004_proposal_relax trajectory_step=33 pbc="F F F"
C       -2.81999535      -2.58357595       0.67648309
C        2.27158072      -2.85788598      -0.11895435
C        1.40976320       0.18328358       2.53454779
C       -1.00826857       3.20207698      -1.74626646
C       -3.00337998       3.12815265      -0.21775353
C        2.73098137      -1.89547779       1.77670618
C       -3.10184109      -1.08106462       1.52328629
C       -1.12719433      -2.03537888       1.44278983
C        2.06040841       2.89895341      -0.53768507
C       -0.41115190       2.61855069      -2.91526222
C       -0.85227261       3.33441240       1.30357260
C        3.09196025       1.70168595       1.09846405
C       -2.22553090      -2.25805376      -0.60466782
C        1.27571085       3.28426115      -1.59906099
C        2.68765510       0.45367193      -0.90874223
C       -0.93478425      -0.00167556       2.25696322
C        3.13432988      -0.35586983       0.15703214
C       -1.69779305       0.64275407      -2.45011163
C       -2.38530696       1.22989551      -1.38377539
C       -0.35984352      -3.96774977       0.88068434
C        0.27352911       0.56529714      -3.66821526
C       -0.92331107      -1.53056456      -3.18966993
C       -4.02931638       2.29223438       0.38707728
C       -3.57666479       0.31533070       1.52438427
C       -2.77005941       1.41215746       2.05419613
C       -1.39230670       1.28789758       2.31788749
C        0.29436852      -0.82417988      -3.55922856
C       -1.83516917      -0.98945306       1.95635245
C       -1.80962922      -0.73474142      -2.40383128
C        2.68632204      -0.52348902       2.42708059
C        0.95500452      -2.53313853      -2.25093411
C       -0.07031818      -3.64340609      -0.47865663
C       -3.30413621       2.63636974       1.60249642
C        1.02988294       2.52841031      -2.75830874
C        0.36559434      -0.50002382       1.93222646
C       -0.47612959      -2.63513562      -2.44276209
C       -4.06544294       0.81772173       0.28695570
C       -2.28957853       3.46284205       0.99700649
C       -0.37111213       2.25952415       2.19252540
C        1.04888042       1.69826411       2.39480027
C       -1.65373843      -3.31772319       1.31015622
C       -2.55991243      -1.03383343      -1.19200786
C        3.30355910       0.33518148       1.40347737
C        2.04855767      -3.17405632       1.36426882
C        1.22890579      -3.17835585      -1.02361103
C        1.40264225      -1.22644211      -2.72537013
C        1.51625818       3.34419630       0.69315609
C        2.94799147      -1.69851654       0.39893676
C        2.02125977       2.45786194       1.70350894
C       -0.87427212       1.34512998      -3.34245327
C        2.81642065       1.75646816      -0.33008492
C        0.66797696      -3.02607819       1.35837636
C        1.37895472       1.13531800      -2.96626834
C       -2.21338328       2.60862109      -1.23502234
C       -1.08164942      -2.95199947      -1.17951283
C        0.17132820      -1.67656946       1.08483125
C        1.99561296       0.08642356      -2.16491090
C        0.18338310       3.82594522       0.45208513
C       -3.18091506       0.26527276      -0.70989882
C        0.04615927       3.76055612      -0.98107843
60
Properties=species:S:1:pos:R:3 trajectory=trial0001_proposal001_step004_proposal_relax trajectory_step=34 pbc="F F F"
C       -2.82324524      -2.59238812       0.67764434
C        2.27757277      -2.85672147      -0.12268260
C        1.41487253       0.18340588       2.53531634
C       -1.01578525       3.20422358      -1.74365953
C       -3.00710491       3.12605951      -0.20939323
C        2.73776419      -1.89424893       1.77337317
C       -3.10121103      -1.08808787       1.52352199
C       -1.11947956      -2.03033297       1.43107055
C        2.05628270       2.89984131      -0.53986051
C       -0.42004281       2.62215844      -2.91509879
C       -0.85355814       3.33275606       1.30818112
C        3.09103262       1.70364878       1.09385417
C       -2.22738026      -2.26310818      -0.60458105
C        1.26906675       3.28802065      -1.60032992
C        2.68749823       0.45527144      -0.91276181
C       -0.93097347      -0.00250844       2.25253326
C        3.13976881      -0.35484068       0.15195420
C       -1.70274527       0.64314930      -2.44751927
C       -2.38792153       1.22844693      -1.37809692
C       -0.35358441      -3.96840534       0.87739173
C        0.26704980       0.56787506      -3.66933733
C       -0.92639615      -1.52939327      -3.19012531
C       -4.03217719       2.28830752       0.39610712
C       -3.57691858       0.30891040       1.53252843
C       -2.76927911       1.40638503       2.06181244
C       -1.38999518       1.28619693       2.32252451
C        0.29080445      -0.82182027      -3.56037643
C       -1.82983467      -0.98929997       1.94659877
C       -1.81179609      -0.73464247      -2.40099139
C        2.69299929      -0.52109528       2.42321184
C        0.95386875      -2.52981502      -2.25366393
C       -0.06533551      -3.64163781      -0.48204125
C       -3.30348243       2.62945350       1.60986952
C        1.02134508       2.53197414      -2.75889173
C        0.37076311      -0.49917558       1.93101045
C       -0.47782833      -2.63498619      -2.44505527
C       -4.06455852       0.81331923       0.29555463
C       -2.29129221       3.45841673       1.00455890
C       -0.37002418       2.25950677       2.19730575
C        1.05138754       1.69946677       2.39722517
C       -1.64501709      -3.31301892       1.30243277
C       -2.56093221      -1.03656983      -1.18841608
C        3.30767458       0.33780575       1.39815709
C        2.05523094      -3.17415207       1.36100036
C        1.23213497      -3.17347625      -1.02642389
C        1.40066260      -1.22355093      -2.72814667
C        1.51347543       3.34318641       0.69207141
C        2.95599690      -1.69726193       0.39561918
C        2.02211517       2.45925363       1.70255401
C       -0.88216090       1.34751623      -3.34285082
C        2.81245177       1.75816801      -0.33389021
C        0.67467503      -3.02703326       1.35608861
C        1.37124095       1.13910833      -2.96637739
C       -2.21848372       2.60778795      -1.22917274
C       -1.08065979      -2.95305130      -1.18110879
C        0.18023526      -1.67529982       1.08198122
C        1.99202536       0.08997639      -2.16734352
C        0.18018941       3.82397766       0.45429212
C       -3.18069543       0.26183537      -0.70239679
C        0.04028826       3.76079596      -0.97854190
60
Properties=species:S:1:pos:R:3 trajectory=trial0001_proposal001_step004_proposal_relax trajectory_step=35 pbc="F F F"
C       -2.82929813      -2.60925381       0.68015328
C        2.28915902      -2.85420829      -0.13045369
C        1.42593115       0.18453694       2.53578710
C       -1.03060387       3.20700173      -1.73762560
C       -3.01443182       3.12017920      -0.19296828
C        2.75197795      -1.89167000       1.76558384
C       -3.09578578      -1.10089171       1.52681090
C       -1.10394328      -2.02108915       1.40924345
C        2.04607756       2.90282165      -0.54494712
C       -0.43845597       2.62803176      -2.91357473
C       -0.85571900       3.33019444       1.31820290
C        3.08910512       1.70674146       1.08500079
C       -2.23046522      -2.27265386      -0.60457733
C        1.25615215       3.29489723      -1.60025872
C        2.68674939       0.45878849      -0.92143430
C       -0.92199207      -0.00249969       2.24573037
C        3.15048941      -0.35277021       0.14116904
C       -1.71186580       0.64340535      -2.44203118
C       -2.39285244       1.22570366      -1.36758035
C       -0.34070360      -3.96899612       0.87124068
C        0.25336912       0.57426626      -3.67036376
C       -0.93323124      -1.52631830      -3.19079692
C       -4.03743497       2.27894739       0.41428797
C       -3.57788204       0.29600793       1.54802981
C       -2.76793534       1.39525866       2.07673225
C       -1.38500301       1.28145911       2.33064555
C        0.28184182      -0.81734526      -3.56400893
C       -1.82119777      -0.99154820       1.92598048
C       -1.81692782      -0.73505811      -2.39620835
C        2.70599660      -0.51692097       2.41441349
C        0.95189908      -2.52278472      -2.25930579
C       -0.05573052      -3.63855707      -0.48867304
C       -3.30320533       2.61667962       1.62551921
C        1.00328192       2.53875548      -2.76013260
C        0.38230943      -0.49771106       1.92991347
C       -0.48024261      -2.63430675      -2.44840035
C       -4.06304943       0.80361519       0.31117165
C       -2.29460116       3.44962217       1.01948445
C       -0.36744937       2.25899366       2.20817480
C        1.05695214       1.70132771       2.40256375
C       -1.62832272      -3.30504292       1.28763614
C       -2.56243050      -1.04175588      -1.18220917
C        3.31587298       0.34310580       1.38715850
C        2.06857865      -3.17306365       1.35369832
C        1.23807351      -3.16439287      -1.03258853
C        1.39469574      -1.21689952      -2.73510695
C        1.50799772       3.34295606       0.69074044
C        2.97156960      -1.69440430       0.38756848
C        2.02276158       2.46106642       1.70036889
C       -0.89749051       1.35104790      -3.34190993
C        2.80573061       1.76165960      -0.34133193
C        0.68810468      -3.02697263       1.35060642
C        1.35595399       1.14686183      -2.96654514
C       -2.22831423       2.60589579      -1.21663908
C       -1.07857440      -2.95588500      -1.18484283
C        0.19907387      -1.67186301       1.07645528
C        1.98390786       0.09657599      -2.17280399
C        0.17352381       3.82072809       0.45849529
C       -3.17939281       0.25541479      -0.68896099
C        0.02796999       3.76259876      -0.97407750
60
Properties=species:S:1:pos:R:3 trajectory=trial0001_proposal001_step004_proposal_relax trajectory_step=36 pbc="F F F"
C       -2.83608810      -2.63109872       0.68364332
C        2.30394185      -2.85047988      -0.14058715
C        1.44004719       0.18605135       2.53506931
C       -1.04928405       3.20970694      -1.72962777
C       -3.02396061       3.11177220      -0.17129923
C        2.77057545      -1.88817008       1.75459482
C       -3.09061216      -1.11613154       1.53155737
C       -1.08163662      -2.01395691       1.37840068
C        2.03417507       2.90561571      -0.54900988
C       -0.46212038       2.63435270      -2.91075845
C       -0.85818868       3.32679032       1.33133624
C        3.08629703       1.71123771       1.07372049
C       -2.23382806      -2.28457207      -0.60484669
C        1.23734980       3.30233677      -1.60248148
C        2.68554829       0.46332077      -0.93221616
C       -0.91122938      -0.00734715       2.23598834
C        3.16269561      -0.34742338       0.12629879
C       -1.72354496       0.64364803      -2.43437103
C       -2.39977101       1.22262341      -1.35525539
C       -0.32350358      -3.96910952       0.86430614
C        0.23592090       0.58117016      -3.67058210
C       -0.94169624      -1.52351290      -3.18968866
C       -4.04285940       2.26651523       0.43794287
C       -3.57888682       0.27993197       1.56798849
C       -2.76600604       1.38099438       2.09653551
C       -1.37940585       1.27572616       2.34025546
C        0.26911800      -0.80935976      -3.56920590
C       -1.80559470      -0.98905138       1.90150445
C       -1.82396412      -0.73521462      -2.39001221
C        2.72196738      -0.51204608       2.40265651
C        0.95027866      -2.51354382      -2.26599366
C       -0.04380150      -3.63546723      -0.49643382
C       -3.30351248       2.60196434       1.64659832
C        0.98058835       2.54859325      -2.76014831
C        0.39780989      -0.49537748       1.92827762
C       -0.48251582      -2.63121127      -2.45261146
C       -4.06116015       0.79063682       0.33057806
C       -2.29910377       3.43826145       1.03837513
C       -0.36378250       2.25787091       2.22273209
C        1.06402064       1.70299013       2.40932914
C       -1.60724221      -3.29577752       1.26986933
C       -2.56389692      -1.04810174      -1.17410070
C        3.32554219       0.34856828       1.37343914
C        2.08622900      -3.17067199       1.34376912
C        1.24582769      -3.15388466      -1.04074471
C        1.38606207      -1.20760974      -2.74448932
C        1.50096445       3.34336267       0.68942534
C        2.98978823      -1.69226050       0.37641260
C        2.02259698       2.46268884       1.69640703
C       -0.91728961       1.35509922      -3.33878668
C        2.79790285       1.76713631      -0.35098506
C        0.70578373      -3.02538642       1.34302187
C        1.33682951       1.15679703      -2.96729746
C       -2.24093052       2.60325141      -1.20143579
C       -1.07583867      -2.96029992      -1.18912679
C        0.22269074      -1.66696681       1.06828733
C        1.97320055       0.10505544      -2.18042383
C        0.16405083       3.81690848       0.46383798
C       -3.17765577       0.24786295      -0.67278593
C        0.01168088       3.76547441      -0.96864367
60
Properties=species:S:1:pos:R:3 trajectory=trial0001_proposal001_step004_proposal_relax trajectory_step=37 pbc="F F F"
C       -2.83600239      -2.63792655       0.68664346
C        2.30911683      -2.84845990      -0.14611513
C        1.44703723       0.18700610       2.53428864
C       -1.05665205       3.20959552      -1.72456180
C       -3.02745691       3.10589849      -0.16183819
C        2.77938327      -1.88631564       1.74796287
C       -3.08488620      -1.12058926       1.53574813
C       -1.07303708      -2.01241749       1.36850306
C        2.02778425       2.90827082      -0.55021083
C       -0.47208373       2.63505998      -2.90729808
C       -0.85907633       3.32647119       1.33805220
C        3.08487438       1.71273873       1.06901466
C       -2.23368983      -2.28839301      -0.60461943
C        1.22925716       3.30472673      -1.60136053
C        2.68439859       0.46573916      -0.93742134
C       -0.90551643      -0.00820179       2.23537315
C        3.16728481      -0.34403738       0.11828065
C       -1.72754252       0.64294074      -2.43085149
C       -2.40198813       1.22056070      -1.35075056
C       -0.31573235      -3.96760672       0.86177297
C        0.22798652       0.58427174      -3.67024848
C       -0.94634594      -1.52330136      -3.18984847
C       -4.04439326       2.25972623       0.44710307
C       -3.57842557       0.27302359       1.57466390
C       -2.76463159       1.37529352       2.10347378
C       -1.37726658       1.27183434       2.34259927
C        0.26163267      -0.80593254      -3.57363155
C       -1.79919481      -0.98958729       1.89364523
C       -1.82825558      -0.73669841      -2.38901991
C        2.72902098      -0.51070147       2.39601384
C        0.94936768      -2.50905380      -2.26917543
C       -0.03942456      -3.63535403      -0.49974531
C       -3.30532829       2.59710478       1.65579363
C        0.97075479       2.55235390      -2.75882005
C        0.40496195      -0.49478447       1.92976562
C       -0.48317433      -2.62834650      -2.45387665
C       -4.06060054       0.78389314       0.33671323
C       -2.30137096       3.43358168       1.04621584
C       -0.36192622       2.25697101       2.22983304
C        1.06769294       1.70322120       2.41290778
C       -1.59957259      -3.29348002       1.26345503
C       -2.56454628      -1.05096191      -1.17198980
C        3.32981932       0.35028045       1.36670231
C        2.09348273      -3.16778098       1.33837249
C        1.24872539      -3.15068938      -1.04517106
C        1.38018711      -1.20298601      -2.75015832
C        1.49812031       3.34525787       0.69022941
C        2.99662367      -1.69135133       0.36922435
C        2.02162600       2.46259161       1.69432452
C       -0.92519312       1.35559941      -3.33517370
C        2.79530616       1.76960162      -0.35488990
C        0.71352688      -3.02195554       1.33834504
C        1.32883564       1.16064538      -2.96791658
C       -2.24506660       2.60076191      -1.19466065
C       -1.07480839      -2.96297272      -1.19113057
C        0.23224747      -1.66364654       1.06523161
C        1.96730493       0.10825837      -2.18436545
C        0.15966269       3.81743284       0.46700003
C       -3.17658022       0.24464397      -0.66811370
C        0.00431990       3.76845775      -0.96608031
60
Properties=species:S:1:pos:R:3 trajectory=trial0001_proposal001_step004_proposal_relax trajectory_step=38 pbc="F F F"
C       -2.83431143      -2.65494901       0.69293896
C        2.32181664      -2.84258418      -0.16157379
C        1.46256058       0.18860737       2.53173559
C       -1.07545950       3.20914872      -1.71268705
C       -3.03490852       3.09156102      -0.13982779
C        2.80116025      -1.88140113       1.73064273
C       -3.07048844      -1.13102969       1.54747706
C       -1.05081322      -2.00821271       1.33771449
C        2.01279743       2.91339889      -0.55347550
C       -0.49573504       2.63707882      -2.89769109
C       -0.86255514       3.32335284       1.35427246
C        3.08220035       1.71659281       1.05740041
C       -2.23299485      -2.29799467      -0.60390131
C        1.20847816       3.30947110      -1.59782513
C        2.68017432       0.47291954      -0.95084444
C       -0.88975013      -0.01346727       2.23040954
C        3.17498345      -0.33686948       0.09998618
C       -1.73922558       0.64043867      -2.42131934
C       -2.41003237       1.21559109      -1.33927745
C       -0.29541770      -3.96404872       0.85752255
C        0.20684920       0.59340723      -3.66874618
C       -0.95770047      -1.52034091      -3.18894450
C       -4.04609658       2.24216964       0.47099626
C       -3.57494566       0.25777922       1.59205751
C       -2.76145792       1.36187410       2.12221824
C       -1.37119785       1.26346871       2.35013364
C        0.24318097      -0.79725040      -3.58171803
C       -1.78218999      -0.99059750       1.87175480
C       -1.83837993      -0.73902278      -2.38432672
C        2.74471732      -0.50785109       2.37971711
C        0.94882721      -2.49757644      -2.27689801
C       -0.02864438      -3.63523164      -0.50714312
C       -3.30906736       2.58479404       1.68083223
C        0.94737717       2.56024681      -2.75656186
C        0.42310616      -0.49352918       1.92929150
C       -0.48255001      -2.62183167      -2.45484776
C       -4.05919722       0.76798420       0.35413026
C       -2.30705998       3.42282792       1.06631793
C       -0.35819096       2.25305455       2.24608880
C        1.07579931       1.70330379       2.41998676
C       -1.57934883      -3.28986452       1.25159677
C       -2.56591938      -1.05759253      -1.16466423
C        3.33818461       0.35564155       1.35025458
C        2.11387081      -3.16064825       1.32397280
C        1.25589167      -3.14410615      -1.05699100
C        1.36711358      -1.19016503      -2.76283293
C        1.48925333       3.34875609       0.69087308
C        3.01199073      -1.68630060       0.35004177
C        2.01882684       2.46201573       1.68827819
C       -0.94511550       1.35789677      -3.32538747
C        2.78826705       1.77716751      -0.36472761
C        0.73426473      -3.01337763       1.32803285
C        1.30991684       1.17044616      -2.97077231
C       -2.25760404       2.59540406      -1.17837611
C       -1.07139897      -2.96953202      -1.19629647
C        0.25614824      -1.65675013       1.05325841
C        1.95393553       0.11707835      -2.19454729
C        0.14790465       3.81827687       0.47503386
C       -3.17660215       0.23629073      -0.65560719
C       -0.01466567       3.77436243      -0.95894626
60
Properties=species:S:1:pos:R:3 trajectory=trial0001_proposal001_step004_proposal_relax trajectory_step=39 pbc="F F F"
C       -2.82988279      -2.67655911       0.70172007
C        2.33880016      -2.83418796      -0.18320534
C        1.48277906       0.18944047       2.53015154
C       -1.10080142       3.21020291      -1.69707307
C       -3.04504526       3.07453665      -0.10875445
C        2.82941464      -1.87456545       1.70747692
C       -3.05497203      -1.14635794       1.56047186
C       -1.02540613      -1.99827062       1.29687341
C        1.99350980       2.92094514      -0.55746739
C       -0.52550846       2.64130301      -2.88516032
C       -0.86814374       3.31837101       1.37476681
C        3.07871952       1.72335117       1.04128768
C       -2.23195917      -2.31101440      -0.60226602
C        1.18134681       3.31624989      -1.59480301
C        2.67419852       0.48308384      -0.96788544
C       -0.87163442      -0.01608696       2.22306285
C        3.18334255      -0.32478585       0.07507152
C       -1.75623318       0.63892900      -2.40922365
C       -2.42217586       1.20771069      -1.32258617
C       -0.26809056      -3.96016564       0.85163682
C        0.17972183       0.60394858      -3.66895316
C       -0.97169605      -1.51810757      -3.18810916
C       -4.04786678       2.22116833       0.50236285
C       -3.56747666       0.23778545       1.61572938
C       -2.75561378       1.34418248       2.14716798
C       -1.36191945       1.24908413       2.36232111
C        0.22110184      -0.78509147      -3.59013690
C       -1.75656170      -0.99362149       1.84390748
C       -1.85120326      -0.74271018      -2.37678078
C        2.76569308      -0.50345356       2.35880643
C        0.94757247      -2.48269420      -2.28725083
C       -0.01385975      -3.63500991      -0.51725301
C       -3.31273959       2.56722996       1.71242898
C        0.91817159       2.57061195      -2.75267060
C        0.44520807      -0.49384953       1.92444041
C       -0.48368934      -2.61299855      -2.45808571
C       -4.05718821       0.74817602       0.37951889
C       -2.31557049       3.40871866       1.09333312
C       -0.35377206       2.24872787       2.26459873
C        1.08563070       1.70374279       2.42784115
C       -1.55090813      -3.28412395       1.23826250
C       -2.56921033      -1.06705548      -1.15395965
C        3.34831930       0.36286245       1.32809995
C        2.14136817      -3.15237824       1.30428035
C        1.26593679      -3.13546468      -1.07244231
C        1.35257086      -1.17427988      -2.77739181
C        1.47704648       3.35061470       0.69117534
C        3.03142811      -1.68041729       0.32483054
C        2.01625510       2.46236691       1.68128080
C       -0.97275659       1.36221571      -3.31407700
C        2.77763087       1.78559827      -0.37812999
C        0.76290639      -3.00470299       1.31558656
C        1.28476827       1.18298740      -2.97576105
C       -2.27391910       2.58704191      -1.15875143
C       -1.06660150      -2.97708948      -1.20215961
C        0.28814780      -1.64831113       1.03576079
C        1.93756174       0.12993551      -2.20790200
C        0.13234541       3.81896464       0.48708676
C       -3.17937079       0.22354764      -0.63722997
C       -0.03914767       3.77999969      -0.94766060
60
Properties=species:S:1:pos:R:3 trajectory=trial0001_proposal001_step004_proposal_relax trajectory_step=40 pbc="F F F"
C       -2.81842628      -2.70237184       0.71611200
C        2.36041122      -2.82354199      -0.21450210
C        1.50910612       0.18821987       2.52788959
C       -1.13441324       3.21181405      -1.67522443
C       -3.05642286       3.05104296      -0.06862249
C        2.86717595      -1.86482289       1.67440339
C       -3.03107038      -1.16690769       1.57765776
C       -0.99093122      -1.98421858       1.24342835
C        1.96841045       2.93148544      -0.56213692
C       -0.56401615       2.64662609      -2.86689016
C       -0.87664254       3.31164479       1.40260317
C        3.07412038       1.73249872       1.01975843
C       -2.22913676      -2.32819778      -0.59861074
C        1.14577931       3.32646817      -1.58824078
C        2.66428004       0.49878330      -0.99245895
C       -0.84599391      -0.02446870       2.21343782
C        3.19189122      -0.31094305       0.04156163
C       -1.78005081       0.63479477      -2.39348163
C       -2.43960410       1.19589256      -1.30031629
C       -0.23023450      -3.95421267       0.84393174
C        0.14313464       0.61873072      -3.67106390
C       -0.99132828      -1.51432159      -3.18882425
C       -4.05091413       2.19302515       0.54379880
C       -3.55443705       0.21145468       1.64643332
C       -2.74681425       1.32039922       2.17917339
C       -1.34948780       1.23420325       2.37918960
C        0.19240168      -0.77109376      -3.60081321
C       -1.72534453      -0.99572787       1.81231495
C       -1.86912925      -0.74799830      -2.36729162
C        2.79479432      -0.49798521       2.32976221
C        0.94447240      -2.46267448      -2.30095457
C        0.00631880      -3.63605971      -0.53148931
C       -3.31738258       2.54287374       1.75482889
C        0.87961739       2.58272408      -2.74691532
C        0.47410536      -0.49356978       1.91706829
C       -0.48590084      -2.60231790      -2.46087458
C       -4.05422813       0.72233656       0.41427524
C       -2.32663651       3.39038740       1.13030867
C       -0.34852229       2.24227159       2.28747880
C        1.09828445       1.70403771       2.43737741
C       -1.51214822      -3.27727484       1.22339479
C       -2.57535888      -1.08099141      -1.14040225
C        3.36057552       0.37390955       1.29654382
C        2.17891371      -3.14117576       1.27669776
C        1.27908058      -3.12501488      -1.09451145
C        1.33382288      -1.15339494      -2.79616922
C        1.45985679       3.35272088       0.69261710
C        3.05645132      -1.66823457       0.28810198
C        2.01303273       2.46297173       1.67282611
C       -1.00858349       1.36828316      -3.29911814
C        2.76196027       1.79936763      -0.39603539
C        0.80118418      -2.99288083       1.29829334
C        1.25163076       1.19960664      -2.98354414
C       -2.29634250       2.57529027      -1.13113595
C       -1.05968346      -2.98660270      -1.20965446
C        0.32810075      -1.63770546       1.01146121
C        1.91584169       0.14795476      -2.22635022
C        0.11207194       3.82104560       0.50466210
C       -3.18532315       0.20505023      -0.61305108
C       -0.07174795       3.78707430      -0.93049934
60
Properties=species:S:1:pos:R:3 trajectory=trial0001_proposal001_step004_proposal_relax trajectory_step=41 pbc="F F F"
C       -2.77144503      -2.77810942       0.76859030
C        2.43155142      -2.78812843      -0.30994229
C        1.58852501       0.18251970       2.51650905
C       -1.23824567       3.21287936      -1.60764328
C       -3.09184891       2.98204075       0.05266933
C        2.98192807      -1.83448842       1.56712392
C       -2.95488265      -1.23564870       1.62536408
C       -0.88735779      -1.94053022       1.07800807
C        1.89327879       2.96338009      -0.57222548
C       -0.68435472       2.66442523      -2.81175325
C       -0.90208900       3.29069571       1.48730807
C        3.05875324       1.76120747       0.95327983
C       -2.21823121      -2.38223879      -0.58302339
C        1.03553549       3.36226698      -1.57040071
C        2.63056910       0.55001281      -1.06975892
C       -0.76998275      -0.04454478       2.18532522
C        3.21342437      -0.26240478      -0.06476456
C       -1.85703398       0.62024917      -2.34812909
C       -2.49780232       1.15939327      -1.23255269
C       -0.11409181      -3.93512387       0.81888348
C        0.03100288       0.66342115      -3.67929667
C       -1.05022018      -1.49745895      -3.18942559
C       -4.06390457       2.10726725       0.67563932
C       -3.51057259       0.12950952       1.74234939
C       -2.71829646       1.24691190       2.27923560
C       -1.30364592       1.18485083       2.43605711
C        0.10704823      -0.72689908      -3.62876197
C       -1.62903187      -1.00454582       1.71937389
C       -1.92421643      -0.76053475      -2.33884975
C        2.88248875      -0.47895772       2.23955845
C        0.93301271      -2.40521304      -2.34216309
C        0.06993304      -3.63760976      -0.57546083
C       -3.32484064       2.46199033       1.88612205
C        0.75933638       2.62187002      -2.72790216
C        0.56280174      -0.49142910       1.88854139
C       -0.49326631      -2.57592895      -2.46937974
C       -4.04430002       0.64235074       0.52716344
C       -2.35789206       3.33512264       1.24477472
C       -0.33145957       2.22080863       2.35468755
C        1.13579573       1.70208409       2.46201367
C       -1.38797002      -3.25077402       1.18045204
C       -2.59871465      -1.12865343      -1.10190436
C        3.39314788       0.41217610       1.19752475
C        2.29710083      -3.10885125       1.18584371
C        1.31586929      -3.09122287      -1.16545048
C        1.27722317      -1.09068504      -2.85036980
C        1.40647046       3.35940604       0.69866311
C        3.12829086      -1.63288116       0.17354355
C        2.00446438       2.46529211       1.64983679
C       -1.11975050       1.38649088      -3.25686102
C        2.71063603       1.84659347      -0.45186870
C        0.91854771      -2.96001950       1.24630444
C        1.14996103       1.25350805      -3.00922556
C       -2.36717239       2.53997800      -1.03970808
C       -1.03624612      -3.01469190      -1.23301652
C        0.45001579      -1.60791415       0.93914661
C        1.85146421       0.20516199      -2.28579837
C        0.05055464       3.82033427       0.55822155
C       -3.20785496       0.14663608      -0.53826140
C       -0.17144199       3.80493047      -0.87600945
60
Properties=species:S:1:pos:R:3 trajectory=trial0001_proposal001_step004_proposal_relax trajectory_step=42 pbc="F F F"
C       -2.68202388      -2.83636562       0.84179483
C        2.49886477      -2.75110491      -0.42893598
C        1.67561244       0.17009071       2.49987843
C       -1.34770032       3.20886836      -1.52511868
C       -3.12674907       2.90331873       0.18834696
C        3.10562251      -1.79679457       1.43720219
C       -2.84993204      -1.30544364       1.67675947
C       -0.78610523      -1.88997988       0.91310633
C        1.80904158       3.00741467      -0.57670925
C       -0.80859475       2.67637514      -2.74127705
C       -0.93129370       3.26898244       1.58094440
C        3.03891546       1.79733931       0.88159414
C       -2.19307571      -2.43497954      -0.55664462
C        0.91927482       3.40164983      -1.54117575
C        2.58413092       0.61649932      -1.15829551
C       -0.68729205      -0.07526428       2.16525096
C        3.21860885      -0.20641531      -0.18723657
C       -1.94413749       0.60392152      -2.30137707
C       -2.56741104       1.11250870      -1.16284134
C        0.01558778      -3.90718327       0.79341673
C       -0.08893385       0.71057289      -3.69295854
C       -1.11267201      -1.48537096      -3.19128066
C       -4.07427519       2.01479889       0.81535095
C       -3.44454342       0.04111280       1.83836572
C       -2.67528251       1.16682995       2.38069070
C       -1.25323377       1.13303204       2.49831749
C        0.01415715      -0.68112668      -3.65739546
C       -1.52800915      -1.01299234       1.64894726
C       -1.99025832      -0.78229949      -2.31237191
C        2.97732589      -0.46059397       2.13310342
C        0.91552338      -2.34312567      -2.38779961
C        0.13854636      -3.64614561      -0.62437139
C       -3.33082547       2.37632636       2.02488639
C        0.63311608       2.65971666      -2.69866037
C        0.65201876      -0.49324765       1.85087213
C       -0.50723787      -2.54258861      -2.47903417
C       -4.03246768       0.55513047       0.64790690
C       -2.39324372       3.27697830       1.36872461
C       -0.31199556       2.19487272       2.41906390
C        1.17517008       1.69581228       2.48151395
C       -1.25284981      -3.22945304       1.15300724
C       -2.63322488      -1.18573636      -1.06782684
C        3.41825826       0.45314138       1.08205746
C        2.42518043      -3.07019355       1.07608968
C        1.35530651      -3.06269152      -1.24482411
C        1.21435558      -1.02453776      -2.90713336
C        1.34826423       3.36726738       0.71337346
C        3.19477097      -1.57835963       0.03178800
C        1.99315399       2.46642732       1.62821649
C       -1.23696067       1.40218019      -3.20608177
C        2.65342041       1.90248742      -0.51148619
C        1.04785622      -2.91864264       1.18593509
C        1.04304005       1.31139947      -3.04436692
C       -2.43835965       2.49159654      -0.94201616
C       -1.00909394      -3.04562531      -1.25471129
C        0.56994804      -1.57502047       0.86005849
C        1.78173797       0.27065669      -2.35567515
C       -0.01610578       3.82427583       0.62367864
C       -3.24385137       0.07743623      -0.46572421
C       -0.27850416       3.82253514      -0.80870683
60
Properties=species:S:1:pos:R:3 trajectory=trial0001_proposal001_step004_proposal_relax trajectory_step=43 pbc="F F F"
C       -2.53230762      -2.85492528       0.93433835
C        2.55763667      -2.70831726      -0.56183202
C        1.75974062       0.14624134       2.46733303
C       -1.45021194       3.19255019      -1.42937087
C       -3.15393575       2.82060677       0.31425386
C        3.22237601      -1.75065788       1.28151011
C       -2.71050199      -1.36800407       1.71398445
C       -0.70970280      -1.83798047       0.77046937
C        1.73084010       3.05756436      -0.56848842
C       -0.92354843       2.67582918      -2.66038895
C       -0.95959789       3.24427908       1.67332706
C        3.01346488       1.83500266       0.81157839
C       -2.14043681      -2.47070604      -0.51040138
C        0.80457960       3.44445523      -1.50379995
C        2.52551066       0.69650322      -1.25047124
C       -0.60418780      -0.10921914       2.16625449
C        3.19548049      -0.13823020      -0.31822429
C       -2.04053193       0.57737305      -2.26187214
C       -2.64961470       1.05794790      -1.09892129
C        0.14496643      -3.86827157       0.76381932
C       -0.20788728       0.75723535      -3.70848097
C       -1.17317858      -1.47409448      -3.19130683
C       -4.08195562       1.91779320       0.95546994
C       -3.35001064      -0.04992464       1.92027648
C       -2.61375761       1.08574587       2.47019175
C       -1.19582506       1.07663190       2.55996113
C       -0.07554522      -0.64068029      -3.67555131
C       -1.42728456      -1.02796840       1.61638999
C       -2.06397495      -0.81123429      -2.29121122
C        3.06594946      -0.44029310       2.01220538
C        0.88965460      -2.28902117      -2.42905919
C        0.20626808      -3.65646119      -0.67199341
C       -3.32263406       2.28534550       2.15835390
C        0.51099959       2.69148309      -2.65910699
C        0.73474225      -0.49576968       1.80800672
C       -0.52669757      -2.51614516      -2.48163229
C       -4.01387655       0.46485090       0.76739972
C       -2.42188639       3.22081513       1.49437970
C       -0.29013376       2.16294844       2.47021047
C        1.21411785       1.68285299       2.48553424
C       -1.11057093      -3.20315186       1.15015496
C       -2.68237427      -1.25266988      -1.04258367
C        3.42140264       0.49954552       0.95766739
C        2.54875023      -3.02662638       0.94554764
C        1.38563775      -3.03910807      -1.33269815
C        1.15123247      -0.96208175      -2.95917002
C        1.29048061       3.37563240       0.73967288
C        3.23708407      -1.51435623      -0.13008571
C        1.98043282       2.46972222       1.60865816
C       -1.34480779       1.41158477      -3.15181273
C        2.58582545       1.97456182      -0.56733269
C        1.17379464      -2.87132310       1.11916093
C        0.93942941       1.37363259      -3.08715363
C       -2.50973901       2.43458090      -0.83281264
C       -0.97902175      -3.07559620      -1.27230033
C        0.66260380      -1.54270670       0.78921138
C        1.71360386       0.34380424      -2.43248323
C       -0.07995673       3.82628970       0.69700023
C       -3.29762506      -0.00022127      -0.40315958
C       -0.38272109       3.83260544      -0.73041224
60
Properties=species:S:1:pos:R:3 trajectory=trial0001_proposal001_step004_proposal_relax trajectory_step=44 pbc="F F F"
C       -2.44609868      -2.91368019       1.00365765
C        2.62680755      -2.67109950      -0.67662385
C        1.84607446       0.13495935       2.44246225
C       -1.56012401       3.18506522      -1.34699165
C       -3.19532166       2.74838681       0.44920004
C        3.33951632      -1.71113411       1.15258223
C       -2.60356842      -1.44310270       1.75058842
C       -0.61173140      -1.78286623       0.60504861
C        1.64729508       3.10173893      -0.57649854
C       -1.05245415       2.68846524      -2.59886292
C       -0.98389338       3.21718603       1.76345152
C        2.98988950       1.87150314       0.73991398
C       -2.10886450      -2.51705104      -0.47946483
C        0.69007844       3.48821587      -1.47890661
C        2.48202376       0.76220907      -1.33604101
C       -0.51970949      -0.13961451       2.14632143
C        3.20343867      -0.08321122      -0.43604970
C       -2.13269901       0.56262525      -2.21859816
C       -2.72235553       1.01369471      -1.02847003
C        0.26779429      -3.84194472       0.72984457
C       -0.32661134       0.80549598      -3.71747327
C       -1.23083359      -1.45985707      -3.18626470
C       -4.09565711       1.82472257       1.10224766
C       -3.28594780      -0.14605362       2.01749752
C       -2.56648291       0.99957239       2.57432703
C       -1.14389930       1.02504983       2.62403251
C       -0.16359337      -0.59595740      -3.69502335
C       -1.32568318      -1.03762843       1.53594023
C       -2.12854858      -0.83235070      -2.26188245
C        3.15705154      -0.41576537       1.90393505
C        0.87025646      -2.23287740      -2.47271602
C        0.27667431      -3.65384513      -0.71962314
C       -3.31411769       2.19053405       2.29349126
C        0.37983211       2.73320748      -2.63485116
C        0.82226797      -0.49371620       1.77335957
C       -0.54352051      -2.49244952      -2.49360661
C       -3.99661884       0.37471809       0.89185612
C       -2.45092242       3.15839640       1.61876682
C       -0.26693204       2.13664753       2.53524555
C        1.25558540       1.67731769       2.50036080
C       -0.96739468      -3.16670852       1.11207439
C       -2.71874937      -1.31086261      -1.00601457
C        3.44189852       0.54321392       0.84453290
C        2.66959540      -2.99208566       0.83367452
C        1.42321947      -3.00020733      -1.40784056
C        1.09089549      -0.89913901      -3.01295409
C        1.23605062       3.38179056       0.75321478
C        3.30424729      -1.46062042      -0.26448675
C        1.97253149       2.47556902       1.58669505
C       -1.46179155       1.42593350      -3.10806146
C        2.52422212       2.03157502      -0.62506152
C        1.29735744      -2.83609169       1.05853840
C        0.82857741       1.43751414      -3.11792753
C       -2.58455656       2.38872652      -0.72915508
C       -0.95308571      -3.10537807      -1.29245690
C        0.77744628      -1.51136912       0.72277656
C        1.64569013       0.41227764      -2.50080941
C       -0.14341529       3.81713101       0.75734366
C       -3.33198234      -0.06943213      -0.32570959
C       -0.48859296       3.84292206      -0.66635334
60
Properties=species:S:1:pos:R:3 trajectory=trial0001_proposal001_step004_proposal_relax trajectory_step=45 pbc="F F F"
C       -2.42844375      -2.89757186       1.00059397
C        2.61965408      -2.67216421      -0.67860175
C        1.85401966       0.14118437       2.42238193
C       -1.55990817       3.16571654      -1.34579618
C       -3.21338788       2.76235548       0.46839593
C        3.31846388      -1.70392645       1.14643995
C       -2.59603045      -1.45143422       1.71794348
C       -0.61648563      -1.76683848       0.61885105
C        1.63562433       3.11667924      -0.58226057
C       -1.06054580       2.68978922      -2.60331285
C       -0.97149514       3.20310655       1.75604503
C        2.97599425       1.87983015       0.74054388
C       -2.08466335      -2.49497473      -0.47005270
C        0.69989980       3.49767675      -1.47707436
C        2.47824612       0.77401336      -1.33474004
C       -0.51440524      -0.14784362       2.15279784
C        3.19558680      -0.09156666      -0.42690476
C       -2.14784769       0.56732921      -2.22434616
C       -2.73564450       1.01271573      -1.03213801
C        0.25594924      -3.84036973       0.71278444
C       -0.31954627       0.79839425      -3.70818261
C       -1.21839355      -1.45861164      -3.16602737
C       -4.09426903       1.82453258       1.11361395
C       -3.27675839      -0.15880047       2.00985663
C       -2.55674779       0.98542623       2.57028249
C       -1.12488916       1.02919353       2.62609506
C       -0.15355266      -0.59536782      -3.67006089
C       -1.32563741      -1.02826949       1.53512638
C       -2.12962856      -0.83347313      -2.25890692
C        3.14468023      -0.40478608       1.89324195
C        0.86169073      -2.24417611      -2.47023770
C        0.27883190      -3.62955030      -0.72028583
C       -3.27492280       2.16522537       2.28235815
C        0.37323441       2.74076791      -2.64152391
C        0.80684395      -0.49407811       1.77153939
C       -0.55066756      -2.51407425      -2.50061693
C       -3.98109848       0.36508534       0.90186798
C       -2.43850355       3.14732353       1.61164403
C       -0.25850787       2.12952847       2.52807007
C        1.25599684       1.67684515       2.48260348
C       -0.95694110      -3.14500918       1.10548709
C       -2.72311776      -1.31598033      -1.00018197
C        3.42263473       0.55049137       0.84505270
C        2.65076260      -2.99488025       0.81946684
C        1.41768108      -2.98256508      -1.39650143
C        1.09520359      -0.90861846      -3.00049429
C        1.24204590       3.38350621       0.74876775
C        3.29729577      -1.43906842      -0.26157009
C        1.98148849       2.47991566       1.59334094
C       -1.46481702       1.41284788      -3.11841667
C        2.52192011       2.02533788      -0.62036802
C        1.28046887      -2.84578777       1.05284078
C        0.82465934       1.44779822      -3.11037457
C       -2.58016754       2.38380264      -0.73156972
C       -0.95184187      -3.09722029      -1.27840534
C        0.75886554      -1.51725185       0.74695338
C        1.64963690       0.42071351      -2.49967045
C       -0.13294050       3.78689317       0.74890638
C       -3.33339666      -0.07141634      -0.32038958
C       -0.48161589       3.82191474      -0.66667936
60
Properties=species:S:1:pos:R:3 trajectory=trial0001_proposal001_step004_proposal_relax trajectory_step=46 pbc="F F F"
C       -2.39979395      -2.90942831       1.01028989
C        2.63825882      -2.65445908      -0.70932952
C        1.87531134       0.14620032       2.39935975
C       -1.58913223       3.15046921      -1.32279156
C       -3.23432217       2.74959756       0.50139692
C        3.33414761      -1.69063973       1.11111553
C       -2.55835295      -1.47355833       1.71030954
C       -0.58980659      -1.74152555       0.56496494
C        1.62296539       3.12367696      -0.58584527
C       -1.10484193       2.68996421      -2.59534411
C       -0.96906352       3.18096158       1.77244841
C        2.96462990       1.89204868       0.71928664
C       -2.05938892      -2.49492707      -0.45784492
C        0.65927104       3.51397030      -1.48537067
C        2.46801740       0.79236125      -1.35285399
C       -0.49043410      -0.15368352       2.14988253
C        3.18948048      -0.06102739      -0.45641896
C       -2.18614267       0.56408834      -2.21414994
C       -2.76720112       1.00390361      -1.01232956
C        0.28240466      -3.83344083       0.69543929
C       -0.35094980       0.80985339      -3.69678562
C       -1.22629203      -1.45223267      -3.14391814
C       -4.09403729       1.79070437       1.16988028
C       -3.25162924      -0.19909740       2.03822794
C       -2.52527521       0.94522848       2.60451376
C       -1.10273793       1.00220858       2.64596713
C       -0.17322173      -0.58219613      -3.65359922
C       -1.30616868      -1.02188638       1.49711409
C       -2.14791233      -0.83764954      -2.24110583
C        3.15693510      -0.39100027       1.86035799
C        0.85758574      -2.23444275      -2.48357687
C        0.29789014      -3.61054059      -0.73141934
C       -3.24661324       2.12535732       2.31341336
C        0.33149399       2.76343044      -2.64085606
C        0.83526089      -0.49470173       1.76207424
C       -0.55585987      -2.52121493      -2.50886415
C       -3.96856803       0.33605040       0.94023760
C       -2.43283890       3.12005484       1.64664007
C       -0.24141552       2.11851023       2.54330734
C        1.27002661       1.67382723       2.47569303
C       -0.91955193      -3.12419915       1.08839005
C       -2.73008891      -1.32539864      -0.98268097
C        3.41647167       0.56861005       0.81706527
C        2.67105424      -2.98419536       0.77964555
C        1.42361579      -2.95757178      -1.40889138
C        1.08212464      -0.89243754      -3.00552554
C        1.23280509       3.38509998       0.74785700
C        3.31040077      -1.42859370      -0.29275125
C        1.98198569       2.49127059       1.58346648
C       -1.50367791       1.41510528      -3.10916417
C        2.49613646       2.04552985      -0.63465284
C        1.30665605      -2.84265407       1.03560641
C        0.79146036       1.47030664      -3.11219500
C       -2.61153954       2.37141747      -0.69292045
C       -0.94286695      -3.09877574      -1.28039593
C        0.79055788      -1.51134278       0.73861487
C        1.63430022       0.44650685      -2.51487700
C       -0.14900041       3.76011244       0.75746834
C       -3.34167580      -0.09123433      -0.29315609
C       -0.51028724       3.80789270      -0.65221851
60
Properties=species:S:1:pos:R:3 trajectory=trial0001_proposal001_step004_proposal_relax trajectory_step=47 pbc="F F F"
C       -2.29737627      -2.93178678       1.05444876
C        2.68669569      -2.60793521      -0.80489021
C        1.93699735       0.15422428       2.35188030
C       -1.67430869       3.11390587      -1.25201320
C       -3.27913593       2.69658592       0.60447862
C        3.39670394      -1.65279087       1.00304776
C       -2.45243917      -1.52611657       1.71614204
C       -0.52059135      -1.68701972       0.42651403
C        1.56042967       3.16287189      -0.60164565
C       -1.21850261       2.68982343      -2.55091958
C       -0.97192042       3.13228377       1.82982724
C        2.93920257       1.92776221       0.66246833
C       -1.99908098      -2.50593780      -0.42684340
C        0.56414699       3.54930585      -1.47522261
C        2.42885765       0.85229347      -1.41459620
C       -0.42734489      -0.18150443       2.14030822
C        3.17295402       0.00490054      -0.54836345
C       -2.28177903       0.54898363      -2.18123196
C       -2.84819043       0.97118150      -0.95939988
C        0.36870633      -3.80519557       0.66268045
C       -0.44382037       0.84143574      -3.67647553
C       -1.26338196      -1.43759800      -3.10359415
C       -4.08833779       1.70074807       1.30685381
C       -3.17625437      -0.29644432       2.11258537
C       -2.45581886       0.85174685       2.68889091
C       -1.03831285       0.93455749       2.69844055
C       -0.24038786      -0.54503325      -3.63193281
C       -1.23084942      -1.00401266       1.42420277
C       -2.20340354      -0.85207651      -2.20377001
C        3.20590220      -0.36488457       1.76808157
C        0.84657800      -2.19881442      -2.52055265
C        0.34998639      -3.58670353      -0.76572833
C       -3.19551528       2.02704677       2.41198783
C        0.21948961       2.81000244      -2.63237185
C        0.90821263      -0.50130686       1.73623819
C       -0.56562729      -2.52076586      -2.52261295
C       -3.94291193       0.25666525       1.04188769
C       -2.43275058       3.05285029       1.74123878
C       -0.20419061       2.08292505       2.58772917
C        1.30896972       1.66587680       2.46553213
C       -0.82303576      -3.08887817       1.06193949
C       -2.75205384      -1.35822308      -0.94492212
C        3.40944972       0.61276576       0.72866058
C        2.74539600      -2.94825377       0.67288032
C        1.44112885      -2.90942939      -1.46245555
C        1.03735725      -0.84107659      -3.03059012
C        1.19779127       3.39592551       0.75193468
C        3.34219677      -1.38112410      -0.39997984
C        1.97688897       2.50912084       1.56072513
C       -1.60590000       1.41971595      -3.07005079
C        2.43923275       2.09669236      -0.67852400
C        1.38899553      -2.81749253       0.98682879
C        0.70469281       1.52597666      -3.12693778
C       -2.68698774       2.33101385      -0.59872077
C       -0.91600764      -3.11076199      -1.29438450
C        0.87434474      -1.48853719       0.69610427
C        1.58554834       0.51166995      -2.56246089
C       -0.19568330       3.71788904       0.79152673
C       -3.37029697      -0.14517752      -0.23185387
C       -0.59410064       3.78639501      -0.60482004
60
Properties=species:S:1:pos:R:3 trajectory=trial0001_proposal001_step004_proposal_relax trajectory_step=48 pbc="F F F"
C       -2.27010251      -2.92263899       1.03857752
C        2.68358679      -2.58446276      -0.82172322
C        1.93352651       0.18156188       2.32969238
C       -1.68819990       3.08317343      -1.23755619
C       -3.29548288       2.68506515       0.62145440
C        3.37951864      -1.63842429       0.99311038
C       -2.42504089      -1.51507994       1.70896478
C       -0.52101271      -1.66659069       0.41056023
C        1.56160249       3.16747046      -0.61612193
C       -1.24890448       2.68264865      -2.54890523
C       -0.95366536       3.09458002       1.82348001
C        2.93510674       1.94270627       0.65242028
C       -1.96913428      -2.48757881      -0.43622964
C        0.53596105       3.55081305      -1.49192148
C        2.42082702       0.86569138      -1.41823189
C       -0.40670239      -0.19208591       2.13187675
C        3.16645805       0.02221119      -0.55716658
C       -2.31420899       0.54814574      -2.17289990
C       -2.87871537       0.97267045      -0.95059946
C        0.36277388      -3.79210169       0.65896450
C       -0.46170070       0.84251015      -3.63811838
C       -1.26588986      -1.43353921      -3.06541175
C       -4.06486948       1.67048129       1.34176317
C       -3.15249765      -0.32921805       2.12360146
C       -2.41888261       0.81434346       2.70486698
C       -1.00889443       0.90252728       2.71284973
C       -0.25441352      -0.54132375      -3.59657582
C       -1.22284572      -0.98268816       1.37865028
C       -2.21296019      -0.85003681      -2.18345703
C        3.19863380      -0.35500599       1.75516418
C        0.85467577      -2.19510196      -2.53458825
C        0.35366486      -3.57176772      -0.76817015
C       -3.15060938       1.98974310       2.42216017
C        0.19190673       2.82751949      -2.64873122
C        0.91848559      -0.51312996       1.74789797
C       -0.55923201      -2.52439429      -2.53493180
C       -3.92898175       0.23484381       1.05685323
C       -2.41098630       3.01755968       1.74906555
C       -0.17653892       2.05754062       2.59387863
C        1.32505371       1.66565291       2.45193429
C       -0.82849451      -3.09036544       1.05724841
C       -2.73509233      -1.34534116      -0.92698491
C        3.40179409       0.62140019       0.72016427
C        2.73462794      -2.93385199       0.65540966
C        1.43942095      -2.88758662      -1.46669241
C        1.03085241      -0.82777071      -3.01925351
C        1.19962883       3.40816110       0.73913817
C        3.32943706      -1.36404473      -0.40899380
C        1.97685470       2.52725247       1.54444052
C       -1.62992724       1.41556824      -3.05694102
C        2.42631641       2.11486484      -0.68744440
C        1.38953256      -2.81314092       0.98481791
C        0.68763288       1.53678637      -3.11459257
C       -2.71914666       2.32174855      -0.58094524
C       -0.90510487      -3.10424962      -1.30172992
C        0.87943941      -1.48501821       0.68645853
C        1.57924569       0.52594316      -2.55688490
C       -0.19944088       3.68518929       0.77865793
C       -3.36869404      -0.14464834      -0.21739501
C       -0.60963445       3.75507348      -0.60672505
60
Properties=species:S:1:pos:R:3 trajectory=trial0001_proposal001_step004_proposal_relax trajectory_step=49 pbc="F F F"
C       -2.16954794      -2.94008075       1.07642445
C        2.72106963      -2.53114475      -0.92211714
C        1.99745976       0.20042531       2.29703333
C       -1.78473275       3.04408538      -1.16270673
C       -3.33255329       2.61192864       0.74446826
C        3.44710763      -1.58966328       0.88331062
C       -2.29994795      -1.55325466       1.72689755
C       -0.45119302      -1.61739654       0.28356521
C        1.49004814       3.22045801      -0.63635985
C       -1.36716068       2.68573892      -2.48933955
C       -0.95122718       3.03326199       1.88091212
C        2.91806087       1.98191074       0.58769371
C       -1.91260495      -2.49872848      -0.42742280
C        0.42900261       3.57792711      -1.48338374
C        2.37927248       0.93244240      -1.48280057
C       -0.32844218      -0.22964512       2.11003802
C        3.16284454       0.08230247      -0.65492984
C       -2.41226741       0.53734163      -2.13179169
C       -2.96340224       0.93644258      -0.89496724
C        0.44499708      -3.75423087       0.63398337
C       -0.56686589       0.87068805      -3.60437554
C       -1.31276451      -1.41937155      -3.03406504
C       -4.04353610       1.56947555       1.47231811
C       -3.07809550      -0.41717104       2.19808090
C       -2.35227544       0.71946111       2.78700547
C       -0.93256815       0.83114438       2.77431996
C       -0.33745541      -0.50135004      -3.57653824
C       -1.15246472      -0.95886998       1.29994362
C       -2.27068912      -0.86242879      -2.14583046
C        3.25837220      -0.32416781       1.66453494
C        0.84587751      -2.14738326      -2.58067334
C        0.40663194      -3.56379071      -0.80843556
C       -3.10147335       1.87995185       2.53247314
C        0.07292041       2.86708989      -2.64424881
C        0.98611753      -0.53417943       1.73125799
C       -0.56180329      -2.50657181      -2.54973680
C       -3.89992820       0.14504130       1.16231587
C       -2.40824273       2.93340704       1.84196410
C       -0.13147922       2.00797294       2.64102348
C        1.37348062       1.66554458       2.44599577
C       -0.73152006      -3.07655772       1.03867868
C       -2.74387831      -1.37689561      -0.88396277
C        3.40925272       0.66848531       0.62902636
C        2.81402149      -2.88816411       0.55859998
C        1.46504426      -2.84987937      -1.53209478
C        0.97772195      -0.76964984      -3.04753899
C        1.15839170       3.42972329       0.73163904
C        3.35472191      -1.30562018      -0.51974683
C        1.97148460       2.54454243       1.51457448
C       -1.73664511       1.41398076      -3.00385991
C        2.38234288       2.16636147      -0.73982296
C        1.46976270      -2.77428851       0.93727882
C        0.58686027       1.59022248      -3.12597045
C       -2.80008207       2.27795339      -0.50222994
C       -0.87051761      -3.12027938      -1.32617758
C        0.94641216      -1.45427958       0.62529524
C        1.51772042       0.58850811      -2.60077598
C       -0.24643154       3.65650810       0.81564066
C       -3.39578441      -0.19499029      -0.14874902
C       -0.69886449       3.72996331      -0.55744282
60
Properties=species:S:1:pos:R:3 trajectory=trial0001_proposal001_step004_proposal_relax trajectory_step=50 pbc="F F F"
C       -2.10864869      -2.92352129       1.07852776
C        2.71757008      -2.50002076      -0.96437504
C        2.02089807       0.20843861       2.28177724
C       -1.83083890       3.02114737      -1.12721971
C       -3.33441647       2.55947025       0.80180229
C        3.46550595      -1.55255272       0.83302160
C       -2.24227537      -1.56001082       1.73117074
C       -0.43365285      -1.59241937       0.24590488
C        1.44743551       3.25935673      -0.66823219
C       -1.42494708       2.67850956      -2.45846918
C       -0.93678492       2.98129229       1.89614511
C        2.91420929       2.00924097       0.55429638
C       -1.87731773      -2.49854590      -0.43573152
C        0.38821893       3.57894683      -1.46589326
C        2.35977762       0.96839226      -1.51120258
C       -0.30575895      -0.25385223       2.09820343
C        3.16164149       0.11376350      -0.69783422
C       -2.46691957       0.52979998      -2.10749820
C       -3.01568271       0.91696950      -0.86878647
C        0.47786362      -3.73318983       0.61879853
C       -0.62255721       0.87729433      -3.56962119
C       -1.33490359      -1.41476992      -3.02001822
C       -4.01375212       1.51067252       1.52988480
C       -3.02533197      -0.45450194       2.22753236
C       -2.30226585       0.66692546       2.82162601
C       -0.88185606       0.78007702       2.80640141
C       -0.37924983      -0.48411339      -3.55341691
C       -1.10933461      -0.91414834       1.27306018
C       -2.29804514      -0.86499914      -2.12624692
C        3.28043791      -0.29217816       1.62540794
C        0.84316275      -2.12446610      -2.60400025
C        0.43101814      -3.56498644      -0.83093328
C       -3.06667840       1.82210798       2.58024622
C        0.00889872       2.87893314      -2.64489598
C        1.02377203      -0.55159407       1.72783059
C       -0.55828964      -2.48786399      -2.56034979
C       -3.87886710       0.09728395       1.20898843
C       -2.39058563       2.86905786       1.87980834
C       -0.09638817       1.97360224       2.65118541
C        1.40444620       1.67112830       2.43173053
C       -0.70236722      -3.09696970       1.05106351
C       -2.73698091      -1.38390931      -0.86232944
C        3.41623524       0.69763428       0.58841356
C        2.83579779      -2.85473129       0.52126499
C        1.47685551      -2.84291841      -1.57034929
C        0.94715846      -0.74026488      -3.05510199
C        1.14383514       3.44354006       0.72256073
C        3.34698306      -1.26073920      -0.57016867
C        1.97222622       2.55806895       1.48835459
C       -1.78663298       1.41400766      -2.96474031
C        2.37099227       2.20029734      -0.76633876
C        1.49494962      -2.74530055       0.91216767
C        0.52879175       1.60714929      -3.12492794
C       -2.84999610       2.25740571      -0.47154344
C       -0.84789243      -3.12358527      -1.34170341
C        0.95501958      -1.43803239       0.59142795
C        1.47793345       0.61909174      -2.61368652
C       -0.26389111       3.64478436       0.83173627
C       -3.40690563      -0.22117255      -0.11263677
C       -0.74106509       3.70122344      -0.53389023
60
Properties=species:S:1:pos:R:3 trajectory=trial0001_proposal001_step004_proposal_relax trajectory_step=51 pbc="F F F"
C       -2.05204257      -2.92898028       1.09359638
C        2.73336701      -2.47331138      -1.01272226
C        2.05918594       0.20940224       2.26413359
C       -1.88379194       3.00703714      -1.08835748
C       -3.34600162       2.51467778       0.86777126
C        3.50130816      -1.51985825       0.77319126
C       -2.18173344      -1.57837802       1.73513673
C       -0.40638960      -1.55476883       0.18947392
C        1.41614277       3.28423382      -0.68047248
C       -1.48843526       2.68055874      -2.42675392
C       -0.93304925       2.94318876       1.92594296
C        2.90346693       2.03681087       0.51817956
C       -1.84680691      -2.50587436      -0.42800728
C        0.32831249       3.59042811      -1.45654138
C        2.33789372       1.00629144      -1.54905820
C       -0.25530975      -0.27138273       2.09456622
C        3.16201989       0.14204851      -0.74687745
C       -2.52185185       0.52235357      -2.08373731
C       -3.06490204       0.89580984      -0.83544520
C        0.52596161      -3.71678087       0.59672705
C       -0.68412933       0.89420522      -3.55329843
C       -1.36124683      -1.40718049      -3.00844976
C       -4.00163052       1.45616844       1.59933292
C       -2.97769202      -0.50283998       2.26627258
C       -2.26353717       0.61816471       2.86798227
C       -0.84036188       0.74639032       2.84183731
C       -0.42160149      -0.46559830      -3.54385709
C       -1.07210355      -0.90719718       1.22299659
C       -2.32753202      -0.87327330      -2.10894183
C        3.31301226      -0.26565916       1.57461296
C        0.83561092      -2.10065447      -2.62531026
C        0.46196734      -3.56007471      -0.85568716
C       -3.03908263       1.76228886       2.64112940
C       -0.05844392       2.89693107      -2.63603247
C        1.05684668      -0.55764612       1.71498216
C       -0.56158820      -2.47682147      -2.56834468
C       -3.85968094       0.04747161       1.26811364
C       -2.38507628       2.81727277       1.92946881
C       -0.07188669       1.94625595       2.67020335
C        1.42983371       1.67119118       2.42380479
C       -0.64949523      -3.10031943       1.04881476
C       -2.74250708      -1.40486466      -0.84043423
C        3.42371339       0.72685641       0.53833570
C        2.87405809      -2.82665046       0.47202687
C        1.49053791      -2.82736874      -1.60918225
C        0.91680982      -0.70981934      -3.07058910
C        1.12243674       3.45169130       0.71863236
C        3.35875760      -1.21926264      -0.62908656
C        1.97243596       2.56741089       1.46731302
C       -1.84529544       1.41423298      -2.93506055
C        2.34457241       2.23767158      -0.79623388
C        1.53800508      -2.72369860       0.88105038
C        0.46860349       1.63420922      -3.12964827
C       -2.89509203       2.23391328      -0.42994558
C       -0.82928226      -3.13013778      -1.35234925
C        0.98834649      -1.42362558       0.56058990
C        1.44031196       0.65392218      -2.63635848
C       -0.28681494       3.63096116       0.85460877
C       -3.42046371      -0.25427439      -0.07315374
C       -0.78810677       3.68650532      -0.50269383
60
Properties=species:S:1:pos:R:3 trajectory=trial0001_proposal001_step004_proposal_relax trajectory_step=52 pbc="F F F"
C       -2.00325106      -2.92033737       1.08809537
C        2.73329388      -2.44645087      -1.03688477
C        2.09112817       0.20739236       2.24972514
C       -1.92433869       2.99768816      -1.06279970
C       -3.33886095       2.47008023       0.91508828
C        3.51492268      -1.48328851       0.72955919
C       -2.13379294      -1.57482951       1.72582511
C       -0.39502784      -1.51473924       0.16161507
C        1.40167625       3.30544244      -0.68868725
C       -1.53357427       2.68271887      -2.39824399
C       -0.91973529       2.89882727       1.93846571
C        2.89903870       2.06454126       0.48749159
C       -1.81640032      -2.50330951      -0.42428088
C        0.27714695       3.58662068      -1.44796993
C        2.32244891       1.04024598      -1.57556884
C       -0.21397296      -0.28642508       2.10028145
C        3.15599709       0.17502906      -0.77934198
C       -2.56770099       0.51409130      -2.06218578
C       -3.11050373       0.87628753      -0.80972156
C        0.55763395      -3.70500771       0.57135263
C       -0.73434457       0.90031567      -3.53433734
C       -1.38106168      -1.40210441      -3.00245318
C       -3.98036712       1.41068452       1.64643503
C       -2.92797575      -0.53407885       2.28695772
C       -2.22606159       0.58311380       2.90025783
C       -0.79896529       0.72011865       2.86964139
C       -0.45241601      -0.45324072      -3.53136179
C       -1.06058983      -0.89132885       1.19503015
C       -2.34750174      -0.87963315      -2.09732155
C        3.33005057      -0.23190050       1.53811785
C        0.82845901      -2.08430882      -2.63945658
C        0.48106472      -3.55531561      -0.87817169
C       -3.00913694       1.71274740       2.68618049
C       -0.10929281       2.90439949      -2.62052944
C        1.07507993      -0.56268760       1.70017422
C       -0.56298598      -2.46808993      -2.57164377
C       -3.83600460       0.00688348       1.31191248
C       -2.36568144       2.76400537       1.95728042
C       -0.04713330       1.91876066       2.66870247
C        1.44944091       1.67096214       2.40426105
C       -0.61875061      -3.13815368       1.07115827
C       -2.73948737      -1.42030500      -0.82488579
C        3.43045415       0.76298360       0.50310118
C        2.89144245      -2.79241120       0.44135062
C        1.49786960      -2.82584052      -1.64229553
C        0.89262935      -0.68908150      -3.07567146
C        1.10881839       3.45891322       0.70763134
C        3.35193089      -1.18547140      -0.66782763
C        1.97473557       2.57516098       1.44566472
C       -1.89297531       1.40956012      -2.90550335
C        2.33193939       2.27003417      -0.82416700
C        1.55678958      -2.70415239       0.85236215
C        0.41694579       1.64873867      -3.12629154
C       -2.93107842       2.21598706      -0.40778393
C       -0.81139659      -3.12688545      -1.35742742
C        0.99402757      -1.41414788       0.53764228
C        1.40600440       0.68009115      -2.64571502
C       -0.29575119       3.61851831       0.87234236
C       -3.42770571      -0.28344226      -0.04327199
C       -0.81659342       3.66627625      -0.47370623
60
Properties=species:S:1:pos:R:3 trajectory=trial0001_proposal001_step004_proposal_relax trajectory_step=53 pbc="F F F"
C       -1.86565029      -2.91915025       1.09818792
C        2.75404924      -2.37812767      -1.12923864
C        2.17580547       0.20650726       2.20270364
C       -2.03813974       2.96689806      -0.98033794
C       -3.34464576       2.36154298       1.04754870
C        3.57286838      -1.39773074       0.60080290
C       -1.99908813      -1.59604556       1.71790451
C       -0.34190826      -1.41480462       0.04413009
C        1.33847682       3.36383615      -0.71443297
C       -1.67082275       2.68329693      -2.32655812
C       -0.89742752       2.79879954       1.98907460
C        2.88088501       2.13224348       0.40451185
C       -1.73503861      -2.50595106      -0.40639334
C        0.14572534       3.59637237      -1.42094339
C        2.27584235       1.12895479      -1.65412257
C       -0.12131127      -0.32922467       2.09985129
C        3.14022796       0.26384862      -0.88306316
C       -2.69410317       0.49098501      -2.00651912
C       -3.22829400       0.82464845      -0.73822087
C        0.65382264      -3.66894961       0.51139467
C       -0.87042055       0.92818064      -3.49128601
C       -1.43406571      -1.38892756      -2.97504389
C       -3.93885734       1.28526106       1.79658793
C       -2.80610483      -0.63260713       2.36124229
C       -2.12367935       0.47471358       2.99931343
C       -0.69629715       0.63794054       2.94362924
C       -0.54230071      -0.41419332      -3.50275304
C       -0.99179276      -0.84884335       1.11498828
C       -2.41096867      -0.89856239      -2.05846184
C        3.38791764      -0.15888447       1.42736000
C        0.80993705      -2.03581514      -2.68349330
C        0.54023243      -3.53874674      -0.93523238
C       -2.93706438       1.58247035       2.81456280
C       -0.25574681       2.93634394      -2.58928605
C        1.15060171      -0.57363783       1.66298479
C       -0.57155329      -2.44593615      -2.58624277
C       -3.78149737      -0.10425175       1.43687868
C       -2.33268292       2.63538817       2.05457724
C        0.01525869       1.85449683       2.68790664
C        1.50453501       1.66656338       2.36608289
C       -0.51660047      -3.19909600       1.10213167
C       -2.74345631      -1.46464575      -0.77978869
C        3.44241824       0.84610185       0.39675784
C        2.96053242      -2.71384226       0.33839717
C        1.52375344      -2.80080779      -1.72754547
C        0.82593102      -0.62648455      -3.09863047
C        1.06920608       3.47598601       0.69315855
C        3.35631011      -1.09881736      -0.78911564
C        1.97465917       2.59727376       1.39457310
C       -2.02523760       1.40731382      -2.83264920
C        2.28399168       2.35421289      -0.89542091
C        1.63281673      -2.65561024       0.77781887
C        0.28071439       1.70076084      -3.12744916
C       -3.03223752       2.16433546      -0.32137353
C       -0.76722023      -3.12759619      -1.37191526
C        1.04036603      -1.38536051       0.47201180
C        1.31899770       0.75725602      -2.68597255
C       -0.33542594       3.57954339       0.92155186
C       -3.45482587      -0.36106206       0.04128796
C       -0.91086714       3.62188504      -0.40022774
60
Properties=species:S:1:pos:R:3 trajectory=trial0001_proposal001_step004_proposal_relax trajectory_step=54 pbc="F F F"
C       -1.72317133      -2.91411812       1.09161234
C        2.76537886      -2.30675437      -1.21319585
C        2.26017545       0.20447844       2.15234407
C       -2.15140656       2.93928223      -0.89902140
C       -3.33686115       2.24479637       1.17301664
C        3.61982989      -1.30232683       0.47629477
C       -1.86595050      -1.60528350       1.70234079
C       -0.29773512      -1.29638053      -0.06512511
C        1.27772531       3.42188894      -0.74022320
C       -1.80739181       2.68248010      -2.25437683
C       -0.86572647       2.69083481       2.03060777
C        2.86660293       2.20711722       0.31971343
C       -1.64770066      -2.50072750      -0.39011061
C        0.01654893       3.59677359      -1.38813710
C        2.22973941       1.22061521      -1.73177706
C       -0.02995037      -0.37041996       2.10532811
C        3.12054663       0.35912365      -0.98232960
C       -2.82187053       0.46403212      -1.94893659
C       -3.34938086       0.76986767      -0.66569449
C        0.73919043      -3.63298039       0.44622313
C       -1.00796205       0.95277071      -3.44446348
C       -1.48537393      -1.37795082      -2.94937118
C       -3.88875961       1.15810595       1.94260778
C       -2.67755562      -0.72526649       2.42957503
C       -2.01399556       0.36802558       3.09722725
C       -0.58911056       0.55516693       3.01574469
C       -0.63047977      -0.37872854      -3.47197784
C       -0.93120990      -0.80184648       1.04135306
C       -2.47246194      -0.91904241      -2.02005535
C        3.44077316      -0.07634184       1.31694866
C        0.78991767      -1.98926226      -2.72564464
C        0.59447968      -3.51983438      -0.99402813
C       -2.85961230       1.45348910       2.94097632
C       -0.40298189       2.96113487      -2.55124240
C        1.22403733      -0.58174316       1.62215043
C       -0.58155002      -2.42284951      -2.59916171
C       -3.71895965      -0.21604274       1.55775790
C       -2.28805687       2.49751694       2.14376148
C        0.08245945       1.78728472       2.69424413
C        1.55906772       1.65992232       2.31686934
C       -0.41762528      -3.30275211       1.15550462
C       -2.74069323      -1.50832220      -0.73644575
C        3.45558744       0.93799259       0.29215559
C        3.02062206      -2.62621120       0.24287779
C        1.54833402      -2.77983079      -1.81364199
C        0.75832267      -0.56623272      -3.11636097
C        1.03349613       3.49185844       0.67661844
C        3.34954514      -1.00759871      -0.90337224
C        1.97531082       2.61984628       1.33899181
C       -2.15825755       1.40355624      -2.75686598
C        2.24141727       2.44373407      -0.97001029
C        1.69836967      -2.60635255       0.69992982
C        0.14021623       1.74761679      -3.12166820
C       -3.13403385       2.11261390      -0.23713059
C       -0.72234992      -3.11976011      -1.38224253
C        1.06862066      -1.35786324       0.40719053
C        1.22794715       0.83332296      -2.71982919
C       -0.36772147       3.53696581       0.96939553
C       -3.47808652      -0.44106267       0.12612286
C       -0.99973095       3.57191630      -0.32484995
60
Properties=species:S:1:pos:R:3 trajectory=trial0001_proposal001_step004_proposal_relax trajectory_step=55 pbc="F F F"
C       -1.71307291      -2.91598898       1.05313907
C        2.75037214      -2.30385571      -1.19104979
C        2.26147636       0.20260955       2.14135163
C       -2.15050379       2.95670739      -0.89942632
C       -3.30258166       2.23297966       1.14604347
C        3.59642814      -1.28255387       0.49450667
C       -1.88178638      -1.60175943       1.68491927
C       -0.32109886      -1.27770904      -0.05678670
C        1.28512760       3.40611348      -0.72681954
C       -1.80791323       2.68332988      -2.25844237
C       -0.84683310       2.68585868       2.00881116
C        2.87843207       2.22758220       0.31569818
C       -1.64515541      -2.48636340      -0.39206981
C        0.02711779       3.57736658      -1.37634970
C        2.23051753       1.22304409      -1.73009048
C       -0.03414872      -0.36790450       2.11557122
C        3.11355579       0.37051878      -0.96970658
C       -2.81533810       0.45407844      -1.94550073
C       -3.34353432       0.76178221      -0.66179868
C        0.71342501      -3.64149716       0.43740761
C       -1.00793694       0.94571769      -3.44875689
C       -1.48189652      -1.38485757      -2.95729172
C       -3.87904580       1.16259271       1.93107210
C       -2.67573739      -0.70552714       2.41714140
C       -2.00775311       0.37880037       3.09752890
C       -0.58805551       0.57574044       3.00681379
C       -0.62412249      -0.38852831      -3.47948771
C       -0.94595016      -0.80131825       1.06872084
C       -2.46397563      -0.92615517      -2.02219272
C        3.43343108      -0.05901118       1.31770462
C        0.78350491      -1.99486352      -2.71686887
C        0.57911909      -3.51196794      -0.99117389
C       -2.85443043       1.46816307       2.93755587
C       -0.39950918       2.94080707      -2.52984116
C        1.21646080      -0.56459296       1.61069119
C       -0.59032641      -2.42303233      -2.59236699
C       -3.70078796      -0.21255031       1.54637824
C       -2.26442115       2.48660904       2.12095680
C        0.08648142       1.78799118       2.66463873
C        1.55186495       1.64933381       2.29397373
C       -0.41776067      -3.37910936       1.18128248
C       -2.72615635      -1.51066651      -0.74423039
C        3.46200480       0.95753471       0.29572890
C        3.00273352      -2.60878514       0.26728793
C        1.54613789      -2.77967967      -1.80810455
C        0.75937936      -0.57461118      -3.10648880
C        1.04494605       3.48175210       0.67700004
C        3.33160180      -1.00228219      -0.87870952
C        1.97697599       2.61772138       1.33237714
C       -2.15946739       1.40052461      -2.76033583
C        2.25081407       2.45700688      -0.97819619
C        1.66381551      -2.61548708       0.69208718
C        0.13466021       1.73662128      -3.10209640
C       -3.12302638       2.11157418      -0.23578732
C       -0.73080875      -3.09682164      -1.36823764
C        1.03693735      -1.35868888       0.41676365
C        1.22288989       0.82604199      -2.70265766
C       -0.34925002       3.52622079       0.96464171
C       -3.46273274      -0.44648747       0.12384461
C       -0.98454495       3.57017665      -0.32257912
60
Properties=species:S:1:pos:R:3 trajectory=trial0001_proposal001_step004_proposal_relax trajectory_step=56 pbc="F F F"
C       -1.59212029      -2.95065199       1.01591276
C        2.76430619      -2.26310275      -1.21441479
C        2.28631739       0.23092618       2.08975317
C       -2.19657221       2.96089984      -0.86016426
C       -3.26938175       2.16977669       1.19155740
C        3.59518711      -1.23483466       0.46859882
C       -1.84235146      -1.64698649       1.68544098
C       -0.31778025      -1.20917744      -0.11361287
C        1.22868828       3.40172988      -0.71105621
C       -1.88429244       2.68525643      -2.22469623
C       -0.82146245       2.67004048       2.00516656
C        2.90155501       2.27707238       0.27471510
C       -1.61499337      -2.47230307      -0.38925048
C       -0.00444552       3.56779681      -1.34698711
C        2.20904399       1.26148169      -1.75644194
C       -0.01783450      -0.36469907       2.11243186
C        3.09624911       0.42941899      -1.01345167
C       -2.84287621       0.42779591      -1.92304446
C       -3.35348455       0.72499145      -0.62708525
C        0.71318942      -3.64049683       0.41408466
C       -1.05368939       0.94539897      -3.44776861
C       -1.50479886      -1.38853538      -2.94825461
C       -3.85368634       1.13085164       1.98219554
C       -2.63574212      -0.73486626       2.44215818
C       -1.97131927       0.35317511       3.14388417
C       -0.55497060       0.54880059       3.00473675
C       -0.66297716      -0.37737361      -3.49200375
C       -0.90700592      -0.80552139       1.07816045
C       -2.48276236      -0.94527484      -2.00886391
C        3.46671624      -0.01963615       1.26665945
C        0.76440873      -1.97593138      -2.72664796
C        0.57310950      -3.48578812      -1.00520519
C       -2.82544318       1.45069908       2.98491044
C       -0.46185057       2.92815891      -2.48714699
C        1.24619283      -0.54328612       1.58156394
C       -0.60492477      -2.41664992      -2.58804482
C       -3.65688894      -0.23902781       1.57475861
C       -2.23540489       2.43929228       2.13195999
C        0.12058415       1.77483548       2.64937658
C        1.56987236       1.62980081       2.25170346
C       -0.40253780      -3.50645809       1.20567701
C       -2.70750304      -1.53105066      -0.72955241
C        3.47136056       1.01570443       0.24296198
C        3.01028588      -2.56396686       0.26012549
C        1.54295137      -2.73633849      -1.82062769
C        0.72597545      -0.55742225      -3.11079974
C        1.03463481       3.47297732       0.69611662
C        3.31994349      -0.97158594      -0.89809548
C        1.98044143       2.61173185       1.31767289
C       -2.22070594       1.39196408      -2.74651324
C        2.25024111       2.49930587      -1.01782593
C        1.66077883      -2.60375698       0.65632900
C        0.07824090       1.73863162      -3.07378975
C       -3.13388674       2.07892001      -0.19070337
C       -0.72975063      -3.06473308      -1.36302289
C        1.01427315      -1.35025116       0.39540215
C        1.17926645       0.84407023      -2.70317194
C       -0.34580496       3.48990649       0.96735016
C       -3.44360037      -0.47872402       0.15464526
C       -1.01041654       3.56726295      -0.29957232
60
Properties=species:S:1:pos:R:3 trajectory=trial0001_proposal001_step004_proposal_relax trajectory_step=57 pbc="F F F"
C       -1.58946352      -2.95447646       1.00649976
C        2.76775651      -2.25979688      -1.21597006
C        2.26901010       0.26284971       2.05926096
C       -2.19246758       2.95524762      -0.85384923
C       -3.26649881       2.17273189       1.18108202
C        3.58052968      -1.24057974       0.48505535
C       -1.83870845      -1.67218605       1.70523926
C       -0.31580669      -1.20343344      -0.11919198
C        1.21938662       3.38179170      -0.70792861
C       -1.89144598       2.67358747      -2.23030037
C       -0.82246557       2.68505166       2.00438242
C        2.91568954       2.29101837       0.27956684
C       -1.61758657      -2.47510415      -0.39601456
C        0.00161654       3.56717843      -1.34145831
C        2.20391198       1.25916593      -1.75222834
C       -0.04039336      -0.36285398       2.07768112
C        3.09929855       0.42018103      -1.01433272
C       -2.82310611       0.42239108      -1.92761893
C       -3.31143971       0.72448542      -0.63186586
C        0.69957669      -3.64186069       0.42351936
C       -1.05036846       0.94992434      -3.44942569
C       -1.50101395      -1.39071427      -2.94662979
C       -3.85378273       1.13518016       1.98305318
C       -2.64687711      -0.74204460       2.44063675
C       -1.97841581       0.35425290       3.13666310
C       -0.56850531       0.55279686       2.98608321
C       -0.66725814      -0.39106151      -3.50062778
C       -0.89336595      -0.81912447       1.11057629
C       -2.48075500      -0.94891400      -2.00746595
C        3.47212742      -0.01156436       1.27119207
C        0.76086946      -1.96854685      -2.72715319
C        0.55747858      -3.46847338      -0.99064818
C       -2.82260622       1.47007425       2.97896330
C       -0.46870752       2.91620535      -2.48456652
C        1.24594921      -0.53840457       1.58295363
C       -0.60870594      -2.40926839      -2.59752661
C       -3.64787038      -0.22071341       1.56193540
C       -2.22419838       2.46020037       2.12758078
C        0.12344686       1.78205018       2.65422413
C        1.57608211       1.62694243       2.24651617
C       -0.39944891      -3.57330362       1.19680185
C       -2.70081062      -1.52216745      -0.72248153
C        3.47810021       1.00533738       0.23549384
C        2.99686818      -2.56920679       0.27497792
C        1.53043982      -2.70332659      -1.79487388
C        0.71779138      -0.55978593      -3.11283859
C        1.04364805       3.46296024       0.70714270
C        3.31726521      -0.95962491      -0.88741799
C        1.99223109       2.60835788       1.31788075
C       -2.21634606       1.39287422      -2.75942830
C        2.25035283       2.50652469      -1.00742722
C        1.63553914      -2.60655876       0.66585426
C        0.08084070       1.72759615      -3.05732301
C       -3.11235515       2.06744391      -0.18257728
C       -0.73815113      -3.05886771      -1.36691932
C        1.00042419      -1.35165211       0.39704775
C        1.17917163       0.83354282      -2.69479803
C       -0.35132014       3.48583168       0.95203893
C       -3.42066260      -0.46933231       0.15083086
C       -1.01394585       3.57941515      -0.31165256
60
Properties=species:S:1:pos:R:3 trajectory=trial0001_proposal001_step004_proposal_relax trajectory_step=58 pbc="F F F"
C       -1.56005718      -2.95268655       1.00855759
C        2.76895254      -2.24321418      -1.23596750
C        2.27418181       0.27673739       2.03179835
C       -2.21032083       2.93721605      -0.83923112
C       -3.27262420       2.15778740       1.21251026
C        3.58313904      -1.22686623       0.46163223
C       -1.80478309      -1.67925101       1.71810946
C       -0.30538409      -1.17388858      -0.13648587
C        1.19827796       3.39554469      -0.71939242
C       -1.91685774       2.66507719      -2.21699062
C       -0.81659391       2.66884477       2.01840716
C        2.92076732       2.30021290       0.26532908
C       -1.60016169      -2.47837115      -0.39107955
C       -0.02322200       3.56829779      -1.33522646
C        2.19325629       1.27589607      -1.76275828
C       -0.02913875      -0.36346896       2.06915014
C        3.09544400       0.43360976      -1.03613780
C       -2.83998820       0.41795068      -1.92115134
C       -3.31352654       0.71651038      -0.62133322
C        0.71927516      -3.63252137       0.41096730
C       -1.07373259       0.95097611      -3.43737714
C       -1.51211914      -1.38803904      -2.93828732
C       -3.84069770       1.11375814       2.01437227
C       -2.62445871      -0.76882513       2.45289954
C       -1.95768184       0.32816497       3.14552780
C       -0.55065307       0.53012643       2.98910200
C       -0.68825860      -0.38045461      -3.49272381
C       -0.87610169      -0.82213147       1.09302210
C       -2.49326302      -0.95298634      -1.99832259
C        3.48088987       0.00769311       1.25378029
C        0.75735595      -1.95385755      -2.73714706
C        0.56820301      -3.45315882      -0.99801245
C       -2.80191338       1.44730594       2.99714064
C       -0.50185240       2.92053165      -2.48186386
C        1.26199312      -0.54439487       1.57634346
C       -0.60756540      -2.40369431      -2.60795226
C       -3.63096507      -0.24012445       1.58159326
C       -2.22149942       2.44446256       2.15082224
C        0.13697662       1.76996022       2.66532841
C        1.59168266       1.63177266       2.23947042
C       -0.39543868      -3.62553864       1.21001147
C       -2.69897698      -1.52418424      -0.70756136
C        3.48107131       1.02015247       0.21305519
C        2.99881631      -2.55774492       0.25329834
C        1.52666915      -2.68195355      -1.79944291
C        0.69994413      -0.54663089      -3.11959102
C        1.03409587       3.46401858       0.70106758
C        3.31593158      -0.94011481      -0.91071978
C        1.99971029       2.61745651       1.30870394
C       -2.23943795       1.39232483      -2.74893617
C        2.24177102       2.51773636      -1.01308780
C        1.64762930      -2.59240648       0.66079583
C        0.05329237       1.73365333      -3.05243128
C       -3.12256442       2.05053200      -0.16515321
C       -0.73003543      -3.06112377      -1.37696566
C        1.00578143      -1.34692972       0.38314344
C        1.16070398       0.84555379      -2.70014966
C       -0.36235386       3.47935246       0.95874212
C       -3.41485957      -0.47623017       0.16731525
C       -1.03817669       3.57181786      -0.30232438
60
Properties=species:S:1:pos:R:3 trajectory=trial0001_proposal001_step004_proposal_relax trajectory_step=59 pbc="F F F"
C       -1.55699665      -2.96283731       1.02240490
C        2.76717031      -2.24368409      -1.23690543
C        2.25811026       0.28989120       2.01091688
C       -2.19822324       2.92086985      -0.84790570
C       -3.28856822       2.18240782       1.21312426
C        3.57664079      -1.23614797       0.46280158
C       -1.79962352      -1.69296767       1.73926248
C       -0.30232952      -1.17593026      -0.13238819
C        1.19559248       3.39690685      -0.72351898
C       -1.90586821       2.65734926      -2.21950465
C       -0.82275419       2.68787406       2.03053127
C        2.92618578       2.28798644       0.27058696
C       -1.61136157      -2.48842228      -0.38775351
C       -0.02680994       3.57106740      -1.34338872
C        2.19291375       1.26644912      -1.75325372
C       -0.03219355      -0.35299369       2.05597877
C        3.09608479       0.42579317      -1.03582380
C       -2.82246780       0.42031372      -1.93015751
C       -3.27507890       0.72162800      -0.62230049
C        0.71169999      -3.63154051       0.41983540
C       -1.06477307       0.94888905      -3.44097936
C       -1.51354653      -1.38789457      -2.93898576
C       -3.84099875       1.12472908       2.01186844
C       -2.63503843      -0.77488140       2.45206432
C       -1.96504951       0.32688880       3.12409319
C       -0.56209138       0.53044290       2.96981467
C       -0.68977210      -0.37697072      -3.49333021
C       -0.86795014      -0.84134180       1.09088551
C       -2.49013650      -0.95431468      -1.99732188
C        3.47667108       0.00225623       1.25701627
C        0.75686446      -1.94543322      -2.73708661
C        0.57314229      -3.43442746      -0.99189550
C       -2.79915967       1.44840271       2.98505552
C       -0.49695367       2.92270394      -2.48816911
C        1.25752898      -0.54542504       1.57732912
C       -0.60581669      -2.40745214      -2.61602919
C       -3.62745726      -0.23578657       1.57175860
C       -2.24018730       2.47285493       2.16314236
C        0.13126065       1.77960194       2.68186647
C        1.59129003       1.64656394       2.25114661
C       -0.42127953      -3.66635972       1.20164637
C       -2.69610732      -1.52021237      -0.70096106
C        3.48531384       1.00959698       0.21636440
C        2.98862190      -2.56768203       0.24324754
C        1.51617228      -2.65508704      -1.78487194
C        0.69901589      -0.54424611      -3.12704130
C        1.02477299       3.45844693       0.69300311
C        3.32258482      -0.95346249      -0.90858357
C        2.00615270       2.63048290       1.31485639
C       -2.23106749       1.38861409      -2.76308727
C        2.23578990       2.49935582      -0.99804937
C        1.64914173      -2.59263925       0.68290653
C        0.05927874       1.73088569      -3.05218117
C       -3.10078897       2.04638011      -0.15519821
C       -0.73701598      -3.06972584      -1.38643501
C        1.01564274      -1.34268504       0.38603915
C        1.16247699       0.84190856      -2.69968787
C       -0.36704779       3.48479798       0.96298777
C       -3.39668514      -0.45972336       0.16577733
C       -1.04437341       3.57817855      -0.30732387
60
Properties=species:S:1:pos:R:3 trajectory=trial0001_proposal001_step004_proposal_relax trajectory_step=60 pbc="F F F"
C       -1.53884325      -2.97158793       1.02398055
C        2.76087192      -2.23739297      -1.24323999
C        2.26169020       0.29928727       1.99375322
C       -2.19789181       2.91088859      -0.84041803
C       -3.29703335       2.19465674       1.23882517
C        3.57461510      -1.23046165       0.45211082
C       -1.77991570      -1.70716173       1.74547778
C       -0.29365199      -1.16891541      -0.14747699
C        1.18638502       3.40017146      -0.72829527
C       -1.91059774       2.64902522      -2.21883345
C       -0.83147094       2.69533576       2.05156499
C        2.92213570       2.29401631       0.26635061
C       -1.61073737      -2.50076501      -0.38110536
C       -0.03932381       3.57485389      -1.33901675
C        2.18349023       1.26491439      -1.75362597
C       -0.01877224      -0.34819305       2.05750090
C        3.09747716       0.42405110      -1.04045067
C       -2.82085524       0.41459323      -1.92210656
C       -3.25131526       0.71951160      -0.60833639
C        0.70915391      -3.62433018       0.41677861
C       -1.07359276       0.95323716      -3.44690003
C       -1.51906784      -1.39097451      -2.94407465
C       -3.83336847       1.11823753       2.01440990
C       -2.62260158      -0.78948385       2.45452579
C       -1.95522825       0.32066553       3.11482205
C       -0.55688334       0.53633213       2.96094341
C       -0.69688440      -0.37777374      -3.49465937
C       -0.86792739      -0.86234752       1.09097861
C       -2.48964604      -0.96020454      -1.99450436
C        3.47376087       0.00318550       1.24308818
C        0.74791264      -1.93132398      -2.74039360
C        0.57204577      -3.41178774      -0.99153323
C       -2.79164957       1.43401359       2.98634694
C       -0.50450628       2.92095146      -2.48774310
C        1.26220487      -0.53273863       1.56557254
C       -0.61265879      -2.40908405      -2.62049731
C       -3.61622178      -0.23773742       1.57720788
C       -2.24629744       2.48719397       2.18397259
C        0.13136787       1.78703832       2.68754764
C        1.59121538       1.66177851       2.25145676
C       -0.43213250      -3.74475087       1.20687580
C       -2.68939240      -1.52705771      -0.69542803
C        3.49465179       1.01780791       0.20654202
C        2.98369933      -2.56000735       0.22686148
C        1.51174824      -2.63157582      -1.78758550
C        0.69229222      -0.53514735      -3.13403668
C        1.01676887       3.45423787       0.68526742
C        3.32575919      -0.94583017      -0.91913510
C        2.00648956       2.64839490       1.31432295
C       -2.24074367       1.38603055      -2.76884382
C        2.22492617       2.49113988      -0.99820129
C        1.64534294      -2.59438160       0.69604053
C        0.05006207       1.73484073      -3.05244406
C       -3.08200771       2.03842089      -0.14826960
C       -0.73727047      -3.07172741      -1.38370247
C        1.01989984      -1.33896625       0.38178850
C        1.15113745       0.84803962      -2.70074084
C       -0.37282675       3.48653095       0.96884061
C       -3.37381425      -0.46320412       0.17293840
C       -1.05142587       3.57577331      -0.29690120
60
Properties=species:S:1:pos:R:3 trajectory=trial0001_proposal001_step004_proposal_relax trajectory_step=61 pbc="F F F"
C       -1.53589011      -2.98240601       1.02139318
C        2.75736478      -2.23518043      -1.24052202
C        2.26356303       0.30466706       1.99646118
C       -2.18856985       2.91361205      -0.84260672
C       -3.29670079       2.20730053       1.23107847
C        3.57308062      -1.23381987       0.45253708
C       -1.78134054      -1.71538189       1.74557921
C       -0.29626741      -1.17209321      -0.14040972
C        1.19048436       3.39254808      -0.72712291
C       -1.90493590       2.64871867      -2.22110360
C       -0.83608499       2.71132745       2.05726984
C        2.91793806       2.29335101       0.26774460
C       -1.61780992      -2.51182204      -0.38005083
C       -0.03880617       3.57654869      -1.34152957
C        2.18097547       1.25569077      -1.74968141
C       -0.01882666      -0.34807863       2.05759158
C        3.09968353       0.42316119      -1.03823067
C       -2.81100898       0.41335208      -1.92052124
C       -3.23395446       0.71829592      -0.60374721
C        0.69860199      -3.62567123       0.41783014
C       -1.07125178       0.94980287      -3.45656619
C       -1.52121614      -1.39408227      -2.95044147
C       -3.83176232       1.11952771       2.00694223
C       -2.62083384      -0.78843495       2.45072267
C       -1.95361882       0.32489821       3.10719575
C       -0.55728682       0.55023259       2.95550082
C       -0.69533446      -0.37584685      -3.50131843
C       -0.86218921      -0.87538266       1.09291997
C       -2.48420257      -0.96238466      -1.99566560
C        3.47048527       0.00145842       1.24136911
C        0.74292536      -1.92929348      -2.73837242
C        0.56863671      -3.40512621      -0.98682647
C       -2.79622613       1.43748988       2.97973995
C       -0.49981830       2.92016055      -2.48452275
C        1.25989429      -0.52008219       1.55842119
C       -0.61568895      -2.41125734      -2.61797053
C       -3.61193599      -0.23675787       1.57161236
C       -2.25135173       2.49868941       2.19425136
C        0.12610917       1.79749256       2.68607180
C        1.58713273       1.66999993       2.25292932
C       -0.44195050      -3.77872801       1.20404856
C       -2.68393634      -1.53176312      -0.69777741
C        3.49864089       1.01994547       0.20880179
C        2.97346300      -2.55860373       0.22932199
C        1.50649925      -2.62809550      -1.78870236
C        0.69138225      -0.53447454      -3.13541177
C        1.01434134       3.45533365       0.68478120
C        3.32782388      -0.94934158      -0.91847212
C        2.00444654       2.65398958       1.31613900
C       -2.24092394       1.38342276      -2.77225357
C        2.21790484       2.48751096      -0.99651279
C        1.63984574      -2.59692730       0.70479205
C        0.05351272       1.73438286      -3.05606774
C       -3.06949927       2.04110749      -0.13656796
C       -0.74152102      -3.06858261      -1.38171446
C        1.01878258      -1.34076790       0.38475205
C        1.15018531       0.84609748      -2.69926963
C       -0.37416325       3.48874359       0.97280732
C       -3.36112060      -0.46482705       0.17397794
C       -1.04712772       3.57659707      -0.29643110
60
Properties=species:S:1:pos:R:3 trajectory=trial0001_proposal001_step004_proposal_relax trajectory_step=62 pbc="F F F"
C       -1.53928421      -2.99717978       1.02059761
C        2.75294393      -2.23533680      -1.23792571
C        2.26430513       0.30862313       2.00706978
C       -2.17897289       2.91821838      -0.84477072
C       -3.29618272       2.22064309       1.22655140
C        3.57439340      -1.24064064       0.45472265
C       -1.78561501      -1.72350717       1.74244804
C       -0.29606525      -1.18323786      -0.13190916
C        1.18996462       3.38557166      -0.72362831
C       -1.89672713       2.64988168      -2.22339380
C       -0.84333372       2.73230029       2.06444857
C        2.91059500       2.28950221       0.27077703
C       -1.63152944      -2.52732631      -0.38180664
C       -0.03050105       3.58038445      -1.34443878
C        2.17891883       1.24510375      -1.74423092
C       -0.01997232      -0.34623221       2.05857568
C        3.10371063       0.42187690      -1.03506545
C       -2.79799285       0.41358417      -1.91777217
C       -3.21688598       0.71871980      -0.59867946
C        0.68719715      -3.62884278       0.42276186
C       -1.06854191       0.95192273      -3.46740689
C       -1.52124807      -1.39585641      -2.95877375
C       -3.83229995       1.12519946       1.99358263
C       -2.62044655      -0.78409226       2.44562542
C       -1.95585551       0.33450269       3.09978638
C       -0.55851829       0.56283266       2.94836932
C       -0.69259757      -0.37916153      -3.51072035
C       -0.85815262      -0.88906040       1.10265766
C       -2.47699505      -0.96365390      -1.99749897
C        3.46839415      -0.00175300       1.24275006
C        0.73810440      -1.93026546      -2.73577363
C        0.56408395      -3.40394211      -0.98222902
C       -2.80426215       1.44209673       2.97233833
C       -0.49185751       2.91852484      -2.48536857
C        1.25804875      -0.50478631       1.55274500
C       -0.61926661      -2.41068692      -2.61503875
C       -3.60883250      -0.23682650       1.56487837
C       -2.26061911       2.51406969       2.20192218
C        0.11940184       1.81230740       2.68430439
C        1.58147100       1.67838317       2.25747903
C       -0.45013796      -3.79640532       1.19303211
C       -2.67903632      -1.53739141      -0.70148527
C        3.49983087       1.01849015       0.21356083
C        2.96363711      -2.55940731       0.23478206
C        1.50367661      -2.63166048      -1.78824780
C        0.69107289      -0.53620970      -3.13591856
C        1.01286647       3.45999649       0.68709505
C        3.33267707      -0.95580805      -0.91673518
C        2.00038279       2.65663438       1.31888711
C       -2.23462009       1.38227595      -2.77627279
C        2.21362602       2.47859013      -0.99474456
C        1.63125623      -2.60145733       0.71378747
C        0.05978041       1.73481556      -3.06357901
C       -3.05527877       2.04570044      -0.13213492
C       -0.74573968      -3.06641329      -1.37931601
C        1.01942405      -1.34212021       0.39103118
C        1.15256566       0.84121855      -2.69894655
C       -0.37508702       3.49461169       0.97348438
C       -3.35064831      -0.46666951       0.17096235
C       -1.03867654       3.57959237      -0.29900917
60
Properties=species:S:1:pos:R:3 trajectory=trial0001_proposal001_step004_proposal_relax trajectory_step=63 pbc="F F F"
C       -1.52544148      -3.01595009       1.01746797
C        2.74747610      -2.22504099      -1.25181909
C        2.27808231       0.31685844       2.01001281
C       -2.18743544       2.91601833      -0.83166136
C       -3.29664303       2.21562104       1.24508942
C        3.58573772      -1.23076192       0.43588035
C       -1.76684944      -1.74114690       1.74043066
C       -0.27990888      -1.17772771      -0.14086402
C        1.17771860       3.38920030      -0.72392934
C       -1.91143787       2.64996978      -2.21120873
C       -0.84948672       2.74495558       2.08327055
C        2.89724398       2.29460298       0.25930623
C       -1.64145832      -2.55405047      -0.38295345
C       -0.04455070       3.58581528      -1.34609795
C        2.16576780       1.25000709      -1.75287656
C       -0.00351430      -0.34615866       2.05596274
C        3.10830776       0.43109502      -1.05074255
C       -2.80003351       0.40909388      -1.90312332
C       -3.21317321       0.71052962      -0.57996126
C        0.69144838      -3.62670394       0.41821660
C       -1.08559155       0.95492444      -3.47351768
C       -1.53238760      -1.39461187      -2.96252565
C       -3.82393696       1.10458589       2.00450050
C       -2.59530276      -0.79572979       2.45266090
C       -1.93723266       0.32467493       3.10659925
C       -0.54348327       0.56040139       2.94898000
C       -0.70977053      -0.36906001      -3.51995752
C       -0.83652649      -0.90199549       1.10715843
C       -2.47917594      -0.96706997      -1.99076834
C        3.47758168       0.00894917       1.22683784
C        0.73093479      -1.92605433      -2.74022172
C        0.56870992      -3.40314583      -0.98827732
C       -2.80014281       1.42494075       2.98734828
C       -0.50845576       2.92384687      -2.48366743
C        1.27235877      -0.48679325       1.54260900
C       -0.62460030      -2.40369720      -2.61539399
C       -3.59243926      -0.25658161       1.57658130
C       -2.26611121       2.51513894       2.22814609
C        0.12450655       1.81963261       2.68812192
C        1.58519110       1.69038698       2.25902127
C       -0.44112791      -3.83192989       1.18275069
C       -2.67285601      -1.55089776      -0.69760537
C        3.49903278       1.02770455       0.19988158
C        2.96241583      -2.54624195       0.22140463
C        1.50434688      -2.63195460      -1.80105225
C        0.67612683      -0.52909649      -3.13987463
C        1.00506712       3.47169629       0.68981854
C        3.34075444      -0.94402415      -0.93660586
C        1.99371595       2.66438181       1.31160279
C       -2.24775471       1.38332121      -2.76364295
C        2.19684528       2.48288140      -1.00084648
C        1.63085303      -2.59817723       0.71364899
C        0.04320193       1.74351352      -3.07472353
C       -3.05479634       2.03951708      -0.11111521
C       -0.74278883      -3.06393121      -1.38075605
C        1.02778925      -1.33508225       0.38981469
C        1.13702027       0.84658072      -2.70867951
C       -0.38445969       3.49859377       0.98141950
C       -3.34269255      -0.48322063       0.18153603
C       -1.04612104       3.57763981      -0.29341766
60
Properties=species:S:1:pos:R:3 trajectory=trial0001_proposal001_step004_proposal_relax trajectory_step=64 pbc="F F F"
C       -1.50676786      -3.04494272       1.00748135
C        2.74304775      -2.20501950      -1.27053851
C        2.30204594       0.33592152       2.00922130
C       -2.20334306       2.91155071      -0.80831813
C       -3.29612132       2.19806337       1.27879986
C        3.60055208      -1.21467334       0.40669444
C       -1.73302922      -1.76803050       1.74055922
C       -0.25061907      -1.16127762      -0.14691636
C        1.15303083       3.39919731      -0.72496117
C       -1.93626023       2.64882622      -2.19107943
C       -0.85569749       2.76198623       2.11000615
C        2.87758625       2.30190551       0.24209802
C       -1.66389854      -2.60042957      -0.38739041
C       -0.06466533       3.59285937      -1.34366489
C        2.14533606       1.25976726      -1.76896208
C        0.02330670      -0.34135066       2.05032963
C        3.11048330       0.45117923      -1.08077498
C       -2.80266320       0.40397651      -1.87774860
C       -3.20815744       0.69443009      -0.55221162
C        0.70194534      -3.62695008       0.40685685
C       -1.11912943       0.97161902      -3.47818603
C       -1.54904054      -1.38932738      -2.96660840
C       -3.80678882       1.07075153       2.02707505
C       -2.55429140      -0.81877968       2.46138344
C       -1.90776239       0.30756477       3.11848483
C       -0.51792895       0.55808191       2.94867534
C       -0.73596805      -0.36665341      -3.53280453
C       -0.80292938      -0.93127741       1.10863334
C       -2.48222569      -0.97299448      -1.97900564
C        3.49326838       0.02888743       1.20447428
C        0.71864013      -1.91697229      -2.75068530
C        0.57474062      -3.40402045      -0.99872608
C       -2.78908835       1.40051102       3.01160905
C       -0.53900699       2.93019005      -2.48427191
C        1.29784628      -0.46183527       1.53063000
C       -0.63301415      -2.39073517      -2.61658616
C       -3.56350994      -0.28763557       1.59568572
C       -2.27324902       2.51227347       2.26696618
C        0.13339322       1.82735709       2.69648707
C        1.59383046       1.70824257       2.26040986
C       -0.42626644      -3.88036509       1.16528562
C       -2.66407708      -1.57044840      -0.68883041
C        3.49359200       1.04365378       0.17538126
C        2.95897957      -2.52235118       0.19953387
C        1.50351186      -2.63181847      -1.81940987
C        0.64894591      -0.51915512      -3.14714998
C        0.99182421       3.49058850       0.69330902
C        3.35131283      -0.92966339      -0.96770239
C        1.98499430       2.67340610       1.30086211
C       -2.26593924       1.38246452      -2.74208956
C        2.16952852       2.49055971      -1.01036185
C        1.63432411      -2.58892696       0.71108302
C        0.01538799       1.75627390      -3.09017448
C       -3.05603686       2.02586345      -0.07951367
C       -0.73853672      -3.05868935      -1.38328440
C        1.04406597      -1.32319570       0.38722761
C        1.11182172       0.85549670      -2.72351197
C       -0.39935753       3.50667279       0.99100751
C       -3.33095732      -0.50908283       0.19839793
C       -1.06046771       3.57672264      -0.28498773
60
Properties=species:S:1:pos:R:3 trajectory=trial0001_proposal001_step004_proposal_relax trajectory_step=65 pbc="F F F"
C       -1.48310444      -3.08231249       0.99198044
C        2.73766331      -2.18000880      -1.30011055
C        2.33701901       0.36429508       2.00028457
C       -2.23201806       2.90198383      -0.77345633
C       -3.29493750       2.15830963       1.33251065
C        3.61902929      -1.18758867       0.36684317
C       -1.67713764      -1.80418119       1.74167690
C       -0.20031408      -1.12740983      -0.15906189
C        1.11804201       3.41922560      -0.72638687
C       -1.97510258       2.64725099      -2.16053878
C       -0.85917586       2.77227616       2.14132883
C        2.84970796       2.31516709       0.21718172
C       -1.70247860      -2.66758115      -0.39841409
C       -0.10194799       3.59898849      -1.33996510
C        2.11590488       1.28071869      -1.79738360
C        0.05893305      -0.33538661       2.03862429
C        3.10719943       0.47692619      -1.12584184
C       -2.81067660       0.39377396      -1.84212256
C       -3.21037642       0.67078174      -0.51370600
C        0.72599968      -3.62785812       0.38782291
C       -1.16522679       0.98085165      -3.48076018
C       -1.57252477      -1.38487299      -2.96497842
C       -3.77948660       1.02171807       2.06924919
C       -2.49717151      -0.85571722       2.47370711
C       -1.86675303       0.28071200       3.13776559
C       -0.48145887       0.55100678       2.94830408
C       -0.77658846      -0.35032045      -3.54620472
C       -0.75611826      -0.97101598       1.11200378
C       -2.48922757      -0.97912550      -1.95975755
C        3.51798082       0.05957610       1.16951213
C        0.70328477      -1.90365370      -2.76732344
C        0.58313148      -3.40354911      -1.01742130
C       -2.76368432       1.36195515       3.05139537
C       -0.58505766       2.94307778      -2.48120558
C        1.33774511      -0.43525597       1.52147358
C       -0.64545143      -2.37407528      -2.61734408
C       -3.52144213      -0.33329441       1.62732721
C       -2.27607049       2.49749557       2.31438855
C        0.14873148       1.83448159       2.70976293
C        1.61041402       1.72879544       2.26080098
C       -0.40084315      -3.92349349       1.13951323
C       -2.65558702      -1.59683348      -0.67352871
C        3.48284559       1.06575634       0.13550399
C        2.96133948      -2.48669175       0.16684096
C        1.50488477      -2.62569612      -1.84624850
C        0.61051580      -0.50314906      -3.16064289
C        0.97312750       3.51326277       0.69578052
C        3.36295572      -0.90046457      -1.01249946
C        1.97327369       2.68592757       1.28560846
C       -2.29533266       1.38126955      -2.70712160
C        2.13159193       2.50419874      -1.02524202
C        1.64682905      -2.57519641       0.70209744
C       -0.02854326       1.77545656      -3.10653301
C       -3.06485398       2.00097513      -0.03843164
C       -0.73492602      -3.04945066      -1.38540803
C        1.07654298      -1.30275695       0.38084477
C        1.07438868       0.87107595      -2.74479458
C       -0.41968156       3.51740597       1.00535503
C       -3.31894714      -0.54438031       0.22423552
C       -1.08628814       3.57686582      -0.26909883
60
Properties=species:S:1:pos:R:3 trajectory=trial0001_proposal001_step004_proposal_relax trajectory_step=66 pbc="F F F"
C       -1.45856777      -3.12510638       0.96385464
C        2.73493293      -2.14205454      -1.34466067
C        2.38701267       0.40162016       1.97961770
C       -2.28017929       2.88513769      -0.72156893
C       -3.28610128       2.08728322       1.40349744
C        3.64172722      -1.13659676       0.30727776
C       -1.59648468      -1.85962492       1.74328364
C       -0.12026745      -1.06246215      -0.18124762
C        1.07007242       3.45164661      -0.73465694
C       -2.03627417       2.64327444      -2.11438451
C       -0.85647989       2.76527345       2.17262872
C        2.81323115       2.33434965       0.17495310
C       -1.76283668      -2.76116891      -0.41331128
C       -0.16376653       3.60615793      -1.32432107
C        2.07357562       1.31934808      -1.84355175
C        0.11421163      -0.32595533       2.02885920
C        3.09009380       0.51661033      -1.18873494
C       -2.83105004       0.37695398      -1.79130057
C       -3.22824847       0.63463603      -0.46082880
C        0.77267468      -3.62527303       0.35344938
C       -1.23591913       1.00005452      -3.47120985
C       -1.60786316      -1.37517566      -2.95695482
C       -3.73812119       0.94004816       2.14523016
C       -2.41169051      -0.90911160       2.49446337
C       -1.79772369       0.23105885       3.16631160
C       -0.43388302       0.53207666       2.94654467
C       -0.83528158      -0.33787418      -3.55420387
C       -0.68092034      -1.01779022       1.10347135
C       -2.50062487      -0.99126281      -1.92757227
C        3.55396915       0.10906547       1.11244588
C        0.68171322      -1.88255071      -2.79320036
C        0.59311020      -3.39271065      -1.04726319
C       -2.71623300       1.30425514       3.11642818
C       -0.65687671       2.95932789      -2.47276328
C        1.39491380      -0.40994839       1.51737276
C       -0.66078897      -2.35428799      -2.61556622
C       -3.46338481      -0.39876620       1.67706497
C       -2.26334798       2.45676474       2.36997875
C        0.17871069       1.83853473       2.72530021
C        1.63794491       1.75373064       2.25689728
C       -0.35591296      -3.95382295       1.10604498
C       -2.65181955      -1.63444674      -0.65155260
C        3.46361545       1.10513356       0.07329250
C        2.97695111      -2.43563795       0.11765941
C        1.50440177      -2.60945352      -1.88813151
C        0.56038973      -0.47581892      -3.18440099
C        0.94559009       3.53847646       0.69735432
C        3.36920973      -0.85785305      -1.07546713
C        1.95581185       2.70746488       1.26302884
C       -2.34046642       1.37565827      -2.65538028
C        2.07821387       2.53190454      -1.04879780
C        1.67627152      -2.56022080       0.68275218
C       -0.10004508       1.80030646      -3.12064335
C       -3.08804354       1.96045019       0.02159141
C       -0.73397289      -3.03425877      -1.38331707
C        1.13409567      -1.26639765       0.36968790
C        1.01599207       0.90042853      -2.77565767
C       -0.44357813       3.52931142       1.02975922
C       -3.30769827      -0.59571401       0.26835257
C       -1.13343899       3.57524236      -0.23961405
60
Properties=species:S:1:pos:R:3 trajectory=trial0001_proposal001_step004_proposal_relax trajectory_step=67 pbc="F F F"
C       -1.47458169      -3.12043977       0.95742785
C        2.73903534      -2.13651589      -1.35353458
C        2.39709422       0.40637488       1.96609427
C       -2.29731352       2.87621616      -0.71079595
C       -3.27511828       2.05092376       1.42003475
C        3.63779993      -1.11945190       0.29662097
C       -1.57333636      -1.85232003       1.73460550
C       -0.10779483      -1.04127639      -0.18330294
C        1.06081217       3.46425417      -0.73707543
C       -2.05070628       2.63882988      -2.10465797
C       -0.83827228       2.73311688       2.15680799
C        2.80259489       2.35117422       0.17019086
C       -1.76582604      -2.75649238      -0.41840067
C       -0.18329964       3.60196877      -1.31429928
C        2.06570189       1.33531158      -1.85728410
C        0.12334091      -0.34052267       2.02382822
C        3.06602315       0.52647172      -1.19862783
C       -2.84522141       0.37103045      -1.78401039
C       -3.25123297       0.62184172      -0.45800323
C        0.78886096      -3.62237768       0.34014428
C       -1.24912603       0.99096053      -3.45277003
C       -1.60754299      -1.38123714      -2.94340688
C       -3.72443083       0.92782573       2.17270986
C       -2.39443213      -0.92432037       2.49286974
C       -1.78815242       0.21403422       3.17130470
C       -0.42055029       0.53301438       2.94886497
C       -0.84295741      -0.33190804      -3.54053337
C       -0.66886616      -1.01394995       1.09107208
C       -2.50672608      -0.99233601      -1.91564840
C        3.55490723       0.12761316       1.10057266
C        0.67930034      -1.87321722      -2.80293303
C        0.59208444      -3.37703721      -1.04987872
C       -2.69049194       1.28890932       3.13194062
C       -0.67561435       2.96258462      -2.45940688
C        1.41068487      -0.42486563       1.53502826
C       -0.66719596      -2.34922993      -2.61257502
C       -3.45461939      -0.41325918       1.69482859
C       -2.24341253       2.41703457       2.35530821
C        0.18962722       1.82035049       2.72422072
C        1.64695786       1.75303160       2.24913361
C       -0.33492543      -3.89831596       1.09945791
C       -2.66839361      -1.63973455      -0.64380758
C        3.45703304       1.10900803       0.05851779
C        2.99561385      -2.42973789       0.10721120
C        1.50347273      -2.59688361      -1.89210729
C        0.55606941      -0.47340990      -3.19364617
C        0.94154300       3.53526477       0.68877426
C        3.35280877      -0.84652736      -1.08316868
C        1.96176082       2.70779480       1.25566424
C       -2.35222700       1.37041410      -2.64172484
C        2.07280521       2.54485839      -1.05940585
C        1.70593680      -2.55354407       0.66939323
C       -0.11808468       1.80253654      -3.10680205
C       -3.10505814       1.94667040       0.02211382
C       -0.74310095      -3.03367036      -1.38217376
C        1.16089487      -1.25924105       0.36836927
C        1.00532432       0.91324994      -2.77972029
C       -0.44445057       3.52682994       1.03172234
C       -3.31590275      -0.60091303       0.27708901
C       -1.14857757       3.57347521      -0.22403005
60
Properties=species:S:1:pos:R:3 trajectory=trial0001_proposal001_step004_proposal_relax trajectory_step=68 pbc="F F F"
C       -1.48332728      -3.11000580       0.96001212
C        2.74231517      -2.13727144      -1.35758033
C        2.39486199       0.40897270       1.95730300
C       -2.29990006       2.86915874      -0.70959341
C       -3.26891038       2.04176850       1.41054223
C        3.62976879      -1.11295440       0.29559364
C       -1.57056279      -1.84622892       1.72850866
C       -0.09895033      -1.03602351      -0.18765970
C        1.05943702       3.46559411      -0.74290995
C       -2.05404012       2.63371397      -2.10342426
C       -0.82774720       2.70793084       2.14040049
C        2.81017676       2.35231390       0.16437868
C       -1.76372092      -2.73800819      -0.41423778
C       -0.19215701       3.60069205      -1.30365414
C        2.06251069       1.34074823      -1.85852236
C        0.12334554      -0.34710979       2.03439442
C        3.04732013       0.52457363      -1.19307152
C       -2.85360959       0.36447754      -1.78704046
C       -3.25985629       0.61977026      -0.45956033
C        0.79727981      -3.61045259       0.33693297
C       -1.24702986       0.98346514      -3.43895857
C       -1.60917407      -1.38145948      -2.93427365
C       -3.72155919       0.92389489       2.18450521
C       -2.39381602      -0.92793959       2.48891935
C       -1.77956157       0.20619349       3.16574553
C       -0.42058297       0.52253661       2.94202530
C       -0.83903551      -0.33673183      -3.52620453
C       -0.66976808      -1.00455525       1.07968699
C       -2.50884287      -0.99653605      -1.91287992
C        3.54810653       0.12948412       1.09383006
C        0.67730489      -1.86789549      -2.80396690
C        0.58644051      -3.35208534      -1.04705553
C       -2.67763713       1.28337524       3.13337830
C       -0.67935262       2.95872799      -2.44804585
C        1.41567064      -0.44243268       1.54491453
C       -0.66583483      -2.35716795      -2.60884449
C       -3.45810516      -0.41190686       1.69780032
C       -2.22086706       2.39570119       2.33856776
C        0.19607549       1.81431474       2.71669578
C        1.65044479       1.74843916       2.24243334
C       -0.33508739      -3.86074189       1.10151270
C       -2.68093162      -1.63899512      -0.64212412
C        3.45249120       1.12245098       0.05467172
C        3.01458694      -2.43556498       0.10269763
C        1.49681563      -2.57612482      -1.88861145
C        0.56289963      -0.46854096      -3.20074794
C        0.94113757       3.52482089       0.68207190
C        3.33546808      -0.84192476      -1.07992827
C        1.96291437       2.71560485       1.25706859
C       -2.35944139       1.36401701      -2.64410905
C        2.07314730       2.55249662      -1.06338188
C        1.72288824      -2.55569063       0.66661614
C       -0.12255139       1.79979028      -3.08989892
C       -3.11078491       1.93948597       0.02345164
C       -0.74935574      -3.03381521      -1.38292055
C        1.16912184      -1.25711784       0.36665175
C        1.00475582       0.92041015      -2.77725467
C       -0.43879314       3.51839339       1.03407123
C       -3.31854588      -0.59799507       0.28439476
C       -1.15729928       3.57019888      -0.21512565
60
Properties=species:S:1:pos:R:3 trajectory=trial0001_proposal001_step004_proposal_relax trajectory_step=69 pbc="F F F"
C       -1.47288016      -3.12160040       0.95512454
C        2.74296227      -2.11824309      -1.38470542
C        2.41424591       0.42873920       1.94477517
C       -2.31947722       2.85309125      -0.68428970
C       -3.26047583       2.01387413       1.43851304
C        3.63509444      -1.08739757       0.26348558
C       -1.53676156      -1.86503909       1.72182191
C       -0.04971095      -1.01391469      -0.20389479
C        1.03560099       3.47417821      -0.74862039
C       -2.08539251       2.62431464      -2.08073486
C       -0.81744062       2.69065710       2.14505984
C        2.79354180       2.37606453       0.14118882
C       -1.79106649      -2.76373033      -0.41321400
C       -0.22972468       3.60770533      -1.29103663
C        2.03573283       1.35702136      -1.87447929
C        0.15762401      -0.36347664       2.03349093
C        3.02270185       0.54437008      -1.21387309
C       -2.87043146       0.34960145      -1.76519836
C       -3.26460109       0.59873128      -0.43291387
C        0.81388112      -3.58943240       0.32581933
C       -1.27449224       0.98538555      -3.42570388
C       -1.62343038      -1.38280582      -2.92541242
C       -3.70214575       0.88949017       2.21945130
C       -2.35407774      -0.95393982       2.49379714
C       -1.74192302       0.17602769       3.16848167
C       -0.39437483       0.51153551       2.93733310
C       -0.86055315      -0.33432554      -3.51997269
C       -0.63440059      -1.01709821       1.06817527
C       -2.51928466      -1.00805999      -1.89720420
C        3.55498192       0.15137559       1.05804204
C        0.66230472      -1.84999708      -2.81487438
C        0.58712127      -3.31502790      -1.04981418
C       -2.64814017       1.25114033       3.15655694
C       -0.71377523       2.96002233      -2.42953868
C        1.44372186      -0.44079927       1.54867034
C       -0.67764509      -2.35217767      -2.61255529
C       -3.43544846      -0.44097048       1.72250448
C       -2.20237897       2.36214561       2.35408647
C        0.21444504       1.81076571       2.71367168
C        1.66237396       1.76090418       2.23365380
C       -0.31531299      -3.85716314       1.08408866
C       -2.68613610      -1.65813420      -0.62992920
C        3.44681579       1.14379769       0.02399094
C        3.04033952      -2.42417164       0.07322312
C        1.48685112      -2.54177315      -1.90035938
C        0.54633372      -0.45195219      -3.21763953
C        0.92613781       3.52850777       0.67745463
C        3.32139438      -0.82095779      -1.10568057
C        1.95981269       2.73572968       1.24479529
C       -2.39108747       1.35409935      -2.62836461
C        2.04629430       2.56981571      -1.07990295
C        1.75283596      -2.54881691       0.66022923
C       -0.15558470       1.80839469      -3.08075939
C       -3.11728050       1.91699994       0.05523455
C       -0.75575085      -3.02631407      -1.38037694
C        1.19832583      -1.24325192       0.36188949
C        0.97969957       0.93911400      -2.78887480
C       -0.44645958       3.51163077       1.04664486
C       -3.31046834      -0.61864126       0.30936225
C       -1.18251605       3.56422035      -0.19250282
60
Properties=species:S:1:pos:R:3 trajectory=trial0001_proposal001_step004_proposal_relax trajectory_step=70 pbc="F F F"
C       -1.45672511      -3.13162141       0.95161005
C        2.74351101      -2.09321278      -1.41974370
C        2.43898244       0.44765394       1.93558474
C       -2.34314090       2.83320590      -0.65127846
C       -3.25099790       1.98409614       1.47548379
C        3.64635940      -1.06326167       0.22077668
C       -1.49975715      -1.87867505       1.70766751
C       -0.00420755      -1.00127842      -0.22125946
C        0.99693697       3.48250203      -0.75146005
C       -2.12583605       2.61043853      -2.05226428
C       -0.80633294       2.67156965       2.15456636
C        2.78190216       2.40286735       0.11116812
C       -1.80947369      -2.79358737      -0.41242834
C       -0.26851004       3.62012702      -1.27796532
C        2.00124100       1.37596819      -1.88905108
C        0.19360093      -0.38947500       2.03921014
C        2.99572350       0.56937267      -1.23891489
C       -2.89477383       0.33224422      -1.74114261
C       -3.27013822       0.57430335      -0.39810013
C        0.82884702      -3.55664365       0.31992750
C       -1.30923745       0.98560051      -3.40910200
C       -1.64362177      -1.37983121      -2.91859591
C       -3.68259382       0.85219535       2.25317890
C       -2.31045114      -0.98039402       2.50035958
C       -1.69899441       0.14480461       3.17403946
C       -0.35166060       0.49051206       2.93416383
C       -0.88743674      -0.32408959      -3.51555380
C       -0.58957093      -1.02732597       1.05006237
C       -2.53708940      -1.02360959      -1.88102507
C        3.56292796       0.17688810       1.01859336
C        0.64406095      -1.82780570      -2.82870315
C        0.58573071      -3.27002778      -1.04833526
C       -2.61520542       1.20958965       3.17897209
C       -0.75905863       2.95798782      -2.40670046
C        1.48541253      -0.43774954       1.54843461
C       -0.68960757      -2.35095549      -2.61570998
C       -3.41171703      -0.47622531       1.75176747
C       -2.18372179       2.32337722       2.37629231
C        0.23680226       1.79844038       2.70504497
C        1.67699009       1.77593832       2.21747855
C       -0.28343746      -3.85279959       1.06349475
C       -2.69246850      -1.67713630      -0.61447369
C        3.43453447       1.17829575      -0.01118641
C        3.06987173      -2.41548584       0.03723456
C        1.47620983      -2.50248134      -1.90955588
C        0.52470317      -0.43541188      -3.23297780
C        0.90921135       3.53750520       0.67526013
C        3.30318385      -0.79295357      -1.13828611
C        1.95730117       2.75642566       1.22828293
C       -2.43142938       1.34374523      -2.60923098
C        2.01502844       2.59260265      -1.10245552
C        1.79558198      -2.53489640       0.64848236
C       -0.19389793       1.81879726      -3.06979433
C       -3.12446837       1.89191309       0.09205121
C       -0.76401723      -3.01199107      -1.37873200
C        1.24323158      -1.23335818       0.36135381
C        0.95213349       0.95741814      -2.80360414
C       -0.45695573       3.49819968       1.05715611
C       -3.30429608      -0.64665001       0.33681323
C       -1.20864461       3.55458622      -0.16869115
60
Properties=species:S:1:pos:R:3 trajectory=trial0001_proposal001_step004_proposal_relax trajectory_step=71 pbc="F F F"
C       -1.42817120      -3.13710442       0.95227892
C        2.74491742      -2.06767332      -1.45645018
C        2.46988196       0.46403571       1.92719795
C       -2.36741015       2.81308931      -0.61974233
C       -3.24598403       1.95578720       1.50868114
C        3.66284213      -1.04100000       0.17575176
C       -1.46484589      -1.87479158       1.68720426
C        0.03383522      -1.00648134      -0.23445749
C        0.96290159       3.48970166      -0.75000946
C       -2.16837347       2.59673857      -2.01974338
C       -0.79610139       2.64414276       2.16603414
C        2.77444463       2.44032118       0.08081276
C       -1.80168480      -2.80086985      -0.40931962
C       -0.31297339       3.63182953      -1.27159251
C        1.96746067       1.39777856      -1.90185920
C        0.24103534      -0.42668549       2.03889469
C        2.97128481       0.59944601      -1.26375473
C       -2.92984636       0.31705803      -1.72007752
C       -3.28241770       0.55265302      -0.36865187
C        0.85322071      -3.51522075       0.31725468
C       -1.34871412       0.99557218      -3.38693381
C       -1.66041741      -1.37693659      -2.91305888
C       -3.66785042       0.81670406       2.28504543
C       -2.27380591      -1.00177785       2.50696577
C       -1.65465090       0.11751666       3.18482384
C       -0.31170690       0.45605077       2.94411818
C       -0.91668037      -0.31925619      -3.50891368
C       -0.55521457      -1.02626444       1.03706348
C       -2.56244902      -1.03535191      -1.86977445
C        3.57435748       0.20470337       0.98089691
C        0.62976789      -1.81295872      -2.84001473
C        0.58346909      -3.22736510      -1.04521442
C       -2.58520204       1.16758347       3.19676995
C       -0.80777240       2.95389075      -2.38455570
C        1.51796173      -0.44554571       1.54815830
C       -0.70432621      -2.34064240      -2.62633115
C       -3.39544997      -0.50996296       1.77847041
C       -2.16323979       2.28739212       2.40151534
C        0.26301325       1.77539516       2.69039532
C        1.69367314       1.78061534       2.19377433
C       -0.25450904      -3.83998353       1.05687227
C       -2.69854765      -1.69437525      -0.59788797
C        3.42300370       1.20136008      -0.04189371
C        3.10621188      -2.40894253      -0.00517069
C        1.46648331      -2.46815703      -1.91507925
C        0.49881649      -0.41958239      -3.24197143
C        0.89546602       3.54717354       0.67514220
C        3.28637725      -0.76091142      -1.17054135
C        1.95929300       2.77136614       1.20704572
C       -2.47348931       1.33192387      -2.58876308
C        1.98652478       2.62133042      -1.12364853
C        1.84188106      -2.52120113       0.63058113
C       -0.23511075       1.82649930      -3.05766179
C       -3.13759112       1.86670325       0.12922865
C       -0.76238682      -3.00105477      -1.37990166
C        1.28234804      -1.22062091       0.35943504
C        0.92692978       0.97148508      -2.81626965
C       -0.46837831       3.47702281       1.06600921
C       -3.30730586      -0.67355893       0.36188259
C       -1.23425113       3.54164395      -0.15087134
60
Properties=species:S:1:pos:R:3 trajectory=trial0001_proposal001_step004_proposal_relax trajectory_step=72 pbc="F F F"
C       -1.40802568      -3.14373343       0.94566859
C        2.74527104      -2.04731665      -1.47986153
C        2.49344637       0.47185955       1.91793998
C       -2.38904368       2.80195796      -0.59572216
C       -3.24376309       1.93038850       1.54063612
C        3.67816089      -1.02021635       0.14323683
C       -1.43880807      -1.87852173       1.68042540
C        0.06077315      -1.00338761      -0.23678248
C        0.93688605       3.50211399      -0.75205352
C       -2.19961559       2.58969471      -1.99690592
C       -0.78936938       2.62968238       2.17784622
C        2.76674455       2.45945501       0.06039060
C       -1.79735019      -2.81151470      -0.40919329
C       -0.34010099       3.63681420      -1.26552660
C        1.94652949       1.41627972      -1.91693932
C        0.26679540      -0.44040968       2.04160669
C        2.96038955       0.62283169      -1.28760310
C       -2.95275075       0.30816740      -1.70170680
C       -3.29590932       0.53521417      -0.34734202
C        0.87223430      -3.50116950       0.30933409
C       -1.38115266       0.99846921      -3.37800310
C       -1.67877457      -1.37317060      -2.90935091
C       -3.65360820       0.78599860       2.31307180
C       -2.24118415      -1.01958056       2.51226043
C       -1.62766548       0.09462046       3.19678101
C       -0.27902819       0.43760410       2.95195742
C       -0.94358226      -0.30787380      -3.50870096
C       -0.52908504      -1.03255759       1.03047755
C       -2.57740501      -1.04189400      -1.86013656
C        3.58933978       0.22566927       0.95573911
C        0.61910744      -1.80415206      -2.85139283
C        0.58983080      -3.21287226      -1.04785222
C       -2.56493825       1.14192778       3.21564561
C       -0.84424417       2.95611302      -2.37623089
C        1.55387398      -0.44046492       1.54772317
C       -0.71104497      -2.33224057      -2.62821044
C       -3.37916127      -0.53639761       1.79888838
C       -2.15877259       2.26635882       2.42676034
C        0.27881568       1.75839455       2.68662209
C        1.70714131       1.78211578       2.17849435
C       -0.22599176      -3.84183113       1.05424152
C       -2.69782899      -1.70935484      -0.58918200
C        3.41279371       1.22027730      -0.06617508
C        3.12476300      -2.39228073      -0.03700299
C        1.46332604      -2.45753103      -1.92791493
C        0.47439329      -0.40982103      -3.24655883
C        0.88311612       3.55583568       0.67632001
C        3.28445369      -0.74043118      -1.19820308
C        1.95804261       2.77866045       1.19293040
C       -2.50177175       1.32924070      -2.56501082
C        1.96492630       2.64015827      -1.13653051
C        1.87014688      -2.51098230       0.61616940
C       -0.26828979       1.83465679      -3.05677394
C       -3.14923756       1.84926740       0.15568922
C       -0.75974973      -2.99365678      -1.38514110
C        1.30776417      -1.20789474       0.35059631
C        0.90089667       0.98215409      -2.82644462
C       -0.47910538       3.46903473       1.07435849
C       -3.30976773      -0.69430923       0.37854014
C       -1.25329249       3.53478697      -0.13771030
60
Properties=species:S:1:pos:R:3 trajectory=trial0001_proposal001_step004_proposal_relax trajectory_step=73 pbc="F F F"
C       -1.37989493      -3.14763407       0.93785586
C        2.74372671      -2.02197938      -1.51089192
C        2.52879007       0.48322079       1.90316237
C       -2.41775201       2.78781926      -0.56410357
C       -3.24250143       1.89691712       1.58176699
C        3.69937547      -0.99041624       0.10143876
C       -1.40903889      -1.88503648       1.67241811
C        0.08990757      -1.00226281      -0.23467572
C        0.90472787       3.52090489      -0.75532845
C       -2.23863183       2.58154344      -1.96768055
C       -0.78100094       2.60609864       2.19121475
C        2.75765685       2.48236845       0.03526367
C       -1.78140936      -2.81623917      -0.40906653
C       -0.37530041       3.64000266      -1.25617731
C        1.92006477       1.44234886      -1.93775693
C        0.30558720      -0.45794198       2.04642688
C        2.94686066       0.64971844      -1.31714543
C       -2.98455553       0.29628468      -1.67896763
C       -3.31787058       0.51371051      -0.31989652
C        0.89973702      -3.48793137       0.29864688
C       -1.42645199       1.00236042      -3.36595556
C       -1.70273244      -1.36871129      -2.90484810
C       -3.63510296       0.74733410       2.34946672
C       -2.20338017      -1.03954036       2.51636577
C       -1.59400796       0.06728299       3.21135297
C       -0.24076539       0.41371134       2.96411639
C       -0.97998148      -0.29679261      -3.50674787
C       -0.49651420      -1.03739397       1.02680805
C       -2.59719262      -1.05060046      -1.84807243
C        3.61116429       0.25170728       0.92206928
C        0.60363671      -1.79263014      -2.86697700
C        0.59929112      -3.19638821      -1.05418281
C       -2.53713354       1.10807728       3.24129294
C       -0.89056034       2.96003781      -2.36578761
C        1.59283364      -0.44244875       1.54618441
C       -0.72028797      -2.32086136      -2.62951524
C       -3.35898236      -0.56893106       1.82383689
C       -2.15147108       2.24270016       2.45753429
C        0.29947349       1.73483641       2.68000319
C        1.72416016       1.77966201       2.15561161
C       -0.18703441      -3.83959511       1.05643562
C       -2.69846424      -1.72491359      -0.58059087
C        3.39900806       1.24713727      -0.09699879
C        3.14904843      -2.36767963      -0.07973715
C        1.46236052      -2.44590410      -1.94623921
C        0.44114908      -0.39749619      -3.25118210
C        0.86684678       3.56291894       0.67666171
C        3.28398026      -0.70995018      -1.23475063
C        1.95514126       2.78694493       1.17638539
C       -2.53750986       1.32484147      -2.53396828
C        1.93836350       2.66411860      -1.15267095
C        1.90906859      -2.49604355       0.59514589
C       -0.31326547       1.84401101      -3.05525327
C       -3.16467127       1.82589573       0.18832825
C       -0.75426802      -2.98738797      -1.39144483
C        1.34590168      -1.19100820       0.33886227
C        0.86390618       0.99684547      -2.83609830
C       -0.49174840       3.45775430       1.08623685
C       -3.31390183      -0.72059938       0.39880458
C       -1.27784124       3.52543804      -0.11879799
60
Properties=species:S:1:pos:R:3 trajectory=trial0001_proposal001_step004_proposal_relax trajectory_step=74 pbc="F F F"
C       -1.33133453      -3.15552415       0.92922632
C        2.74341215      -1.97796724      -1.56180194
C        2.57903182       0.49756887       1.87384565
C       -2.45792678       2.76510540      -0.51431334
C       -3.24075164       1.84987905       1.63995610
C        3.73107122      -0.94428310       0.03297327
C       -1.36178185      -1.89948963       1.66246924
C        0.13564322      -1.00083753      -0.22940179
C        0.86034073       3.54698357      -0.75955434
C       -2.29634644       2.57020104      -1.92200979
C       -0.76991285       2.57070350       2.20873016
C        2.73531377       2.52105496      -0.00176393
C       -1.75714004      -2.82064128      -0.40784728
C       -0.43496463       3.64266977      -1.23820721
C        1.87685779       1.47908567      -1.96886342
C        0.36435720      -0.48647326       2.05907304
C        2.91969772       0.69459725      -1.36262173
C       -3.03201115       0.27582832      -1.64267738
C       -3.34823180       0.48062460      -0.27522805
C        0.94493686      -3.46723097       0.28125155
C       -1.49834155       1.00874719      -3.34822823
C       -1.73862724      -1.36765323      -2.89737052
C       -3.60362002       0.69000960       2.40627634
C       -2.14985411      -1.07074989       2.51960259
C       -1.53725888       0.02734317       3.22613252
C       -0.18509302       0.38024222       2.97726586
C       -1.03707994      -0.28670551      -3.50286999
C       -0.44539108      -1.05050333       1.03288111
C       -2.62735577      -1.06433323      -1.83044801
C        3.64272651       0.29466830       0.86327956
C        0.57635608      -1.77079331      -2.88906793
C        0.61451465      -3.16755973      -1.06658200
C       -2.49348386       1.05684178       3.28037916
C       -0.96025644       2.96636529      -2.34493749
C        1.66228984      -0.44367698       1.54328216
C       -0.73959107      -2.30637641      -2.63138390
C       -3.32644458      -0.61716610       1.85870744
C       -2.13717355       2.20677261       2.50489302
C        0.32945773       1.70529101       2.66826960
C        1.74725813       1.77776934       2.11993952
C       -0.12982904      -3.83698315       1.05803417
C       -2.69941518      -1.74722740      -0.56530065
C        3.38393744       1.28645845      -0.14627764
C        3.18765589      -2.32676366      -0.14679400
C        1.45743544      -2.41877551      -1.97933496
C        0.38849005      -0.37448111      -3.26132410
C        0.84063610       3.56754935       0.67416221
C        3.28296276      -0.66550593      -1.29415907
C        1.94703290       2.80331621       1.15212535
C       -2.59394891       1.31248248      -2.49080219
C        1.89464285       2.69933621      -1.17805114
C        1.96961826      -2.47573893       0.56351882
C       -0.38572450       1.85806472      -3.05110685
C       -3.18395107       1.78768323       0.24695049
C       -0.74341592      -2.98095741      -1.39802978
C        1.40788653      -1.16814415       0.32152925
C        0.80301962       1.02283753      -2.84592047
C       -0.50955031       3.43859272       1.10771126
C       -3.31384975      -0.76172936       0.43202165
C       -1.31638395       3.50983237      -0.08402136
60
Properties=species:S:1:pos:R:3 trajectory=trial0001_proposal001_step004_proposal_relax trajectory_step=75 pbc="F F F"
C       -1.25985687      -3.17098469       0.91674342
C        2.74217680      -1.91114276      -1.64498405
C        2.65956693       0.53131659       1.82460768
C       -2.51637060       2.72660177      -0.43645196
C       -3.23431545       1.78140504       1.73186850
C        3.77684268      -0.87172293      -0.07453335
C       -1.28988949      -1.92594911       1.65463969
C        0.21162937      -0.99460361      -0.21639037
C        0.78669439       3.58281207      -0.76824879
C       -2.38455132       2.54836014      -1.85346534
C       -0.75339182       2.51755635       2.23237160
C        2.69980350       2.57311722      -0.05896849
C       -1.72625146      -2.82947680      -0.40140431
C       -0.52138496       3.64676896      -1.20208311
C        1.80632330       1.53355165      -2.01357869
C        0.46921628      -0.53416014       2.07421574
C        2.87541321       0.75670043      -1.42962653
C       -3.10057213       0.24389076      -1.58670744
C       -3.38898459       0.42938351      -0.20638816
C        1.01415579      -3.43445079       0.25107519
C       -1.60401059       1.01152704      -3.32238349
C       -1.79538356      -1.37065663      -2.88289043
C       -3.55375090       0.60579917       2.49159272
C       -2.06795789      -1.11966679       2.52556736
C       -1.45427966      -0.03289582       3.24072857
C       -0.10399644       0.33872015       2.99071313
C       -1.12358204      -0.27061565      -3.49616953
C       -0.35862229      -1.07545281       1.04611905
C       -2.67257029      -1.08715059      -1.80152947
C        3.68696822       0.35906197       0.76807423
C        0.53065819      -1.73216436      -2.92090985
C        0.64074644      -3.11909717      -1.08577407
C       -2.42336450       0.98115375       3.33887183
C       -1.06617906       2.97387700      -2.30838289
C        1.74896541      -0.45710663       1.53871530
C       -0.76712714      -2.29216510      -2.63302458
C       -3.27653363      -0.68603144       1.91110920
C       -2.11274144       2.14759677       2.57176990
C        0.37390122       1.66834373       2.64989818
C        1.77641898       1.77814523       2.07017629
C       -0.04016483      -3.83026040       1.05114627
C       -2.69844592      -1.78254774      -0.53861529
C        3.36116313       1.35463428      -0.22561831
C        3.24735013      -2.26544465      -0.24803314
C        1.44950366      -2.36558863      -2.02978671
C        0.30904731      -0.33597543      -3.28026677
C        0.79831728       3.57066578       0.66997929
C        3.27838316      -0.59143192      -1.38734203
C        1.93228758       2.82912381       1.11717309
C       -2.68073214       1.29590782      -2.42761743
C        1.82781042       2.75108055      -1.21634430
C        2.06166429      -2.45200723       0.51642209
C       -0.49721068       1.88023425      -3.04020278
C       -3.20817880       1.72915325       0.33261525
C       -0.72982902      -2.97136632      -1.40617319
C        1.49569413      -1.13385875       0.29956891
C        0.70702621       1.06404654      -2.85904147
C       -0.53373808       3.40953413       1.13951808
C       -3.30805900      -0.82111552       0.48301263
C       -1.37516096       3.48525292      -0.02717128
60
Properties=species:S:1:pos:R:3 trajectory=trial0001_proposal001_step004_proposal_relax trajectory_step=76 pbc="F F F"
C       -1.20724077      -3.18300045       0.91292764
C        2.74146115      -1.86102486      -1.70789075
C        2.70652652       0.55274970       1.77998668
C       -2.55217042       2.69510778      -0.38138666
C       -3.22783726       1.73845291       1.79272269
C        3.80503148      -0.81749765      -0.15646456
C       -1.23914948      -1.94920696       1.65821462
C        0.26111339      -0.99225927      -0.20136621
C        0.73785678       3.60010369      -0.76962709
C       -2.44344349       2.53207154      -1.80271432
C       -0.74387832       2.48257093       2.24446570
C        2.66760056       2.60891275      -0.09680966
C       -1.69763202      -2.83192207      -0.39131861
C       -0.58682495       3.64458031      -1.17428526
C        1.75082878       1.56937857      -2.04043210
C        0.54560984      -0.56738086       2.09474943
C        2.84110122       0.79781806      -1.47622587
C       -3.14556862       0.22159482      -1.54821583
C       -3.41202100       0.39493336      -0.15856546
C        1.06548330      -3.41479012       0.22374775
C       -1.68035076       1.01529768      -3.30253337
C       -1.83285983      -1.37866409      -2.87169645
C       -3.51787882       0.55292113       2.54815133
C       -2.01854868      -1.15025047       2.53056088
C       -1.39669517      -0.06806772       3.24101238
C       -0.05111670       0.31423264       2.98927165
C       -1.18611107      -0.26987929      -3.48937280
C       -0.29125930      -1.10077252       1.06875703
C       -2.70437302      -1.10635386      -1.77742074
C        3.71100706       0.40643943       0.69338730
C        0.49351135      -1.69884036      -2.94015094
C        0.66183212      -3.08247341      -1.10528253
C       -2.37298534       0.92988971       3.37815454
C       -1.13957837       2.97797633      -2.27340975
C        1.81849393      -0.46502521       1.53656830
C       -0.78790110      -2.28487047      -2.63611042
C       -3.24087052      -0.72777775       1.94553181
C       -2.08865964       2.10783051       2.61181997
C        0.39992984       1.64896059       2.63598250
C        1.79147542       1.77932898       2.03615533
C        0.02770785      -3.82102454       1.03661583
C       -2.69461073      -1.80252229      -0.51666004
C        3.34959903       1.40172939      -0.28483052
C        3.28452011      -2.21954537      -0.32244026
C        1.44594909      -2.31711480      -2.06379932
C        0.24994899      -0.30706363      -3.29405266
C        0.76891468       3.56592592       0.66641465
C        3.27409079      -0.53507404      -1.45701286
C        1.91749299       2.84405461       1.09300949
C       -2.74160200       1.28099819      -2.38851329
C        1.77970039       2.78502091      -1.24141588
C        2.12962048      -2.43912738       0.47846055
C       -0.57774447       1.89422944      -3.02729777
C       -3.22013259       1.68832940       0.39224707
C       -0.71569406      -2.96873596      -1.40657895
C        1.55513498      -1.12044792       0.28837991
C        0.63482700       1.09452389      -2.86293921
C       -0.54932215       3.38656468       1.16247859
C       -3.29794280      -0.85759496       0.51878112
C       -1.41382621       3.46601130       0.01644995
60
Properties=species:S:1:pos:R:3 trajectory=trial0001_proposal001_step004_proposal_relax trajectory_step=77 pbc="F F F"
C       -1.10130119      -3.21521311       0.91256774
C        2.74642206      -1.75530870      -1.83006866
C        2.79230986       0.60386552       1.68962517
C       -2.61568934       2.63289911      -0.27479525
C       -3.21038845       1.65804135       1.90236654
C        3.85185140      -0.71448987      -0.32138058
C       -1.13081019      -1.99711147       1.67511054
C        0.35415295      -0.98537462      -0.17391947
C        0.63466127       3.62500014      -0.76687380
C       -2.55858437       2.49879617      -1.70115953
C       -0.72597969       2.42448745       2.27016250
C        2.60381777       2.67391683      -0.17052552
C       -1.64514758      -2.84586448      -0.36973517
C       -0.70700259       3.64155829      -1.11588268
C        1.63960221       1.63260883      -2.08714754
C        0.69991279      -0.63363822       2.13271317
C        2.76879390       0.88942188      -1.57456586
C       -3.22644254       0.17482075      -1.47271231
C       -3.44748492       0.33285410      -0.06738066
C        1.17141533      -3.37903569       0.15804047
C       -1.82449475       1.01587366      -3.26550923
C       -1.90818667      -1.39863570      -2.84531886
C       -3.44857637       0.45574843       2.65692077
C       -1.92019204      -1.21095561       2.54526115
C       -1.28110487      -0.13134081       3.23907677
C        0.04516923       0.27638974       2.98159809
C       -1.31289249      -0.25745081      -3.47669645
C       -0.15262650      -1.16336050       1.12347583
C       -2.76106486      -1.14360354      -1.72926922
C        3.74830046       0.50029536       0.54693013
C        0.42783129      -1.63321594      -2.97072072
C        0.70548709      -3.01250496      -1.14910444
C       -2.27917622       0.83890985       3.45065336
C       -1.28513535       2.97940730      -2.20489108
C        1.95068912      -0.47930583       1.52914754
C       -0.82598242      -2.27443654      -2.63770532
C       -3.17062724      -0.80607968       2.01218926
C       -2.04212282       2.02810486       2.68772876
C        0.44802391       1.61688278       2.61193702
C        1.81726774       1.78645478       1.97577622
C        0.15844502      -3.80727715       0.99218346
C       -2.67808501      -1.84274572      -0.46464563
C        3.32619421       1.49337982      -0.40351865
C        3.35016003      -2.12433017      -0.47462194
C        1.43063699      -2.21568670      -2.13225126
C        0.13095971      -0.25139939      -3.31952137
C        0.71107473       3.55831140       0.66235001
C        3.26522594      -0.43474625      -1.59755920
C        1.88666444       2.86608896       1.04541494
C       -2.86155679       1.25302716      -2.31193338
C        1.68178316       2.84641159      -1.28876985
C        2.25592728      -2.41843839       0.40083454
C       -0.73497899       1.92234667      -2.99898359
C       -3.24285295       1.61003941       0.51269280
C       -0.68412403      -2.95852686      -1.41155311
C        1.66832898      -1.10539026       0.27777676
C        0.49461119       1.15212935      -2.87082267
C       -0.58059440       3.34552921       1.20415635
C       -3.27248283      -0.92471154       0.59201875
C       -1.48949411       3.42680616       0.09901717
60
Properties=species:S:1:pos:R:3 trajectory=trial0001_proposal001_step004_proposal_relax trajectory_step=78 pbc="F F F"
C       -1.00121368      -3.25382843       0.91757749
C        2.74129981      -1.66364008      -1.94995186
C        2.85330296       0.65672345       1.60227932
C       -2.66917437       2.57517333      -0.17664049
C       -3.18453452       1.58509778       2.00140438
C        3.88176072      -0.61818207      -0.47262943
C       -1.02197537      -2.04606852       1.70947210
C        0.43822846      -0.98093052      -0.13543810
C        0.54073953       3.63088340      -0.75661818
C       -2.66373691       2.46126298      -1.60825074
C       -0.70836757       2.38391978       2.29613517
C        2.54544449       2.72798443      -0.23744370
C       -1.59192441      -2.86502345      -0.34541450
C       -0.81910827       3.63597398      -1.06496542
C        1.52884044       1.68515509      -2.12554989
C        0.84407741      -0.68576615       2.17302526
C        2.70918288       0.96076121      -1.67125756
C       -3.29015810       0.13140520      -1.40032968
C       -3.46865923       0.27536835       0.01445169
C        1.27437606      -3.35501407       0.07488186
C       -1.96028316       1.02595379      -3.22363936
C       -1.97247731      -1.41625465      -2.81858018
C       -3.38655618       0.37542039       2.75021842
C       -1.82518348      -1.26424775       2.56494142
C       -1.18954667      -0.17619330       3.23896382
C        0.13553857       0.24911097       2.96124148
C       -1.42756768      -0.25850775      -3.45995379
C       -0.01120537      -1.23621573       1.17643178
C       -2.80236360      -1.18242414      -1.67472408
C        3.76359971       0.58567185       0.41122710
C        0.36625267      -1.56836422      -2.99393841
C        0.75087475      -2.95170974      -1.19834639
C       -2.19351543       0.76477289       3.51001547
C       -1.41721356       2.97607780      -2.13692192
C        2.07534889      -0.48048371       1.52383216
C       -0.85526179      -2.25936522      -2.63771787
C       -3.10290240      -0.87084746       2.07735198
C       -2.00027783       1.95651924       2.74687412
C        0.48933264       1.59524009       2.59259570
C        1.83775878       1.79420249       1.92678405
C        0.28186264      -3.79807313       0.92466827
C       -2.64882868      -1.87857877      -0.40691552
C        3.29630399       1.57824584      -0.51789098
C        3.39383695      -2.03213106      -0.61929765
C        1.42154220      -2.11374388      -2.19128506
C        0.01675666      -0.20134972      -3.33675607
C        0.65853259       3.55065934       0.66527975
C        3.25010878      -0.32077936      -1.73387915
C        1.85392638       2.87821589       0.99769792
C       -2.97073758       1.22513386      -2.24144886
C        1.58185794       2.89979411      -1.32304043
C        2.36898192      -2.41104836       0.31479177
C       -0.87728717       1.94371243      -2.96822387
C       -3.26295192       1.54539517       0.60923628
C       -0.65377754      -2.94373678      -1.41410763
C        1.75756830      -1.10835744       0.27413792
C        0.36777780       1.19906015      -2.87841229
C       -0.61072540       3.31406070       1.24118493
C       -3.24176532      -0.97609350       0.66074240
C       -1.55519860       3.39022917       0.17030628
60
Properties=species:S:1:pos:R:3 trajectory=trial0001_proposal001_step004_proposal_relax trajectory_step=79 pbc="F F F"
C       -0.93800230      -3.28063710       0.92467901
C        2.73754531      -1.60014579      -2.02053469
C        2.86763093       0.69195618       1.54739497
C       -2.69637260       2.54373946      -0.12901077
C       -3.16475246       1.54684374       2.04326261
C        3.87976022      -0.55902615      -0.56372304
C       -0.94868009      -2.08426446       1.74692973
C        0.47448626      -0.98592996      -0.09767390
C        0.47475722       3.62234263      -0.73845447
C       -2.72022639       2.43768981      -1.55262940
C       -0.69987684       2.37584126       2.31508478
C        2.50656747       2.75524908      -0.27355289
C       -1.54532085      -2.87682813      -0.32295087
C       -0.87611815       3.62744833      -1.03661781
C        1.46352363       1.70826351      -2.14046098
C        0.93373485      -0.70050754       2.20001051
C        2.67048161       1.01223654      -1.73419039
C       -3.31215871       0.10185027      -1.35526590
C       -3.46944519       0.24577044       0.05852608
C        1.33493895      -3.36235220      -0.00054086
C       -2.03360795       1.02074563      -3.19796119
C       -2.00323204      -1.42919567      -2.79720914
C       -3.35282346       0.33722513       2.79458512
C       -1.77474277      -1.28318551       2.58501296
C       -1.13941710      -0.18723400       3.23801469
C        0.17710112       0.24225293       2.94148572
C       -1.49774192      -0.25093356      -3.44347108
C        0.08006294      -1.29167826       1.22285268
C       -2.81155279      -1.20742365      -1.62997203
C        3.74808947       0.63418068       0.33516499
C        0.33121755      -1.52722260      -3.00157064
C        0.77914887      -2.92728613      -1.24294119
C       -2.15163398       0.73646219       3.53722809
C       -1.49079168       2.96764280      -2.09698704
C        2.14105191      -0.47334293       1.51812152
C       -0.86477409      -2.24258119      -2.63408255
C       -3.05875979      -0.90045973       2.11564380
C       -1.97211617       1.92961421       2.76786131
C        0.51005514       1.58951728       2.58378602
C        1.84604982       1.80205428       1.90049152
C        0.36116205      -3.79957484       0.85597542
C       -2.61560356      -1.89258224      -0.36729836
C        3.27094740       1.62086112      -0.58406222
C        3.39157868      -1.96985344      -0.71017582
C        1.41415129      -2.05667556      -2.22292209
C       -0.05317534      -0.17839593      -3.33581830
C        0.62953810       3.54451648       0.67212761
C        3.23924032      -0.26691725      -1.81635456
C        1.83260349       2.87140587       0.97157504
C       -3.03231782       1.20761071      -2.19570788
C        1.52381557       2.91243469      -1.33669178
C        2.43181700      -2.41528740       0.24370110
C       -0.95614759       1.95158312      -2.94590873
C       -3.27380300       1.51566283       0.65548871
C       -0.62727498      -2.92953253      -1.41371705
C        1.80523743      -1.12977103       0.28159804
C        0.29380228       1.21726028      -2.88167308
C       -0.62977208       3.30433073       1.26233178
C       -3.21439484      -0.99644085       0.70344176
C       -1.58492551       3.37089847       0.20593548
60
Properties=species:S:1:pos:R:3 trajectory=trial0001_proposal001_step004_proposal_relax trajectory_step=80 pbc="F F F"
C       -0.82308844      -3.31916277       0.92086733
C        2.72818438      -1.49253635      -2.15188046
C        2.93747394       0.75159856       1.46705608
C       -2.77067589       2.48871578      -0.02589937
C       -3.13889689       1.45306573       2.15087511
C        3.90717679      -0.45137591      -0.72721524
C       -0.81605907      -2.13582036       1.77103607
C        0.57344675      -0.98549124      -0.06582690
C        0.36099881       3.63902948      -0.73085120
C       -2.84555569       2.39783460      -1.44834088
C       -0.67245496       2.32906015       2.35552529
C        2.44763249       2.82614683      -0.35670921
C       -1.48562996      -2.90285707      -0.29982647
C       -1.00361556       3.62797016      -0.98861758
C        1.34735457       1.77151293      -2.19181783
C        1.08555502      -0.74920678       2.23661364
C        2.59868997       1.10965141      -1.84887869
C       -3.38482344       0.04730736      -1.26684905
C       -3.49999765       0.17793905       0.15623027
C        1.44428553      -3.33784325      -0.09970858
C       -2.18400518       1.02287710      -3.14440785
C       -2.07534506      -1.43506297      -2.76233462
C       -3.28369177       0.23331300       2.90369409
C       -1.64835265      -1.34561189       2.61176068
C       -1.01996724      -0.24978018       3.25641158
C        0.28755772       0.19743121       2.93717219
C       -1.62574943      -0.22890583      -3.41959598
C        0.23112994      -1.35975791       1.26629392
C       -2.84950094      -1.24910253      -1.56392619
C        3.75927614       0.72999562       0.19461937
C        0.27083716      -1.46077340      -3.03446525
C        0.81974117      -2.86100615      -1.29976933
C       -2.05851754       0.65073916       3.60717692
C       -1.64524932       2.96203033      -2.03428458
C        2.27620868      -0.47092310       1.50847241
C       -0.89451746      -2.21189912      -2.63051059
C       -2.97698174      -0.98942307       2.19848090
C       -1.92804388       1.85226732       2.83969157
C        0.56846647       1.54996950       2.56218414
C        1.88292691       1.81397052       1.83776445
C        0.49920816      -3.79934996       0.77994044
C       -2.58330130      -1.93761110      -0.30392770
C        3.22117635       1.71400861      -0.70589182
C        3.43838886      -1.86977860      -0.87689064
C        1.39471853      -1.96324475      -2.28867929
C       -0.17446049      -0.12701486      -3.34905560
C        0.57105483       3.55028351       0.67708097
C        3.21500602      -0.15504153      -1.96289176
C        1.80571451       2.89207212       0.91532023
C       -3.15872388       1.17460659      -2.10137707
C        1.40894491       2.96894997      -1.37850484
C        2.56079729      -2.40000311       0.13949002
C       -1.11309319       1.97405085      -2.91569971
C       -3.30857704       1.44035762       0.76483419
C       -0.59750605      -2.90011301      -1.42272888
C        1.92450239      -1.12488762       0.27415916
C        0.15883036       1.26347757      -2.90240499
C       -0.66926330       3.27583436       1.30745558
C       -3.18428808      -1.06693982       0.78877781
C       -1.66481875       3.33467951       0.27896218
