60
Properties=species:S:1:pos:R:3 trajectory=trial0001_proposal001_step005_proposal_relax trajectory_step=0 pbc="F F F"
C       -0.64124615      -3.39704485       1.26298903
C        2.74392245      -1.51125096      -2.17731857
C        2.86995257       0.62569655       1.39223256
C       -2.79524135       2.49385484      -0.03735124
C       -3.13159847       1.45872747       2.16205206
C        3.92050220      -0.43484605      -0.75664004
C       -0.76447039      -2.11164021       1.91413186
C        0.17766727      -0.99963410      -0.13883504
C        0.37356421       3.65489740      -0.73006710
C       -2.85804139       2.38835596      -1.45401727
C       -0.66277308       2.33328140       2.36512795
C        2.43503957       2.80365558      -0.35604400
C       -1.25641255      -2.74543827      -0.00724616
C       -1.00058997       3.63053110      -0.98676352
C        1.35556939       1.77242661      -2.21246266
C        1.12012495      -0.79796056       2.14867050
C        2.61220141       1.10566560      -1.88045794
C       -3.38129748      -0.00248138      -1.28885373
C       -3.49769557       0.18225343       0.11186846
C        1.46703437      -3.31141845      -0.12619298
C       -2.18806344       1.03189904      -3.15220806
C       -2.06298362      -1.43271522      -2.71249857
C       -3.27702503       0.23037054       2.91958235
C       -1.65962992      -1.34130687       2.62070732
C       -1.01746431      -0.27190470       3.28500705
C        0.31189020       0.17575795       2.93221447
C       -1.63707288      -0.21323171      -3.43213323
C        0.18663040      -1.34805507       1.27570015
C       -2.81621333      -1.30904240      -1.50585613
C        3.76454568       0.74060302       0.17015134
C        0.24046964      -1.45944285      -2.97739337
C        0.84506431      -2.93862794      -1.32125663
C       -2.05057010       0.64518770       3.62134179
C       -1.64883313       2.95096906      -2.02098894
C        2.21087742      -0.49712736       1.15905583
C       -0.89844017      -2.23807029      -2.49056204
C       -2.95511010      -0.95987343       2.15613540
C       -1.91062901       1.84396635       2.85797651
C        0.56104808       1.53992104       2.56516698
C        1.86854684       1.79330429       1.83677621
C        0.61346956      -3.81588873       0.80962713
C       -2.45151429      -1.94785895      -0.17765770
C        3.22012719       1.70177818      -0.73178387
C        3.44745874      -1.86009089      -0.85580840
C        1.37923185      -1.97709828      -2.29695906
C       -0.18997267      -0.11869572      -3.33493129
C        0.57066769       3.55422029       0.67901863
C        3.23701025      -0.16499787      -2.00687608
C        1.80205162       2.89196209       0.91443140
C       -3.14860405       1.16408075      -2.10975876
C        1.42255872       2.97397980      -1.38467704
C        2.44669908      -2.26897333       0.12434607
C       -1.11797407       1.97954247      -2.91254240
C       -3.28016123       1.43311369       0.76356146
C       -0.57632513      -2.89034399      -1.29675890
C        1.66853248      -0.89686058      -0.19113792
C        0.15838159       1.26579554      -2.91183180
C       -0.67590882       3.25229063       1.28973981
C       -3.15522256      -1.05780316       0.77850156
C       -1.68322265       3.34185809       0.26793499
60
Properties=species:S:1:pos:R:3 trajectory=trial0001_proposal001_step005_proposal_relax trajectory_step=1 pbc="F F F"
C       -0.63326463      -3.39717744       1.23430794
C        2.73597547      -1.51617754      -2.17256219
C        2.89467897       0.67074101       1.37520438
C       -2.79476391       2.50001985      -0.03585305
C       -3.12689249       1.45447026       2.15986920
C        3.91239832      -0.43818663      -0.75804802
C       -0.76197336      -2.13453223       1.92141904
C        0.20157660      -0.99902006      -0.11270011
C        0.36817349       3.65520468      -0.73646569
C       -2.85619244       2.38661025      -1.45718863
C       -0.66228461       2.33010537       2.36445217
C        2.43513129       2.80167244      -0.35849930
C       -1.27223625      -2.76428019      -0.02629684
C       -0.99857106       3.62890073      -0.98552376
C        1.35863099       1.77303268      -2.21547576
C        1.12461925      -0.78358570       2.12042630
C        2.61419422       1.10530137      -1.88610681
C       -3.37718284       0.00236241      -1.28083326
C       -3.49416256       0.17298870       0.12692541
C        1.47656209      -3.30711003      -0.11755685
C       -2.18818553       1.03183847      -3.14804190
C       -2.05456867      -1.43671875      -2.69935042
C       -3.27300563       0.23553390       2.91153342
C       -1.66116432      -1.33495274       2.63436095
C       -1.01206699      -0.26042302       3.29133234
C        0.31942102       0.16649426       2.92602420
C       -1.63203192      -0.23194480      -3.41875753
C        0.18313726      -1.33498948       1.25318914
C       -2.80159590      -1.30670988      -1.50718204
C        3.75928175       0.72792967       0.16844038
C        0.24420619      -1.46710807      -2.96593884
C        0.84357736      -2.94073215      -1.33771015
C       -2.04430737       0.64596055       3.61748293
C       -1.64813668       2.94967344      -2.02496866
C        2.16178098      -0.52222148       1.16113478
C       -0.90757849      -2.20764369      -2.50575898
C       -2.94769277      -0.96086363       2.17307845
C       -1.91709047       1.84380121       2.85744430
C        0.56656634       1.53270774       2.56260842
C        1.86900351       1.78591924       1.82868850
C        0.61024880      -3.81572667       0.82787977
C       -2.46021981      -1.93030516      -0.17807687
C        3.21251623       1.70611391      -0.72596790
C        3.43877036      -1.85332103      -0.85630749
C        1.37956134      -1.98933844      -2.30000061
C       -0.19015476      -0.12676445      -3.33264060
C        0.56804390       3.55289272       0.67622792
C        3.23644891      -0.16131109      -2.00369583
C        1.80605195       2.88604768       0.92089978
C       -3.15067432       1.14981525      -2.10546951
C        1.41378290       2.97216803      -1.38158113
C        2.44336703      -2.23232176       0.10388892
C       -1.11540795       1.97712633      -2.91322241
C       -3.28497443       1.43144848       0.75793980
C       -0.55772954      -2.89157709      -1.28001402
C        1.63201466      -0.90123627      -0.17109723
C        0.15785131       1.26739623      -2.91033824
C       -0.67331933       3.25500906       1.29163174
C       -3.14977232      -1.05424559       0.78187778
C       -1.67983836       3.34146146       0.26914107
60
Properties=species:S:1:pos:R:3 trajectory=trial0001_proposal001_step005_proposal_relax trajectory_step=2 pbc="F F F"
C       -0.63166849      -3.39289747       1.19887603
C        2.72695705      -1.51917650      -2.16780497
C        2.89627584       0.67690239       1.35254403
C       -2.79590426       2.50521471      -0.03652521
C       -3.12295343       1.45096189       2.15071461
C        3.90133675      -0.44269643      -0.75925660
C       -0.75581427      -2.14966378       1.93044023
C        0.21923401      -0.99782612      -0.09105999
C        0.36411232       3.65528124      -0.74084599
C       -2.85462019       2.38291309      -1.46013181
C       -0.66093902       2.32487573       2.36354785
C        2.43006781       2.80357493      -0.35752690
C       -1.29461940      -2.78954711      -0.05048361
C       -1.00095304       3.62587385      -0.98725585
C        1.36104654       1.77445053      -2.22029552
C        1.11319206      -0.76857635       2.09257032
C        2.61710010       1.10906402      -1.89110091
C       -3.36986602       0.00123431      -1.26844085
C       -3.49013199       0.16607755       0.14235882
C        1.48459713      -3.29903128      -0.10748882
C       -2.18543287       1.01907093      -3.14408519
C       -2.05063574      -1.43525815      -2.68620070
C       -3.26551269       0.24023481       2.90550968
C       -1.65135967      -1.33511668       2.65060535
C       -1.00021782      -0.25262025       3.29631499
C        0.33065033       0.15906242       2.91911397
C       -1.62843718      -0.24249269      -3.40169955
C        0.16035738      -1.33108425       1.24024942
C       -2.78829199      -1.29792944      -1.49906042
C        3.74885441       0.71773787       0.16230653
C        0.24705260      -1.47008181      -2.95663739
C        0.85203100      -2.95247970      -1.34395983
C       -2.03902991       0.65134043       3.61440730
C       -1.64718462       2.94845414      -2.02854545
C        2.14693918      -0.50457689       1.16420857
C       -0.89989681      -2.19317214      -2.50017194
C       -2.94115908      -0.96287309       2.18863431
C       -1.92063411       1.84654214       2.85570799
C        0.57259882       1.52169890       2.55880771
C        1.87363042       1.77776970       1.81445097
C        0.62286111      -3.81435494       0.84289327
C       -2.46306007      -1.91485393      -0.18150783
C        3.20612972       1.70480514      -0.72449579
C        3.43160506      -1.84263862      -0.86165688
C        1.38120549      -2.00665716      -2.30617936
C       -0.18712878      -0.13588486      -3.32795122
C        0.57001696       3.54968736       0.67355036
C        3.23216313      -0.16140207      -2.00139294
C        1.80581477       2.88480314       0.92250586
C       -3.15060483       1.13866593      -2.09857231
C        1.40540219       2.96688308      -1.37908572
C        2.42846307      -2.18580651       0.08264652
C       -1.11308405       1.97290854      -2.91406678
C       -3.29022104       1.43134608       0.75537906
C       -0.54870416      -2.88064174      -1.27817487
C        1.58746953      -0.90186359      -0.15107920
C        0.15810406       1.26631803      -2.90951463
C       -0.67041589       3.25754274       1.29516621
C       -3.14042601      -1.05118204       0.79625913
C       -1.67582861       3.34131228       0.27066435
60
Properties=species:S:1:pos:R:3 trajectory=trial0001_proposal001_step005_proposal_relax trajectory_step=3 pbc="F F F"
C       -0.63909582      -3.37184764       1.12204346
C        2.70872284      -1.51888704      -2.16714769
C        2.88984878       0.68519786       1.31422235
C       -2.80116385       2.51074009      -0.04030005
C       -3.11488162       1.44857779       2.13285443
C        3.87933852      -0.44341335      -0.76480144
C       -0.74814517      -2.17873362       1.94829455
C        0.18288187      -0.99381528      -0.08236541
C        0.35587306       3.65316928      -0.74534314
C       -2.85170181       2.37349548      -1.46347251
C       -0.65223867       2.31208888       2.35985632
C        2.42165305       2.80243509      -0.36049350
C       -1.33797798      -2.84712378      -0.10102778
C       -1.00550597       3.62110836      -0.99019750
C        1.36350975       1.77861656      -2.23204967
C        1.06741730      -0.73885882       2.05213697
C        2.62202311       1.11780428      -1.90162857
C       -3.35404556      -0.00221901      -1.23393610
C       -3.48272831       0.16105894       0.17098178
C        1.50383146      -3.27347314      -0.08688104
C       -2.18148596       0.99387743      -3.12653288
C       -2.03800130      -1.43567450      -2.65840705
C       -3.24406439       0.24750669       2.90002849
C       -1.62072237      -1.34472505       2.69019853
C       -0.97516781      -0.24407769       3.30600202
C        0.35247671       0.15132197       2.90915776
C       -1.61637234      -0.26031564      -3.36848340
C        0.10386504      -1.33228899       1.24571459
C       -2.76518929      -1.27366291      -1.46758648
C        3.72949625       0.69891864       0.13747329
C        0.26078639      -1.47285437      -2.94045846
C        0.86943134      -2.98829425      -1.34350611
C       -2.02328928       0.66341738       3.60973436
C       -1.64893688       2.94026386      -2.03922054
C        2.11821947      -0.46977530       1.15249037
C       -0.88259075      -2.17546624      -2.47365002
C       -2.91918769      -0.97273526       2.22373698
C       -1.92117924       1.85796547       2.84677000
C        0.58962790       1.50457411       2.54333374
C        1.88081387       1.76248750       1.78533842
C        0.66436236      -3.80736137       0.86789521
C       -2.45264449      -1.90106119      -0.18252319
C        3.19012725       1.70615470      -0.72715223
C        3.42174392      -1.82285170      -0.87538540
C        1.39264595      -2.04582181      -2.32318293
C       -0.17641784      -0.14843505      -3.31447733
C        0.56846783       3.54615999       0.67023937
C        3.21084847      -0.16620420      -2.00157523
C        1.80540018       2.88478718       0.91956893
C       -3.14325520       1.12088133      -2.08412936
C        1.39123296       2.95290090      -1.37694993
C        2.37377508      -2.08515173       0.04779764
C       -1.11190655       1.95698488      -2.91671186
C       -3.29990220       1.43683281       0.74913879
C       -0.53360671      -2.85780380      -1.27610471
C        1.54940308      -0.88506573      -0.12708107
C        0.16227636       1.25790272      -2.91000887
C       -0.66143952       3.26045163       1.30169659
C       -3.11467532      -1.04894528       0.83229617
C       -1.67204759       3.33948418       0.27194863
60
Properties=species:S:1:pos:R:3 trajectory=trial0001_proposal001_step005_proposal_relax trajectory_step=4 pbc="F F F"
C       -0.62977616      -3.35740756       1.05958025
C        2.69879188      -1.52023839      -2.19156876
C        2.85954820       0.65929231       1.29130208
C       -2.80441686       2.51473688      -0.04920525
C       -3.10364145       1.45426907       2.13097292
C        3.86532088      -0.42827464      -0.78891650
C       -0.76273201      -2.22272735       1.96891410
C        0.10798626      -0.98536147      -0.09071079
C        0.35371458       3.64354159      -0.74572438
C       -2.84997295       2.36428486      -1.46529398
C       -0.62795337       2.30569645       2.34486249
C        2.40295348       2.80833363      -0.36761835
C       -1.34857081      -2.89911782      -0.12633095
C       -1.02048026       3.61089707      -1.00293354
C        1.36248172       1.77980018      -2.24720250
C        1.03228416      -0.71675836       2.01883510
C        2.61425275       1.12555888      -1.92026878
C       -3.33848415       0.00788034      -1.20082324
C       -3.47382950       0.15797004       0.20673036
C        1.51893119      -3.22588590      -0.06682505
C       -2.16970777       0.96153902      -3.10461945
C       -2.03247132      -1.43670683      -2.61288798
C       -3.20771300       0.25135612       2.90839152
C       -1.59103601      -1.37178725       2.74241851
C       -0.95072673      -0.23765426       3.32742140
C        0.35311561       0.16927924       2.92292065
C       -1.60030207      -0.26667306      -3.34207312
C        0.05092238      -1.33398794       1.21596167
C       -2.73215006      -1.26584970      -1.43176164
C        3.71549095       0.70760050       0.10999406
C        0.28600540      -1.48227330      -2.92507304
C        0.88768933      -3.01707558      -1.33717209
C       -1.99500013       0.67824214       3.60231653
C       -1.64756567       2.93161605      -2.04108950
C        2.07899071      -0.42782057       1.14615543
C       -0.85375960      -2.17112761      -2.44097944
C       -2.88139963      -0.98794505       2.25920932
C       -1.90682149       1.86535679       2.83477383
C        0.60827200       1.50689741       2.52077208
C        1.88432463       1.76475478       1.75714663
C        0.67948574      -3.78329611       0.89400651
C       -2.43470005      -1.91124277      -0.15792572
C        3.18949476       1.69019598      -0.75162184
C        3.40483456      -1.81732426      -0.86911384
C        1.40399568      -2.09340546      -2.34117039
C       -0.15394984      -0.15450283      -3.29570430
C        0.57729051       3.54845958       0.66766270
C        3.17100220      -0.16077285      -2.01624047
C        1.80153998       2.89204238       0.90435720
C       -3.13719533       1.10653972      -2.05432896
C        1.37826159       2.94452705      -1.37864122
C        2.32994333      -2.00683265       0.01616346
C       -1.11418319       1.93604738      -2.91671596
C       -3.30958459       1.44884999       0.75267665
C       -0.51294073      -2.85833226      -1.27174884
C        1.45801992      -0.83294238      -0.17093561
C        0.16887072       1.24465111      -2.91498603
C       -0.66448468       3.25604925       1.30253624
C       -3.07224082      -1.05688455       0.86885891
C       -1.67549232       3.33416519       0.27144920
60
Properties=species:S:1:pos:R:3 trajectory=trial0001_proposal001_step005_proposal_relax trajectory_step=5 pbc="F F F"
C       -0.62584381      -3.35370842       1.04435396
C        2.69870839      -1.52368760      -2.20582166
C        2.84504392       0.65334746       1.27535428
C       -2.80986459       2.51341783      -0.05101673
C       -3.09508699       1.46025208       2.13549957
C        3.85298678      -0.42292894      -0.81065842
C       -0.76452472      -2.23602280       1.97081800
C        0.03587296      -0.97587384      -0.11420135
C        0.34170150       3.63748673      -0.74639708
C       -2.85021351       2.36082645      -1.46458535
C       -0.61420306       2.30410877       2.33320316
C        2.40439744       2.79768573      -0.38510434
C       -1.34629533      -2.92476973      -0.13505732
C       -1.01777366       3.60770405      -1.00205865
C        1.35867341       1.78258271      -2.25741250
C        0.99058533      -0.70988422       2.00728012
C        2.60277671       1.13063169      -1.93953420
C       -3.32590329       0.00084494      -1.17055231
C       -3.46474613       0.15557494       0.22795002
C        1.51948804      -3.19374824      -0.05072067
C       -2.16679443       0.94886792      -3.08398423
C       -2.01073617      -1.43882451      -2.59007409
C       -3.17983755       0.25144522       2.91703747
C       -1.57071757      -1.39701583       2.78201897
C       -0.93567316      -0.23922497       3.34579079
C        0.35943137       0.17848746       2.92770039
C       -1.58721714      -0.28085642      -3.32449249
C        0.00898017      -1.34029527       1.21749758
C       -2.71852879      -1.25966694      -1.39359340
C        3.70640912       0.70877911       0.09992071
C        0.29890878      -1.48755159      -2.91790969
C        0.90326494      -3.03598492      -1.32634438
C       -1.97297093       0.68769176       3.60014627
C       -1.65029944       2.91796223      -2.04892467
C        2.04270127      -0.42047609       1.11514814
C       -0.83998616      -2.17232136      -2.41831817
C       -2.85489008      -0.99543574       2.28126360
C       -1.88653602       1.87128168       2.82624701
C        0.61747075       1.51723962       2.50684188
C        1.88612043       1.76872541       1.74294600
C        0.69907509      -3.76204435       0.90107940
C       -2.41774538      -1.92674099      -0.13892995
C        3.17838686       1.70497913      -0.76791886
C        3.39802525      -1.80279493      -0.87291071
C        1.41694096      -2.12285085      -2.35383440
C       -0.13671933      -0.16176943      -3.28254567
C        0.57023781       3.55578600       0.66542393
C        3.14266710      -0.16487682      -2.03139413
C        1.80383364       2.89653625       0.89479143
C       -3.12815632       1.10217166      -2.04079915
C        1.37236668       2.93879031      -1.38534867
C        2.29195746      -1.95273514       0.00682347
C       -1.11563208       1.92310499      -2.91396126
C       -3.31485542       1.45720123       0.76160621
C       -0.50101485      -2.86873036      -1.27085580
C        1.40255540      -0.78383433      -0.22075773
C        0.17468209       1.23751146      -2.91855107
C       -0.66112077       3.25551115       1.29371261
C       -3.04059392      -1.06237516       0.89465411
C       -1.67923654       3.33071603       0.26763829
60
Properties=species:S:1:pos:R:3 trajectory=trial0001_proposal001_step005_proposal_relax trajectory_step=6 pbc="F F F"
C       -0.61264069      -3.36356835       1.06024530
C        2.70440779      -1.54214741      -2.23138023
C        2.81467423       0.64074186       1.24496711
C       -2.82041974       2.51021571      -0.04819742
C       -3.07474499       1.47300612       2.15859943
C        3.82865950      -0.40413082      -0.85069585
C       -0.77135877      -2.24943216       1.97069265
C       -0.10240508      -0.95561206      -0.15486521
C        0.33369654       3.62403440      -0.75060294
C       -2.85354102       2.35765969      -1.46032351
C       -0.59022598       2.31032588       2.30635501
C        2.39461239       2.79300745      -0.41527676
C       -1.32447307      -2.95898541      -0.13371423
C       -1.02580429       3.59610333      -1.00827355
C        1.34413569       1.79003267      -2.27998874
C        0.91776207      -0.70537579       1.98006428
C        2.58097841       1.13542671      -1.97880064
C       -3.30006498      -0.01363246      -1.11787695
C       -3.44154020       0.14933208       0.27179354
C        1.51636440      -3.12711366      -0.02159347
C       -2.15752616       0.92216705      -3.04822266
C       -1.97402273      -1.44187214      -2.53472606
C       -3.12588923       0.25287254       2.93627425
C       -1.53728428      -1.44692794       2.85952192
C       -0.90732896      -0.24860065       3.38782820
C        0.37004101       0.19423856       2.93193753
C       -1.56331433      -0.30179803      -3.29286586
C       -0.06388524      -1.33843032       1.20776831
C       -2.68887113      -1.26531553      -1.33430284
C        3.68565107       0.71680029       0.07390481
C        0.32555715      -1.50631253      -2.90384309
C        0.92921908      -3.06226940      -1.31191547
C       -1.92541681       0.70061085       3.60036388
C       -1.65080281       2.90053643      -2.05250431
C        1.96051599      -0.43499697       1.03211032
C       -0.81318038      -2.18140627      -2.38595304
C       -2.80251731      -1.00609552       2.32100611
C       -1.84177351       1.87804428       2.81317801
C        0.62986820       1.54220239       2.48825784
C        1.88910258       1.78108161       1.72317306
C        0.73049970      -3.71900033       0.91000537
C       -2.38616469      -1.96067391      -0.09870739
C        3.17311279       1.71542933      -0.80455658
C        3.37618886      -1.77191493      -0.87885473
C        1.44121971      -2.17087628      -2.37429140
C       -0.10601016      -0.17596879      -3.26070536
C        0.56444457       3.57260403       0.65505383
C        3.09183399      -0.16569841      -2.06561507
C        1.81043924       2.90993118       0.86803329
C       -3.11486476       1.08626963      -2.01291038
C        1.35858147       2.93637902      -1.40054430
C        2.22324984      -1.84202385       0.00458865
C       -1.11542544       1.89891910      -2.90774593
C       -3.32316634       1.46684730       0.78500292
C       -0.47644042      -2.90785903      -1.26468244
C        1.28093221      -0.68199667      -0.34256450
C        0.18338680       1.22734945      -2.92565410
C       -0.65903884       3.25556429       1.27217829
C       -2.98121332      -1.07218525       0.94088188
C       -1.68724726       3.32470998       0.25714743
60
Properties=species:S:1:pos:R:3 trajectory=trial0001_proposal001_step005_proposal_relax trajectory_step=7 pbc="F F F"
C       -0.59958796      -3.38670649       1.09942460
C        2.71395085      -1.56317577      -2.24603516
C        2.76536243       0.61325576       1.20218675
C       -2.83148777       2.50653292      -0.03776747
C       -3.05250871       1.48412375       2.18426672
C        3.80506936      -0.38216786      -0.88523934
C       -0.78395188      -2.25368437       1.98220418
C       -0.21045775      -0.93115631      -0.18622488
C        0.31336431       3.62117715      -0.76334848
C       -2.86268468       2.34787995      -1.45481789
C       -0.57239316       2.32168380       2.28279399
C        2.39275987       2.78871242      -0.45008301
C       -1.29189016      -2.98853204      -0.11227424
C       -1.02144203       3.58804089      -1.00981255
C        1.33372930       1.80233468      -2.30201939
C        0.86685048      -0.69838391       1.93501216
C        2.56177179       1.14184228      -2.01481650
C       -3.27260165      -0.03056288      -1.07406802
C       -3.41010596       0.13722506       0.31415635
C        1.51931207      -3.04781196      -0.00409962
C       -2.14719201       0.90049393      -3.01762998
C       -1.93668315      -1.44586517      -2.48491613
C       -3.07698621       0.25670351       2.95707447
C       -1.51196748      -1.48434719       2.92863864
C       -0.87137841      -0.26045283       3.43153831
C        0.37826277       0.19783123       2.92260678
C       -1.54229411      -0.32632903      -3.25828834
C       -0.13519152      -1.31389850       1.18432500
C       -2.66664843      -1.28297948      -1.28809151
C        3.65954161       0.71740189       0.04694645
C        0.34696384      -1.52646865      -2.89435336
C        0.95367855      -3.07946935      -1.30466681
C       -1.87619459       0.70495130       3.60627398
C       -1.65574609       2.88280718      -2.05854495
C        1.90777298      -0.46560913       0.93753449
C       -0.79042642      -2.20006751      -2.36277981
C       -2.75459875      -1.01179685       2.36243599
C       -1.80511453       1.87743991       2.80994397
C        0.64239592       1.55870150       2.47990108
C        1.89444820       1.79101768       1.70361138
C        0.75220194      -3.68432798       0.92878983
C       -2.36278789      -1.98600324      -0.06645385
C        3.16211496       1.73275858      -0.84174056
C        3.33676478      -1.73497698      -0.87945603
C        1.46197802      -2.20967209      -2.38335201
C       -0.08327120      -0.19503687      -3.24493997
C        0.56639426       3.58894516       0.63736209
C        3.05646036      -0.17139245      -2.10036166
C        1.81560584       2.92213847       0.85056085
C       -3.10392588       1.06456727      -1.98372671
C        1.34768767       2.93503237      -1.42251120
C        2.16036790      -1.71034306       0.02205362
C       -1.11667092       1.88204289      -2.89929545
C       -3.32529243       1.46948419       0.81479009
C       -0.45571232      -2.95337488      -1.26115004
C        1.15109983      -0.59363937      -0.46640529
C        0.18548750       1.21983895      -2.93235800
C       -0.65695171       3.26318118       1.24757475
C       -2.93364246      -1.07966121       0.97995860
C       -1.69307689       3.31996994       0.24784133
60
Properties=species:S:1:pos:R:3 trajectory=trial0001_proposal001_step005_proposal_relax trajectory_step=8 pbc="F F F"
C       -0.58929175      -3.41831263       1.18164439
C        2.72074314      -1.58860587      -2.23700082
C        2.71990818       0.60654040       1.12726020
C       -2.83925914       2.50028180      -0.02165370
C       -3.03098224       1.48945236       2.21872387
C        3.78813962      -0.36329750      -0.91450912
C       -0.78269075      -2.22310577       1.98396481
C       -0.27234879      -0.89202652      -0.21838456
C        0.34221607       3.62644685      -0.78865913
C       -2.87435030       2.33358190      -1.43751228
C       -0.56491262       2.33773319       2.26939619
C        2.37664364       2.81358713      -0.47165419
C       -1.25220565      -2.99849629      -0.07660323
C       -1.05925031       3.57319754      -1.02792085
C        1.32110475       1.81567616      -2.33393755
C        0.83341525      -0.69453368       1.86730996
C        2.55157868       1.13661586      -2.04875156
C       -3.24572196      -0.06066549      -1.03740063
C       -3.36555253       0.12235477       0.34676337
C        1.50156245      -2.95656629       0.01855392
C       -2.14215002       0.87645153      -2.99357943
C       -1.90219217      -1.46286466      -2.44902356
C       -3.03359933       0.25895835       2.98651729
C       -1.49452878      -1.49926693       2.98396359
C       -0.83018152      -0.27984353       3.47433270
C        0.39776628       0.18338367       2.88155006
C       -1.52726008      -0.34288655      -3.22063471
C       -0.21375220      -1.26870080       1.17147320
C       -2.66454564      -1.31377808      -1.26623673
C        3.61925234       0.72201562       0.01990232
C        0.35781539      -1.55406451      -2.89501771
C        0.98532255      -3.07569970      -1.28453281
C       -1.82477783       0.69595461       3.62593075
C       -1.66771383       2.87886350      -2.04762545
C        1.88341094      -0.54201065       0.85165396
C       -0.77423684      -2.23898621      -2.35385633
C       -2.72602247      -1.00544889       2.39434891
C       -1.77002916       1.87180764       2.82179753
C        0.65039561       1.56894425       2.48324007
C        1.89493216       1.77974609       1.68966896
C        0.78817951      -3.64497296       0.93767084
C       -2.34399601      -2.01612672      -0.04062085
C        3.16382395       1.72834121      -0.87826049
C        3.27843783      -1.67792335      -0.86580627
C        1.47657160      -2.22302334      -2.37796047
C       -0.07518309      -0.21565925      -3.23787222
C        0.56589769       3.60609656       0.61142975
C        3.04644211      -0.16826945      -2.13670257
C        1.82832948       2.93313693       0.82150012
C       -3.09141118       1.03560676      -1.96151229
C        1.33124979       2.95171985      -1.44489908
C        2.10810461      -1.59382864       0.05315847
C       -1.11850869       1.86880001      -2.89237483
C       -3.31318018       1.45813382       0.84969006
C       -0.44892909      -3.01529141      -1.25443472
C        1.01532631      -0.52635322      -0.59693546
C        0.18174571       1.21650008      -2.93844464
C       -0.64668869       3.27748772       1.23087200
C       -2.90772254      -1.08559811       1.01715312
C       -1.69460792       3.31901333       0.23902607
60
Properties=species:S:1:pos:R:3 trajectory=trial0001_proposal001_step005_proposal_relax trajectory_step=9 pbc="F F F"
C       -0.59303604      -3.41791903       1.20344732
C        2.72020517      -1.57642830      -2.21175923
C        2.74055881       0.61977390       1.14642086
C       -2.83126295       2.49894203      -0.01687137
C       -3.04394242       1.47918755       2.21396405
C        3.80971306      -0.37346324      -0.88508065
C       -0.77661616      -2.20056060       1.97898668
C       -0.17061201      -0.90164228      -0.19062282
C        0.33667792       3.64226062      -0.78876611
C       -2.87464188       2.33509583      -1.43687497
C       -0.58335956       2.33809638       2.29071069
C        2.38826555       2.81718084      -0.45524941
C       -1.25613677      -2.96006106      -0.06331584
C       -1.04468547       3.58451379      -1.02085871
C        1.33007420       1.81152515      -2.31968102
C        0.89002659      -0.70581884       1.88624497
C        2.56476232       1.13137412      -2.02205477
C       -3.26516084      -0.05382361      -1.08084334
C       -3.37669370       0.12598357       0.31351241
C        1.49550297      -2.99942818       0.00000342
C       -2.14967259       0.89897994      -3.02084471
C       -1.93130458      -1.46451389      -2.48949661
C       -3.07305171       0.25769561       2.97802237
C       -1.52258339      -1.46026329       2.92292723
C       -0.84913329      -0.27816868       3.44451179
C        0.39027364       0.17044763       2.87223757
C       -1.54492635      -0.32750921      -3.24518216
C       -0.15549921      -1.25707017       1.17137973
C       -2.68916539      -1.32460204      -1.31765913
C        3.63328846       0.72080937       0.03616912
C        0.33496699      -1.54679604      -2.90854620
C        0.96075682      -3.04441919      -1.29372305
C       -1.85553094       0.68283310       3.63137842
C       -1.67196694       2.89035789      -2.04363173
C        1.93746770      -0.52332425       0.92932414
C       -0.79706218      -2.24293197      -2.38588143
C       -2.76759734      -0.99341177       2.36315090
C       -1.79766320       1.86317661       2.83702261
C        0.63743676       1.55377475       2.50111920
C        1.89013170       1.77243231       1.70507669
C        0.76103716      -3.67059235       0.92721954
C       -2.36858643      -1.99823794      -0.06794452
C        3.16785183       1.72518235      -0.85283752
C        3.28915703      -1.69459740      -0.85593428
C        1.45660003      -2.17790755      -2.35670583
C       -0.10190949      -0.20554795      -3.25681147
C        0.57349612       3.59584472       0.61525520
C        3.09192577      -0.16785369      -2.11712209
C        1.82400261       2.92355681       0.83970572
C       -3.10228542       1.04482000      -1.98139619
C        1.34812215       2.95665522      -1.44166122
C        2.17171213      -1.71805220       0.03924681
C       -1.12019812       1.88899072      -2.89553550
C       -3.30095958       1.44578064       0.83691190
C       -0.46601450      -3.00179974      -1.25631203
C        1.09872235      -0.59838477      -0.52933444
C        0.17293623       1.22652715      -2.93413570
C       -0.64892421       3.27924781       1.24300349
C       -2.95587780      -1.07986969       0.97887037
C       -1.68907917       3.32417497       0.24502916
60
Properties=species:S:1:pos:R:3 trajectory=trial0001_proposal001_step005_proposal_relax trajectory_step=10 pbc="F F F"
C       -0.58380087      -3.41039015       1.19014696
C        2.71537044      -1.57221180      -2.21225459
C        2.72366323       0.61091464       1.12833864
C       -2.83068791       2.49779905      -0.01338206
C       -3.03874680       1.47709706       2.21749739
C        3.80589430      -0.36715085      -0.88897551
C       -0.78044624      -2.21204905       1.98980718
C       -0.19552507      -0.89717261      -0.18497558
C        0.31400581       3.64879604      -0.79631591
C       -2.87657604       2.32526204      -1.43443602
C       -0.57466726       2.33609019       2.29241728
C        2.39210749       2.81394845      -0.46589032
C       -1.25963899      -2.97845211      -0.06722720
C       -1.03264993       3.58685349      -1.01973248
C        1.33417214       1.81253386      -2.32732797
C        0.88462999      -0.69695252       1.86558545
C        2.56199270       1.13652780      -2.02971091
C       -3.25824590      -0.05491054      -1.07388588
C       -3.36665452       0.12115629       0.32555073
C        1.49962554      -2.98131005       0.01498038
C       -2.14717415       0.88803418      -3.01411971
C       -1.93283370      -1.47111938      -2.47540766
C       -3.06114715       0.26086070       2.98649576
C       -1.51346623      -1.46042833       2.93675805
C       -0.83314369      -0.27595233       3.44942999
C        0.39221560       0.17453116       2.87128127
C       -1.54168373      -0.33595965      -3.23092971
C       -0.17582310      -1.24068391       1.14114063
C       -2.67903094      -1.33289121      -1.30949404
C        3.62578422       0.72208116       0.01867756
C        0.33870022      -1.55566804      -2.90495528
C        0.95618412      -3.04935506      -1.29727315
C       -1.84159134       0.68659055       3.63448369
C       -1.67923020       2.88228112      -2.04809610
C        1.93517368      -0.52193834       0.92860929
C       -0.79045151      -2.25011849      -2.37941607
C       -2.75894141      -0.99596313       2.37891252
C       -1.79359961       1.86273932       2.84134011
C        0.64462625       1.54647562       2.49380464
C        1.88916070       1.77263258       1.68567072
C        0.76168551      -3.65898723       0.94710505
C       -2.36701562      -1.99887444      -0.06211651
C        3.15754015       1.73246336      -0.86132651
C        3.28220945      -1.68660089      -0.85191350
C        1.45378519      -2.18846394      -2.35671827
C       -0.09904544      -0.21163955      -3.25187397
C        0.58143461       3.59496411       0.61079401
C        3.09267665      -0.16865305      -2.12484096
C        1.81947674       2.92295823       0.83896499
C       -3.10174990       1.03429643      -1.96802806
C        1.34946485       2.95494489      -1.45005839
C        2.16253216      -1.67499341       0.03911902
C       -1.12600190       1.88542674      -2.89477319
C       -3.29630094       1.44478662       0.84078176
C       -0.45564339      -3.00482825      -1.25447730
C        1.06614693      -0.58139214      -0.55330329
C        0.17254045       1.22349574      -2.93616688
C       -0.64815935       3.28092701       1.24372619
C       -2.94487332      -1.08538403       0.98938362
C       -1.68772052       3.32324845       0.24677844
60
Properties=species:S:1:pos:R:3 trajectory=trial0001_proposal001_step005_proposal_relax trajectory_step=11 pbc="F F F"
C       -0.57748166      -3.40490315       1.19694681
C        2.71031997      -1.56941534      -2.20619572
C        2.71020270       0.61065279       1.10417762
C       -2.82756196       2.49505105      -0.00795041
C       -3.03311014       1.47421912       2.22610582
C        3.80611814      -0.36153215      -0.89356069
C       -0.77805933      -2.20459334       1.99033934
C       -0.20961908      -0.88629319      -0.19130062
C        0.31956279       3.65444438      -0.80660562
C       -2.87863880       2.31560127      -1.42687677
C       -0.56922960       2.33704127       2.29662169
C        2.38930883       2.82156358      -0.47302258
C       -1.25722683      -2.98718241      -0.06313890
C       -1.04306426       3.58504203      -1.02546393
C        1.33520446       1.81412085      -2.33789165
C        0.87983005      -0.69318073       1.84559412
C        2.56231942       1.13613467      -2.03822027
C       -3.25174162      -0.06422333      -1.06755337
C       -3.35251407       0.11498169       0.33175132
C        1.49528107      -2.96048299       0.02706520
C       -2.14894390       0.87918941      -3.00796763
C       -1.92992823      -1.48450858      -2.46940429
C       -3.05091945       0.26188808       2.99919072
C       -1.50699332      -1.45573017       2.94460581
C       -0.81908820      -0.27563037       3.45397022
C        0.39814198       0.17228842       2.86111766
C       -1.54067244      -0.34412912      -3.21739866
C       -0.19569827      -1.22321138       1.12626706
C       -2.67920577      -1.34487909      -1.30458194
C        3.61489297       0.72709795       0.00543048
C        0.33571344      -1.56509018      -2.90676087
C        0.95760825      -3.04609045      -1.28824427
C       -1.82668671       0.68564943       3.64307157
C       -1.68683399       2.87967297      -2.04443864
C        1.94402894      -0.53457052       0.93203567
C       -0.79121426      -2.26342574      -2.37954961
C       -2.75563205      -0.99499037       2.39023624
C       -1.78647678       1.86165844       2.85011929
C        0.64898949       1.54159711       2.48890231
C        1.88505444       1.76696128       1.66962232
C        0.76712110      -3.64344298       0.96267337
C       -2.36595363      -2.00565725      -0.05683101
C        3.15327830       1.73296982      -0.87250242
C        3.27244683      -1.67360686      -0.84473983
C        1.45192157      -2.18882278      -2.35138111
C       -0.10097094      -0.21890538      -3.24880407
C        0.58248286       3.59594158       0.60387611
C        3.10116621      -0.16507596      -2.13478198
C        1.81907861       2.92242235       0.83013790
C       -3.10012455       1.02313588      -1.95976240
C        1.34658405       2.96263463      -1.45829791
C        2.15596999      -1.64637540       0.04403925
C       -1.13184240       1.88228457      -2.89462611
C       -3.28602044       1.43877390       0.84876984
C       -0.45431531      -3.01520687      -1.25106909
C        1.03219540      -0.56997173      -0.58910626
C        0.17042223       1.22227828      -2.93842920
C       -0.64330575       3.28318798       1.24582036
C       -2.94067735      -1.09056654       0.99768260
C       -1.68496055       3.32343204       0.24846538
60
Properties=species:S:1:pos:R:3 trajectory=trial0001_proposal001_step005_proposal_relax trajectory_step=12 pbc="F F F"
C       -0.56495663      -3.38086205       1.22206385
C        2.69750809      -1.55386266      -2.18499200
C        2.67775454       0.61363462       1.04899295
C       -2.81402337       2.48192556       0.01214787
C       -3.01478243       1.46464628       2.25498656
C        3.81606411      -0.34622961      -0.90543161
C       -0.77026700      -2.16802409       1.98079700
C       -0.24381775      -0.85381351      -0.22237984
C        0.32016060       3.67160407      -0.83210353
C       -2.88330119       2.28855041      -1.40258801
C       -0.55412960       2.34092830       2.31233848
C        2.38276687       2.84353550      -0.49671603
C       -1.25254947      -3.00360759      -0.04927251
C       -1.05753157       3.58538338      -1.03415094
C        1.33534810       1.81998050      -2.36552649
C        0.86920129      -0.68868037       1.80588144
C        2.56445074       1.13576105      -2.06291142
C       -3.23716197      -0.09526482      -1.05497923
C       -3.31439619       0.09739171       0.34346444
C        1.48165503      -2.90923964       0.05735535
C       -2.15714242       0.85506895      -2.99307902
C       -1.93557952      -1.52323849      -2.45872363
C       -3.02750434       0.26194562       3.03747389
C       -1.48946811      -1.43884437       2.95213210
C       -0.78758538      -0.27275570       3.45966002
C        0.41447326       0.16554425       2.83513361
C       -1.54353611      -0.36553589      -3.18464558
C       -0.23515750      -1.17686724       1.09534933
C       -2.68473895      -1.38416902      -1.29668982
C        3.59020780       0.74558001      -0.02592646
C        0.31963582      -1.59247655      -2.91595485
C        0.95693066      -3.02846853      -1.25283783
C       -1.79047116       0.68394661       3.67121008
C       -1.71015466       2.86924999      -2.03440695
C        1.99232303      -0.57590878       0.96846524
C       -0.79559941      -2.30909568      -2.38497163
C       -2.75059029      -0.99265837       2.41544108
C       -1.76502225       1.85991131       2.87817174
C        0.65840104       1.53043980       2.47188298
C        1.86855664       1.75219982       1.62253722
C        0.78192144      -3.59571624       1.00813513
C       -2.36655994      -2.03175476      -0.04291652
C        3.14296061       1.73990898      -0.90568916
C        3.25471672      -1.64102612      -0.82875885
C        1.44213699      -2.17927297      -2.32960771
C       -0.11360041      -0.23840493      -3.23978968
C        0.58327183       3.59742401       0.58388755
C        3.13359440      -0.15524973      -2.16351517
C        1.81568002       2.92075951       0.80082605
C       -3.09872843       0.99461430      -1.94009036
C        1.34565022       2.98405518      -1.48808232
C        2.14365635      -1.58778065       0.06373834
C       -1.14946433       1.87464974      -2.89550960
C       -3.25018691       1.41767500       0.87095213
C       -0.45906027      -3.04216763      -1.24192539
C        0.94826104      -0.54856836      -0.70729266
C        0.16147635       1.21968568      -2.94518370
C       -0.62981507       3.28610870       1.25096754
C       -2.93579686      -1.10603960       1.01654133
C       -1.67555151       3.32369755       0.25429341
60
Properties=species:S:1:pos:R:3 trajectory=trial0001_proposal001_step005_proposal_relax trajectory_step=13 pbc="F F F"
C       -0.55357216      -3.33515830       1.23822488
C        2.67949264      -1.52501700      -2.15822498
C        2.64637877       0.62466317       0.99115981
C       -2.79016365       2.46122328       0.03864640
C       -2.98781985       1.45031391       2.28987031
C        3.83632156      -0.32689203      -0.91939591
C       -0.75993615      -2.11950341       1.96303980
C       -0.28483442      -0.81234354      -0.26363562
C        0.32761648       3.68921130      -0.86246119
C       -2.88527661       2.25282295      -1.36952953
C       -0.53221296       2.34436341       2.33458248
C        2.37786931       2.86794708      -0.53538813
C       -1.25692128      -3.02645933      -0.03746117
C       -1.08250094       3.58585643      -1.04486307
C        1.33481061       1.82602136      -2.40054855
C        0.86713756      -0.68348166       1.76791777
C        2.56910482       1.13809205      -2.09800715
C       -3.22296628      -0.13616160      -1.03922883
C       -3.26957853       0.07300780       0.35595252
C        1.46750494      -2.85062534       0.09895194
C       -2.17217482       0.82665167      -2.97300770
C       -1.94342029      -1.57907145      -2.45415999
C       -3.00055998       0.25925951       3.08697737
C       -1.46607320      -1.41212861       2.95280606
C       -0.75329256      -0.26459228       3.45968207
C        0.43218296       0.16253618       2.81170282
C       -1.55248134      -0.39863522      -3.14398704
C       -0.27217913      -1.11646595       1.04659529
C       -2.69674810      -1.43348604      -1.28137863
C        3.56443448       0.76925413      -0.06331548
C        0.29442569      -1.62919948      -2.92810683
C        0.94640187      -3.00324996      -1.20586804
C       -1.75011401       0.68536587       3.70929330
C       -1.73691037       2.85402617      -2.01988396
C        2.06895718      -0.62530201       1.06837225
C       -0.81396981      -2.36420890      -2.39628020
C       -2.74404236      -0.99220475       2.44688904
C       -1.73765308       1.86143466       2.91586348
C        0.67067318       1.51621341       2.44318076
C        1.84165007       1.73573588       1.55588731
C        0.80052974      -3.52931527       1.07326828
C       -2.37162180      -2.06892536      -0.02654624
C        3.12938857       1.75717847      -0.94824379
C        3.24210304      -1.60127269      -0.81162181
C        1.42584293      -2.16136578      -2.29483279
C       -0.13695011      -0.26401469      -3.22526657
C        0.57935427       3.59732788       0.55994695
C        3.17807719      -0.14220614      -2.19876300
C        1.80760904       2.91797402       0.75978216
C       -3.09960636       0.95844962      -1.91581920
C        1.34042472       3.01494791      -1.52752753
C        2.13840759      -1.53442743       0.07594737
C       -1.17471247       1.86234575      -2.89809473
C       -3.19827474       1.38849981       0.89997466
C       -0.46469223      -3.06950971      -1.22648134
C        0.84403650      -0.53016313      -0.87699384
C        0.14710655       1.21536567      -2.95423058
C       -0.61202879       3.28531180       1.25881790
C       -2.93172023      -1.12814264       1.03880727
C       -1.66230093       3.32235096       0.26519131
60
Properties=species:S:1:pos:R:3 trajectory=trial0001_proposal001_step005_proposal_relax trajectory_step=14 pbc="F F F"
C       -0.56024368      -3.30263685       1.22890549
C        2.68073383      -1.50341317      -2.15299599
C        2.65322738       0.62798948       1.00401799
C       -2.77081812       2.44084822       0.05424398
C       -2.96562504       1.43953779       2.30373514
C        3.86080475      -0.31575995      -0.92091867
C       -0.74808626      -2.07652342       1.93690396
C       -0.26726589      -0.79174601      -0.30618371
C        0.31099560       3.69324599      -0.86455630
C       -2.87992722       2.23688953      -1.35330991
C       -0.52301517       2.34586662       2.34282856
C        2.37442313       2.88407448      -0.55753744
C       -1.26830033      -3.02845991      -0.03287896
C       -1.08168746       3.59228422      -1.03951150
C        1.32631045       1.82679896      -2.41573995
C        0.88186811      -0.69567308       1.80200517
C        2.57791724       1.14772309      -2.11918750
C       -3.22973326      -0.15431195      -1.03424982
C       -3.26378005       0.05971757       0.36067275
C        1.46318821      -2.84087274       0.09940805
C       -2.18197510       0.81154016      -2.96692976
C       -1.97310651      -1.59664340      -2.45614405
C       -2.99967740       0.25526020       3.10300186
C       -1.45728560      -1.39295994       2.93058757
C       -0.75727234      -0.25409974       3.45036066
C        0.43268133       0.16663389       2.81506019
C       -1.56894515      -0.40756165      -3.13856461
C       -0.24445591      -1.08776618       1.03279841
C       -2.70812579      -1.45618834      -1.28471740
C        3.55838595       0.78101154      -0.06773064
C        0.27512206      -1.64791393      -2.93435292
C        0.93050183      -2.98725608      -1.18014267
C       -1.75009940       0.68947836       3.73006133
C       -1.74425823       2.84035723      -2.01423761
C        2.13489133      -0.65726901       1.12919445
C       -0.82245125      -2.39955237      -2.40298014
C       -2.74176097      -0.99426270       2.45203663
C       -1.72739118       1.86767538       2.93439218
C        0.66826331       1.51805987       2.42844554
C        1.82249766       1.74060258       1.52171507
C        0.80644122      -3.49461827       1.10541670
C       -2.38645767      -2.08964592      -0.02532544
C        3.13730224       1.76385130      -0.96778489
C        3.24771555      -1.58442022      -0.81867904
C        1.40619949      -2.13219082      -2.26651211
C       -0.16562809      -0.27416323      -3.21895226
C        0.57734871       3.59389716       0.55001607
C        3.19598975      -0.13409404      -2.20820783
C        1.80201185       2.91928054       0.73232940
C       -3.10723169       0.94994104      -1.90636148
C        1.34338489       3.02153887      -1.55554032
C        2.16893434      -1.56166799       0.11128019
C       -1.18380728       1.85233080      -2.89833510
C       -3.16581319       1.36948393       0.91144047
C       -0.48012201      -3.06258106      -1.22245847
C        0.80516267      -0.54167805      -0.94307103
C        0.12994120       1.21381357      -2.95990635
C       -0.60847194       3.27942348       1.25854822
C       -2.93945167      -1.13964321       1.04168013
C       -1.65944071       3.31663993       0.27109581
60
Properties=species:S:1:pos:R:3 trajectory=trial0001_proposal001_step005_proposal_relax trajectory_step=15 pbc="F F F"
C       -0.56939380      -3.27437985       1.20587523
C        2.68451343      -1.49005407      -2.16086792
C        2.67562829       0.62650777       1.03777054
C       -2.75541879       2.42166457       0.06179983
C       -2.94327471       1.43361429       2.30677614
C        3.88011451      -0.30681687      -0.92492543
C       -0.73722624      -2.04846896       1.90834062
C       -0.27239848      -0.78853343      -0.31408723
C        0.29592105       3.68385197      -0.86129354
C       -2.87066983       2.22984627      -1.34540378
C       -0.51854011       2.34777099       2.33932968
C        2.37889310       2.88462225      -0.58504601
C       -1.28483682      -3.02731792      -0.03864665
C       -1.07903607       3.59384371      -1.03229612
C        1.31594285       1.82635520      -2.42364596
C        0.91124751      -0.71594600       1.84574234
C        2.58471880       1.16037019      -2.13987914
C       -3.24312869      -0.16010294      -1.02724844
C       -3.27329991       0.05031272       0.36855914
C        1.46810852      -2.84140857       0.09850356
C       -2.19313597       0.80810905      -2.95904961
C       -1.98624522      -1.60629922      -2.46121354
C       -3.00235175       0.24942223       3.10548126
C       -1.44938612      -1.38310847       2.91185309
C       -0.77399230      -0.24208912       3.44485638
C        0.42710453       0.18141090       2.83696675
C       -1.58668885      -0.42016055      -3.14110281
C       -0.20168022      -1.06943426       1.01662668
C       -2.71897269      -1.46082427      -1.27791666
C        3.56013395       0.78519595      -0.06007839
C        0.25964896      -1.65683012      -2.93726380
C        0.91648455      -2.97985506      -1.17010883
C       -1.76179115       0.69821928       3.74171621
C       -1.73820332       2.82839388      -2.01028025
C        2.16246912      -0.67064312       1.17958772
C       -0.84270180      -2.40569207      -2.41062533
C       -2.73392450      -0.99976876       2.45146417
C       -1.71979089       1.87694832       2.94127998
C        0.66352599       1.52998176       2.41591917
C        1.80949768       1.74756352       1.50359538
C        0.80857702      -3.46962307       1.12143737
C       -2.40029398      -2.10510389      -0.02420277
C        3.14513997       1.77891955      -0.97732696
C        3.25483225      -1.57357396      -0.82970558
C        1.39473518      -2.10541061      -2.24176120
C       -0.18739663      -0.28231569      -3.21263308
C        0.57017557       3.59306431       0.54498375
C        3.19415186      -0.12710527      -2.21049459
C        1.79795731       2.92487464       0.71040022
C       -3.11520037       0.94632184      -1.89971109
C        1.33575026       3.02183252      -1.57207208
C        2.22133779      -1.61810162       0.14371537
C       -1.18879449       1.83960917      -2.89588176
C       -3.14600605       1.35681971       0.91845157
C       -0.49022866      -3.05244526      -1.21281635
C        0.80535476      -0.54249114      -1.00240779
C        0.11590716       1.20829165      -2.96502247
C       -0.61015029       3.27074082       1.25269157
C       -2.94214985      -1.14916008       1.04425624
C       -1.66103110       3.30880790       0.27521317
60
Properties=species:S:1:pos:R:3 trajectory=trial0001_proposal001_step005_proposal_relax trajectory_step=16 pbc="F F F"
C       -0.56802874      -3.24252544       1.20338115
C        2.68693075      -1.47837182      -2.16089120
C        2.68710516       0.62313479       1.04964351
C       -2.73774025       2.39291778       0.07555479
C       -2.90705349       1.42482668       2.32094969
C        3.89334431      -0.28807401      -0.93963127
C       -0.72071364      -2.00444093       1.87749375
C       -0.27486070      -0.76377009      -0.34437318
C        0.27578440       3.67682044      -0.87382626
C       -2.86335974       2.21002287      -1.32861855
C       -0.51408884       2.35764296       2.33251155
C        2.38382062       2.88915857      -0.63266440
C       -1.29604096      -3.03119725      -0.03666754
C       -1.08145406       3.58965419      -1.02765207
C        1.30359150       1.83018985      -2.44560510
C        0.94330621      -0.73652534       1.87541693
C        2.58933064       1.17876183      -2.17549335
C       -3.25508532      -0.17663318      -1.00857945
C       -3.27133976       0.03199494       0.38982209
C        1.47176569      -2.81425900       0.11978325
C       -2.20958142       0.79326811      -2.94110731
C       -1.99949306      -1.62748792      -2.45342553
C       -2.99203792       0.24414409       3.11981022
C       -1.42880968      -1.36994444       2.90150573
C       -0.77357788      -0.23039059       3.44906592
C        0.43124326       0.19554740       2.85056303
C       -1.60972557      -0.44159906      -3.13034771
C       -0.17290315      -1.02564782       0.98692524
C       -2.73453912      -1.47844614      -1.26385999
C        3.55173333       0.79385797      -0.06847691
C        0.23687227      -1.67513508      -2.94394006
C        0.90574079      -2.96220287      -1.15282455
C       -1.76209772       0.70918492       3.76566055
C       -1.73685130       2.80840682      -2.00283483
C        2.19580286      -0.70592240       1.23558286
C       -0.86299480      -2.42843147      -2.41383064
C       -2.71824671      -1.00471574       2.46143152
C       -1.70139300       1.88593192       2.95750099
C        0.66200342       1.54062692       2.39993377
C        1.79693295       1.74721399       1.47337583
C        0.81311804      -3.42190232       1.14576391
C       -2.41752884      -2.12825835      -0.01451515
C        3.14715843       1.80156720      -0.99920010
C        3.24798870      -1.53941670      -0.82991630
C        1.37498162      -2.06590309      -2.19978378
C       -0.21261763      -0.30134189      -3.20400890
C        0.56389355       3.59734924       0.52644585
C        3.19678708      -0.11388394      -2.22776039
C        1.79690532       2.93030582       0.67642192
C       -3.12270597       0.93022727      -1.87953400
C        1.31882029       3.02461000      -1.60228627
C        2.30328275      -1.66846211       0.19673528
C       -1.20230475       1.82105952      -2.88819085
C       -3.11412659       1.33333605       0.93815310
C       -0.49958934      -3.06043591      -1.20505258
C        0.73549534      -0.52672332      -1.13145783
C        0.09845837       1.19367782      -2.97460773
C       -0.60952271       3.26564224       1.24043548
C       -2.93889073      -1.16790797       1.05937612
C       -1.66236220       3.29909689       0.27989757
60
Properties=species:S:1:pos:R:3 trajectory=trial0001_proposal001_step005_proposal_relax trajectory_step=17 pbc="F F F"
C       -0.56282452      -3.21153664       1.21015248
C        2.68850636      -1.46809991      -2.15460002
C        2.69792232       0.60867970       1.06054578
C       -2.72206481       2.36104309       0.08777852
C       -2.86834764       1.41436801       2.33350613
C        3.89516970      -0.26177613      -0.95987598
C       -0.69461811      -1.95524730       1.84772622
C       -0.26877707      -0.73806552      -0.36351445
C        0.26046529       3.66760247      -0.89382519
C       -2.85705432       2.18674773      -1.31066768
C       -0.51219972       2.37040359       2.32162461
C        2.37528557       2.90450924      -0.67650247
C       -1.30206978      -3.03158828      -0.02944133
C       -1.09451480       3.57664263      -1.02667352
C        1.28979426       1.83167203      -2.47391524
C        0.96930846      -0.75730155       1.91057503
C        2.59364112       1.20268032      -2.21343430
C       -3.27444083      -0.19206234      -0.98441421
C       -3.27525948       0.00938686       0.41622129
C        1.48089613      -2.78817424       0.13580016
C       -2.22823255       0.77292958      -2.92068684
C       -2.01552880      -1.64426847      -2.43518992
C       -2.98075483       0.23860503       3.13222336
C       -1.40304622      -1.35267339       2.89284998
C       -0.76611985      -0.21428808       3.45863443
C        0.44120562       0.21093721       2.86633146
C       -1.63950541      -0.46249634      -3.12140877
C       -0.13828965      -0.97456232       0.94730620
C       -2.75454589      -1.49401276      -1.24612950
C        3.54379502       0.80569253      -0.08150764
C        0.21287541      -1.69598977      -2.95210155
C        0.90036354      -2.93490268      -1.12586134
C       -1.75896394       0.71851081       3.79260146
C       -1.73625514       2.78552796      -1.99140063
C        2.23905816      -0.72998038       1.27456549
C       -0.88542440      -2.44991703      -2.41378795
C       -2.69756184      -1.01100238       2.47492979
C       -1.68424814       1.89647833       2.97289524
C        0.66037173       1.55116454       2.38654750
C        1.79392254       1.74688716       1.44798720
C        0.80693086      -3.37389594       1.16569583
C       -2.43627887      -2.14695407      -0.00228231
C        3.15223430       1.81411175      -1.02899578
C        3.24274071      -1.50166690      -0.82443966
C        1.34269165      -2.00068071      -2.14641178
C       -0.24255784      -0.32021681      -3.19921616
C        0.56521531       3.60175923       0.50141959
C        3.19549969      -0.09612673      -2.25188666
C        1.79829052       2.93319035       0.63911240
C       -3.13407932       0.91188392      -1.85199889
C        1.29481952       3.02011908      -1.63558879
C        2.43193825      -1.75190807       0.27993241
C       -1.21420277       1.79424661      -2.87753611
C       -3.08285392       1.30704229       0.95861303
C       -0.50472683      -3.07379389      -1.19834306
C        0.63960407      -0.50862623      -1.30603549
C        0.07920490       1.17593847      -2.98809011
C       -0.61083252       3.26565021       1.22202073
C       -2.93671124      -1.18997452       1.07536070
C       -1.66832816       3.28760174       0.28098394
60
Properties=species:S:1:pos:R:3 trajectory=trial0001_proposal001_step005_proposal_relax trajectory_step=18 pbc="F F F"
C       -0.56631712      -3.21906445       1.20835609
C        2.67845056      -1.46780859      -2.14060882
C        2.70908386       0.61077194       1.04904208
C       -2.73590126       2.36536672       0.07753775
C       -2.87895635       1.41302801       2.31819361
C        3.86415686      -0.26055848      -0.96728749
C       -0.67444518      -1.96185179       1.86464371
C       -0.23090320      -0.73942467      -0.37337696
C        0.26504222       3.66022841      -0.90357608
C       -2.86286937       2.18730774      -1.31733345
C       -0.51791759       2.36963626       2.31214014
C        2.37702029       2.88457112      -0.67266588
C       -1.29877944      -3.02519312      -0.03452994
C       -1.10037036       3.56474804      -1.03322909
C        1.29459622       1.82472231      -2.47637267
C        0.97967107      -0.74788781       1.89777283
C        2.58963777       1.20277409      -2.20977929
C       -3.29055191      -0.18141953      -0.97801096
C       -3.29663398       0.01282206       0.42061644
C        1.50748718      -2.81892095       0.15041799
C       -2.23207451       0.77422031      -2.91657269
C       -2.00657112      -1.62697047      -2.42101257
C       -2.97898964       0.23942871       3.12189550
C       -1.39159845      -1.34746383       2.89845169
C       -0.75734815      -0.21039199       3.46708897
C        0.45118188       0.21509316       2.87551832
C       -1.65017870      -0.46308608      -3.12962370
C       -0.13226854      -0.98863035       0.95811132
C       -2.75727563      -1.47116294      -1.23793844
C        3.55402827       0.80435334      -0.08254934
C        0.20888508      -1.68918595      -2.95663167
C        0.90757827      -2.91877307      -1.13313684
C       -1.76131286       0.72149139       3.78309750
C       -1.73676071       2.77799590      -1.99589646
C        2.21103812      -0.71623332       1.23931801
C       -0.88746023      -2.42735153      -2.39926486
C       -2.69472303      -1.01414244       2.47270258
C       -1.69555167       1.89562888       2.96232821
C        0.66620114       1.55224038       2.39251927
C        1.81687950       1.74189223       1.47731898
C        0.79694646      -3.39483110       1.13674058
C       -2.42698898      -2.12832898       0.00009138
C        3.13399790       1.82552559      -1.01814401
C        3.26338960      -1.51723329      -0.80990664
C        1.33141433      -1.95968729      -2.13362211
C       -0.23639170      -0.31602604      -3.20370299
C        0.56321449       3.60112066       0.49938997
C        3.18044809      -0.09368094      -2.25487696
C        1.80293932       2.92443351       0.65487378
C       -3.13676317       0.91349058      -1.85166610
C        1.28022057       3.00528602      -1.62402779
C        2.47893160      -1.77970838       0.29623586
C       -1.21268510       1.78623333      -2.87211318
C       -3.10208187       1.31140837       0.94695314
C       -0.49414157      -3.06924265      -1.19385518
C        0.60933000      -0.53909004      -1.30832763
C        0.08327890       1.17545486      -2.99466162
C       -0.60821384       3.27473779       1.21719351
C       -2.93672208      -1.19096094       1.08062940
C       -1.67477062       3.28852240       0.27330053
60
Properties=species:S:1:pos:R:3 trajectory=trial0001_proposal001_step005_proposal_relax trajectory_step=19 pbc="F F F"
C       -0.56401199      -3.21665961       1.21808112
C        2.66715229      -1.45685700      -2.11476620
C        2.69774434       0.61337695       1.01104468
C       -2.74436521       2.36879949       0.07742886
C       -2.88608991       1.40820310       2.31781273
C        3.84203120      -0.25390748      -0.97652634
C       -0.65548329      -1.96008544       1.88026889
C       -0.22806315      -0.73495352      -0.36085341
C        0.26650973       3.66414122      -0.91827284
C       -2.87335172       2.17761229      -1.31489413
C       -0.51335059       2.36796058       2.31327194
C        2.35816427       2.89175525      -0.66310529
C       -1.29345896      -3.02709817      -0.03089813
C       -1.10956725       3.55646545      -1.04475660
C        1.29848842       1.82105887      -2.48974008
C        0.97004004      -0.72902370       1.86294133
C        2.58486488       1.20107244      -2.21368657
C       -3.29685970      -0.18513071      -0.96979519
C       -3.29820808       0.00897187       0.42755133
C        1.52896835      -2.82304515       0.16477841
C       -2.23553462       0.76195706      -2.90980562
C       -2.00619365      -1.62607020      -2.40044544
C       -2.96672402       0.24037815       3.12902795
C       -1.37623447      -1.33579788       2.90889511
C       -0.73275277      -0.20600401       3.47572047
C        0.46956575       0.21152095       2.86598523
C       -1.65082319      -0.46677898      -3.12273555
C       -0.15166924      -0.98197838       0.94673405
C       -2.75637717      -1.47028588      -1.22894985
C        3.55228451       0.81578721      -0.10244349
C        0.20007553      -1.69354521      -2.96676913
C        0.91776619      -2.89926700      -1.11559758
C       -1.74370689       0.72147015       3.78447151
C       -1.75087842       2.76899411      -1.99651348
C        2.22109531      -0.71657984       1.22345735
C       -0.88428836      -2.43125251      -2.38767121
C       -2.68765082      -1.01520701       2.48604416
C       -1.69733543       1.89359748       2.96158756
C        0.67650342       1.54464878       2.39291603
C        1.83127657       1.73579216       1.48099748
C        0.79348755      -3.40133954       1.13380236
C       -2.41471531      -2.12024628       0.00692477
C        3.12543382       1.81667977      -1.02754223
C        3.27638630      -1.52213515      -0.79532688
C        1.31645970      -1.92207318      -2.11000006
C       -0.24187701      -0.31759020      -3.20752524
C        0.56941901       3.59736230       0.48991181
C        3.18200695      -0.08985925      -2.26737916
C        1.80294229       2.91585963       0.65780214
C       -3.14023214       0.90343756      -1.84392443
C        1.27626958       2.99866040      -1.62724707
C        2.49178943      -1.77111608       0.31046096
C       -1.21812741       1.77757070      -2.87051140
C       -3.10826387       1.30968697       0.94493194
C       -0.48595052      -3.07349691      -1.18827842
C        0.56476124      -0.56105815      -1.37358158
C        0.08456581       1.17499221      -3.00306030
C       -0.60337291       3.28328393       1.21826082
C       -2.93557560      -1.19364487       1.09099554
C       -1.67442711       3.29121325       0.26867413
60
Properties=species:S:1:pos:R:3 trajectory=trial0001_proposal001_step005_proposal_relax trajectory_step=20 pbc="F F F"
C       -0.56406740      -3.21622049       1.22421985
C        2.66839210      -1.43802871      -2.08770681
C        2.69723613       0.61120322       0.99213548
C       -2.75527758       2.37491095       0.07504933
C       -2.89648150       1.40422982       2.31331127
C        3.83004986      -0.25146274      -0.98269222
C       -0.62851731      -1.95825167       1.89320437
C       -0.20189061      -0.73881387      -0.35555806
C        0.26305110       3.66079107      -0.92417215
C       -2.88664619       2.17485945      -1.31720263
C       -0.51016372       2.36455788       2.30987260
C        2.33785400       2.88871917      -0.64843489
C       -1.29020394      -3.01709751      -0.02329797
C       -1.11588963       3.54829424      -1.05581522
C        1.29682662       1.81576226      -2.49991249
C        0.96863595      -0.71262032       1.84600536
C        2.57928158       1.20198080      -2.21715850
C       -3.31550310      -0.18591490      -0.96573136
C       -3.31652869       0.00669164       0.43121224
C        1.55724989      -2.84788572       0.16213038
C       -2.23905256       0.75245881      -2.90716976
C       -2.00687346      -1.61752850      -2.38327534
C       -2.95950310       0.23897711       3.12891512
C       -1.36169545      -1.32285199       2.90978737
C       -0.71583790      -0.19755863       3.48141661
C        0.48882996       0.20941981       2.85958161
C       -1.65756077      -0.46596424      -3.12473890
C       -0.14548104      -0.98092215       0.94546159
C       -2.75444944      -1.46281218      -1.21959076
C        3.55641246       0.82835467      -0.11669470
C        0.19249509      -1.69820246      -2.98102875
C        0.92591101      -2.87765248      -1.09129882
C       -1.73364351       0.72396030       3.78055819
C       -1.76179984       2.76056231      -1.99825970
C        2.23458506      -0.71179186       1.18288858
C       -0.88985755      -2.43072351      -2.37685377
C       -2.67460075      -1.01669560       2.49495121
C       -1.70164871       1.89247799       2.95029791
C        0.68458584       1.54421503       2.40010346
C        1.84965323       1.73933463       1.49246093
C        0.78341817      -3.42543172       1.12198965
C       -2.40193675      -2.10403384       0.01132505
C        3.12179614       1.80976375      -1.03537230
C        3.30283655      -1.53281523      -0.79524455
C        1.28553583      -1.85350967      -2.06442325
C       -0.25818736      -0.31264755      -3.21668164
C        0.57379999       3.58911859       0.48546046
C        3.17561329      -0.08938199      -2.27056540
C        1.79865586       2.91161055       0.66256960
C       -3.15225160       0.89775327      -1.84142183
C        1.27487462       2.98626380      -1.62802050
C        2.52298620      -1.79522998       0.35356601
C       -1.22250994       1.76718781      -2.86996245
C       -3.12497825       1.31209037       0.94193062
C       -0.47725629      -3.06291062      -1.17923255
C        0.52861992      -0.61535617      -1.42516218
C        0.08027862       1.17602259      -3.01548911
C       -0.60487566       3.28731128       1.21675595
C       -2.93815997      -1.19096448       1.09690242
C       -1.67560380       3.29262061       0.26228316
60
Properties=species:S:1:pos:R:3 trajectory=trial0001_proposal001_step005_proposal_relax trajectory_step=21 pbc="F F F"
C       -0.56085429      -3.21980156       1.22687964
C        2.66699361      -1.43649352      -2.08689448
C        2.69657253       0.61456358       0.98556128
C       -2.76061887       2.38151417       0.07520781
C       -2.90288876       1.40595537       2.31564198
C        3.84592158      -0.25380128      -0.97863527
C       -0.62525182      -1.96433220       1.89710178
C       -0.20083169      -0.74275074      -0.35076585
C        0.26347462       3.65834756      -0.91933689
C       -2.89411548       2.17856063      -1.32045367
C       -0.50820821       2.36117116       2.31008922
C        2.33390989       2.88261054      -0.64329471
C       -1.28774723      -3.01285668      -0.01882393
C       -1.11416262       3.55118085      -1.05642978
C        1.29302201       1.81556523      -2.49906046
C        0.96729304      -0.70720541       1.83851401
C        2.57605214       1.19752324      -2.21745276
C       -3.31896350      -0.18816119      -0.96964067
C       -3.32256503       0.01085935       0.42955804
C        1.55741547      -2.85727336       0.16349616
C       -2.24144843       0.75413356      -2.90854659
C       -2.00968012      -1.61577442      -2.38303091
C       -2.95649529       0.23952685       3.13088163
C       -1.35718378      -1.32426994       2.91073979
C       -0.71045331      -0.19780112       3.47807097
C        0.49208736       0.20750333       2.85258363
C       -1.65551750      -0.46486927      -3.12325273
C       -0.14382663      -0.98266858       0.94829779
C       -2.74614108      -1.46279371      -1.22039973
C        3.55798313       0.82767030      -0.11809551
C        0.19473193      -1.70150409      -2.98767907
C        0.92597497      -2.87919209      -1.08438583
C       -1.72848625       0.72592462       3.77498611
C       -1.76631118       2.76215825      -2.00221804
C        2.22957515      -0.70735942       1.16607117
C       -0.88636722      -2.43751558      -2.37726035
C       -2.66995984      -1.01445614       2.49399182
C       -1.70052416       1.88923537       2.94207605
C        0.69027591       1.54659340       2.40452590
C        1.84995659       1.74469062       1.49308317
C        0.78802728      -3.44241090       1.11761701
C       -2.39646249      -2.09696206       0.01440657
C        3.12379309       1.80858833      -1.03929895
C        3.30602090      -1.54081204      -0.78561785
C        1.28338262      -1.83060330      -2.04701934
C       -0.26234759      -0.31092325      -3.22466738
C        0.56790252       3.58613742       0.49004217
C        3.17618907      -0.08747997      -2.26404053
C        1.79564920       2.91284450       0.66687649
C       -3.15759836       0.89925035      -1.84730045
C        1.27936411       2.98761181      -1.62442104
C        2.51806153      -1.79208039       0.33986775
C       -1.22652897       1.77101997      -2.87297563
C       -3.13750946       1.31846524       0.94176493
C       -0.48043914      -3.05575029      -1.17216651
C        0.53197848      -0.63993872      -1.41514837
C        0.07690624       1.17756977      -3.01904230
C       -0.60710662       3.28255347       1.21830644
C       -2.93568917      -1.18427412       1.09831266
C       -1.67569921       3.29300950       0.26098155
60
Properties=species:S:1:pos:R:3 trajectory=trial0001_proposal001_step005_proposal_relax trajectory_step=22 pbc="F F F"
C       -0.54997590      -3.23025688       1.23075701
C        2.68039795      -1.43583495      -2.08930786
C        2.69462394       0.62193313       0.98162384
C       -2.77129519       2.39232994       0.07332342
C       -2.91392071       1.41301428       2.31920960
C        3.88201853      -0.26912126      -0.96897566
C       -0.62747559      -1.97855575       1.89828693
C       -0.21038654      -0.74872172      -0.34184581
C        0.26369697       3.65364405      -0.90508136
C       -2.90505631       2.18984454      -1.32707436
C       -0.50559448       2.35541818       2.30982290
C        2.33531143       2.87042458      -0.63881771
C       -1.28511991      -3.00611629      -0.00716325
C       -1.11069502       3.55721144      -1.05547779
C        1.28427859       1.81625632      -2.49213070
C        0.96793743      -0.70418352       1.82937249
C        2.56958253       1.19027548      -2.21514843
C       -3.31988610      -0.18874378      -0.97910856
C       -3.33096878       0.02140493       0.42244838
C        1.55066279      -2.86632605       0.16514458
C       -2.24479655       0.76078575      -2.91508067
C       -2.00299443      -1.62274180      -2.39523967
C       -2.95266712       0.24100251       3.13411774
C       -1.35353372      -1.33502414       2.91242385
C       -0.70614657      -0.20120027       3.46746049
C        0.49234361       0.20825849       2.84194242
C       -1.65312073      -0.45966081      -3.11958144
C       -0.14167052      -0.99202766       0.96139256
C       -2.73280332      -1.46065557      -1.21920337
C        3.56407972       0.82295876      -0.11670208
C        0.20638675      -1.70541859      -2.99312538
C        0.91939987      -2.88962089      -1.08336813
C       -1.71941686       0.72693249       3.76321634
C       -1.77034144       2.77454758      -2.00629431
C        2.21219263      -0.69628370       1.14366698
C       -0.88432164      -2.44536787      -2.38524655
C       -2.66178096      -1.00749438       2.48889621
C       -1.69553905       1.88274006       2.92761238
C        0.69977585       1.55295748       2.41229132
C        1.84528727       1.75385629       1.49234664
C        0.79738384      -3.47521543       1.11524387
C       -2.38921955      -2.08736976       0.02052086
C        3.13097110       1.80739916      -1.04214581
C        3.31313754      -1.54119667      -0.79158894
C        1.27882856      -1.81026909      -2.02762791
C       -0.26478373      -0.31261049      -3.24328608
C        0.55774093       3.58301886       0.50153404
C        3.18149553      -0.09326333      -2.24188400
C        1.78998302       2.91953715       0.67276300
C       -3.16808549       0.90511100      -1.85842258
C        1.28626591       2.99325994      -1.61602212
C        2.48624695      -1.78204128       0.30783069
C       -1.23462880       1.78220503      -2.88151694
C       -3.16204977       1.33350767       0.94410264
C       -0.48636712      -3.04651237      -1.16271783
C        0.55661455      -0.67082533      -1.36680636
C        0.06969873       1.17990258      -3.02148156
C       -0.61491299       3.26889831       1.22126185
C       -2.92798202      -1.16784326       1.09626176
C       -1.67827386       3.29208994       0.26077647
60
Properties=species:S:1:pos:R:3 trajectory=trial0001_proposal001_step005_proposal_relax trajectory_step=23 pbc="F F F"
C       -0.54314193      -3.23217182       1.23421164
C        2.68093871      -1.43765678      -2.09324269
C        2.69533391       0.62387055       0.97641090
C       -2.77936454       2.38876813       0.07269696
C       -2.91104691       1.41576498       2.32175509
C        3.89740570      -0.25534283      -0.96873336
C       -0.62287052      -1.97453108       1.89509739
C       -0.22176710      -0.74066437      -0.34114116
C        0.25608118       3.65177922      -0.90611618
C       -2.90884104       2.19011213      -1.32623760
C       -0.50311714       2.35548220       2.30633984
C        2.34183359       2.86808983      -0.64932734
C       -1.28426438      -3.00653590       0.00113096
C       -1.11321262       3.55491526      -1.05139301
C        1.27781074       1.81361232      -2.49392102
C        0.97593772      -0.70488589       1.83260219
C        2.57119383       1.18689890      -2.21566701
C       -3.32168483      -0.18618677      -0.97428625
C       -3.33519159       0.02397936       0.42522895
C        1.54827321      -2.86268890       0.16729427
C       -2.25523041       0.76156809      -2.91158469
C       -2.00472584      -1.62862974      -2.39172458
C       -2.94576719       0.24310126       3.13768735
C       -1.34571167      -1.33927566       2.91291446
C       -0.69971184      -0.20061313       3.46387719
C        0.49781390       0.21428387       2.84161932
C       -1.65680873      -0.46856570      -3.11845513
C       -0.13994046      -0.99321238       0.96488603
C       -2.73014451      -1.46167501      -1.21830004
C        3.57301102       0.82105963      -0.12051963
C        0.19942654      -1.70640777      -2.99671774
C        0.91193022      -2.88540475      -1.08170349
C       -1.71027009       0.72515984       3.76246080
C       -1.77567363       2.77521134      -2.00785103
C        2.21374469      -0.69603523       1.14322222
C       -0.88227479      -2.45081834      -2.38953487
C       -2.65199707      -1.00319269       2.48920006
C       -1.69108749       1.88036088       2.92767076
C        0.70395014       1.55827494       2.41145888
C        1.84632505       1.75430469       1.48837938
C        0.80212060      -3.48423541       1.12307372
C       -2.38902039      -2.08620507       0.02875049
C        3.12872318       1.81275497      -1.04531223
C        3.31741070      -1.54296137      -0.79330278
C        1.27592497      -1.79073075      -2.01226383
C       -0.27191428      -0.32155445      -3.25889684
C        0.55542210       3.58453833       0.49945234
C        3.18996558      -0.09079399      -2.23913862
C        1.79196190       2.92199661       0.66498185
C       -3.17542855       0.90698744      -1.85671911
C        1.27669295       2.99148604      -1.61923622
C        2.49493452      -1.78554372       0.31468803
C       -1.24296753       1.78128620      -2.88424230
C       -3.17116095       1.33560191       0.94712097
C       -0.49010397      -3.05361618      -1.16172933
C        0.55520790      -0.67775625      -1.36995796
C        0.06144779       1.17666463      -3.02381083
C       -0.61828085       3.26411668       1.21542298
C       -2.92130370      -1.16084866       1.09835870
C       -1.68626414       3.28693333       0.26125118
60
Properties=species:S:1:pos:R:3 trajectory=trial0001_proposal001_step005_proposal_relax trajectory_step=24 pbc="F F F"
C       -0.54117705      -3.23658086       1.23497566
C        2.68304469      -1.44171618      -2.09826663
C        2.69620315       0.62310683       0.97723422
C       -2.78407429       2.38935620       0.07067184
C       -2.91154277       1.41873393       2.32040060
C        3.89886117      -0.25820705      -0.96885689
C       -0.62664496      -1.98113865       1.89615387
C       -0.23062624      -0.73920091      -0.33690258
C        0.25507043       3.65165926      -0.90509362
C       -2.90915459       2.19319941      -1.32824680
C       -0.50424608       2.35587445       2.30440811
C        2.34319077       2.87114436      -0.65037211
C       -1.28382885      -3.00847021       0.00092793
C       -1.11568432       3.55326234      -1.04921746
C        1.27698310       1.81144094      -2.49014894
C        0.97642168      -0.70525846       1.83556012
C        2.57101893       1.18532255      -2.21070100
C       -3.31829766      -0.18225526      -0.97462645
C       -3.33513292       0.02697754       0.42499124
C        1.54308606      -2.86086575       0.16565310
C       -2.25517228       0.76105133      -2.91339653
C       -2.00180044      -1.62904655      -2.39290982
C       -2.94464349       0.24453068       3.13550728
C       -1.34711998      -1.34402398       2.91523291
C       -0.69935971      -0.20327658       3.46260628
C        0.49773291       0.21549990       2.84273306
C       -1.65805923      -0.46731628      -3.12061236
C       -0.14160199      -0.99771062       0.96687522
C       -2.72973005      -1.45901990      -1.21709127
C        3.57707901       0.82221301      -0.11654219
C        0.20248671      -1.70209593      -2.99259935
C        0.91084411      -2.88767850      -1.08635569
C       -1.70923108       0.72305553       3.76028221
C       -1.77527631       2.77865702      -2.00856189
C        2.20902036      -0.69075315       1.14311080
C       -0.88186831      -2.44780703      -2.39055767
C       -2.65090955      -1.00080350       2.48691389
C       -1.69036942       1.87965022       2.92750407
C        0.70362982       1.55987011       2.41133230
C        1.84811950       1.75461995       1.48830904
C        0.80548625      -3.48878710       1.12359550
C       -2.38891780      -2.08500795       0.02917102
C        3.13032751       1.80985620      -1.04234571
C        3.31795469      -1.54234913      -0.79579710
C        1.28062119      -1.80207820      -2.02406922
C       -0.27138380      -0.32273380      -3.26599154
C        0.55640541       3.58618074       0.49943509
C        3.19271954      -0.09286019      -2.23688640
C        1.79462913       2.92275422       0.66417109
C       -3.17614280       0.91023556      -1.85682511
C        1.27388313       2.98901159      -1.61749447
C        2.48966547      -1.78102213       0.30774921
C       -1.24414184       1.78270413      -2.88524943
C       -3.17664723       1.33852145       0.94711367
C       -0.49069664      -3.05866463      -1.16531976
C        0.56630013      -0.66744758      -1.34440284
C        0.06095754       1.17459678      -3.02190661
C       -0.61995133       3.26265386       1.21371050
C       -2.91811803      -1.15650581       1.09724230
C       -1.68965969       3.28516473       0.26195328
60
Properties=species:S:1:pos:R:3 trajectory=trial0001_proposal001_step005_proposal_relax trajectory_step=25 pbc="F F F"
C       -0.53685018      -3.24016690       1.23834374
C        2.68950406      -1.43941770      -2.09599454
C        2.70133019       0.62406651       0.97024908
C       -2.79601503       2.38954166       0.06890315
C       -2.91101865       1.42132641       2.31909441
C        3.89810528      -0.26630102      -0.97326246
C       -0.61955349      -1.98709226       1.89948635
C       -0.23827831      -0.73277891      -0.33191998
C        0.25180032       3.64819494      -0.90925740
C       -2.91635413       2.19432304      -1.33054863
C       -0.50464270       2.35658978       2.29853474
C        2.33682569       2.87755851      -0.65666420
C       -1.28266872      -3.01001817       0.00178425
C       -1.12770159       3.54522314      -1.05020211
C        1.27250724       1.80270486      -2.49026473
C        0.98202920      -0.70284998       1.83622248
C        2.56777440       1.18453578      -2.20850994
C       -3.32067134      -0.17939729      -0.97026375
C       -3.34151315       0.02947252       0.42994902
C        1.54439596      -2.86258841       0.17105184
C       -2.26078781       0.75303619      -2.91233751
C       -2.00032430      -1.62931371      -2.38713892
C       -2.93629103       0.24646681       3.13402514
C       -1.33828829      -1.34478819       2.91965016
C       -0.68920915      -0.20397900       3.46344592
C        0.50613522       0.21886972       2.84486793
C       -1.67030637      -0.46804047      -3.12437461
C       -0.13760049      -0.99822384       0.96843329
C       -2.73173914      -1.45276927      -1.20687163
C        3.58596750       0.83157208      -0.11472571
C        0.20036352      -1.69717053      -2.99116996
C        0.91050434      -2.87882133      -1.08359830
C       -1.70172840       0.72272154       3.75859006
C       -1.78059044       2.77790693      -2.00957134
C        2.21171964      -0.68739138       1.13783462
C       -0.88597062      -2.44700455      -2.38736779
C       -2.64215112      -0.99682180       2.48658143
C       -1.68670312       1.87947162       2.92570270
C        0.70845366       1.56438954       2.40916220
C        1.85674094       1.75735247       1.48579978
C        0.81220728      -3.49857516       1.12211890
C       -2.38509399      -2.07986785       0.03342201
C        3.13129846       1.80712346      -1.04366302
C        3.32844792      -1.53635585      -0.79573009
C        1.26898696      -1.78285925      -2.01927948
C       -0.28206665      -0.32657462      -3.28556027
C        0.55638043       3.58659482       0.49364829
C        3.19680897      -0.09450673      -2.23826598
C        1.79811859       2.92271166       0.65949801
C       -3.18292574       0.91039192      -1.85413015
C        1.26447267       2.97973461      -1.61909052
C        2.50806638      -1.78861910       0.31290735
C       -1.25130416       1.77696397      -2.88532722
C       -3.18970366       1.34205848       0.94953734
C       -0.49149654      -3.06579860      -1.16592340
C        0.56658063      -0.66932210      -1.33562304
C        0.05455395       1.16640749      -3.02533284
C       -0.62137028       3.26059874       1.20857386
C       -2.91158742      -1.15062122       1.10132752
C       -1.69704191       3.28034885       0.26140187
60
Properties=species:S:1:pos:R:3 trajectory=trial0001_proposal001_step005_proposal_relax trajectory_step=26 pbc="F F F"
C       -0.53207606      -3.24500854       1.23950968
C        2.69177685      -1.43887001      -2.09645427
C        2.70307594       0.62642535       0.96514319
C       -2.80590754       2.39163339       0.06823340
C       -2.91164816       1.42423814       2.31998203
C        3.90290501      -0.26417571      -0.97199742
C       -0.61655042      -1.99255502       1.90290221
C       -0.24697493      -0.72754349      -0.32862480
C        0.24534213       3.64650429      -0.91133167
C       -2.92365195       2.19568020      -1.33249227
C       -0.50273834       2.35577712       2.29577374
C        2.33579685       2.87971968      -0.66086807
C       -1.28138558      -3.01222538       0.00390972
C       -1.13215876       3.54211507      -1.04963910
C        1.26843520       1.79511118      -2.48871850
C        0.98454047      -0.70016437       1.83424957
C        2.56651203       1.17986743      -2.20450412
C       -3.32063513      -0.17682110      -0.96693908
C       -3.34416196       0.03234049       0.43199650
C        1.54517260      -2.86034853       0.17069955
C       -2.26692277       0.75171520      -2.91141101
C       -2.00293498      -1.62913234      -2.38287859
C       -2.92961611       0.24886550       3.13358071
C       -1.33320056      -1.34739140       2.92239680
C       -0.68194923      -0.20477031       3.46343789
C        0.51265336       0.22044861       2.84351494
C       -1.67516939      -0.47232814      -3.12776126
C       -0.13808096      -1.00122312       0.97431024
C       -2.72999780      -1.45057947      -1.20361046
C        3.59462770       0.83373897      -0.11698747
C        0.19612345      -1.69183040      -2.99054415
C        0.90869342      -2.87433283      -1.08165324
C       -1.69399198       0.72167150       3.75658541
C       -1.78726734       2.77715789      -2.01211920
C        2.21726058      -0.68753582       1.13302096
C       -0.88552607      -2.44759707      -2.38634327
C       -2.63519599      -0.99301697       2.48714246
C       -1.68395027       1.87858617       2.92436515
C        0.71264756       1.56664864       2.40695150
C        1.86099525       1.75975346       1.48177183
C        0.81721618      -3.50760328       1.12460753
C       -2.38123863      -2.07641646       0.03712457
C        3.13036306       1.80768139      -1.04421004
C        3.33272028      -1.53779714      -0.79685733
C        1.26857212      -1.77570862      -2.01753604
C       -0.29079266      -0.32993465      -3.30293565
C        0.55603800       3.58600044       0.49075712
C        3.20217572      -0.09531805      -2.23868229
C        1.79896768       2.92501784       0.65541104
C       -3.18731187       0.91041446      -1.85446494
C        1.25923685       2.97402050      -1.62062565
C        2.50802562      -1.78412738       0.31397635
C       -1.25683832       1.77388414      -2.88651870
C       -3.20045119       1.34629532       0.95127967
C       -0.49203902      -3.07029612      -1.16709872
C        0.57284518      -0.66712681      -1.31359539
C        0.04921638       1.15995827      -3.02691489
C       -0.62269081       3.25835357       1.20546754
C       -2.90634842      -1.14450743       1.10289768
C       -1.70200083       3.27688456       0.26149648
60
Properties=species:S:1:pos:R:3 trajectory=trial0001_proposal001_step005_proposal_relax trajectory_step=27 pbc="F F F"
C       -0.52307014      -3.25201275       1.23933256
C        2.69223056      -1.43460984      -2.09266441
C        2.71065463       0.62990652       0.95497362
C       -2.82421739       2.39620704       0.06901106
C       -2.91049722       1.42890790       2.32344009
C        3.90935836      -0.25706748      -0.97206472
C       -0.60606596      -1.99997738       1.90967551
C       -0.26040196      -0.71632067      -0.31636172
C        0.23239697       3.63948623      -0.92003906
C       -2.94233290       2.19495679      -1.33447094
C       -0.49575899       2.35401137       2.28980157
C        2.33172261       2.88130215      -0.67273519
C       -1.27820701      -3.01629655       0.00791503
C       -1.14256802       3.53439985      -1.05263448
C        1.25871394       1.77569794      -2.48815457
C        0.99474481      -0.69553315       1.82622271
C        2.56242381       1.17093567      -2.20093668
C       -3.32423582      -0.17574996      -0.95766040
C       -3.34899449       0.03544706       0.43970771
C        1.55202908      -2.85473126       0.17259690
C       -2.27920527       0.74483056      -2.90944685
C       -2.00995324      -1.62943812      -2.37278360
C       -2.91380077       0.25270394       3.13444153
C       -1.31975862      -1.34843335       2.92787143
C       -0.66488261      -0.20350360       3.46771379
C        0.52847377       0.22310915       2.84017568
C       -1.69281520      -0.48101801      -3.13590320
C       -0.13640540      -1.00148524       0.98344023
C       -2.72904312      -1.44746036      -1.19405759
C        3.60812839       0.83883936      -0.12416950
C        0.18388061      -1.68105970      -2.98748001
C        0.90825190      -2.86026518      -1.07351199
C       -1.67764763       0.72333567       3.75518342
C       -1.80272260       2.76993890      -2.01633165
C        2.23228869      -0.68520596       1.13006535
C       -0.88930763      -2.44579624      -2.38159365
C       -2.61932051      -0.98809592       2.49132732
C       -1.67670619       1.87905130       2.92174199
C        0.72233244       1.56990532       2.39955379
C        1.86860771       1.76452115       1.47034873
C        0.82656316      -3.51750898       1.12717442
C       -2.37219804      -2.07118548       0.04492562
C        3.12697095       1.81252214      -1.05008708
C        3.33854961      -1.53901584      -0.79540812
C        1.26594749      -1.75332523      -2.00991129
C       -0.31156004      -0.33808550      -3.33727901
C        0.55165333       3.58350045       0.48124911
C        3.21028056      -0.09473563      -2.24314606
C        1.79804927       2.93196903       0.64448755
C       -3.19761558       0.90509531      -1.85159871
C        1.24713578       2.96191815      -1.62804514
C        2.51889588      -1.78589069       0.31811326
C       -1.26823449       1.76253079      -2.88544978
C       -3.21779877       1.35277753       0.95709268
C       -0.48957125      -3.07422668      -1.16600486
C        0.57859968      -0.65993300      -1.28506109
C        0.03619295       1.14227542      -3.03283133
C       -0.62367074       3.25535428       1.19939588
C       -2.89676648      -1.13777137       1.10895103
C       -1.70921158       3.27052471       0.26007100
60
Properties=species:S:1:pos:R:3 trajectory=trial0001_proposal001_step005_proposal_relax trajectory_step=28 pbc="F F F"
C       -0.51434489      -3.25459288       1.23783216
C        2.68960719      -1.42763656      -2.08812853
C        2.72357302       0.63666701       0.94938588
C       -2.83939259       2.40070558       0.07159656
C       -2.90613483       1.43338719       2.32929098
C        3.91451827      -0.25312659      -0.97647665
C       -0.59430156      -2.00442807       1.91458485
C       -0.26665469      -0.70589178      -0.30703288
C        0.22159795       3.62677800      -0.93252429
C       -2.96340820       2.19104543      -1.33373248
C       -0.48642721       2.35264758       2.28345646
C        2.32256777       2.88349391      -0.68745682
C       -1.27246630      -3.01835704       0.01159555
C       -1.15458177       3.52504309      -1.06001606
C        1.24541427       1.75234060      -2.48880538
C        1.00987260      -0.69125025       1.82131741
C        2.55559824       1.16317435      -2.20309215
C       -3.33106679      -0.17958111      -0.94582409
C       -3.35168890       0.03600866       0.45116826
C        1.55943506      -2.85035497       0.17523238
C       -2.29785450       0.73938273      -2.90517363
C       -2.02374902      -1.62848309      -2.36530963
C       -2.89652847       0.25580813       3.13850608
C       -1.30274780      -1.34721432       2.93388955
C       -0.64572847      -0.20008727       3.47278360
C        0.54375572       0.22497321       2.83598322
C       -1.71325970      -0.49541861      -3.14886231
C       -0.13052161      -1.00167594       0.99919203
C       -2.72945256      -1.44848409      -1.18479161
C        3.61417940       0.84632582      -0.13334119
C        0.17029386      -1.66824923      -2.97873606
C        0.90999555      -2.84287332      -1.06835960
C       -1.66146505       0.72931464       3.75566211
C       -1.81856984       2.75823405      -2.01818898
C        2.25070566      -0.68669922       1.13095974
C       -0.88932321      -2.44025050      -2.37246506
C       -2.60371782      -0.98614195       2.49666616
C       -1.66591894       1.88191134       2.91897795
C        0.73338566       1.57022764       2.38855792
C        1.87205224       1.77021724       1.45467162
C        0.83584285      -3.51638269       1.12658205
C       -2.36398921      -2.06862559       0.05387630
C        3.12731929       1.81322519      -1.06101727
C        3.34136827      -1.53433568      -0.79621997
C        1.25852332      -1.72995916      -2.00177673
C       -0.33362205      -0.34977561      -3.36683035
C        0.54278677       3.58131349       0.46685710
C        3.21550345      -0.09377776      -2.24597482
C        1.79590214       2.93909408       0.63112039
C       -3.20904883       0.89713004      -1.84737605
C        1.23441388       2.94915329      -1.64037038
C        2.53551995      -1.78746252       0.32653385
C       -1.28011596       1.74717020      -2.88069004
C       -3.22817149       1.35746998       0.96457098
C       -0.48522971      -3.06718621      -1.16127441
C        0.58270398      -0.64459862      -1.26060900
C        0.02179941       1.12007246      -3.03976039
C       -0.62546488       3.25247772       1.19372294
C       -2.88807517      -1.13681973       1.11791891
C       -1.71468262       3.26515029       0.25590161
60
Properties=species:S:1:pos:R:3 trajectory=trial0001_proposal001_step005_proposal_relax trajectory_step=29 pbc="F F F"
C       -0.50727466      -3.25306217       1.23746635
C        2.68139716      -1.41882062      -2.08324387
C        2.73629593       0.64287056       0.94733199
C       -2.85027905       2.40328716       0.07507234
C       -2.89949994       1.43634365       2.33603975
C        3.91751151      -0.24842156      -0.98215578
C       -0.58351620      -2.00677921       1.92130551
C       -0.26574068      -0.69907370      -0.28935508
C        0.20832803       3.61245161      -0.94780634
C       -2.98268750       2.18543000      -1.33024558
C       -0.47615862       2.35176290       2.27750155
C        2.31533456       2.87976961      -0.70459114
C       -1.26600437      -3.01669797       0.01557688
C       -1.16339706       3.51573245      -1.06948993
C        1.23219604       1.72938951      -2.49173208
C        1.02626773      -0.68737609       1.81930038
C        2.54831361       1.15628722      -2.21025202
C       -3.33987380      -0.18701273      -0.93371295
C       -3.35183439       0.03323327       0.46349141
C        1.57166572      -2.84490975       0.17523901
C       -2.31204655       0.72514287      -2.90465966
C       -2.03448421      -1.63353620      -2.36190657
C       -2.88007618       0.25768272       3.14431401
C       -1.28585056      -1.34332758       2.94028892
C       -0.62867753      -0.19432349       3.47830506
C        0.55917039       0.22705774       2.83156658
C       -1.73922026      -0.50221598      -3.16312161
C       -0.12161698      -0.99906398       1.00678803
C       -2.73365035      -1.45108563      -1.17380018
C        3.61470781       0.85147668      -0.14485363
C        0.15866057      -1.65707910      -2.96802395
C        0.91497058      -2.82534999      -1.06332734
C       -1.64434116       0.73592701       3.75756598
C       -1.83410343       2.74298113      -2.01857885
C        2.27131127      -0.68498017       1.13473224
C       -0.89407770      -2.42906539      -2.36019184
C       -2.58862200      -0.98640283       2.50659735
C       -1.65425799       1.88619808       2.91691858
C        0.74288494       1.56886887       2.37609956
C        1.87392748       1.77438365       1.43838485
C        0.84241724      -3.50707853       1.12425034
C       -2.35676073      -2.06893876       0.06178875
C        3.12207484       1.81898257      -1.07511866
C        3.34091715      -1.52900386      -0.79553393
C        1.25224429      -1.70597489      -1.99389331
C       -0.35406624      -0.36036779      -3.38588831
C        0.53540614       3.57812313       0.45119418
C        3.21541387      -0.09294558      -2.25105099
C        1.79005190       2.94561300       0.61677408
C       -3.22351327       0.88648965      -1.83778904
C        1.22414060       2.93508184      -1.65576482
C        2.55319122      -1.78985805       0.33342511
C       -1.29242384       1.72893466      -2.87348502
C       -3.22998459       1.35898652       0.97292895
C       -0.47822085      -3.05127612      -1.15364338
C        0.58512859      -0.62491767      -1.24737052
C        0.00680404       1.09755939      -3.04620390
C       -0.62730165       3.25177653       1.18650255
C       -2.88181484      -1.14050025       1.12811002
C       -1.71882494       3.26184422       0.25010772
60
Properties=species:S:1:pos:R:3 trajectory=trial0001_proposal001_step005_proposal_relax trajectory_step=30 pbc="F F F"
C       -0.50253350      -3.24766102       1.24106229
C        2.67363885      -1.41087848      -2.08079810
C        2.74672993       0.64706716       0.94725091
C       -2.85384141       2.40102483       0.07908246
C       -2.88941131       1.43702215       2.34283913
C        3.92013759      -0.24512043      -0.98988121
C       -0.57542924      -2.00265718       1.92650363
C       -0.25429088      -0.69561674      -0.27835654
C        0.20368240       3.59826223      -0.96264063
C       -2.99397022       2.17726074      -1.32483438
C       -0.46853896       2.35377446       2.27022916
C        2.30644133       2.87738850      -0.72031672
C       -1.26024491      -3.00999532       0.02154557
C       -1.17428953       3.50639374      -1.07870733
C        1.22096464       1.71284907      -2.49832102
C        1.04416839      -0.68854519       1.82292836
C        2.54252686       1.15258770      -2.22290126
C       -3.34850051      -0.19585768      -0.92281393
C       -3.34928037       0.02796923       0.47519575
C        1.58305300      -2.83863658       0.17403037
C       -2.32920133       0.71452597      -2.90100685
C       -2.04650209      -1.63997307      -2.36271416
C       -2.86674252       0.25917054       3.15277574
C       -1.27292782      -1.33899048       2.94716500
C       -0.61537825      -0.18836443       3.47976359
C        0.57038270       0.23139521       2.83062909
C       -1.76002376      -0.51448852      -3.17499096
C       -0.10746988      -0.99845415       1.01389973
C       -2.73880570      -1.45769723      -1.16795888
C        3.60822322       0.85628512      -0.15599889
C        0.15139225      -1.65008156      -2.95894334
C        0.92118712      -2.81202369      -1.06075054
C       -1.63035359       0.74208291       3.75995587
C       -1.84471314       2.72838232      -2.01700640
C        2.28424692      -0.67688691       1.14497835
C       -0.89759922      -2.41688064      -2.34853063
C       -2.57731805      -0.98798529       2.51764730
C       -1.64301984       1.88959458       2.91767548
C        0.74779944       1.56964425       2.36467347
C        1.87318124       1.77632151       1.42518803
C        0.84806949      -3.49070631       1.12100221
C       -2.35489247      -2.07193547       0.06870464
C        3.11744019       1.81850588      -1.09091115
C        3.33912170      -1.52145064      -0.79862904
C        1.24570990      -1.68589149      -1.98675992
C       -0.36892779      -0.36656288      -3.38930580
C        0.52830742       3.57583310       0.43619446
C        3.21087903      -0.09264143      -2.25606535
C        1.78523346       2.94727959       0.60022963
C       -3.23690279       0.87598678      -1.82928889
C        1.21369119       2.92372517      -1.67021082
C        2.56746319      -1.79255480       0.33451735
C       -1.30517335       1.71086219      -2.86701821
C       -3.22163020       1.35500001       0.98093564
C       -0.47233950      -3.03108440      -1.14331368
C        0.58330883      -0.60331532      -1.24344112
C       -0.00759652       1.08098974      -3.04885554
C       -0.62852516       3.25165152       1.17807482
C       -2.87732528      -1.14677067       1.13992016
C       -1.72275028       3.26109439       0.24485079
60
Properties=species:S:1:pos:R:3 trajectory=trial0001_proposal001_step005_proposal_relax trajectory_step=31 pbc="F F F"
C       -0.49353505      -3.24157240       1.25182272
C        2.66700971      -1.40350230      -2.08324225
C        2.75641601       0.65719324       0.94365342
C       -2.85803417       2.39404093       0.08383797
C       -2.87551982       1.43747500       2.35108054
C        3.92626487      -0.24451174      -1.00233396
C       -0.56697803      -1.99834137       1.93451000
C       -0.24116163      -0.69245639      -0.25847644
C        0.18944922       3.58299925      -0.97865391
C       -3.00576266       2.16507005      -1.31806915
C       -0.46328324       2.35795212       2.25893656
C        2.29715560       2.87241611      -0.74386773
C       -1.25264991      -2.99848709       0.03362666
C       -1.18213369       3.49624766      -1.08732097
C        1.20659572       1.69679941      -2.50901661
C        1.06506766      -0.68919812       1.83515079
C        2.53399130       1.14774020      -2.24154097
C       -3.35703310      -0.20771178      -0.91116166
C       -3.34502222       0.02174853       0.48969863
C        1.59244576      -2.83136555       0.17345332
C       -2.35246479       0.69559768      -2.89803828
C       -2.06263618      -1.65088187      -2.36482907
C       -2.85010456       0.26180228       3.16603538
C       -1.25717899      -1.33657565       2.95909767
C       -0.59795224      -0.18196410       3.47800130
C        0.58405451       0.23876734       2.83023154
C       -1.78522390      -0.52552472      -3.18712216
C       -0.08578166      -1.00291966       1.02580197
C       -2.74691721      -1.46559755      -1.16022356
C        3.60057407       0.86162409      -0.16914914
C        0.14680805      -1.64105800      -2.94966541
C        0.92646960      -2.79865513      -1.06176009
C       -1.61113415       0.74829833       3.76212478
C       -1.85824426       2.71091748      -2.01684204
C        2.29787127      -0.67216040       1.14979601
C       -0.89646046      -2.40544407      -2.33407986
C       -2.56552439      -0.98745426       2.53116684
C       -1.62715782       1.89370432       2.91827706
C        0.75311362       1.57480293       2.35149611
C        1.87315705       1.78094721       1.41004798
C        0.85833835      -3.47281697       1.11698284
C       -2.35532012      -2.07401111       0.07894564
C        3.10920096       1.81510711      -1.10975750
C        3.34049075      -1.51123251      -0.80594990
C        1.23723981      -1.66339103      -1.98209115
C       -0.38713369      -0.37341860      -3.39108477
C        0.52135202       3.57320361       0.41605264
C        3.20778353      -0.09346347      -2.26196128
C        1.78066284       2.94378579       0.58096568
C       -3.25622156       0.86550831      -1.81953349
C        1.20068540       2.90779082      -1.68815816
C        2.57689087      -1.77924060       0.33151586
C       -1.32623629       1.69156793      -2.86140207
C       -3.21016788       1.34886522       0.99056719
C       -0.46770770      -3.00727549      -1.12902657
C        0.59164405      -0.57505234      -1.23178712
C       -0.02841260       1.06355197      -3.04815245
C       -0.63125772       3.25026366       1.16533559
C       -2.86937106      -1.15121102       1.15541792
C       -1.73047904       3.26092935       0.23884483
60
Properties=species:S:1:pos:R:3 trajectory=trial0001_proposal001_step005_proposal_relax trajectory_step=32 pbc="F F F"
C       -0.48106606      -3.23716399       1.26753074
C        2.66374402      -1.39824282      -2.08924909
C        2.76102147       0.66554055       0.93464343
C       -2.86262948       2.38434564       0.08723552
C       -2.85981774       1.43708335       2.36007689
C        3.93372835      -0.23856500      -1.01619045
C       -0.55689419      -1.99588502       1.94832292
C       -0.22317179      -0.68589503      -0.24268301
C        0.18008931       3.56923237      -0.99649463
C       -3.01661209       2.15171873      -1.31069100
C       -0.45839431       2.36275401       2.24541411
C        2.28579780       2.86783849      -0.76894523
C       -1.24529652      -2.98695996       0.05077546
C       -1.20181346       3.48276041      -1.09758037
C        1.18962196       1.68311871      -2.52432912
C        1.08793809      -0.68825797       1.85138253
C        2.52676763       1.14053168      -2.26119943
C       -3.36588307      -0.21628339      -0.89698319
C       -3.34103710       0.01494690       0.50317303
C        1.60401523      -2.81805864       0.17118943
C       -2.37975730       0.67771315      -2.89537514
C       -2.07361998      -1.66697042      -2.36388875
C       -2.83216650       0.26604820       3.18052354
C       -1.24088493      -1.33523924       2.97283267
C       -0.57946708      -0.17501589       3.47763148
C        0.60202695       0.25071255       2.83002875
C       -1.81065850      -0.54116332      -3.19414181
C       -0.06115937      -1.00925211       1.04130918
C       -2.75709043      -1.47334858      -1.14969847
C        3.59778984       0.86586159      -0.18706359
C        0.13884787      -1.63238681      -2.94563957
C        0.92951763      -2.78433914      -1.06019717
C       -1.58697453       0.75376757       3.76481027
C       -1.87436837       2.69569036      -2.01492419
C        2.31375294      -0.66243897       1.15007326
C       -0.90028283      -2.39559014      -2.32144911
C       -2.55089569      -0.98504952       2.54832287
C       -1.61278405       1.89746247       2.91917866
C        0.75869824       1.58362338       2.33969965
C        1.87681138       1.78612833       1.39616173
C        0.87002456      -3.46092589       1.11746640
C       -2.35523514      -2.07465065       0.09360391
C        3.09772991       1.80978753      -1.13102696
C        3.34578119      -1.50402736      -0.81412034
C        1.23066832      -1.63643337      -1.97543767
C       -0.40867908      -0.37959487      -3.39488831
C        0.51840058       3.56813871       0.39609816
C        3.20862782      -0.09318170      -2.27420102
C        1.77503352       2.94134766       0.55503265
C       -3.27906440       0.85045793      -1.80989207
C        1.18221199       2.89223368      -1.70546007
C        2.58286571      -1.76282903       0.32411757
C       -1.35253073       1.67154884      -2.85985722
C       -3.20053115       1.34104019       1.00137257
C       -0.46398699      -2.99045429      -1.11412407
C        0.60083230      -0.54976944      -1.21180480
C       -0.05382035       1.04825551      -3.04610846
C       -0.63469102       3.24983504       1.14957277
C       -2.85947600      -1.15099985       1.17052999
C       -1.74107367       3.25967153       0.23371199
60
Properties=species:S:1:pos:R:3 trajectory=trial0001_proposal001_step005_proposal_relax trajectory_step=33 pbc="F F F"
C       -0.47022741      -3.23517667       1.28314560
C        2.66508307      -1.39588272      -2.09717841
C        2.76136594       0.67161515       0.92167434
C       -2.86396476       2.37308878       0.09152555
C       -2.84747401       1.43484834       2.36640899
C        3.93756580      -0.23397953      -1.03019622
C       -0.54812940      -1.99533770       1.96402250
C       -0.20542201      -0.68132555      -0.22097754
C        0.16599957       3.56208210      -1.01063674
C       -3.02485353       2.13617101      -1.30503867
C       -0.45610259       2.36762286       2.23412823
C        2.27426183       2.86374643      -0.78929673
C       -1.23922113      -2.97834065       0.06736540
C       -1.21224539       3.47618020      -1.10283664
C        1.17550193       1.67616488      -2.54047971
C        1.10859104      -0.68670623       1.86505810
C        2.51957270       1.13524071      -2.27930378
C       -3.37213483      -0.22430010      -0.88564951
C       -3.33659799       0.01052307       0.51411322
C        1.61079362      -2.80457226       0.16900184
C       -2.40494484       0.66468393      -2.89363127
C       -2.08716222      -1.67732828      -2.35661113
C       -2.81807922       0.27000866       3.19417775
C       -1.23037293      -1.33291680       2.98651385
C       -0.56327451      -0.16893392       3.47904580
C        0.61579797       0.26233211       2.83257870
C       -1.82743201      -0.55697011      -3.19384081
C       -0.04002975      -1.01421090       1.05410392
C       -2.76453465      -1.48302339      -1.14252729
C        3.59547491       0.86958891      -0.20363074
C        0.13215562      -1.62801193      -2.94530629
C        0.93194997      -2.77408680      -1.05745457
C       -1.56874460       0.75965310       3.76816233
C       -1.89191185       2.68045725      -2.01668200
C        2.32411485      -0.64995662       1.14920976
C       -0.89930887      -2.39364591      -2.31090789
C       -2.54119488      -0.98283461       2.56284618
C       -1.60252831       1.90100460       2.92059938
C        0.76304930       1.59355049       2.33156542
C        1.88120191       1.79216136       1.38606039
C        0.88288364      -3.45317924       1.11903923
C       -2.35512461      -2.07449284       0.10747692
C        3.08620058       1.80248079      -1.14954512
C        3.35188693      -1.49913407      -0.82498026
C        1.22834390      -1.61976582      -1.97587515
C       -0.42607791      -0.38145437      -3.39265343
C        0.51458805       3.56329516       0.37930810
C        3.21167128      -0.09458485      -2.29095326
C        1.77240923       2.93694767       0.53392807
C       -3.29654020       0.83901481      -1.80458813
C        1.16830600       2.88059783      -1.72078868
C        2.58095211      -1.74470560       0.31135347
C       -1.37629785       1.65870981      -2.86147037
C       -3.19078509       1.33313536       1.00975562
C       -0.46279207      -2.98180840      -1.10316063
C        0.61670400      -0.52923080      -1.19513333
C       -0.07608762       1.04030492      -3.04351872
C       -0.63581672       3.25134392       1.13666754
C       -2.85095928      -1.14950316       1.18458976
C       -1.74952203       3.25906822       0.22960491
60
Properties=species:S:1:pos:R:3 trajectory=trial0001_proposal001_step005_proposal_relax trajectory_step=34 pbc="F F F"
C       -0.45626940      -3.23504062       1.29941411
C        2.66817513      -1.39481179      -2.10916061
C        2.76197483       0.68246992       0.90014852
C       -2.86380773       2.35945814       0.09656133
C       -2.83620900       1.43071932       2.37356207
C        3.93888924      -0.22599845      -1.05004147
C       -0.53309870      -1.99388817       1.98406583
C       -0.17745532      -0.67350599      -0.20429591
C        0.14892943       3.55715178      -1.02760733
C       -3.03652480       2.11614416      -1.29732875
C       -0.45337519       2.37342138       2.22318500
C        2.26144601       2.85496820      -0.81470034
C       -1.23192028      -2.97297078       0.08606084
C       -1.22745617       3.46961637      -1.11222321
C        1.15899904       1.67097183      -2.56126970
C        1.13163331      -0.68097553       1.87808862
C        2.50951050       1.12805402      -2.30203574
C       -3.37964802      -0.23592254      -0.87350708
C       -3.33257871       0.00610005       0.52695287
C        1.61570520      -2.78937667       0.16981862
C       -2.43214759       0.64699584      -2.89570842
C       -2.09858884      -1.68874615      -2.34066834
C       -2.80237965       0.27427046       3.21002396
C       -1.21699572      -1.32685231       3.00273271
C       -0.54457613      -0.15946851       3.48646072
C        0.63250659       0.27478388       2.83698260
C       -1.84760121      -0.56957183      -3.18473329
C       -0.01684314      -1.01901695       1.07882143
C       -2.77357773      -1.49383885      -1.12715141
C        3.59386609       0.87339600      -0.22596204
C        0.12295447      -1.62770652      -2.94593588
C        0.93213790      -2.76079649      -1.05278395
C       -1.55109714       0.76918835       3.77455686
C       -1.91405072       2.66616009      -2.01733189
C        2.33735054      -0.64058121       1.14353657
C       -0.90200329      -2.39745682      -2.30012101
C       -2.53102827      -0.98000118       2.57940921
C       -1.59273070       1.90665240       2.92116544
C        0.77053279       1.60568794       2.32379902
C        1.88794569       1.80067967       1.37466093
C        0.89946693      -3.44764600       1.12275725
C       -2.35113891      -2.07442133       0.12558814
C        3.06957611       1.79847060      -1.17178054
C        3.35863448      -1.49604330      -0.83762888
C        1.22730672      -1.60332080      -1.97752425
C       -0.44736728      -0.38491740      -3.38751486
C        0.50830210       3.55812059       0.35910272
C        3.21815849      -0.09487424      -2.31823537
C        1.76842889       2.93407347       0.51334344
C       -3.31543381       0.82361472      -1.79872125
C        1.15100613       2.87255095      -1.73975636
C        2.58229698      -1.72366579       0.29960771
C       -1.40422739       1.64773071      -2.86658525
C       -3.18176050       1.32513907       1.01886358
C       -0.45967387      -2.98001714      -1.09073850
C        0.63263908      -0.51280874      -1.17839530
C       -0.10184947       1.03456649      -3.04494139
C       -0.63612658       3.25408351       1.12615876
C       -2.84154429      -1.14819406       1.20206877
C       -1.75675660       3.25741875       0.22506852
60
Properties=species:S:1:pos:R:3 trajectory=trial0001_proposal001_step005_proposal_relax trajectory_step=35 pbc="F F F"
C       -0.43829505      -3.23380989       1.31599491
C        2.67051027      -1.39447219      -2.12649812
C        2.76444255       0.69529908       0.87627612
C       -2.86167738       2.34513423       0.10215434
C       -2.82475747       1.42692985       2.38344332
C        3.93668632      -0.21722194      -1.07832349
C       -0.51321611      -1.99397401       2.00812835
C       -0.14371154      -0.66712393      -0.17282953
C        0.13030329       3.55192368      -1.04983579
C       -3.05111650       2.09351153      -1.28675042
C       -0.44719218       2.37939406       2.21436351
C        2.24057179       2.84817405      -0.84130330
C       -1.22054404      -2.97148991       0.10626544
C       -1.24910470       3.46270034      -1.12528282
C        1.13723478       1.66523507      -2.58667128
C        1.15860621      -0.66966247       1.89320034
C        2.49549286       1.11988942      -2.33086253
C       -3.39045708      -0.25008357      -0.85617223
C       -3.32899655      -0.00143415       0.54222803
C        1.62226599      -2.77133662       0.17146013
C       -2.46620056       0.63419511      -2.89752180
C       -2.10877688      -1.70014817      -2.31737579
C       -2.78589439       0.27864860       3.22745466
C       -1.19855889      -1.31668388       3.02101349
C       -0.52517083      -0.14480216       3.50104135
C        0.65349683       0.28998703       2.84274814
C       -1.86814955      -0.58799233      -3.16886545
C        0.00795417      -1.01879135       1.10282382
C       -2.78236936      -1.50790969      -1.10331786
C        3.59025790       0.88015390      -0.25845866
C        0.10959667      -1.62980678      -2.94387201
C        0.93273590      -2.74515052      -1.04733375
C       -1.53267041       0.78327134       3.78469860
C       -1.94180228       2.65020106      -2.01804028
C        2.35733069      -0.63016172       1.13450945
C       -0.90683964      -2.40486416      -2.28671051
C       -2.51700132      -0.97730445       2.60122347
C       -1.58335289       1.91465302       2.92078766
C        0.78146637       1.61693662       2.31620653
C        1.89537745       1.81134519       1.35992231
C        0.91731448      -3.44167787       1.12970609
C       -2.34255861      -2.07638001       0.15015173
C        3.05292338       1.79153399      -1.20252179
C        3.36363716      -1.49011492      -0.85377321
C        1.22652798      -1.58997108      -1.98169810
C       -0.47323106      -0.39328549      -3.37843600
C        0.50118456       3.55312025       0.33556908
C        3.22466762      -0.09412273      -2.35422441
C        1.76097111       2.93682423       0.48714939
C       -3.33587235       0.80098898      -1.79144212
C        1.13043797       2.86730684      -1.76489843
C        2.58946000      -1.70512415       0.29059705
C       -1.43686507       1.63719504      -2.87458071
C       -3.17302340       1.31672343       1.02975030
C       -0.45497927      -2.98111156      -1.07778380
C        0.65523131      -0.49717051      -1.16988433
C       -0.13058683       1.02850458      -3.05248999
C       -0.63821295       3.25894740       1.11506894
C       -2.83192239      -1.14896476       1.22246707
C       -1.76304771       3.25364149       0.21953272
60
Properties=species:S:1:pos:R:3 trajectory=trial0001_proposal001_step005_proposal_relax trajectory_step=36 pbc="F F F"
C       -0.41769861      -3.23177322       1.33042744
C        2.67216408      -1.39260206      -2.14507452
C        2.77360657       0.70821699       0.85146995
C       -2.86412357       2.33270015       0.10899886
C       -2.81554633       1.42688089       2.39393686
C        3.93325986      -0.21133099      -1.11251932
C       -0.48867682      -1.99499637       2.03300316
C       -0.10457546      -0.65847892      -0.14847177
C        0.10501709       3.54536282      -1.07602344
C       -3.07133335       2.07098211      -1.27677876
C       -0.43678060       2.38526642       2.20751339
C        2.21791959       2.84154628      -0.87307871
C       -1.20516549      -2.97507700       0.12616226
C       -1.27125791       3.45582282      -1.13850574
C        1.11076493       1.65421924      -2.61217097
C        1.19173880      -0.65478301       1.90432451
C        2.47670845       1.11192131      -2.36218906
C       -3.40343768      -0.26746239      -0.83378061
C       -3.32835862      -0.00909793       0.56229543
C        1.63096449      -2.75481088       0.17547887
C       -2.50066212       0.61740205      -2.90044287
C       -2.11874327      -1.71176997      -2.28656303
C       -2.76674800       0.28400237       3.24538047
C       -1.17342864      -1.30362316       3.04019347
C       -0.50038785      -0.12702574       3.51862940
C        0.67802736       0.30667351       2.85072145
C       -1.89501617      -0.60308536      -3.15089874
C        0.03276534      -1.01518423       1.13021517
C       -2.78728355      -1.52295550      -1.07264492
C        3.58619318       0.89014079      -0.29531005
C        0.09315465      -1.63262725      -2.93533461
C        0.93642453      -2.72793743      -1.03886169
C       -1.51404952       0.80113063       3.79646394
C       -1.97555506       2.63247725      -2.02148416
C        2.38131559      -0.61253344       1.13012526
C       -0.91324510      -2.41417292      -2.27015022
C       -2.49583868      -0.97426740       2.62473285
C       -1.57189053       1.92339383       2.92007383
C        0.79692019       1.62715774       2.30717323
C        1.90283240       1.82404975       1.33911775
C        0.93910765      -3.43641637       1.13797942
C       -2.32816964      -2.08019518       0.17944522
C        3.03306571       1.79099477      -1.23994327
C        3.36566948      -1.47871904      -0.87242289
C        1.22286321      -1.57858401      -1.98704776
C       -0.50400558      -0.40711297      -3.37556336
C        0.48757888       3.55160068       0.30950507
C        3.22832637      -0.09556059      -2.39339279
C        1.75217533       2.94481010       0.45858395
C       -3.35861948       0.77852382      -1.77828606
C        1.10761882       2.86132798      -1.79597011
C        2.60668740      -1.69818562       0.28225684
C       -1.47213015       1.62666169      -2.88427280
C       -3.17071538       1.31062818       1.04343274
C       -0.44876322      -2.98373442      -1.06595694
C        0.67224528      -0.48414176      -1.15162265
C       -0.16245667       1.01710136      -3.06798142
C       -0.64009693       3.26304349       1.10302690
C       -2.81991878      -1.15198751       1.24767470
C       -1.76990624       3.24641597       0.21257874
60
Properties=species:S:1:pos:R:3 trajectory=trial0001_proposal001_step005_proposal_relax trajectory_step=37 pbc="F F F"
C       -0.39076436      -3.22423934       1.34863178
C        2.66397433      -1.39437537      -2.17392411
C        2.79126163       0.72930662       0.82365665
C       -2.86624732       2.31586241       0.11803054
C       -2.80508807       1.42980123       2.40814457
C        3.92853430      -0.19849173      -1.15835960
C       -0.45760751      -1.98624668       2.05843249
C       -0.05452999      -0.65602910      -0.11708545
C        0.08077850       3.53731949      -1.10858659
C       -3.09197931       2.04515947      -1.26296773
C       -0.42401276       2.39642337       2.20051338
C        2.18950346       2.83522973      -0.91809775
C       -1.18304993      -2.97918347       0.15121177
C       -1.30378484       3.44496519      -1.15740107
C        1.07477747       1.64219012      -2.64614469
C        1.23306355      -0.63550121       1.92015440
C        2.45061136       1.10468601      -2.40910311
C       -3.41886649      -0.29325882      -0.80334998
C       -3.32884999      -0.02233018       0.59390341
C        1.64429189      -2.74184142       0.18044001
C       -2.54333639       0.59631479      -2.89809071
C       -2.12859683      -1.72660936      -2.25024624
C       -2.74643749       0.29249225       3.26901964
C       -1.13905060      -1.28474162       3.06387048
C       -0.47135920      -0.10160849       3.53690636
C        0.70666962       0.32866029       2.86467913
C       -1.92697814      -0.62236797      -3.12272925
C        0.06831955      -1.00862177       1.16365225
C       -2.78730762      -1.54466048      -1.03164897
C        3.57295916       0.89923224      -0.34685717
C        0.07307232      -1.64215443      -2.92109009
C        0.94390856      -2.71853721      -1.03173997
C       -1.49598722       0.82388749       3.81195544
C       -2.01225814       2.61738445      -2.02437413
C        2.41040967      -0.59448796       1.12815251
C       -0.91999743      -2.42456618      -2.24866209
C       -2.46743790      -0.97034702       2.65417545
C       -1.55628283       1.93459889       2.92067800
C        0.81560215       1.64177311       2.29585399
C        1.90645840       1.84020441       1.31067276
C        0.96829364      -3.42404496       1.14858295
C       -2.30989149      -2.09068291       0.21727642
C        3.00613563       1.79376889      -1.29070175
C        3.35603795      -1.46466731      -0.89778702
C        1.21873884      -1.57481847      -1.99187438
C       -0.53454221      -0.42409338      -3.36038472
C        0.46672626       3.55722529       0.27631802
C        3.21757255      -0.09513594      -2.44372836
C        1.73869884       2.95444011       0.42280839
C       -3.38404123       0.75316110      -1.75658073
C        1.07663939       2.85939658      -1.83505853
C        2.63307065      -1.68929128       0.27513300
C       -1.51429647       1.61519265      -2.90134031
C       -3.16730038       1.30141827       1.06128832
C       -0.43602300      -2.98546030      -1.04621403
C        0.69722938      -0.47638443      -1.14857454
C       -0.20214261       1.00619786      -3.09262331
C       -0.64249331       3.26416954       1.09109898
C       -2.80434437      -1.16179233       1.28465830
C       -1.77792357       3.23633150       0.20360485
60
Properties=species:S:1:pos:R:3 trajectory=trial0001_proposal001_step005_proposal_relax trajectory_step=38 pbc="F F F"
C       -0.36016923      -3.21364176       1.36799020
C        2.65165969      -1.39603289      -2.20017650
C        2.81061215       0.74869360       0.80024752
C       -2.87448435       2.30177964       0.12569621
C       -2.79497313       1.43699476       2.42396891
C        3.91935198      -0.19393491      -1.20649051
C       -0.42765606      -1.97604056       2.07853530
C       -0.00848887      -0.65706678      -0.09756755
C        0.04971995       3.53126596      -1.13752765
C       -3.11086422       2.02722240      -1.24934778
C       -0.41075830       2.40637808       2.19531087
C        2.15972202       2.83830972      -0.95963481
C       -1.15931652      -2.98262312       0.17685601
C       -1.32892368       3.43392352      -1.17218649
C        1.03709278       1.62931176      -2.67747900
C        1.27224099      -0.61511583       1.93644439
C        2.42053675       1.10109077      -2.45533016
C       -3.43052574      -0.31657806      -0.76871426
C       -3.33182131      -0.03959190       0.62739099
C        1.66596820      -2.73514198       0.18488465
C       -2.58123917       0.57548834      -2.88790091
C       -2.13426036      -1.74453464      -2.21898619
C       -2.72663261       0.30163798       3.28986224
C       -1.10272366      -1.26633992       3.08626426
C       -0.44549353      -0.07626506       3.55080999
C        0.73884230       0.35246478       2.87445314
C       -1.95490938      -0.64018501      -3.09807311
C        0.10644030      -1.00043998       1.18751333
C       -2.78429184      -1.56133885      -0.98927737
C        3.55586192       0.91358225      -0.39618657
C        0.05748196      -1.64949324      -2.90483168
C        0.95525397      -2.71882482      -1.02591758
C       -1.47461994       0.84277128       3.82393008
C       -2.04611841       2.60249343      -2.03308035
C        2.44394079      -0.57712012       1.12676332
C       -0.92752630      -2.43347981      -2.22345481
C       -2.43524604      -0.96233515       2.68506741
C       -1.54057781       1.94524708       2.92134027
C        0.83304556       1.65772718       2.28457422
C        1.90836635       1.85557322       1.27888384
C        0.99686974      -3.41221368       1.16048331
C       -2.29178143      -2.10247699       0.25346146
C        2.98310367       1.79344399      -1.34161627
C        3.34603195      -1.44374001      -0.92692382
C        1.21021777      -1.57798951      -1.99523721
C       -0.56598599      -0.44087783      -3.34939225
C        0.45273921       3.56472528       0.24601582
C        3.19677297      -0.09663920      -2.48474184
C        1.72210104       2.96593924       0.38182722
C       -3.40607910       0.72816615      -1.73051129
C        1.04501360       2.85350087      -1.87396920
C        2.65609080      -1.68072888       0.27243809
C       -1.55751793       1.60412637      -2.91847164
C       -3.17036464       1.29419527       1.08054088
C       -0.42313773      -2.98650099      -1.02638056
C        0.71581224      -0.47714335      -1.13778034
C       -0.23912448       0.99368661      -3.11867003
C       -0.64886379       3.26323256       1.07475655
C       -2.78758489      -1.17142903       1.32060992
C       -1.78830029       3.22311384       0.19711509
60
Properties=species:S:1:pos:R:3 trajectory=trial0001_proposal001_step005_proposal_relax trajectory_step=39 pbc="F F F"
C       -0.32428464      -3.19871501       1.39325320
C        2.63308927      -1.39961085      -2.22716939
C        2.82641364       0.76836093       0.77706279
C       -2.88620301       2.28695628       0.13460927
C       -2.78412645       1.44641562       2.43935539
C        3.90422557      -0.18340617      -1.25669693
C       -0.39690796      -1.95859920       2.09596324
C        0.03356633      -0.66477810      -0.08051290
C        0.02311859       3.52788956      -1.16540508
C       -3.12694670       2.01008808      -1.23858706
C       -0.40111730       2.41859281       2.18748530
C        2.13489501       2.84095345      -1.00973129
C       -1.13314586      -2.98296506       0.20700122
C       -1.35779346       3.41872806      -1.18420790
C        0.99685789       1.62078459      -2.71032320
C        1.31411176      -0.59445767       1.95369199
C        2.38647503       1.09989327      -2.50364267
C       -3.43668715      -0.33808669      -0.72936927
C       -3.33589203      -0.05806102       0.66551244
C        1.69616768      -2.73384260       0.18820077
C       -2.61532069       0.55042265      -2.86834446
C       -2.14377244      -1.76479469      -2.18668965
C       -2.70585399       0.31332570       3.31268376
C       -1.06486987      -1.24845794       3.10729391
C       -0.41416043      -0.05064602       3.55691166
C        0.77163250       0.38119688       2.88270646
C       -1.97815148      -0.65896826      -3.07282180
C        0.15086327      -0.99190951       1.20168062
C       -2.77724743      -1.57670521      -0.95150304
C        3.53661514       0.92461872      -0.44681243
C        0.04254520      -1.65700761      -2.89015216
C        0.97248234      -2.73197068      -1.02102762
C       -1.45108497       0.86144964       3.83227671
C       -2.07711013       2.59128413      -2.04241708
C        2.47926003      -0.55637734       1.12889936
C       -0.92792801      -2.44378564      -2.19467674
C       -2.40192577      -0.95145251       2.71648756
C       -1.52370137       1.95575042       2.92433395
C        0.84968097       1.67863689       2.27195370
C        1.90850254       1.87142554       1.24412655
C        1.02892733      -3.39907983       1.17405923
C       -2.27582670      -2.11469064       0.29070665
C        2.95138563       1.80058553      -1.39308573
C        3.33209727      -1.42567346      -0.95161955
C        1.20065085      -1.59081017      -1.99691957
C       -0.59493976      -0.45574480      -3.33642063
C        0.43554482       3.57531857       0.21771628
C        3.16225237      -0.09930226      -2.52333210
C        1.70661352       2.97252387       0.33794798
C       -3.42424430       0.70530211      -1.69694782
C        1.00645892       2.84758104      -1.90967775
C        2.67628597      -1.66739006       0.26021085
C       -1.60379734       1.59208502      -2.93746235
C       -3.17651824       1.28433204       1.10310166
C       -0.41239184      -2.98934699      -1.00255781
C        0.73346315      -0.48733027      -1.13087726
C       -0.27792850       0.98274424      -3.14363959
C       -0.65425949       3.26014244       1.05451411
C       -2.76846002      -1.18105274       1.35950935
C       -1.80105549       3.20785295       0.19155247
60
Properties=species:S:1:pos:R:3 trajectory=trial0001_proposal001_step005_proposal_relax trajectory_step=40 pbc="F F F"
C       -0.26380158      -3.17388765       1.43734892
C        2.60394006      -1.41115209      -2.26061191
C        2.84285124       0.80079991       0.72791693
C       -2.90966005       2.26061454       0.15177748
C       -2.76771664       1.45788338       2.46411178
C        3.86687163      -0.15928413      -1.33078178
C       -0.34039928      -1.92204714       2.12226841
C        0.08968933      -0.67965256      -0.06270702
C       -0.02674992       3.52911085      -1.20448809
C       -3.15574216       1.98062282      -1.22012026
C       -0.38947329       2.43991929       2.16694429
C        2.08367413       2.85752880      -1.08637830
C       -1.09521428      -2.97958122       0.26213551
C       -1.39756583       3.39464279      -1.19829863
C        0.92832137       1.61431071      -2.76494804
C        1.38531040      -0.56261527       1.97047395
C        2.32653068       1.09900814      -2.57445043
C       -3.43876295      -0.36816281      -0.66568458
C       -3.34113688      -0.08241695       0.73025730
C        1.74569665      -2.73660672       0.19106045
C       -2.66400465       0.50761294      -2.82819670
C       -2.15163289      -1.79853900      -2.13932085
C       -2.66710401       0.33528875       3.35163458
C       -1.00462183      -1.21697249       3.13692822
C       -0.35697694      -0.00925050       3.56170814
C        0.82445387       0.42988353       2.88809650
C       -2.01544876      -0.69948087      -3.02742739
C        0.22444270      -0.98265366       1.23245547
C       -2.76728860      -1.59883520      -0.88939241
C        3.50322901       0.94702376      -0.52633642
C        0.01536099      -1.67345764      -2.86855200
C        0.99817864      -2.76384215      -1.01005014
C       -1.40507893       0.89033085       3.84175402
C       -2.13245314       2.57026997      -2.05677103
C        2.53451071      -0.52503599       1.13255560
C       -0.93557158      -2.45754542      -2.15219392
C       -2.35118144      -0.93522009       2.76327690
C       -1.49786490       1.97681409       2.92679258
C        0.87501176       1.71889147       2.24785877
C        1.90935691       1.89726132       1.18889155
C        1.09027846      -3.37880170       1.19520945
C       -2.25032062      -2.12906815       0.34947757
C        2.90627037       1.79974107      -1.47412399
C        3.31769836      -1.40344639      -0.99611032
C        1.19253234      -1.61943065      -1.99912983
C       -0.63516826      -0.47602765      -3.31984953
C        0.41312304       3.58787974       0.16858962
C        3.09708883      -0.09917261      -2.58661504
C        1.68584959       2.97883409       0.26562151
C       -3.44331172       0.67025792      -1.64282971
C        0.94426223       2.83786564      -1.96242203
C        2.70055956      -1.63690101       0.23934857
C       -1.67497458       1.57018001      -2.96412435
C       -3.18929512       1.27067615       1.13919933
C       -0.38610732      -3.00315704      -0.95758786
C        0.75712973      -0.51262541      -1.12837952
C       -0.34310528       0.96857993      -3.17726519
C       -0.66300307       3.25335977       1.02785300
C       -2.73793455      -1.19194678       1.42119818
C       -1.82302200       3.18184674       0.18058011
60
Properties=species:S:1:pos:R:3 trajectory=trial0001_proposal001_step005_proposal_relax trajectory_step=41 pbc="F F F"
C       -0.22862141      -3.16104489       1.46178514
C        2.59580076      -1.41605114      -2.27417537
C        2.84165297       0.81792249       0.69760640
C       -2.92312378       2.24895742       0.15936306
C       -2.75669852       1.46140364       2.47889315
C        3.84167699      -0.14768629      -1.36634390
C       -0.30881327      -1.90816362       2.13985264
C        0.10969974      -0.68754943      -0.04826046
C       -0.05157930       3.53066243      -1.22392810
C       -3.17449593       1.96623269      -1.20674412
C       -0.38413450       2.44851343       2.15270323
C        2.06680251       2.85558116      -1.12930730
C       -1.07504786      -2.97574482       0.29324062
C       -1.42458855       3.37785951      -1.20624056
C        0.89286657       1.61517520      -2.79148328
C        1.41931029      -0.54404762       1.97763964
C        2.28999035       1.09654253      -2.60510290
C       -3.43553430      -0.37932692      -0.63287328
C       -3.34162628      -0.09179182       0.76066210
C        1.77359522      -2.73384068       0.18987587
C       -2.68423461       0.48022484      -2.80561446
C       -2.16323088      -1.81539132      -2.10984911
C       -2.63969271       0.34466697       3.37163065
C       -0.97347598      -1.19860523       3.14916337
C       -0.32612822       0.01147776       3.56244385
C        0.85557796       0.45515092       2.87871698
C       -2.03222013      -0.71911581      -3.01068353
C        0.26426280      -0.97579484       1.23887259
C       -2.76430003      -1.60934607      -0.86082868
C        3.48725732       0.95971087      -0.55929832
C        0.00381747      -1.68115387      -2.85875790
C        1.00958391      -2.77892981      -1.00460473
C       -1.37152201       0.90655720       3.84233058
C       -2.16232902       2.55786221      -2.05951662
C        2.56784991      -0.51168427       1.12242851
C       -0.93158901      -2.47152414      -2.12409812
C       -2.32576372      -0.92604439       2.78851561
C       -1.48623981       1.98874914       2.92534473
C        0.88683238       1.74121964       2.23137650
C        1.91304291       1.91004110       1.16022107
C        1.12189805      -3.37010347       1.20779513
C       -2.23782454      -2.12985547       0.37877642
C        2.87338548       1.81234183      -1.51057416
C        3.32108151      -1.39459173      -1.01565676
C        1.18699505      -1.63715032      -1.99903128
C       -0.65905428      -0.48806498      -3.31730725
C        0.40386138       3.58739485       0.14661186
C        3.06461397      -0.10177979      -2.61608666
C        1.67306614       2.98359828       0.22972237
C       -3.44968425       0.64783341      -1.61743631
C        0.90806442       2.83423260      -1.98725817
C        2.70803158      -1.61621971       0.22859902
C       -1.71218105       1.55302952      -2.96867607
C       -3.19587799       1.26553675       1.16015976
C       -0.37986260      -3.01186939      -0.93711116
C        0.76302086      -0.52602515      -1.12772922
C       -0.37768583       0.96012553      -3.18701488
C       -0.66770882       3.25344554       1.00810502
C       -2.72379796      -1.19130576       1.44961227
C       -1.83444198       3.16797526       0.17772182
60
Properties=species:S:1:pos:R:3 trajectory=trial0001_proposal001_step005_proposal_relax trajectory_step=42 pbc="F F F"
C       -0.20545265      -3.15443990       1.47587801
C        2.59408333      -1.42098214      -2.27870820
C        2.83279510       0.82704323       0.67518296
C       -2.93180056       2.24360144       0.16764594
C       -2.74917315       1.46073773       2.48831963
C        3.82217962      -0.13477837      -1.38333340
C       -0.28494237      -1.90154808       2.15345691
C        0.11535665      -0.69032993      -0.04203474
C       -0.06814442       3.53113977      -1.23530708
C       -3.19153632       1.95432649      -1.19910455
C       -0.38224612       2.45302356       2.13951720
C        2.05115138       2.85771931      -1.15133712
C       -1.06356562      -2.97191799       0.31274080
C       -1.44190619       3.36711824      -1.20967403
C        0.86976973       1.61825763      -2.80588837
C        1.44208461      -0.53210377       1.97454699
C        2.26387642       1.09284457      -2.61653982
C       -3.43085272      -0.38372866      -0.61469465
C       -3.33945000      -0.09160976       0.77664521
C        1.78792674      -2.72906738       0.18917896
C       -2.69358694       0.46290873      -2.79143049
C       -2.16884730      -1.82614667      -2.09085645
C       -2.61547485       0.34986916       3.38481539
C       -0.95393755      -1.18614553       3.15293473
C       -0.30018661       0.02433641       3.56015441
C        0.87397132       0.47026820       2.86544661
C       -2.04108183      -0.73704048      -3.00370547
C        0.28676009      -0.97231592       1.24324231
C       -2.76494667      -1.61480990      -0.84380810
C        3.47815077       0.97048020      -0.58013079
C       -0.00399691      -1.68735556      -2.85280910
C        1.01466630      -2.78456554      -1.00013269
C       -1.34601068       0.92018360       3.83963165
C       -2.18466858       2.54594228      -2.05718423
C        2.58637883      -0.50286713       1.10995280
C       -0.93224976      -2.48018380      -2.10749545
C       -2.31130547      -0.92144894       2.80253524
C       -1.47825803       1.99729518       2.92165892
C        0.89429788       1.75429316       2.21670800
C        1.91646193       1.91967694       1.14230707
C        1.14344198      -3.36526121       1.21446603
C       -2.22863677      -2.12509156       0.39706628
C        2.85588264       1.81591680      -1.53055407
C        3.33063089      -1.39567374      -1.02080491
C        1.18719929      -1.64904919      -1.99782687
C       -0.67367225      -0.49928965      -3.31991978
C        0.39501887       3.58271148       0.13218739
C        3.04646187      -0.10158980      -2.63165671
C        1.66934457       2.98546263       0.20925624
C       -3.45095292       0.63289145      -1.60289169
C        0.88570479       2.83447312      -2.00100499
C        2.71294182      -1.60357474       0.21646992
C       -1.73391363       1.53791510      -2.96109823
C       -3.19931089       1.26466884       1.17456300
C       -0.37836320      -3.02062306      -0.92228007
C        0.75888567      -0.53422590      -1.12670658
C       -0.39932390       0.95380058      -3.18640679
C       -0.66977190       3.25522118       0.99602350
C       -2.71594888      -1.18619398       1.46533943
C       -1.84137821       3.16005326       0.17563124
60
Properties=species:S:1:pos:R:3 trajectory=trial0001_proposal001_step005_proposal_relax trajectory_step=43 pbc="F F F"
C       -0.14835550      -3.13843199       1.51022920
C        2.59023441      -1.43246437      -2.29685847
C        2.82489366       0.85420032       0.61851988
C       -2.95147997       2.22684309       0.18927196
C       -2.72758621       1.46201215       2.51629287
C        3.78446842      -0.11360317      -1.43490804
C       -0.22042624      -1.88416982       2.18786884
C        0.14336028      -0.69415804      -0.01514886
C       -0.11968926       3.52566909      -1.27138841
C       -3.23620560       1.92182762      -1.17372125
C       -0.37131183       2.46783413       2.10814974
C        2.00712882       2.86282717      -1.21274147
C       -1.03246885      -2.96446236       0.36330039
C       -1.48736905       3.34278094      -1.22318826
C        0.80658058       1.61622260      -2.84507985
C        1.50638528      -0.50267793       1.96765625
C        2.19825418       1.08259934      -2.65670697
C       -3.42900863      -0.40510388      -0.56574083
C       -3.33267579      -0.09527189       0.82097594
C        1.81791343      -2.71245866       0.19038511
C       -2.73049808       0.41315439      -2.76254341
C       -2.18048291      -1.85559463      -2.04224761
C       -2.55608999       0.36661539       3.42085971
C       -0.89653677      -1.15377656       3.17043748
C       -0.23591892       0.06370191       3.55826586
C        0.92295113       0.51085841       2.84247211
C       -2.07582656      -0.78417866      -2.97871675
C        0.34413560      -0.96508652       1.26690925
C       -2.76384725      -1.63528458      -0.79011429
C        3.45192925       0.99789661      -0.64303234
C       -0.02596292      -1.70887775      -2.83126067
C        1.02562034      -2.79137409      -0.98595841
C       -1.28304945       0.95603288       3.84068399
C       -2.24591229       2.51349506      -2.05097521
C        2.62723069      -0.47298496       1.08268312
C       -0.94076217      -2.50031429      -2.06583552
C       -2.26509103      -0.90960148       2.84352549
C       -1.45136581       2.01949138       2.91191981
C        0.91520214       1.78514009       2.17837165
C        1.92248199       1.94617484       1.09362453
C        1.19943566      -3.34822756       1.23023376
C       -2.20087320      -2.11969697       0.45141111
C        2.80520742       1.82689010      -1.59562965
C        3.34850627      -1.38270910      -1.05501354
C        1.18508970      -1.66827487      -1.99556933
C       -0.71047512      -0.53233598      -3.31575078
C        0.37117045       3.57815919       0.08542253
C        3.00223675      -0.10420194      -2.67535592
C        1.65131862       2.99858081       0.15266131
C       -3.46864507       0.59190488      -1.56314313
C        0.83114850       2.83637681      -2.04783389
C        2.73578426      -1.58101698       0.19082373
C       -1.79097143       1.49998789      -2.94607907
C       -3.20302474       1.26010067       1.21112064
C       -0.36620762      -3.03597511      -0.88479636
C        0.75992969      -0.54835417      -1.12791748
C       -0.45848530       0.93346426      -3.19157401
C       -0.67858467       3.25696444       0.96913865
C       -2.69092344      -1.17899852       1.51345314
C       -1.86195693       3.14208235       0.16633900
60
Properties=species:S:1:pos:R:3 trajectory=trial0001_proposal001_step005_proposal_relax trajectory_step=44 pbc="F F F"
C       -0.06762256      -3.11462887       1.55477674
C        2.57204434      -1.45331397      -2.33419917
C        2.82534488       0.89997378       0.53679709
C       -2.98162110       2.20563172       0.21879991
C       -2.69400309       1.47230114       2.55719377
C        3.74095307      -0.07322872      -1.51515637
C       -0.12660089      -1.85961755       2.23499074
C        0.19291903      -0.69735676       0.00201441
C       -0.18573474       3.51355845      -1.32741249
C       -3.29991335       1.87761871      -1.13199003
C       -0.34883862       2.48938038       2.06778107
C        1.93497777       2.88476298      -1.30046235
C       -0.98217903      -2.95929093       0.43199796
C       -1.56557806       3.30748723      -1.24434452
C        0.71309840       1.60740405      -2.89644574
C        1.58894086      -0.45433733       1.95995481
C        2.10124748       1.06562562      -2.71775057
C       -3.43055955      -0.44209804      -0.48965353
C       -3.32030804      -0.10738711       0.88990239
C        1.86149661      -2.68861211       0.19001200
C       -2.78939033       0.34654875      -2.71437208
C       -2.19703562      -1.89861604      -1.96838827
C       -2.47106608       0.39313773       3.47193307
C       -0.80276509      -1.10559514       3.19643689
C       -0.14914132       0.12285704       3.55391930
C        0.99813816       0.56820278       2.80600435
C       -2.12055411      -0.85407255      -2.93933065
C        0.42525934      -0.95065651       1.29744730
C       -2.75267376      -1.66740924      -0.70617787
C        3.40714838       1.03697356      -0.74164351
C       -0.05713272      -1.74662793      -2.79393398
C        1.04083447      -2.80121353      -0.96476616
C       -1.19520123       1.01133399       3.84390410
C       -2.33224469       2.46827790      -2.03843700
C        2.68641433      -0.43198083       1.03017069
C       -0.94813865      -2.53479309      -2.00370459
C       -2.18706483      -0.88860936       2.90359263
C       -1.41110256       2.04859153       2.89950613
C        0.94594927       1.82476385       2.12052565
C        1.92443840       1.98660124       1.01882153
C        1.27593695      -3.32230783       1.25515905
C       -2.15679247      -2.11660580       0.53258066
C        2.73867279       1.83586334      -1.69293704
C        3.36011914      -1.37025673      -1.09711368
C        1.18155972      -1.70142525      -1.99088359
C       -0.76197840      -0.58605107      -3.29932784
C        0.32576831       3.58121936       0.01996959
C        2.92963614      -0.10580602      -2.73591113
C        1.61892289       3.02734183       0.06805945
C       -3.49928978       0.53245165      -1.50669686
C        0.74993246       2.84670496      -2.12126555
C        2.78388464      -1.55558599       0.15798344
C       -1.87039990       1.44053203      -2.92261530
C       -3.20664053       1.25625868       1.26577041
C       -0.34819767      -3.05395763      -0.83121854
C        0.75222099      -0.57483226      -1.11876774
C       -0.53922764       0.89719163      -3.20071380
C       -0.69478206       3.26083413       0.92498391
C       -2.64968117      -1.17125653       1.58617320
C       -1.89187078       3.11832264       0.15663498
60
Properties=species:S:1:pos:R:3 trajectory=trial0001_proposal001_step005_proposal_relax trajectory_step=45 pbc="F F F"
C       -0.05401224      -3.11038528       1.56054903
C        2.56689912      -1.45674895      -2.34110830
C        2.82847917       0.90853666       0.52251961
C       -2.98890712       2.20338199       0.22797191
C       -2.68574493       1.47756543       2.56457875
C        3.73597127      -0.07383370      -1.53145520
C       -0.10679075      -1.85504378       2.24017488
C        0.19900130      -0.69745242       0.01225180
C       -0.20841506       3.50959553      -1.33739320
C       -3.31362908       1.86793280      -1.12430507
C       -0.34374795       2.49450244       2.05955905
C        1.92262883       2.89187707      -1.31879117
C       -0.97195020      -2.95940325       0.44290713
C       -1.57470686       3.30490511      -1.24611368
C        0.69518116       1.60172383      -2.90156030
C        1.60470678      -0.44504085       1.95015451
C        2.08050067       1.06288421      -2.72714731
C       -3.43219999      -0.45164431      -0.47456662
C       -3.31542233      -0.10899077       0.90485864
C        1.86760351      -2.68526512       0.19206540
C       -2.79814415       0.33100450      -2.70470766
C       -2.19519044      -1.91020262      -1.95502518
C       -2.45271004       0.40038919       3.48096033
C       -0.78094417      -1.09628018       3.20116991
C       -0.12933395       0.13610038       3.54852893
C        1.01072439       0.57896374       2.79848955
C       -2.12987525      -0.86698042      -2.93001488
C        0.43698818      -0.94660186       1.29666599
C       -2.74694299      -1.67272130      -0.68764108
C        3.39686379       1.04606766      -0.76168795
C       -0.06096485      -1.75746632      -2.78358980
C        1.04463894      -2.80169412      -0.95911789
C       -1.17916410       1.02307132       3.84462473
C       -2.34984225       2.45494497      -2.03543042
C        2.69125422      -0.41860826       1.01651267
C       -0.95316390      -2.54137415      -1.99253510
C       -2.16561455      -0.88203122       2.91410867
C       -1.39897096       2.05392562       2.89648524
C        0.95160408       1.83031024       2.10553971
C        1.92177250       1.99674691       1.00006278
C        1.29021664      -3.31556239       1.25756455
C       -2.14518304      -2.11799969       0.54893448
C        2.72194120       1.84209135      -1.71148019
C        3.36060965      -1.36154521      -1.11120532
C        1.17845678      -1.70749006      -1.98873475
C       -0.76977443      -0.60103198      -3.29174168
C        0.31273312       3.58664187       0.00515983
C        2.91250382      -0.10935904      -2.74041532
C        1.61006883       3.03691255       0.05283432
C       -3.51013028       0.52272375      -1.49150861
C        0.73619259       2.85003821      -2.13921035
C        2.79832729      -1.55742310       0.15150975
C       -1.88414666       1.42604298      -2.91155622
C       -3.20532048       1.25636167       1.27722648
C       -0.34401554      -3.05589162      -0.81903829
C        0.74961759      -0.58199904      -1.12494700
C       -0.55249011       0.88468108      -3.19884669
C       -0.69985119       3.26053073       0.91785655
C       -2.63684023      -1.17006106       1.60258276
C       -1.90081699       3.11590028       0.15464458
60
Properties=species:S:1:pos:R:3 trajectory=trial0001_proposal001_step005_proposal_relax trajectory_step=46 pbc="F F F"
C       -0.02654968      -3.10153195       1.57510673
C        2.55406913      -1.46315362      -2.35671384
C        2.83641355       0.92870131       0.49217891
C       -3.00311441       2.19666740       0.24205706
C       -2.66872991       1.48812982       2.57905953
C        3.72546892      -0.06952793      -1.56620192
C       -0.07003043      -1.84386415       2.25001139
C        0.21825618      -0.69704206       0.01989844
C       -0.24374179       3.50352013      -1.35979755
C       -3.33699287       1.84977721      -1.10749561
C       -0.33382197       2.50525371       2.04404268
C        1.89837079       2.90528669      -1.35831030
C       -0.95197858      -2.96009377       0.46672641
C       -1.60266617       3.29529273      -1.25292320
C        0.66036656       1.59007601      -2.91505763
C        1.63493520      -0.42626160       1.93689694
C        2.04343574       1.05785359      -2.74953680
C       -3.43607048      -0.47015644      -0.44180564
C       -3.30679426      -0.11618131       0.93654682
C        1.88486995      -2.67932677       0.19498670
C       -2.81996087       0.30123382      -2.68278581
C       -2.19659411      -1.93137227      -1.92664049
C       -2.42055415       0.41511067       3.49873424
C       -0.73814409      -1.07832718       3.21303767
C       -0.09405373       0.16169863       3.54176219
C        1.03778410       0.60150744       2.78665858
C       -2.14833698      -0.89206226      -2.90720227
C        0.46321930      -0.94034568       1.30195293
C       -2.73552055      -1.68412685      -0.65242565
C        3.37912118       1.05993439      -0.80299905
C       -0.07084028      -1.77685127      -2.76640234
C        1.05240031      -2.80487163      -0.94841911
C       -1.14722170       1.04324296       3.84804223
C       -2.38073571       2.43349817      -2.02961943
C        2.70443963      -0.39552112       0.99302975
C       -0.95756017      -2.55680067      -1.96888827
C       -2.12397845      -0.86804678       2.93607719
C       -1.37675057       2.06529897       2.89265142
C        0.96277553       1.84422002       2.07878895
C        1.91743249       2.01515370       0.96387480
C        1.31734495      -3.30300657       1.26442224
C       -2.12414676      -2.12250417       0.58120889
C        2.68901545       1.85245972      -1.74911298
C        3.35781954      -1.34693067      -1.13912128
C        1.17179018      -1.71956921      -1.98566655
C       -0.78710645      -0.62597766      -3.27531520
C        0.29072791       3.59755898      -0.02367347
C        2.87871032      -0.11456035      -2.75583893
C        1.59051528       3.05520151       0.01812028
C       -3.53221532       0.50043281      -1.46287149
C        0.70480837       2.85479800      -2.17260807
C        2.82353259      -1.55472254       0.13981567
C       -1.91280990       1.39905991      -2.89806116
C       -3.20254426       1.25356145       1.29886394
C       -0.33389970      -3.05945508      -0.79683472
C        0.74605063      -0.59479328      -1.12762283
C       -0.58063427       0.86145194      -3.19736406
C       -0.71009310       3.26011315       0.90404243
C       -2.61030407      -1.16974871       1.63528961
C       -1.91864983       3.11086077       0.15160823
60
Properties=species:S:1:pos:R:3 trajectory=trial0001_proposal001_step005_proposal_relax trajectory_step=47 pbc="F F F"
C        0.01076119      -3.09097332       1.59736268
C        2.53567748      -1.47094752      -2.37625356
C        2.84304875       0.95760074       0.44643580
C       -3.02246524       2.18532474       0.25901775
C       -2.64300460       1.50053894       2.59756837
C        3.70825266      -0.05640199      -1.61359464
C       -0.02334387      -1.82920912       2.26484000
C        0.24190363      -0.69549140       0.03420626
C       -0.28793222       3.49807997      -1.39107524
C       -3.36736413       1.82308553      -1.08349722
C       -0.32144245       2.51904312       2.02171435
C        1.86288309       2.92525646      -1.41167532
C       -0.92660290      -2.96132302       0.50045815
C       -1.64454213       3.28070844      -1.26239321
C        0.61478276       1.57446312      -2.93405277
C        1.67241577      -0.39965181       1.92104954
C        1.99692617       1.05089456      -2.77743217
C       -3.44005727      -0.49374536      -0.39560248
C       -3.29305384      -0.12732844       0.97898109
C        1.91252450      -2.66966010       0.19721124
C       -2.85198814       0.26159659      -2.64957942
C       -2.20218981      -1.95942857      -1.88587027
C       -2.37632273       0.43464625       3.52234111
C       -0.68120670      -1.05420488       3.22961478
C       -0.04698274       0.19372795       3.53626985
C        1.07629852       0.63322968       2.76704227
C       -2.17191738      -0.92780332      -2.87285331
C        0.49876740      -0.93221077       1.30780056
C       -2.72322282      -1.69867197      -0.60642374
C        3.35978073       1.07815934      -0.85799398
C       -0.08628757      -1.80177999      -2.74812391
C        1.06258782      -2.80785213      -0.93369117
C       -1.10104923       1.06985355       3.85221207
C       -2.42151441       2.40218237      -2.02121254
C        2.72520129      -0.36704587       0.95924184
C       -0.96000327      -2.58047555      -1.93687020
C       -2.06942058      -0.84839575       2.96515138
C       -1.34834952       2.08176577       2.88958475
C        0.97752815       1.86566390       2.04279500
C        1.91316020       2.03996813       0.91469102
C        1.35215025      -3.28767223       1.27454840
C       -2.09758293      -2.12667021       0.62307613
C        2.64893200       1.86013243      -1.79694179
C        3.35555898      -1.33484313      -1.17123791
C        1.16334061      -1.73387906      -1.98229630
C       -0.81393961      -0.65681461      -3.25344220
C        0.26156351       3.60887768      -0.06135385
C        2.83695171      -0.11852543      -2.78217730
C        1.56606805       3.07755508      -0.03260331
C       -3.56207760       0.46734105      -1.42669651
C        0.65954998       2.85728872      -2.21492059
C        2.85159255      -1.54260958       0.12102511
C       -1.95228439       1.36136932      -2.88049990
C       -3.19567768       1.24815697       1.32719709
C       -0.32025785      -3.06615116      -0.76753697
C        0.74393569      -0.60775230      -1.13295802
C       -0.61973328       0.83002757      -3.19034911
C       -0.72383220       3.26357780       0.88230287
C       -2.57264720      -1.16812674       1.67650396
C       -1.94331919       3.10575177       0.14914271
60
Properties=species:S:1:pos:R:3 trajectory=trial0001_proposal001_step005_proposal_relax trajectory_step=48 pbc="F F F"
C        0.08219301      -3.07339384       1.64369831
C        2.49833561      -1.48186373      -2.40697210
C        2.84561165       1.01553265       0.34578321
C       -3.06383489       2.16195177       0.29638343
C       -2.58043481       1.52550019       2.63107535
C        3.66959516      -0.03654897      -1.70555476
C        0.06909638      -1.79943256       2.29020376
C        0.27733862      -0.68598087       0.02938272
C       -0.38539534       3.49046191      -1.45208266
C       -3.42919934       1.76120518      -1.03287555
C       -0.30085321       2.54880128       1.96782796
C        1.79771848       2.96387107      -1.52683567
C       -0.87908780      -2.96512658       0.56784986
C       -1.73088333       3.25233160      -1.27724185
C        0.52619764       1.53920506      -2.96050261
C        1.74112826      -0.34330390       1.87176747
C        1.90526773       1.03666831      -2.81782502
C       -3.44406788      -0.53908192      -0.30025749
C       -3.25269393      -0.14661579       1.06529613
C        1.96974102      -2.65048115       0.20121792
C       -2.91182337       0.17199660      -2.57118143
C       -2.21080510      -2.02240780      -1.79983068
C       -2.27629822       0.47859080       3.56738797
C       -0.56321270      -1.00678789       3.26000524
C        0.05971221       0.25687250       3.51843860
C        1.15124535       0.69966820       2.71240594
C       -2.21651618      -1.00365466      -2.79369798
C        0.56359125      -0.91917014       1.31582977
C       -2.69835187      -1.72515420      -0.51576939
C        3.32958550       1.11685279      -0.96272974
C       -0.11641524      -1.85908758      -2.71644883
C        1.08382900      -2.80998697      -0.89913787
C       -0.99968447       1.12483086       3.85602963
C       -2.50114326       2.32812120      -1.99332663
C        2.75664916      -0.30235486       0.87688130
C       -0.96466661      -2.63477457      -1.87448331
C       -1.95250718      -0.80404414       3.01688757
C       -1.28506350       2.11777517       2.88517595
C        1.00402148       1.91245804       1.95919848
C        1.90242554       2.09393234       0.80645189
C        1.42033669      -3.25656395       1.28936361
C       -2.04311818      -2.13071024       0.70314653
C        2.56218405       1.88497993      -1.88146923
C        3.35783560      -1.31125621      -1.23941652
C        1.14345687      -1.76276340      -1.97472424
C       -0.86848167      -0.72236600      -3.20223828
C        0.19761065       3.63096314      -0.13999152
C        2.75361655      -0.12884736      -2.82886744
C        1.51469081       3.12461447      -0.13616915
C       -3.62784904       0.39831384      -1.34820919
C        0.56322143       2.85796250      -2.29517299
C        2.89808979      -1.50874309       0.07445473
C       -2.02692187       1.27263706      -2.82742779
C       -3.16948213       1.23591891       1.38457234
C       -0.29223143      -3.08293286      -0.70533996
C        0.72361636      -0.62839083      -1.13050708
C       -0.69550316       0.75735320      -3.15082461
C       -0.75510151       3.27657015       0.83828495
C       -2.48365286      -1.15841843       1.75464517
C       -2.00213426       3.10452639       0.14564311
60
Properties=species:S:1:pos:R:3 trajectory=trial0001_proposal001_step005_proposal_relax trajectory_step=49 pbc="F F F"
C        0.12115686      -3.06242271       1.67116861
C        2.48125018      -1.48575107      -2.42533703
C        2.84507586       1.04110632       0.30108866
C       -3.07918524       2.14639904       0.31086720
C       -2.55477319       1.53262820       2.64796281
C        3.64655985      -0.01749362      -1.75246675
C        0.10980932      -1.78426510       2.30847256
C        0.29787393      -0.68668641       0.04952409
C       -0.42124073       3.48807027      -1.48309267
C       -3.45591259       1.73262985      -1.01020617
C       -0.29235481       2.56330767       1.94512611
C        1.75981989       2.97676497      -1.58007286
C       -0.85417875      -2.96633441       0.60331772
C       -1.77581049       3.23319062      -1.28810360
C        0.47968573       1.52691758      -2.98226534
C        1.77900354      -0.31506845       1.86349546
C        1.86371500       1.03048015      -2.84741167
C       -3.44521507      -0.55937881      -0.25462374
C       -3.23928655      -0.15771615       1.10524268
C        1.99991852      -2.64042098       0.20122290
C       -2.94673252       0.13353573      -2.53637039
C       -2.21935765      -2.05025585      -1.75633882
C       -2.23153439       0.49490333       3.59108860
C       -0.51313398      -0.98311884       3.27759361
C        0.10886077       0.28701173       3.51922373
C        1.18820002       0.73348606       2.69241492
C       -2.24014915      -1.03943664      -2.75707322
C        0.60221904      -0.91112359       1.32166523
C       -2.69280919      -1.74181970      -0.47166235
C        3.31574199       1.13642973      -1.01791740
C       -0.13455916      -1.88040813      -2.70337733
C        1.09630734      -2.81533168      -0.88774196
C       -0.95187924       1.15082427       3.85877412
C       -2.53909577       2.29960055      -1.98441970
C        2.78350672      -0.27709614       0.85134687
C       -0.96549517      -2.65758280      -1.84248749
C       -1.90668707      -0.78854327       3.04546728
C       -1.25953076       2.13619237       2.88372262
C        1.01882481       1.93940279       1.92662254
C        1.90125961       2.11715501       0.75906282
C        1.45631551      -3.24284813       1.29992503
C       -2.02030716      -2.13315097       0.74228216
C        2.53207015       1.88717196      -1.92853347
C        3.35801806      -1.30297181      -1.26529943
C        1.13510187      -1.77460545      -1.97334181
C       -0.90056004      -0.74863869      -3.18366198
C        0.17351961       3.63513976      -0.17716278
C        2.71806066      -0.12868323      -2.86606626
C        1.49475703       3.13887073      -0.18951381
C       -3.65124062       0.36292211      -1.31058220
C        0.51441720       2.85203345      -2.32991500
C        2.91198385      -1.48273040       0.05247098
C       -2.07034128       1.23885342      -2.81637301
C       -3.16098566       1.22850902       1.41100833
C       -0.27919776      -3.09288363      -0.67677545
C        0.72849809      -0.63481211      -1.13616427
C       -0.73672323       0.73358954      -3.14461575
C       -0.76733577       3.28279883       0.81537337
C       -2.45039149      -1.15603248       1.79025739
C       -2.02499923       3.09790895       0.14136258
60
Properties=species:S:1:pos:R:3 trajectory=trial0001_proposal001_step005_proposal_relax trajectory_step=50 pbc="F F F"
C        0.10499753      -3.06936064       1.66357421
C        2.48425979      -1.47685577      -2.41588679
C        2.83771982       1.03273319       0.31123371
C       -3.07025112       2.14848406       0.30500378
C       -2.55354830       1.52780019       2.63902824
C        3.65334164      -0.02032969      -1.73570759
C        0.08877701      -1.79072404       2.29952918
C        0.27932220      -0.68358275       0.04486820
C       -0.40745662       3.49004144      -1.47294880
C       -3.44306422       1.73639694      -1.01302475
C       -0.29831951       2.56063312       1.94938104
C        1.76843372       2.97087138      -1.56257266
C       -0.86395632      -2.96966406       0.58971291
C       -1.76656016       3.23822194      -1.28428146
C        0.49715221       1.52560650      -2.96535384
C        1.75645113      -0.31990971       1.85958957
C        1.88607379       1.03251149      -2.82876493
C       -3.44289122      -0.55179301      -0.26702000
C       -3.23347311      -0.15362287       1.08935333
C        1.99099896      -2.63990483       0.19831752
C       -2.93829726       0.14427022      -2.53918969
C       -2.21791733      -2.04408240      -1.76426541
C       -2.23939683       0.48987996       3.57872965
C       -0.52992132      -0.99154363       3.27192385
C        0.09650623       0.27547608       3.52245990
C        1.17271100       0.72496528       2.68810219
C       -2.23033671      -1.03079270      -2.75773998
C        0.58289897      -0.91311724       1.31046350
C       -2.69845174      -1.73841668      -0.48693316
C        3.33124843       1.13091364      -0.99878382
C       -0.13077637      -1.87688027      -2.71337645
C        1.09230449      -2.80880550      -0.89239867
C       -0.96143796       1.14272929       3.85511574
C       -2.52108477       2.30172121      -1.97890792
C        2.76938601      -0.28427532       0.85419109
C       -0.96120405      -2.65627630      -1.85326860
C       -1.92066772      -0.79283692       3.03125709
C       -1.26545884       2.13300065       2.88603617
C        1.01132246       1.93501242       1.93247453
C        1.90022255       2.11054208       0.76992698
C        1.43930457      -3.24831111       1.29324104
C       -2.02793637      -2.13102413       0.72443392
C        2.55329533       1.88140796      -1.90761658
C        3.35741561      -1.30932727      -1.25276140
C        1.13502977      -1.76348445      -1.97388239
C       -0.89492244      -0.74128817      -3.18303114
C        0.17993152       3.62945853      -0.16562733
C        2.73856368      -0.12572762      -2.85780094
C        1.50060222       3.13292367      -0.17788712
C       -3.64529505       0.36898630      -1.31963538
C        0.52594511       2.84381443      -2.31051581
C        2.89293359      -1.47705867       0.05358642
C       -2.05469952       1.24438115      -2.81195676
C       -3.15037834       1.22932477       1.39961897
C       -0.28255484      -3.09133613      -0.68851204
C        0.72754710      -0.62131042      -1.13692392
C       -0.72116694       0.73803554      -3.13055401
C       -0.76690579       3.28845840       0.82049998
C       -2.45434524      -1.15343913       1.77014700
C       -2.02149308       3.10670240       0.14350695
60
Properties=species:S:1:pos:R:3 trajectory=trial0001_proposal001_step005_proposal_relax trajectory_step=51 pbc="F F F"
C        0.13947137      -3.06050180       1.68659265
C        2.46945355      -1.47600509      -2.43251313
C        2.83392124       1.05635154       0.26761885
C       -3.07830031       2.13400173       0.32018766
C       -2.52585557       1.53228726       2.65414356
C        3.63768111      -0.00321234      -1.77512102
C        0.12432347      -1.77636537       2.31401814
C        0.28697788      -0.68373468       0.05021157
C       -0.44777791       3.48389316      -1.49870535
C       -3.46663419       1.70736881      -0.98734915
C       -0.29057187       2.57786461       1.92681655
C        1.73574469       2.97147000      -1.60887454
C       -0.84092363      -2.97271823       0.61965863
C       -1.80048168       3.22556345      -1.29299338
C        0.45585347       1.51118721      -2.97573324
C        1.78441173      -0.29174244       1.84771162
C        1.84915333       1.02563003      -2.85392142
C       -3.44213155      -0.57382436      -0.22545468
C       -3.21523321      -0.15937080       1.12070779
C        2.01191954      -2.62479096       0.19617824
C       -2.96937858       0.10614610      -2.50564943
C       -2.22367105      -2.07313138      -1.72215993
C       -2.19139071       0.50224714       3.59737403
C       -0.48398907      -0.96994106       3.28605303
C        0.14422895       0.30389177       3.52290670
C        1.20180824       0.75757044       2.66316706
C       -2.25387593      -1.06420739      -2.72072330
C        0.61202040      -0.90692572       1.31864429
C       -2.69708432      -1.75909989      -0.44332317
C        3.32430521       1.15048942      -1.04256307
C       -0.14725352      -1.89928696      -2.70038226
C        1.10220121      -2.81053942      -0.88575367
C       -0.91247358       1.16875852       3.85560018
C       -2.55721102       2.26800773      -1.96723137
C        2.78903268      -0.25896741       0.82850335
C       -0.96487624      -2.67909077      -1.82370997
C       -1.87884677      -0.78158900       3.05543231
C       -1.24049054       2.15225220       2.88246359
C        1.02179500       1.96212616       1.89880582
C        1.89773269       2.13103502       0.72528749
C        1.47123072      -3.23489619       1.30024422
C       -2.00465016      -2.13390974       0.75880816
C        2.52956700       1.89088364      -1.95349994
C        3.35672923      -1.29752138      -1.27626877
C        1.12580912      -1.76816001      -1.97273043
C       -0.92551860      -0.76884068      -3.16322894
C        0.15641117       3.63014058      -0.19969093
C        2.71261263      -0.12308625      -2.89387014
C        1.48244568       3.14388203      -0.22503758
C       -3.66320935       0.33719480      -1.28315608
C        0.48319295       2.83099463      -2.33819193
C        2.89606131      -1.44964639       0.03414428
C       -2.09359030       1.21145999      -2.79349077
C       -3.13480330       1.22406557       1.42168030
C       -0.26885745      -3.10205045      -0.66371642
C        0.72833974      -0.61945834      -1.13544254
C       -0.76019670       0.71384178      -3.11878306
C       -0.77957553       3.29813777       0.79784000
C       -2.42324211      -1.14940853       1.79818767
C       -2.04181348       3.10350282       0.13845920
60
Properties=species:S:1:pos:R:3 trajectory=trial0001_proposal001_step005_proposal_relax trajectory_step=52 pbc="F F F"
C        0.19214593      -3.04625572       1.71929941
C        2.44393968      -1.46650801      -2.45974962
C        2.83133576       1.09350740       0.20063766
C       -3.08597546       2.11280321       0.34652398
C       -2.47558337       1.54061657       2.67797531
C        3.61712263       0.01541786      -1.84032421
C        0.17908260      -1.75253690       2.33299680
C        0.29492603      -0.68484145       0.05498286
C       -0.50826743       3.46917219      -1.54073783
C       -3.49879813       1.65969144      -0.94407741
C       -0.27942117       2.61255205       1.89013357
C        1.68131539       2.97204532      -1.68220813
C       -0.80067911      -2.98102523       0.66426926
C       -1.86211763       3.20267863      -1.30844459
C        0.38966321       1.47798475      -2.98515826
C        1.82450875      -0.24492233       1.81963730
C        1.79618750       1.01683689      -2.89478094
C       -3.44275045      -0.61227587      -0.15884965
C       -3.17995381      -0.17039821       1.17194840
C        2.03808727      -2.59985195       0.19350417
C       -3.01866917       0.04531573      -2.44912403
C       -2.23311349      -2.12107415      -1.65221431
C       -2.11123634       0.52793839       3.62311502
C       -0.40729927      -0.93594658       3.30825114
C        0.22213332       0.35022440       3.51953165
C        1.24216276       0.81305353       2.62402034
C       -2.29075938      -1.12022541      -2.65299321
C        0.65131978      -0.89279114       1.32316317
C       -2.69212355      -1.79934301      -0.37301469
C        3.31334458       1.18485961      -1.11767470
C       -0.17589892      -1.93758483      -2.67631855
C        1.11990228      -2.81119761      -0.87632075
C       -0.84038329       1.21293791       3.85463632
C       -2.61097855       2.21816597      -1.94158194
C        2.80916816      -0.20896608       0.78936077
C       -0.96880675      -2.71713426      -1.77680721
C       -1.80617488      -0.76374592       3.09108413
C       -1.19719965       2.18152690       2.87822720
C        1.03698132       2.00465214       1.84284871
C        1.88930275       2.16430045       0.65097826
C        1.52130238      -3.20986390       1.30698617
C       -1.96532547      -2.14436081       0.81503440
C        2.49732394       1.90441921      -2.03007080
C        3.34445049      -1.26579410      -1.32192219
C        1.10788987      -1.77125263      -1.97234977
C       -0.97465368      -0.81516113      -3.12298109
C        0.11581073       3.63558349      -0.25673448
C        2.67421606      -0.12212566      -2.94560794
C        1.44862740       3.16143168      -0.29963788
C       -3.69341418       0.28452471      -1.21678567
C        0.41433972       2.80666960      -2.37853532
C        2.90007998      -1.40887980      -0.00000058
C       -2.15419949       1.15401442      -2.76232267
C       -3.10229774       1.21541289       1.45691690
C       -0.24446336      -3.11892664      -0.62525023
C        0.72761818      -0.61342172      -1.12953216
C       -0.82244131       0.66839389      -3.09724913
C       -0.79963589       3.31359528       0.76593517
C       -2.36696152      -1.14555470       1.84612367
C       -2.07417943       3.10186240       0.12941562
60
Properties=species:S:1:pos:R:3 trajectory=trial0001_proposal001_step005_proposal_relax trajectory_step=53 pbc="F F F"
C        0.24638793      -3.02804451       1.74601237
C        2.41418414      -1.45485147      -2.48810165
C        2.83391741       1.13281376       0.13620770
C       -3.08724229       2.09476321       0.37416250
C       -2.42904365       1.55026863       2.69735014
C        3.59969075       0.04082482      -1.90449853
C        0.23628938      -1.73002038       2.34674836
C        0.30210921      -0.68896354       0.06239499
C       -0.57223872       3.44788701      -1.57709174
C       -3.52209905       1.61808692      -0.89758152
C       -0.26851781       2.64824619       1.86344272
C        1.63378746       2.96495266      -1.75045238
C       -0.75692404      -2.98828536       0.70579907
C       -1.90922824       3.18409064      -1.32080230
C        0.32852658       1.43881221      -2.99438591
C        1.85374579      -0.19795074       1.79257037
C        1.75281540       1.00796556      -2.94171269
C       -3.44132324      -0.65496747      -0.09078849
C       -3.14425784      -0.18542714       1.22236430
C        2.05766217      -2.57099997       0.18625308
C       -3.06291645      -0.01207114      -2.39524187
C       -2.24016304      -2.16936444      -1.58691749
C       -2.03867946       0.55137135       3.64432835
C       -0.33223161      -0.90224339       3.32840315
C        0.28453609       0.39850343       3.51291320
C        1.27762058       0.86559575       2.58937523
C       -2.32639661      -1.17022230      -2.58938771
C        0.68485860      -0.87284709       1.32489038
C       -2.68852261      -1.84280522      -0.30331678
C        3.29920412       1.21067523      -1.19147176
C       -0.20393603      -1.96804211      -2.64620474
C        1.13434965      -2.80988917      -0.87145742
C       -0.77368961       1.25276260       3.85297615
C       -2.66580230       2.16987548      -1.92344666
C        2.82427547      -0.16004862       0.74845532
C       -0.97158764      -2.75051158      -1.72880996
C       -1.73405393      -0.74324490       3.12898609
C       -1.15530737       2.21169311       2.86894867
C        1.04871465       2.04319884       1.79307350
C        1.87888574       2.19244760       0.58719438
C        1.56869653      -3.18186341       1.31410260
C       -1.92870142      -2.16177411       0.87208291
C        2.45964979       1.92222097      -2.10826309
C        3.31930950      -1.23070262      -1.35902220
C        1.09084169      -1.77133136      -1.97305558
C       -1.02252443      -0.86189605      -3.08158255
C        0.07786103       3.64282248      -0.30833207
C        2.63889439      -0.12186689      -2.99092232
C        1.41164289       3.17517482      -0.36648177
C       -3.71578904       0.23730902      -1.15321765
C        0.35335051       2.77722262      -2.41583252
C        2.90958111      -1.37346174      -0.03527122
C       -2.21480531       1.10309152      -2.73547885
C       -3.06897047       1.20757041       1.49171342
C       -0.21979698      -3.13364910      -0.59475731
C        0.72540410      -0.61194081      -1.12342281
C       -0.88230003       0.62054109      -3.08458133
C       -0.81621435       3.32796511       0.73242862
C       -2.31474143      -1.14709686       1.89512343
C       -2.09826153       3.09785376       0.12176734
60
Properties=species:S:1:pos:R:3 trajectory=trial0001_proposal001_step005_proposal_relax trajectory_step=54 pbc="F F F"
C        0.27203991      -3.01796845       1.75410801
C        2.40046186      -1.45081461      -2.49813407
C        2.83595237       1.14966469       0.10878711
C       -3.08306089       2.08800430       0.38812129
C       -2.40922733       1.55587389       2.70456153
C        3.59322383       0.04673549      -1.93073482
C        0.26431242      -1.71659372       2.35296209
C        0.30356247      -0.69174469       0.06520683
C       -0.59309818       3.43439872      -1.59214163
C       -3.52697393       1.60105066      -0.87704366
C       -0.26195953       2.66625720       1.85263083
C        1.60934893       2.96292292      -1.77332099
C       -0.73693355      -2.98918875       0.72094158
C       -1.93005687       3.17131506      -1.32554992
C        0.30691246       1.41834761      -3.00087702
C        1.86368924      -0.17656980       1.77860062
C        1.73547384       1.00402030      -2.96892083
C       -3.43911965      -0.67357685      -0.06208311
C       -3.12836825      -0.19323097       1.24553065
C        2.06322720      -2.55651333       0.18140583
C       -3.07985840      -0.03457181      -2.37261760
C       -2.24344473      -2.19035063      -1.56063908
C       -2.01187336       0.56231047       3.65253445
C       -0.29968066      -0.88829172       3.33422822
C        0.30772240       0.41836487       3.50501628
C        1.28920426       0.88658296       2.57844279
C       -2.34187638      -1.19174500      -2.56419386
C        0.69580592      -0.86151171       1.32866908
C       -2.68767421      -1.86485929      -0.27237817
C        3.28587809       1.22588449      -1.22199938
C       -0.21500094      -1.97521670      -2.62885556
C        1.13967561      -2.80613391      -0.87232630
C       -0.75208705       1.27261841       3.85042788
C       -2.68868891       2.15565571      -1.91729783
C        2.82752263      -0.14039269       0.72795054
C       -0.97412552      -2.76019504      -1.70938424
C       -1.70445255      -0.73513610       3.14478085
C       -1.14136046       2.22340156       2.86550067
C        1.05178117       2.05794554       1.77716484
C        1.87371772       2.20373744       0.56451519
C        1.59245469      -3.16604512       1.31470632
C       -1.91400037      -2.17444781       0.89815288
C        2.44556972       1.92399913      -2.14201710
C        3.30603330      -1.20973090      -1.37938152
C        1.08158096      -1.76952301      -1.97419122
C       -1.04366729      -0.88048327      -3.06561246
C        0.06344981       3.64572171      -0.32905173
C        2.62516028      -0.11993710      -3.00928594
C        1.39684023       3.17616327      -0.39144096
C       -3.71911057       0.21882491      -1.12333107
C        0.32877746       2.75965480      -2.43000353
C        2.91353377      -1.35924038      -0.04408593
C       -2.24071798       1.08279184      -2.72889945
C       -3.05522777       1.20211721       1.50475572
C       -0.20917439      -3.13988640      -0.58063315
C        0.72257519      -0.61422624      -1.12204127
C       -0.90790738       0.59878742      -3.08455634
C       -0.82012804       3.33275891       0.72165054
C       -2.29356168      -1.15130578       1.92009843
C       -2.10254493       3.09374359       0.11975618
60
Properties=species:S:1:pos:R:3 trajectory=trial0001_proposal001_step005_proposal_relax trajectory_step=55 pbc="F F F"
C        0.30912693      -3.00255719       1.76604796
C        2.38310002      -1.44779370      -2.51095209
C        2.83488302       1.17187920       0.07324682
C       -3.08146778       2.07743329       0.40577863
C       -2.38625764       1.56378697       2.71352261
C        3.58092267       0.06011925      -1.96562703
C        0.30530541      -1.70145145       2.36376660
C        0.30825616      -0.69302216       0.07189619
C       -0.62063522       3.41697158      -1.61326270
C       -3.53526970       1.57852141      -0.85174623
C       -0.25322524       2.68659632       1.83846412
C        1.57854600       2.96100593      -1.80832199
C       -0.71079913      -2.98820463       0.74417207
C       -1.95822765       3.15181213      -1.33076864
C        0.27739039       1.39245685      -3.01581749
C        1.88291736      -0.14756974       1.75655118
C        1.70869852       0.99867786      -3.00477237
C       -3.43468811      -0.69573550      -0.02227786
C       -3.10856637      -0.20542028       1.27950802
C        2.07695026      -2.53819828       0.17556756
C       -3.10202958      -0.06486981      -2.34118608
C       -2.25129644      -2.21598879      -1.52529299
C       -1.97815944       0.57853700       3.66672329
C       -0.25683081      -0.86690230       3.34302824
C        0.33793266       0.44513801       3.49373374
C        1.30853572       0.91358309       2.56262994
C       -2.36304225      -1.22306585      -2.53313957
C        0.71235655      -0.84515897       1.32909551
C       -2.68404984      -1.89110090      -0.23246053
C        3.26596639       1.24402378      -1.26633247
C       -0.23184740      -1.98384620      -2.60772353
C        1.14650849      -2.80059590      -0.86915657
C       -0.72251901       1.29750044       3.84774394
C       -2.72036395       2.13582372      -1.90977257
C        2.83103968      -0.11405415       0.69762711
C       -0.97478659      -2.77334379      -1.68267801
C       -1.66308256      -0.72318265       3.16647245
C       -1.12253926       2.24172231       2.85989927
C        1.05814945       2.07762546       1.75618061
C        1.86844060       2.22049726       0.53422035
C        1.62704251      -3.14376737       1.31513768
C       -1.89578773      -2.18929734       0.93436702
C        2.41691576       1.92886994      -2.18235415
C        3.29426875      -1.19097667      -1.40201539
C        1.07055566      -1.77074724      -1.97370258
C       -1.07077623      -0.90412256      -3.04839830
C        0.04509695       3.64951905      -0.35730830
C        2.60193254      -0.12178235      -3.03396238
C        1.37707078       3.18015783      -0.42347094
C       -3.72397735       0.19335149      -1.08318150
C        0.29399008       2.73948108      -2.45126306
C        2.92399504      -1.34198755      -0.06060173
C       -2.27426870       1.05457274      -2.72093612
C       -3.03930938       1.19378743       1.52471205
C       -0.19740138      -3.14636115      -0.56123377
C        0.71467957      -0.62078409      -1.12158974
C       -0.94036245       0.57059204      -3.08400449
C       -0.82406769       3.33881342       0.70844782
C       -2.26431837      -1.15697837       1.95584550
C       -2.11009490       3.08623331       0.11910233
60
Properties=species:S:1:pos:R:3 trajectory=trial0001_proposal001_step005_proposal_relax trajectory_step=56 pbc="F F F"
C        0.36703431      -2.97962447       1.78490271
C        2.36049178      -1.44394804      -2.52709196
C        2.82732785       1.20477746       0.01834486
C       -3.08226498       2.05693656       0.42904408
C       -2.35291951       1.57387371       2.73018626
C        3.55554591       0.07829881      -2.01780712
C        0.36665168      -1.67651881       2.38058744
C        0.31295577      -0.69080819       0.07977280
C       -0.66435290       3.39193681      -1.64190059
C       -3.55022268       1.54505779      -0.81511032
C       -0.24090634       2.71222686       1.81863703
C        1.52719944       2.96254734      -1.85855552
C       -0.67313504      -2.98601093       0.78318012
C       -1.99633265       3.12293148      -1.33652530
C        0.22917719       1.35953776      -3.04301304
C        1.90933953      -0.10666967       1.72625196
C        1.66839423       0.98905386      -3.05371527
C       -3.42434495      -0.72717457       0.03980900
C       -3.08072940      -0.22427835       1.33016665
C        2.10449621      -2.51204575       0.16545382
C       -3.13366111      -0.11175695      -2.29367895
C       -2.26056564      -2.25433005      -1.47361569
C       -1.92839339       0.60211511       3.68881154
C       -0.19474295      -0.83519542       3.35609525
C        0.38317819       0.48583827       3.48083504
C        1.34220125       0.95360532       2.53372709
C       -2.39651811      -1.26704195      -2.49006695
C        0.74145215      -0.82232997       1.33144588
C       -2.67883625      -1.92372087      -0.17262833
C        3.23750254       1.26948883      -1.32886969
C       -0.25736428      -1.99911137      -2.58126594
C        1.15612588      -2.79402907      -0.85936424
C       -0.67673528       1.33381383       3.84239289
C       -2.76549763       2.10044187      -1.89848441
C        2.83954414      -0.07573768       0.65118364
C       -0.97999719      -2.79206234      -1.64265700
C       -1.60403256      -0.70375101       3.20028472
C       -1.09660918       2.26926773       2.85347125
C        1.07187994       2.10915642       1.72439374
C        1.86251770       2.24642292       0.49048194
C        1.67850925      -3.11096865       1.31721817
C       -1.86929997      -2.20715148       0.98759106
C        2.37315358       1.92838664      -2.24254570
C        3.28716620      -1.16921884      -1.43690195
C        1.05668070      -1.77436299      -1.97253114
C       -1.11276055      -0.93948365      -3.02700188
C        0.01864857       3.65193321      -0.39717948
C        2.56593287      -0.12531916      -3.07141536
C        1.35026677       3.18988660      -0.47616305
C       -3.73019038       0.15485199      -1.02632336
C        0.24224477       2.71052315      -2.48433036
C        2.93929831      -1.31433704      -0.09029465
C       -2.32322594       1.01322190      -2.70704790
C       -3.01744496       1.18097549       1.55444007
C       -0.17925270      -3.15233880      -0.53168325
C        0.69969310      -0.62817350      -1.12014599
C       -0.98700508       0.53243456      -3.08151457
C       -0.83116358       3.34974699       0.68531048
C       -2.22257105      -1.16464651       2.00452001
C       -2.12300805       3.07308022       0.11906696
60
Properties=species:S:1:pos:R:3 trajectory=trial0001_proposal001_step005_proposal_relax trajectory_step=57 pbc="F F F"
C        0.42063588      -2.95587709       1.79821356
C        2.34067865      -1.43846262      -2.53549145
C        2.81104742       1.23226803      -0.03118721
C       -3.07528074       2.03523173       0.45043069
C       -2.32517763       1.58136485       2.74124032
C        3.53043379       0.09362650      -2.05887030
C        0.41971106      -1.65009805       2.39093582
C        0.30354776      -0.68304693       0.08778276
C       -0.69959325       3.36364782      -1.66035311
C       -3.55768261       1.51202221      -0.78301040
C       -0.23267307       2.73592691       1.80147297
C        1.48671261       2.94753813      -1.90506740
C       -0.63951080      -2.98289925       0.81480741
C       -2.02561603       3.09150006      -1.33604081
C        0.19211846       1.33075203      -3.06775178
C        1.92339079      -0.07043349       1.69125365
C        1.63487648       0.97631484      -3.09480263
C       -3.40923587      -0.75147237       0.09283811
C       -3.05180468      -0.23950406       1.37522083
C        2.13023778      -2.48673756       0.15169785
C       -3.15742378      -0.14833197      -2.24747067
C       -2.27249922      -2.28334217      -1.42713835
C       -1.88569683       0.62138424       3.70550796
C       -0.14365496      -0.80539500       3.36428660
C        0.42285961       0.52248387       3.46560966
C        1.36559587       0.98698344       2.50541582
C       -2.42268701      -1.30844250      -2.45295939
C        0.75912545      -0.79999423       1.32701341
C       -2.67174049      -1.95330517      -0.12172214
C        3.21267281       1.28654040      -1.37871111
C       -0.27946418      -2.01282828      -2.55998816
C        1.16364082      -2.78192556      -0.85181860
C       -0.64010351       1.36635195       3.83361716
C       -2.79693182       2.06696493      -1.88278123
C        2.83831812      -0.04453576       0.60318380
C       -0.98013048      -2.80591096      -1.60817489
C       -1.55720935      -0.68769923       3.22478743
C       -1.07692172       2.29519802       2.84824530
C        1.08340791       2.14002764       1.69907438
C        1.85710099       2.27265262       0.45334836
C        1.72576625      -3.07687580       1.31368922
C       -1.84543597      -2.22427274       1.03254101
C        2.32825087       1.93163156      -2.28677978
C        3.28701048      -1.15503396      -1.46919234
C        1.04200316      -1.77338662      -1.96997168
C       -1.15161175      -0.97109912      -3.01107603
C       -0.00498683       3.64964275      -0.42850824
C        2.53810993      -0.12988376      -3.10360335
C        1.32889799       3.19808039      -0.51522908
C       -3.72594094       0.12118344      -0.97311447
C        0.19499102       2.67906469      -2.50616121
C        2.94733985      -1.28299139      -0.11960367
C       -2.36123591       0.97502837      -2.69081506
C       -2.99208273       1.16700347       1.57982042
C       -0.16549991      -3.15166911      -0.50356871
C        0.67893592      -0.62940730      -1.12326583
C       -1.02674131       0.49781870      -3.07645996
C       -0.83627797       3.35950312       0.67022088
C       -2.18480288      -1.17137414       2.04628777
C       -2.13123819       3.05872306       0.12032339
60
Properties=species:S:1:pos:R:3 trajectory=trial0001_proposal001_step005_proposal_relax trajectory_step=58 pbc="F F F"
C        0.46015372      -2.93944978       1.81560165
C        2.32533293      -1.43928612      -2.54901657
C        2.80348230       1.25275609      -0.07070113
C       -3.07841375       2.01836037       0.46579953
C       -2.30395953       1.58736966       2.75573605
C        3.51128455       0.10828729      -2.09685676
C        0.45747065      -1.63245214       2.40184403
C        0.30708020      -0.67757420       0.08768443
C       -0.73388346       3.34946470      -1.67836571
C       -3.57401565       1.48580639      -0.75859609
C       -0.22585223       2.75170028       1.78529367
C        1.45086583       2.94723507      -1.94439846
C       -0.61347730      -2.98230969       0.84488552
C       -2.05373375       3.07128394      -1.33804228
C        0.15250663       1.31501242      -3.08714548
C        1.94753278      -0.04408804       1.67178135
C        1.59797477       0.96738761      -3.12175473
C       -3.40233812      -0.77092207       0.13420282
C       -3.03479463      -0.24891515       1.40974654
C        2.15361069      -2.47178065       0.14568037
C       -3.17962422      -0.18228540      -2.21506688
C       -2.27725171      -2.30629936      -1.38942551
C       -1.84637676       0.63591099       3.72225801
C       -0.10099455      -0.78035643       3.37460451
C        0.46148201       0.55235245       3.46032508
C        1.39127718       1.01681961       2.48336711
C       -2.44513889      -1.33933449      -2.42211802
C        0.78201360      -0.78817413       1.32628540
C       -2.66306975      -1.97057367      -0.08014346
C        3.19438100       1.30023872      -1.42461299
C       -0.29534564      -2.03235587      -2.54616231
C        1.17219449      -2.77869763      -0.84341546
C       -0.60190275       1.39005058       3.83143789
C       -2.82565326       2.03611148      -1.86972104
C        2.84711608      -0.01925356       0.57334166
C       -0.98205713      -2.82150537      -1.57771169
C       -1.51625585      -0.67542014       3.24763064
C       -1.05730130       2.31390315       2.84375355
C        1.09504572       2.16634955       1.67259430
C        1.85413871       2.29610614       0.41511811
C        1.76161092      -3.05562626       1.31641366
C       -1.82222520      -2.23003331       1.06861319
C        2.29917198       1.93028145      -2.32740820
C        3.28947003      -1.14780765      -1.49433368
C        1.03282052      -1.77898747      -1.96705111
C       -1.17892608      -0.99917659      -2.99696995
C       -0.02608108       3.65014410      -0.45710292
C        2.50875373      -0.13373368      -3.13189540
C        1.31070683       3.21174187      -0.55718955
C       -3.73414839       0.09213763      -0.93549697
C        0.15482957       2.66637981      -2.53139339
C        2.95831114      -1.26121829      -0.14439303
C       -2.39359010       0.94359000      -2.67408992
C       -2.97792270       1.15963627       1.60298524
C       -0.15320608      -3.15195663      -0.47898372
C        0.66744922      -0.62977156      -1.11868175
C       -1.06216929       0.47296584      -3.07257068
C       -0.84637859       3.36390558       0.65443393
C       -2.15569346      -1.17141741       2.07829802
C       -2.14576152       3.04769733       0.11927616
60
Properties=species:S:1:pos:R:3 trajectory=trial0001_proposal001_step005_proposal_relax trajectory_step=59 pbc="F F F"
C        0.45399163      -2.93845273       1.80973210
C        2.32973329      -1.43995951      -2.54329384
C        2.79623713       1.24387212      -0.06144109
C       -3.07315623       2.01614206       0.46141256
C       -2.31139807       1.58462061       2.75446810
C        3.51264513       0.10140538      -2.08684593
C        0.44362680      -1.63197841       2.39466708
C        0.29537283      -0.67023208       0.08243187
C       -0.72605846       3.34842188      -1.66466787
C       -3.56683270       1.49056774      -0.76253255
C       -0.23023270       2.74576908       1.79201632
C        1.45529317       2.94184274      -1.92948649
C       -0.61804739      -2.98074401       0.83999847
C       -2.04047827       3.07116459      -1.32957070
C        0.15884451       1.32176386      -3.08560405
C        1.93598683      -0.05230273       1.67081292
C        1.60273876       0.96551710      -3.10862629
C       -3.39653991      -0.76320684       0.12453623
C       -3.03808289      -0.24539314       1.39974185
C        2.15177979      -2.47403726       0.14274846
C       -3.16763697      -0.17419283      -2.22199881
C       -2.27085448      -2.29595999      -1.39884346
C       -1.85606388       0.63179228       3.71549366
C       -0.11491859      -0.78236880       3.36808009
C        0.45095118       0.54653509       3.46163106
C        1.38294778       1.00986323       2.48280665
C       -2.43859685      -1.32986015      -2.43131306
C        0.77029390      -0.78932854       1.31768455
C       -2.65857234      -1.96012222      -0.09001079
C        3.19542344       1.29064781      -1.41094005
C       -0.28991363      -2.03294634      -2.55375765
C        1.16936399      -2.77474104      -0.84377254
C       -0.61247545       1.38267846       3.82900397
C       -2.81033853       2.03603807      -1.86532787
C        2.83741089      -0.02628847       0.57671097
C       -0.98165179      -2.81430620      -1.58267994
C       -1.52776729      -0.67899522       3.23980176
C       -1.06565821       2.30928006       2.84456533
C        1.09339999       2.16508237       1.67954846
C        1.85543213       2.29559488       0.42435055
C        1.75470725      -3.05538744       1.31186239
C       -1.82430831      -2.22421651       1.05847048
C        2.30495546       1.92118391      -2.31367354
C        3.29784350      -1.15814240      -1.49056654
C        1.03463941      -1.77564867      -1.96488451
C       -1.16979372      -0.99628963      -3.00478135
C       -0.02143993       3.64533391      -0.44463622
C        2.51412929      -0.13715128      -3.12314664
C        1.31628815       3.21378463      -0.54903910
C       -3.72523466       0.09917065      -0.94534520
C        0.16447614       2.66870225      -2.52165497
C        2.95345957      -1.26476233      -0.14607038
C       -2.37844172       0.94959264      -2.67025647
C       -2.97876922       1.16112418       1.59739327
C       -0.15507437      -3.14142251      -0.48367147
C        0.66073190      -0.62264454      -1.12015606
C       -1.05168734       0.47958952      -3.07336299
C       -0.84650646       3.35994311       0.66065164
C       -2.16407836      -1.16964659       2.06651912
C       -2.14156995       3.04392787       0.12299608
60
Properties=species:S:1:pos:R:3 trajectory=trial0001_proposal001_step005_proposal_relax trajectory_step=60 pbc="F F F"
C        0.51306566      -2.91503967       1.83850537
C        2.30700829      -1.44388099      -2.56759989
C        2.78819689       1.27565046      -0.12149805
C       -3.08054671       1.99011095       0.48625990
C       -2.27914766       1.59353988       2.78109861
C        3.48659087       0.11366375      -2.14975542
C        0.49416916      -1.60146535       2.40971312
C        0.30124457      -0.66233684       0.09568518
C       -0.77799953       3.33091105      -1.69261353
C       -3.59460882       1.45033730      -0.72399748
C       -0.22066459       2.76924385       1.76772413
C        1.40395614       2.93917834      -1.99109206
C       -0.57707184      -2.98001281       0.88707467
C       -2.08635679       3.04066779      -1.33277304
C        0.09206214       1.30193993      -3.11242993
C        1.97028874      -0.01506163       1.65090308
C        1.54238567       0.94990485      -3.14657022
C       -3.38786383      -0.79272857       0.18380981
C       -3.01602214      -0.25653385       1.44905456
C        2.18414991      -2.45135900       0.13458481
C       -3.20384205      -0.22520904      -2.17601473
C       -2.27316395      -2.32800158      -1.33888984
C       -1.79395623       0.65198388       3.74120851
C       -0.04891179      -0.74653579       3.38182675
C        0.51250819       0.59110973       3.45633827
C        1.42392460       1.05688345       2.44844108
C       -2.46659109      -1.37740516      -2.38598009
C        0.80577677      -0.77155819       1.31801950
C       -2.64148443      -1.98259308      -0.02817840
C        3.16924866       1.30837526      -1.47629580
C       -0.31124275      -2.06721464      -2.53366845
C        1.18375679      -2.77301794      -0.83209430
C       -0.55441847       1.42050299       3.82712388
C       -2.85300674       1.99017671      -1.84340346
C        2.85796596       0.00994165       0.53590926
C       -0.98382362      -2.83794730      -1.53586148
C       -1.46756823      -0.66057731       3.27598583
C       -1.03595934       2.33182197       2.84044170
C        1.11120394       2.20567823       1.63668538
C        1.85182869       2.33000693       0.36574066
C        1.80662754      -3.02484959       1.31949284
C       -1.78604399      -2.22591339       1.11245054
C        2.25684400       1.92283508      -2.38094052
C        3.29823642      -1.14231244      -1.53482306
C        1.02211224      -1.78205147      -1.96103229
C       -1.20824256      -1.03922128      -2.98423150
C       -0.05662957       3.64720277      -0.48503182
C        2.46574443      -0.14315235      -3.16648305
C        1.28889447       3.23607064      -0.61384216
C       -3.74173683       0.05406778      -0.89271788
C        0.10338308       2.65459839      -2.56085054
C        2.96886379      -1.23566215      -0.17976850
C       -2.42550418       0.90196665      -2.64393850
C       -2.96207381       1.15263207       1.63256181
C       -0.13313586      -3.14210521      -0.44500020
C        0.65268781      -0.62165008      -1.12846094
C       -1.10531856       0.44314970      -3.07190621
C       -0.86272199       3.36276642       0.63419677
C       -2.12261015      -1.16696436       2.11238913
C       -2.16393251       3.02566645       0.12269585
60
Properties=species:S:1:pos:R:3 trajectory=trial0001_proposal001_step005_proposal_relax trajectory_step=61 pbc="F F F"
C        0.51626085      -2.91135829       1.83677993
C        2.30519319      -1.44498724      -2.56790901
C        2.78828070       1.27542618      -0.12102010
C       -3.07741787       1.98946248       0.48955598
C       -2.28093246       1.59428848       2.78030071
C        3.48661086       0.10958525      -2.15251816
C        0.49418802      -1.59747853       2.40565548
C        0.29981520      -0.66002131       0.08510878
C       -0.77720746       3.32781083      -1.68942278
C       -3.58996548       1.44933755      -0.72204486
C       -0.22158137       2.77040859       1.77035211
C        1.40450726       2.93433740      -1.99075534
C       -0.57364052      -2.97726703       0.88635730
C       -2.08369434       3.03673453      -1.32903107
C        0.09254707       1.29967008      -3.11387777
C        1.96615562      -0.01482591       1.64815752
C        1.54140613       0.94721893      -3.14903331
C       -3.38550651      -0.79244591       0.18302370
C       -3.01564445      -0.25710084       1.45036560
C        2.18141216      -2.44915972       0.13275024
C       -3.20059905      -0.22432655      -2.17644380
C       -2.26997965      -2.32516162      -1.33834215
C       -1.79645196       0.65284050       3.74026525
C       -0.04870138      -0.74526077       3.37896353
C        0.50993602       0.59262883       3.45172120
C        1.42079081       1.05681203       2.45023182
C       -2.46259871      -1.37787131      -2.38695912
C        0.80155185      -0.76685224       1.31855450
C       -2.63665111      -1.98170017      -0.02762541
C        3.16364463       1.30373545      -1.47808543
C       -0.30946734      -2.06542712      -2.53120003
C        1.18390137      -2.76930012      -0.83328673
C       -0.55930290       1.42099396       3.82640232
C       -2.85069810       1.99153252      -1.84178729
C        2.85383161       0.00903633       0.53395632
C       -0.98042051      -2.83450895      -1.53478914
C       -1.46792171      -0.65941438       3.27537020
C       -1.03737351       2.33024994       2.84031346
C        1.10997347       2.20543703       1.63897290
C        1.85095027       2.33052701       0.36858405
C        1.80863832      -3.01965366       1.31766215
C       -1.78405848      -2.22611457       1.11351659
C        2.25006669       1.92169555      -2.38038979
C        3.29311464      -1.14037396      -1.53810613
C        1.02100656      -1.78045368      -1.96193906
C       -1.20665860      -1.04002134      -2.98586042
C       -0.05675554       3.64767344      -0.48281104
C        2.46327772      -0.14567221      -3.16421576
C        1.28762242       3.23463617      -0.60899555
C       -3.73817616       0.05466713      -0.89126529
C        0.10331193       2.65225225      -2.55871526
C        2.96996355      -1.23770282      -0.17995373
C       -2.42313896       0.90151761      -2.64489844
C       -2.96253032       1.15168241       1.63415638
C       -0.13158464      -3.13910173      -0.44397994
C        0.64879507      -0.62099447      -1.12496061
C       -1.10452340       0.44045421      -3.07722451
C       -0.86062995       3.35862655       0.63777745
C       -2.12238002      -1.16779145       2.11525392
C       -2.16003669       3.02129252       0.12551526
60
Properties=species:S:1:pos:R:3 trajectory=trial0001_proposal001_step005_proposal_relax trajectory_step=62 pbc="F F F"
C        0.52661536      -2.90527804       1.83919670
C        2.29992571      -1.44567854      -2.57125192
C        2.78710104       1.27886352      -0.12953717
C       -3.07570126       1.98557361       0.49565280
C       -2.27690329       1.59580146       2.78263621
C        3.48233388       0.10985097      -2.16329813
C        0.50161587      -1.59094945       2.40431702
C        0.29948544      -0.65712781       0.08455354
C       -0.78404379       3.32291901      -1.69078118
C       -3.58919512       1.44253966      -0.71475534
C       -0.22069396       2.77478705       1.76860402
C        1.39544086       2.93205367      -1.99747924
C       -0.56522465      -2.97460285       0.89184299
C       -2.08777947       3.02968199      -1.32618194
C        0.08487316       1.29350555      -3.11779285
C        1.96801939      -0.00856451       1.64039617
C        1.53249274       0.94331120      -3.15642772
C       -3.38226911      -0.79630556       0.19151183
C       -3.01106671      -0.25932719       1.45843335
C        2.18311451      -2.44360999       0.13038691
C       -3.20234689      -0.23163618      -2.16978940
C       -2.26708382      -2.32804173      -1.32961898
C       -1.78940144       0.65713418       3.74296008
C       -0.03971887      -0.73838758       3.37910253
C        0.51590950       0.59998053       3.44718089
C        1.42318233       1.06365236       2.44628194
C       -2.46414511      -1.38463551      -2.37968740
C        0.80113989      -0.75928838       1.31471443
C       -2.63091987      -1.98458705      -0.01818770
C        3.15511982       1.30348121      -1.49012276
C       -0.31117027      -2.06798442      -2.52628713
C        1.18598272      -2.76528107      -0.83281286
C       -0.55420588       1.42617350       3.82546904
C       -2.85526522       1.98495521      -1.83690101
C        2.85165134       0.01410382       0.52655558
C       -0.97731907      -2.83548167      -1.52737299
C       -1.45900249      -0.65585444       3.27923179
C       -1.03414251       2.33306132       2.83909808
C        1.11084476       2.21063561       1.63484665
C        1.84929211       2.33549728       0.36236791
C        1.81775278      -3.01082712       1.31648373
C       -1.77674234      -2.22708344       1.12172857
C        2.24089290       1.91831180      -2.38833793
C        3.28782839      -1.13733887      -1.54521839
C        1.01786619      -1.77942898      -1.96218751
C       -1.21052968      -1.04702024      -2.98355119
C       -0.06139917       3.64789295      -0.48750308
C        2.45544225      -0.14860489      -3.16911708
C        1.28238020       3.23525702      -0.61480971
C       -3.73768928       0.04865937      -0.88229805
C        0.09425023       2.64680309      -2.56169045
C        2.97196749      -1.23385966      -0.18601529
C       -2.42863844       0.89382874      -2.64149905
C       -2.95938558       1.14932847       1.64078970
C       -0.12706365      -3.13759658      -0.43823812
C        0.64548381      -0.62024939      -1.12664776
C       -1.11156861       0.43255027      -3.07968009
C       -0.86138366       3.35640516       0.63719370
C       -2.11544548      -1.16755206       2.12404653
C       -2.16003528       3.01580746       0.12767430
60
Properties=species:S:1:pos:R:3 trajectory=trial0001_proposal001_step005_proposal_relax trajectory_step=63 pbc="F F F"
C        0.58481295      -2.87725644       1.86036203
C        2.27136367      -1.44880566      -2.59324775
C        2.78013153       1.30469948      -0.18681728
C       -3.07566778       1.96180197       0.52553478
C       -2.24559435       1.60463249       2.80224344
C        3.45495295       0.11816787      -2.22586718
C        0.54955546      -1.55567715       2.40732916
C        0.30255091      -0.64541594       0.08335486
C       -0.82993824       3.30163462      -1.71007238
C       -3.59977380       1.40225155      -0.67342244
C       -0.21207316       2.79841528       1.75060656
C        1.34368734       2.92401236      -2.04775049
C       -0.52041499      -2.96598978       0.93015901
C       -2.12496003       2.99472210      -1.32002455
C        0.03106135       1.26293667      -3.13932359
C        1.98840420       0.03036687       1.60676983
C        1.47816855       0.92447663      -3.19663540
C       -3.36874679      -0.82257006       0.24823653
C       -2.98484677      -0.27180996       1.50709707
C        2.20425821      -2.41416488       0.11953775
C       -3.22664512      -0.27912782      -2.12457495
C       -2.25827463      -2.35397235      -1.27330874
C       -1.73716295       0.68033881       3.76399924
C        0.01992019      -0.70108103       3.38640298
C        0.56299222       0.64234614       3.43222420
C        1.45097114       1.10636737       2.41534326
C       -2.48163532      -1.42861930      -2.33280995
C        0.81741246      -0.72754907       1.30535515
C       -2.60674396      -2.00457469       0.04014207
C        3.11931299       1.31258236      -1.55601596
C       -0.32662784      -2.09103335      -2.50215767
C        1.19857107      -2.75238062      -0.82551277
C       -0.50832262       1.46061442       3.82172880
C       -2.89023960       1.94113998      -1.81102222
C        2.85660742       0.04771838       0.48209485
C       -0.96826381      -2.85179309      -1.48312837
C       -1.40156682      -0.63421959       3.30830054
C       -1.00946123       2.35347400       2.83364147
C        1.12123857       2.24487240       1.60078796
C        1.84236957       2.36414066       0.31419852
C        1.86876207      -2.97037516       1.31795787
C       -1.73586528      -2.23041847       1.17193413
C        2.18935726       1.91076392      -2.44367579
C        3.26974251      -1.12007886      -1.58570761
C        1.00275155      -1.77986765      -1.96121623
C       -1.24167365      -1.08857990      -2.96439556
C       -0.09331482       3.64895553      -0.52085940
C        2.40998965      -0.15924774      -3.20862154
C        1.25194161       3.24499477      -0.66586229
C       -3.74591290       0.00758678      -0.83097462
C        0.03607357       2.62144227      -2.58836858
C        2.98174574      -1.20491485      -0.22025636
C       -2.47029732       0.84640418      -2.61846427
C       -2.94123006       1.13793997       1.67725426
C       -0.10138390      -3.13629144      -0.40402072
C        0.63320056      -0.61661295      -1.13237640
C       -1.15881956       0.39059205      -3.08203653
C       -0.87188341       3.35413910       0.61934681
C       -2.07251267      -1.16463586       2.17080901
C       -2.17152936       2.99275673       0.13395302
60
Properties=species:S:1:pos:R:3 trajectory=trial0001_proposal001_step005_proposal_relax trajectory_step=64 pbc="F F F"
C        0.67807116      -2.82795191       1.89601467
C        2.22795232      -1.45373233      -2.63052553
C        2.76540481       1.34696262      -0.27920568
C       -3.08193004       1.92183126       0.57386355
C       -2.19546571       1.61812059       2.83226547
C        3.39975328       0.13031839      -2.32418926
C        0.63098417      -1.49865435       2.41091752
C        0.31082339      -0.62597437       0.07991474
C       -0.91579399       3.27133302      -1.74138601
C       -3.62186824       1.33459279      -0.60830320
C       -0.19946525       2.83141493       1.71705728
C        1.25511164       2.91270877      -2.13018222
C       -0.44737156      -2.95036375       0.99182068
C       -2.18248102       2.94272190      -1.31267459
C       -0.06190136       1.21298721      -3.17045265
C        2.02333578       0.09513002       1.55068958
C        1.39018997       0.89515407      -3.25772217
C       -3.34745914      -0.86494144       0.33961226
C       -2.94399839      -0.29033216       1.58779848
C        2.24275867      -2.36546973       0.10684931
C       -3.26595180      -0.36403256      -2.04976278
C       -2.24020852      -2.39675868      -1.17916111
C       -1.65067953       0.71798451       3.80440035
C        0.11632601      -0.64109343       3.39763174
C        0.64442105       0.71069815       3.40951851
C        1.49853924       1.17073951       2.36582172
C       -2.50862409      -1.49804263      -2.25453510
C        0.84808047      -0.67745150       1.29410888
C       -2.56602166      -2.03129079       0.13598375
C        3.06363808       1.32958837      -1.66457748
C       -0.35008175      -2.12977937      -2.46511257
C        1.22242602      -2.73430397      -0.80843612
C       -0.42983747       1.51848687       3.81783628
C       -2.94605632       1.86548054      -1.76942049
C        2.86999504       0.10375044       0.40957295
C       -0.95244903      -2.88131117      -1.41573656
C       -1.30761809      -0.59539537       3.35576804
C       -0.96445188       2.39025052       2.82333903
C        1.14138017       2.29798480       1.54086408
C        1.83063125       2.40442210       0.23014719
C        1.94927981      -2.90513882       1.32334976
C       -1.66841297      -2.22849074       1.25041440
C        2.10200611       1.89715377      -2.53108665
C        3.24224680      -1.09238587      -1.65432906
C        0.97998728      -1.78513131      -1.95818599
C       -1.29314412      -1.15306709      -2.93106824
C       -0.14260256       3.64806392      -0.57949874
C        2.33425886      -0.17743720      -3.28188134
C        1.19968443       3.25557983      -0.74943861
C       -3.76348309      -0.06112372      -0.74112379
C       -0.05722512       2.58135309      -2.63162528
C        2.99090202      -1.15615501      -0.27595202
C       -2.53997379       0.76989816      -2.58134457
C       -2.91510716       1.12320732       1.73791748
C       -0.05856210      -3.13739709      -0.35126945
C        0.61990060      -0.61101240      -1.14848514
C       -1.23477864       0.32438858      -3.07675944
C       -0.89000079       3.35296387       0.59165967
C       -1.99742103      -1.15696200       2.24338961
C       -2.19713813       2.95613515       0.14308262
60
Properties=species:S:1:pos:R:3 trajectory=trial0001_proposal001_step005_proposal_relax trajectory_step=65 pbc="F F F"
C        0.69934071      -2.81309829       1.90264276
C        2.21484034      -1.45794499      -2.64214942
C        2.76073569       1.35406522      -0.30425419
C       -3.08523934       1.91167335       0.58531034
C       -2.18051550       1.62177031       2.84211392
C        3.37999131       0.13084512      -2.35031738
C        0.64648979      -1.47925167       2.40759077
C        0.31356278      -0.61745686       0.07342181
C       -0.93059164       3.26646389      -1.74769435
C       -3.62432142       1.31690845      -0.59072491
C       -0.19542352       2.83488052       1.70853178
C        1.23171464       2.90617306      -2.14593190
C       -0.42761147      -2.94217254       1.00390285
C       -2.20091830       2.92572519      -1.30444706
C       -0.08494177       1.20118133      -3.17285391
C        2.02686036       0.11015257       1.53497804
C        1.36496257       0.88425975      -3.26826736
C       -3.33941889      -0.87212400       0.36385491
C       -2.93486858      -0.29291380       1.60636083
C        2.25036094      -2.35074416       0.10449874
C       -3.27390014      -0.38225167      -2.02891943
C       -2.22667589      -2.40172490      -1.15583592
C       -1.63103648       0.72994811       3.81367045
C        0.13780735      -0.62492250       3.39599806
C        0.66062687       0.72587409       3.40532671
C        1.50874974       1.18601717       2.35056178
C       -2.50597547      -1.51594663      -2.23288964
C        0.84987487      -0.66026680       1.28283626
C       -2.54819257      -2.03103410       0.15616213
C        3.04742980       1.32835712      -1.68808007
C       -0.35168490      -2.13973048      -2.45881776
C        1.22943521      -2.72804894      -0.80365988
C       -0.41112847       1.53229506       3.81635962
C       -2.95313284       1.84417405      -1.75395079
C        2.87157838       0.11548378       0.39183849
C       -0.94274854      -2.88803934      -1.40031436
C       -1.28505105      -0.58373766       3.36465200
C       -0.95624391       2.39502343       2.82256179
C        1.14532407       2.30817434       1.52619802
C        1.82581582       2.40955097       0.21029394
C        1.96708430      -2.88583365       1.32546745
C       -1.64552362      -2.22002243       1.26625303
C        2.07693609       1.88895954      -2.54740901
C        3.23094101      -1.08972395      -1.66846812
C        0.97806586      -1.78650954      -1.95822267
C       -1.29979547      -1.16925671      -2.92263015
C       -0.15916568       3.64517413      -0.58699126
C        2.31347678      -0.18477993      -3.30369085
C        1.18489715       3.25321916      -0.76978132
C       -3.76713519      -0.07943126      -0.72450757
C       -0.08447048       2.57197452      -2.63651772
C        2.98800922      -1.14269736      -0.29353120
C       -2.55437843       0.74862854      -2.56928657
C       -2.91221246       1.11964826       1.75406381
C       -0.04374787      -3.13590342      -0.33920834
C        0.61957265      -0.60513051      -1.15480794
C       -1.25160082       0.30805694      -3.07249588
C       -0.89632976       3.35012910       0.58361295
C       -1.97814661      -1.14900818       2.25664033
C       -2.20183322       2.94514365       0.14913114
60
Properties=species:S:1:pos:R:3 trajectory=trial0001_proposal001_step005_proposal_relax trajectory_step=66 pbc="F F F"
C        0.71823801      -2.80193663       1.90880351
C        2.20746844      -1.45917557      -2.65126581
C        2.75664493       1.36311427      -0.32571185
C       -3.08852484       1.90363618       0.59395486
C       -2.16755789       1.62551676       2.84964616
C        3.36416077       0.13384408      -2.36978738
C        0.66606893      -1.46609051       2.41065462
C        0.31666354      -0.61417546       0.07082022
C       -0.94928698       3.26027558      -1.75552505
C       -3.63127086       1.30277914      -0.57733065
C       -0.19113786       2.83946191       1.69880812
C        1.21260605       2.90138308      -2.16385414
C       -0.41281188      -2.93860785       1.01605157
C       -2.21547246       2.91482157      -1.30406010
C       -0.10512192       1.19209220      -3.17750115
C        2.03596186       0.12340265       1.52351182
C        1.34455492       0.87829953      -3.28113935
C       -3.33473819      -0.88142814       0.38694191
C       -2.92618264      -0.29639228       1.62464988
C        2.26056123      -2.34063265       0.10275330
C       -3.28436629      -0.40013552      -2.01024642
C       -2.22355509      -2.41187930      -1.13613151
C       -1.61126771       0.74006358       3.82274566
C        0.15925732      -0.61116401       3.39861243
C        0.67887258       0.74034355       3.40233060
C        1.52132203       1.20027419       2.33867689
C       -2.51323470      -1.53093353      -2.21443305
C        0.85974970      -0.65093837       1.27898871
C       -2.53970519      -2.03671920       0.17632914
C        3.03590141       1.33475773      -1.70876743
C       -0.35632803      -2.14856001      -2.45187886
C        1.23549854      -2.72616050      -0.79925565
C       -0.39238525       1.54601482       3.81497288
C       -2.96590374       1.82726154      -1.74553985
C        2.87585557       0.12886133       0.37534583
C       -0.94035233      -2.89665287      -1.38668785
C       -1.26381219      -0.57497205       3.37492246
C       -0.94618488       2.40244216       2.82004835
C        1.15026946       2.31739866       1.51236311
C        1.82154661       2.41532034       0.19110554
C        1.98471880      -2.87241503       1.32808655
C       -1.62982306      -2.21814328       1.28195959
C        2.05724753       1.88799254      -2.56599577
C        3.22755183      -1.08392537      -1.68306917
C        0.97587676      -1.78991081      -1.95776365
C       -1.31090742      -1.18246433      -2.91274142
C       -0.17248415       3.64337243      -0.59888539
C        2.29792680      -0.18849401      -3.32121412
C        1.17237289       3.25393951      -0.78899928
C       -3.77059100      -0.09497118      -0.70528341
C       -0.10722347       2.56328453      -2.64680144
C        2.98950931      -1.13050503      -0.30624132
C       -2.57125311       0.73090519      -2.55980695
C       -2.90714070       1.11715492       1.76669994
C       -0.03423920      -3.13705899      -0.32848149
C        0.61844623      -0.60466112      -1.15650652
C       -1.26892446       0.29483176      -3.06612473
C       -0.90218489       3.35178706       0.57495442
C       -1.96114021      -1.14498584       2.27047205
C       -2.20921557       2.93968111       0.14999844
60
Properties=species:S:1:pos:R:3 trajectory=trial0001_proposal001_step005_proposal_relax trajectory_step=67 pbc="F F F"
C        0.72334920      -2.79220272       1.90724043
C        2.20730942      -1.46253464      -2.65913644
C        2.75256312       1.36501169      -0.33457968
C       -3.09330991       1.90142631       0.59715129
C       -2.16123357       1.62836734       2.85187247
C        3.34779947       0.13470356      -2.37493850
C        0.67578703      -1.45594389       2.40841958
C        0.32074245      -0.61251941       0.06448173
C       -0.96096710       3.25880020      -1.75689736
C       -3.63535339       1.29683107      -0.57177617
C       -0.18976739       2.83433790       1.69105122
C        1.20028582       2.89454170      -2.16715868
C       -0.40516089      -2.93343873       1.01684308
C       -2.22234625       2.91056162      -1.30343907
C       -0.11658116       1.18871235      -3.17212578
C        2.03921593       0.12751538       1.51805568
C        1.33333292       0.87442917      -3.28334181
C       -3.33210344      -0.88439955       0.39849726
C       -2.92346849      -0.29428104       1.63374555
C        2.26561169      -2.33479028       0.10378969
C       -3.28863773      -0.40894097      -1.99907174
C       -2.21713677      -2.41442834      -1.12781429
C       -1.60180235       0.74696542       3.82754334
C        0.16753606      -0.60264442       3.39732223
C        0.68698101       0.74665486       3.40195548
C        1.52813647       1.20328864       2.33403824
C       -2.51232631      -1.53533824      -2.20332352
C        0.86555936      -0.64673781       1.27404125
C       -2.53080914      -2.03424668       0.18323248
C        3.02852302       1.33646095      -1.71582801
C       -0.35352366      -2.15328171      -2.44979479
C        1.24149161      -2.72724111      -0.79679309
C       -0.38297070       1.55366991       3.81444567
C       -2.96992326       1.81809841      -1.74006542
C        2.87884390       0.13480651       0.36705253
C       -0.93545558      -2.90270460      -1.38435397
C       -1.25424941      -0.56716652       3.37750573
C       -0.93968738       2.40378237       2.81588357
C        1.15129387       2.31508858       1.50420806
C        1.81471772       2.40905329       0.18118916
C        1.99116402      -2.86470587       1.33190849
C       -1.61821145      -2.20897083       1.28341579
C        2.04580297       1.88574743      -2.57149418
C        3.22475649      -1.08233999      -1.68922005
C        0.98045521      -1.79486386      -1.95803853
C       -1.31208243      -1.18588520      -2.90223141
C       -0.18134404       3.63848673      -0.60231005
C        2.28945878      -0.19105337      -3.33270048
C        1.16108129       3.24678813      -0.79568042
C       -3.77101866      -0.10199466      -0.69487754
C       -0.11952834       2.55972419      -2.64888452
C        2.98636761      -1.12395529      -0.31306307
C       -2.57909356       0.72178825      -2.55203070
C       -2.90751449       1.12028754       1.77290803
C       -0.02707939      -3.13820255      -0.32763769
C        0.62497062      -0.60527534      -1.16107241
C       -1.27551325       0.29032569      -3.05334250
C       -0.90778434       3.35159892       0.57150022
C       -1.95025800      -1.13649554       2.27167085
C       -2.21637140       2.93895352       0.15023060
60
Properties=species:S:1:pos:R:3 trajectory=trial0001_proposal001_step005_proposal_relax trajectory_step=68 pbc="F F F"
C        0.78482703      -2.75550685       1.92720339
C        2.18678948      -1.46968029      -2.68963156
C        2.73891452       1.39565521      -0.39824113
C       -3.10141718       1.87928958       0.62571242
C       -2.12163872       1.64211127       2.87413526
C        3.30373109       0.14786594      -2.43716177
C        0.73646424      -1.41528672       2.41704523
C        0.33350837      -0.60417177       0.06162363
C       -1.02043429       3.23630034      -1.78409194
C       -3.65859432       1.25303883      -0.52614826
C       -0.18195924       2.85047300       1.65812780
C        1.13357184       2.88172373      -2.22478370
C       -0.35568357      -2.92337265       1.05471676
C       -2.27492502       2.87391547      -1.30299582
C       -0.18644833       1.15833196      -3.18759882
C        2.07504045       0.16818315       1.48278449
C        1.26817322       0.85563854      -3.32433842
C       -3.31966377      -0.91404189       0.46762330
C       -2.89638068      -0.30241745       1.69007481
C        2.29677712      -2.30589210       0.09640537
C       -3.32421372      -0.46564685      -1.94110407
C       -2.21008812      -2.44909622      -1.06351100
C       -1.53612747       0.77929317       3.85286274
C        0.23896498      -0.55764437       3.40614417
C        0.75106620       0.79690052       3.38966662
C        1.56865160       1.24791601       2.30114521
C       -2.53454664      -1.58535201      -2.14532585
C        0.90088435      -0.61863126       1.26240022
C       -2.50413300      -2.05439679       0.24928809
C        2.98909790       1.35435527      -1.78946500
C       -0.36925672      -2.18436508      -2.42359122
C        1.26410123      -2.72245613      -0.78642450
C       -0.32335848       1.59906445       3.80927967
C       -3.01650298       1.76872453      -1.71241511
C        2.89173322       0.17457237       0.31905751
C       -0.92820640      -2.92910719      -1.34002083
C       -1.18567435      -0.53825515       3.40979847
C       -0.90521345       2.42483796       2.80443113
C        1.16416326       2.34392296       1.45708965
C        1.79759388       2.43041454       0.11951714
C        2.04932200      -2.82198744       1.33788586
C       -1.56866638      -2.20218062       1.33343498
C        1.98670155       1.88193439      -2.63741422
C        3.21468583      -1.06220600      -1.73690745
C        0.97401244      -1.80631643      -1.95829604
C       -1.34763336      -1.22740178      -2.86533562
C       -0.22510701       3.63381018      -0.64454439
C        2.23681773      -0.20065980      -3.38012732
C        1.11827021       3.24999631      -0.85515265
C       -3.78229842      -0.14827816      -0.62763217
C       -0.19014379       2.53644061      -2.68193608
C        2.99763193      -1.09001695      -0.35318878
C       -2.63246075       0.66748723      -2.51838942
C       -2.88894531       1.11575919       1.81232043
C        0.00237487      -3.14157670      -0.29263357
C        0.62379111      -0.60838532      -1.16785156
C       -1.33111593       0.24735078      -3.03330233
C       -0.92773356       3.35152648       0.54863246
C       -1.89458137      -1.12383521       2.31853309
C       -2.24398568       2.92155590       0.15079858
60
Properties=species:S:1:pos:R:3 trajectory=trial0001_proposal001_step005_proposal_relax trajectory_step=69 pbc="F F F"
C        0.79800535      -2.74432181       1.92526568
C        2.18535133      -1.47442598      -2.69649215
C        2.73361783       1.40004563      -0.41097139
C       -3.10138730       1.87865223       0.63409887
C       -2.11445217       1.64805218       2.87359152
C        3.29616053       0.14881340      -2.44750351
C        0.74807650      -1.40414097       2.41335194
C        0.33742617      -0.60401815       0.06145900
C       -1.03751399       3.22736201      -1.78491143
C       -3.65982519       1.24726115      -0.51316482
C       -0.18256826       2.84918505       1.65075839
C        1.12000059       2.87471649      -2.23109578
C       -0.34368479      -2.91721372       1.05667175
C       -2.28284731       2.86831407      -1.30235478
C       -0.19748122       1.14899378      -3.18682519
C        2.08067150       0.17422242       1.47580137
C        1.25432191       0.85023254      -3.33309280
C       -3.31500776      -0.91816380       0.48182340
C       -2.88834905      -0.30134346       1.70029489
C        2.30206242      -2.29990168       0.09115966
C       -3.32846584      -0.47615457      -1.92682760
C       -2.20764545      -2.45696572      -1.05174637
C       -1.52473593       0.78856416       3.85267098
C        0.25368683      -0.54585570       3.40486252
C        0.76055628       0.80780668       3.38457812
C        1.57592744       1.25527862       2.29449700
C       -2.53738658      -1.59304205      -2.13143372
C        0.90709415      -0.61064999       1.25719247
C       -2.49780905      -2.05736039       0.26033987
C        2.97523362       1.35758862      -1.79902396
C       -0.36924015      -2.18662904      -2.41518723
C        1.26969158      -2.72136369      -0.78897375
C       -0.31250907       1.60909800       3.80514362
C       -3.03060243       1.76093033      -1.70610472
C        2.89167482       0.17967003       0.30632155
C       -0.92285753      -2.93307209      -1.33109865
C       -1.17011423      -0.52795691       3.41230853
C       -0.89971215       2.42641025       2.79817321
C        1.15977616       2.34274872       1.44936559
C        1.78761925       2.42967040       0.11172855
C        2.06156094      -2.80979646       1.33568229
C       -1.55644017      -2.19851973       1.34009245
C        1.97013545       1.88284656      -2.64944611
C        3.21099486      -1.05682269      -1.74563793
C        0.97584229      -1.80956787      -1.96117771
C       -1.35064809      -1.23302251      -2.85069111
C       -0.23778032       3.63042803      -0.64909253
C        2.22648368      -0.20346636      -3.38127021
C        1.10356520       3.24359701      -0.86109035
C       -3.78022476      -0.15342749      -0.61206827
C       -0.20500031       2.52706922      -2.68605975
C        3.00195861      -1.08689639      -0.36040518
C       -2.64220208       0.65795566      -2.50778304
C       -2.88303976       1.11743654       1.81780266
C        0.01110676      -3.14184300      -0.29001037
C        0.62797051      -0.61449623      -1.17342072
C       -1.34028049       0.23769795      -3.02298499
C       -0.93498351       3.34778956       0.54350527
C       -1.88206611      -1.11802609       2.32572860
C       -2.24918776       2.92025201       0.15185439
60
Properties=species:S:1:pos:R:3 trajectory=trial0001_proposal001_step005_proposal_relax trajectory_step=70 pbc="F F F"
C        0.81996708      -2.72964961       1.92638084
C        2.18045765      -1.48004470      -2.70590682
C        2.72591922       1.40678400      -0.42974921
C       -3.10164327       1.87461376       0.64593796
C       -2.10471160       1.65439321       2.87583362
C        3.28559445       0.15444511      -2.46578455
C        0.76503245      -1.38820685       2.40966077
C        0.34215576      -0.60258608       0.05623427
C       -1.05803658       3.21543719      -1.78943895
C       -3.66353081       1.23693550      -0.49496825
C       -0.18398631       2.85093150       1.64101463
C        1.09532773       2.87099337      -2.24245020
C       -0.32465192      -2.90979674       1.06535107
C       -2.29956218       2.85691682      -1.29970788
C       -0.21788973       1.13596697      -3.19015065
C        2.09014711       0.18513600       1.46546730
C        1.23361427       0.84175435      -3.34576775
C       -3.30811873      -0.92520543       0.50226753
C       -2.87649259      -0.30148793       1.71631328
C        2.31130737      -2.29113015       0.08311354
C       -3.33564443      -0.49203283      -1.90640864
C       -2.20393741      -2.46796857      -1.03224426
C       -1.50519160       0.80044225       3.85489710
C        0.27613691      -0.52924391       3.40413393
C        0.77773140       0.82443107       3.37760274
C        1.58704365       1.26858429       2.28329520
C       -2.54178672      -1.60719096      -2.11149649
C        0.91647716      -0.59925768       1.25355325
C       -2.48802144      -2.06253004       0.28007952
C        2.95622400       1.36045388      -1.82075206
C       -0.37212124      -2.19295491      -2.40330983
C        1.27697498      -2.71926223      -0.79045593
C       -0.29588218       1.62325138       3.80033095
C       -3.04891343       1.74874726      -1.69509348
C        2.89364579       0.18876098       0.28852810
C       -0.91734686      -2.93811289      -1.31584247
C       -1.14721393      -0.51480874       3.41802461
C       -0.89093033       2.43184226       2.79103943
C        1.15676065       2.34766248       1.43627310
C        1.77737108       2.43375536       0.09694911
C        2.08031275      -2.79244318       1.33246685
C       -1.53915853      -2.19478105       1.35353618
C        1.95096620       1.87850014      -2.66945747
C        3.20671127      -1.05229305      -1.75862326
C        0.97586706      -1.81393051      -1.96316414
C       -1.35864182      -1.24456924      -2.83388904
C       -0.25438693       3.62655257      -0.65953181
C        2.20908633      -0.20737061      -3.38696781
C        1.08427171       3.24021966      -0.87559693
C       -3.77955149      -0.16455800      -0.58987138
C       -0.22757525       2.51592862      -2.69289653
C        3.00853531      -1.08074537      -0.37364893
C       -2.65704049       0.64219769      -2.49349716
C       -2.87438173       1.11786038       1.82849889
C        0.02387758      -3.14094810      -0.28219757
C        0.62956800      -0.61946034      -1.17546301
C       -1.35562015       0.22353219      -3.01392626
C       -0.94349987       3.34295448       0.53727168
C       -1.86415629      -1.11217248       2.33863120
C       -2.25693520       2.91498232       0.15375018
60
Properties=species:S:1:pos:R:3 trajectory=trial0001_proposal001_step005_proposal_relax trajectory_step=71 pbc="F F F"
C        0.87083276      -2.69992270       1.93675998
C        2.16460552      -1.48698670      -2.72560240
C        2.71078773       1.42507680      -0.47715005
C       -3.10513402       1.85970717       0.67096572
C       -2.07783732       1.66546870       2.88829435
C        3.25714341       0.16366741      -2.51165542
C        0.80706405      -1.35476513       2.40826128
C        0.35306013      -0.59639081       0.05321723
C       -1.10434026       3.19328425      -1.80467036
C       -3.67660017       1.20701131      -0.45697374
C       -0.18314813       2.86101090       1.61808059
C        1.04438286       2.86077471      -2.28150845
C       -0.28250702      -2.89696224       1.09206811
C       -2.33919350       2.83002454      -1.29455849
C       -0.26724207       1.10868729      -3.20207066
C        2.11357648       0.21477099       1.43794186
C        1.18578079       0.82401310      -3.37508225
C       -3.29394324      -0.94382190       0.55165979
C       -2.85061772      -0.30596643       1.75604732
C        2.33422168      -2.27015418       0.06977822
C       -3.35551019      -0.53148658      -1.86017546
C       -2.19646406      -2.49247219      -0.98355158
C       -1.45724206       0.82598815       3.86705196
C        0.32851093      -0.49397027       3.40598956
C        0.82196460       0.86234085       3.36390720
C        1.61337591       1.30207539       2.25600215
C       -2.55403336      -1.64372216      -2.06573307
C        0.93745433      -0.57368279       1.24416025
C       -2.46609425      -2.07676226       0.32909885
C        2.92094999       1.36919493      -1.87375255
C       -0.38304025      -2.21150460      -2.37899177
C        1.29299602      -2.71384820      -0.78736276
C       -0.25499635       1.65613163       3.79192914
C       -3.08611926       1.71478108      -1.67032213
C        2.90095408       0.21456221       0.24934765
C       -0.90713711      -2.95213992      -1.27982030
C       -1.09495203      -0.48916820       3.43588260
C       -0.86954516       2.44822634       2.78121485
C        1.15894360       2.36815947       1.40289510
C        1.76156598       2.44903055       0.05498963
C        2.12399809      -2.75569813       1.32797225
C       -1.50072745      -2.18968175       1.38999571
C        1.90222307       1.87436265      -2.71497739
C        3.19745685      -1.03998050      -1.79352643
C        0.97094309      -1.82252622      -1.96426911
C       -1.38317803      -1.27533864      -2.80374007
C       -0.28996683       3.62015257      -0.68814859
C        2.16970457      -0.21720088      -3.41259436
C        1.04724571       3.23999336      -0.91570820
C       -3.78404041      -0.19603572      -0.54001371
C       -0.28076937       2.49317482      -2.71205849
C        3.01930699      -1.05964487      -0.40560084
C       -2.69436336       0.60310928      -2.46506521
C       -2.85694149       1.11424242       1.85666085
C        0.04974831      -3.14034121      -0.25770993
C        0.62887340      -0.62466274      -1.18132116
C       -1.39516099       0.19029485      -2.99922212
C       -0.95919704       3.33787212       0.52122416
C       -1.82209839      -1.10228405       2.37216561
C       -2.27500619       2.90015706       0.15755330
60
Properties=species:S:1:pos:R:3 trajectory=trial0001_proposal001_step005_proposal_relax trajectory_step=72 pbc="F F F"
C        0.97031587      -2.64146118       1.95528801
C        2.13307841      -1.49953853      -2.75947911
C        2.67739324       1.45697541      -0.57062649
C       -3.11429528       1.82989074       0.71822445
C       -2.02455431       1.68700522       2.91388694
C        3.19874761       0.17570634      -2.59701716
C        0.88811518      -1.29119711       2.40597099
C        0.37797277      -0.58460537       0.04582410
C       -1.19709858       3.14975089      -1.83192269
C       -3.70497067       1.14960574      -0.38425340
C       -0.18268260       2.87872226       1.57221854
C        0.94219146       2.84403348      -2.35446952
C       -0.20130826      -2.87059358       1.14121545
C       -2.41680297       2.78132149      -1.28312922
C       -0.36187828       1.05658586      -3.22268532
C        2.15928981       0.27205421       1.38172702
C        1.09441006       0.79022016      -3.42551644
C       -3.26249880      -0.97780319       0.64733388
C       -2.79799471      -0.31366153       1.82956157
C        2.38108093      -2.23143050       0.04145010
C       -3.38941468      -0.60791866      -1.76860732
C       -2.17813544      -2.53893489      -0.88831858
C       -1.36518363       0.87533843       3.88795516
C        0.42782395      -0.42718393       3.40608075
C        0.90614645       0.93533249       3.33620139
C        1.66125796       1.36706231       2.19999171
C       -2.57750156      -1.71062821      -1.97451718
C        0.97905342      -0.52344346       1.22527272
C       -2.42291184      -2.10264441       0.42345382
C        2.85263372       1.38806694      -1.97117897
C       -0.40307898      -2.24565756      -2.33108484
C        1.32548135      -2.70527568      -0.78130475
C       -0.17591298       1.72024215       3.77168125
C       -3.15635867       1.64861467      -1.62117787
C        2.91503875       0.26251328       0.17521338
C       -0.88800863      -2.97725940      -1.20864317
C       -0.99469800      -0.43954420       3.46591927
C       -0.83157779       2.48170244       2.76456562
C        1.16332634       2.40761144       1.33663705
C        1.72838982       2.47706150      -0.02864480
C        2.20726385      -2.68539149       1.31304314
C       -1.42480658      -2.17950343       1.45914143
C        1.81047485       1.86042423      -2.79834177
C        3.18282438      -1.01646705      -1.86284872
C        0.96224519      -1.84091128      -1.96523154
C       -1.43009281      -1.33362511      -2.74566107
C       -0.36078540       3.60380947      -0.74217273
C        2.09651872      -0.23615361      -3.46204569
C        0.97744281       3.23806000      -0.99442447
C       -3.79280291      -0.25519348      -0.44325969
C       -0.38398503       2.44675055      -2.74732686
C        3.03784200      -1.01865564      -0.46888995
C       -2.76534806       0.53020276      -2.40796574
C       -2.82337657       1.10714321       1.90977176
C        0.09932984      -3.13788147      -0.20887650
C        0.62823218      -0.63444796      -1.19021850
C       -1.47191652       0.12701069      -2.96817260
C       -0.99233453       3.32838782       0.48917412
C       -1.73932677      -1.08192077       2.43305538
C       -2.31175531       2.87195175       0.16633225
60
Properties=species:S:1:pos:R:3 trajectory=trial0001_proposal001_step005_proposal_relax trajectory_step=73 pbc="F F F"
C        1.03399679      -2.60419091       1.96161622
C        2.11359945      -1.50530235      -2.77669706
C        2.65045855       1.47091507      -0.62496001
C       -3.12098185       1.81119584       0.74754141
C       -1.99592556       1.69971526       2.92739517
C        3.16145443       0.18483572      -2.64512242
C        0.93779988      -1.25206008       2.40049678
C        0.39602577      -0.57700009       0.04082252
C       -1.25438597       3.12006052      -1.84516917
C       -3.72383725       1.11712349      -0.33981065
C       -0.18646404       2.88772782       1.54522681
C        0.88273524       2.82819264      -2.39999877
C       -0.14961832      -2.85095567       1.17025034
C       -2.46812496       2.75267818      -1.27213749
C       -0.41777405       1.02329139      -3.23145746
C        2.18394213       0.30768238       1.34568132
C        1.04050076       0.76711255      -3.44844048
C       -3.23746495      -0.99497739       0.70335022
C       -2.76018199      -0.31632046       1.87079365
C        2.41253969      -2.20870486       0.01703954
C       -3.40526905      -0.64900043      -1.70766602
C       -2.16452987      -2.56302849      -0.82883838
C       -1.30905181       0.90464572       3.89680225
C        0.48530216      -0.38595970       3.40148026
C        0.95440846       0.97926462       3.31396739
C        1.68559930       1.40624913       2.16041018
C       -2.58622556      -1.75022287      -1.91547920
C        1.00404286      -0.49177921       1.21427074
C       -2.39293113      -2.11690530       0.48126792
C        2.81199599       1.39299998      -2.02744802
C       -0.41434673      -2.26340391      -2.29930888
C        1.34505835      -2.70225257      -0.77918557
C       -0.13041979       1.75864545       3.75482184
C       -3.19706401       1.61059377      -1.58731811
C        2.92276041       0.28971891       0.12664506
C       -0.87268818      -2.98825626      -1.16343622
C       -0.93443302      -0.40852563       3.47746837
C       -0.81077167       2.50718646       2.75288668
C        1.16234492       2.43176814       1.29479694
C        1.70550156       2.49024302      -0.08057462
C        2.25618528      -2.64213924       1.29551571
C       -1.37728982      -2.17268503       1.49919514
C        1.74846377       1.85355987      -2.83985600
C        3.17520579      -1.00772104      -1.90279638
C        0.95679945      -1.85260136      -1.96251723
C       -1.45732085      -1.36752451      -2.70993161
C       -0.40467774       3.58847483      -0.77316435
C        2.05338023      -0.25081252      -3.49013472
C        0.93107536       3.23693744      -1.04023700
C       -3.79562523      -0.29084686      -0.38336652
C       -0.44934054       2.41510237      -2.76359176
C        3.04763672      -0.99462726      -0.50962690
C       -2.80487610       0.48716909      -2.37015661
C       -2.80100707       1.10351258       1.94129721
C        0.13156815      -3.13326341      -0.18058813
C        0.62852398      -0.64110483      -1.19654533
C       -1.51694116       0.08989131      -2.94768838
C       -1.01447119       3.32056171       0.47172183
C       -1.68707717      -1.06867101       2.46442562
C       -2.33726498       2.85401346       0.17424126
60
Properties=species:S:1:pos:R:3 trajectory=trial0001_proposal001_step005_proposal_relax trajectory_step=74 pbc="F F F"
C        1.07340926      -2.58164257       1.96408908
C        2.10054186      -1.50788045      -2.78634843
C        2.63402518       1.47946438      -0.65955802
C       -3.12670780       1.79828370       0.76554450
C       -1.97668481       1.70869977       2.93742879
C        3.13714030       0.18678338      -2.67491934
C        0.97171757      -1.22786485       2.39788237
C        0.40753513      -0.57153567       0.04052896
C       -1.29148943       3.10126799      -1.85154495
C       -3.73772009       1.09632711      -0.31181277
C       -0.18714186       2.89498003       1.52832061
C        0.84357775       2.82011830      -2.42616745
C       -0.11771145      -2.83982154       1.18914651
C       -2.49806208       2.73675477      -1.26549459
C       -0.45305042       1.00270215      -3.23425664
C        2.19789136       0.33094381       1.32309520
C        1.00639405       0.75223039      -3.45957641
C       -3.22026625      -1.00611099       0.73926081
C       -2.73569522      -0.31771840       1.89574645
C        2.43261708      -2.19452133       0.00181461
C       -3.41422287      -0.67493334      -1.66906167
C       -2.15497921      -2.57651520      -0.79108892
C       -1.27430562       0.92266880       3.90189941
C        0.52133012      -0.36049146       3.39772263
C        0.98220415       1.00670143       3.29823736
C        1.70020615       1.43086842       2.13285020
C       -2.59180180      -1.77228562      -1.87848584
C        1.02201653      -0.47446251       1.20725187
C       -2.37325730      -2.12558844       0.51740015
C        2.78706441       1.39756484      -2.05962285
C       -0.42132950      -2.27479873      -2.27998858
C        1.35723458      -2.70168188      -0.77714437
C       -0.10277549       1.78274275       3.74299667
C       -3.22193448       1.58445383      -1.56688028
C        2.92688274       0.30790369       0.09536063
C       -0.86339655      -2.99488676      -1.13559844
C       -0.89681835      -0.39044713       3.48500241
C       -0.79864134       2.52344398       2.74668649
C        1.16196126       2.44780409       1.26709415
C        1.69020067       2.49708812      -0.11414855
C        2.28602572      -2.61718529       1.28424251
C       -1.34712678      -2.16870022       1.52466813
C        1.71254502       1.84531480      -2.86448260
C        3.17025009      -1.00110807      -1.92878180
C        0.95383180      -1.85874329      -1.95999907
C       -1.47391235      -1.38912132      -2.68806736
C       -0.43318060       3.57739608      -0.79069333
C        2.02637280      -0.25918410      -3.51013672
C        0.90362785       3.23660685      -1.07251001
C       -3.79730404      -0.31278115      -0.34570405
C       -0.48969012       2.39507900      -2.77478042
C        3.05262013      -0.97889347      -0.53475326
C       -2.82844874       0.46065379      -2.34550161
C       -2.78778004       1.10117746       1.96002321
C        0.15168337      -3.12982717      -0.16295533
C        0.62803849      -0.64385217      -1.20154964
C       -1.54460598       0.06711269      -2.93506439
C       -1.02997234       3.31645908       0.45921244
C       -1.65388444      -1.06061127       2.48175430
C       -2.35452420       2.84382450       0.17959637
60
Properties=species:S:1:pos:R:3 trajectory=trial0001_proposal001_step005_proposal_relax trajectory_step=75 pbc="F F F"
C        1.13327381      -2.54714446       1.96803595
C        2.07959893      -1.51150556      -2.80244840
C        2.61094506       1.49528798      -0.71358236
C       -3.13600344       1.77921653       0.79337295
C       -1.94704102       1.72355247       2.95217889
C        3.10006187       0.18842630      -2.72298339
C        1.02742689      -1.19193011       2.39472571
C        0.42478821      -0.56364377       0.03568039
C       -1.34908969       3.07176967      -1.86043149
C       -3.75968218       1.06356370      -0.26772433
C       -0.18838351       2.90936791       1.50223565
C        0.78462430       2.80444587      -2.46855230
C       -0.06912921      -2.82504066       1.21741947
C       -2.54409301       2.70971613      -1.25583341
C       -0.50742942       0.97121276      -3.23590320
C        2.22042622       0.36719014       1.28673284
C        0.95184034       0.72873363      -3.47488782
C       -3.19427500      -1.02385096       0.79513726
C       -2.69805790      -0.31932946       1.93379648
C        2.46188201      -2.17274359      -0.01970300
C       -3.42793074      -0.71605906      -1.61058609
C       -2.13852832      -2.59646638      -0.73401756
C       -1.22127048       0.94975949       3.90925367
C        0.57847670      -0.32068855       3.39141609
C        1.02313510       1.05047605       3.27088694
C        1.72199307       1.46992484       2.09017951
C       -2.60051843      -1.80477930      -1.82127026
C        1.05400605      -0.45091827       1.19683191
C       -2.34226020      -2.13864203       0.57310272
C        2.74873199       1.40360715      -2.10899599
C       -0.43027282      -2.29327179      -2.25074845
C        1.37700116      -2.69964561      -0.77436760
C       -0.05986435       1.81992789       3.72444832
C       -3.26025705       1.54484102      -1.53486506
C        2.93102745       0.33608819       0.04851461
C       -0.84959365      -3.00556098      -1.09233255
C       -0.83819215      -0.36372674       3.49807188
C       -0.77917886       2.54781347       2.73568127
C        1.16096810       2.47258834       1.22237793
C        1.66441327       2.50843108      -0.16775206
C        2.33283568      -2.58102000       1.26752920
C       -1.29907985      -2.16309648       1.56483273
C        1.65547288       1.83342887      -2.90236114
C        3.16032280      -0.98888107      -1.96898460
C        0.94864501      -1.86713521      -1.95669947
C       -1.49842696      -1.42262397      -2.65381032
C       -0.47730098       3.56008353      -0.81786827
C        1.98358164      -0.27258268      -3.54133429
C        0.86115142       3.23653715      -1.12101160
C       -3.79938368      -0.34668316      -0.28589645
C       -0.55188932       2.36602681      -2.79303058
C        3.06036762      -0.95449068      -0.57307175
C       -2.86360761       0.41904627      -2.30621041
C       -2.76673431       1.09885803       1.98947907
C        0.18177708      -3.12438613      -0.13526053
C        0.62537527      -0.64551396      -1.20359663
C       -1.58766273       0.03040487      -2.91544828
C       -1.05477037       3.30936928       0.44089151
C       -1.60137039      -1.04706112       2.50929337
C       -2.38234838       2.82895204       0.18764269
60
Properties=species:S:1:pos:R:3 trajectory=trial0001_proposal001_step005_proposal_relax trajectory_step=76 pbc="F F F"
C        1.17721177      -2.52321562       1.97101039
C        2.06315505      -1.51428971      -2.81527482
C        2.59607793       1.50878610      -0.75296457
C       -3.14249434       1.76639861       0.81449399
C       -1.92514055       1.73477025       2.96204372
C        3.07348621       0.19220010      -2.76041583
C        1.07082408      -1.16611218       2.39338103
C        0.43645112      -0.55736123       0.03844560
C       -1.38934716       3.04908916      -1.86744997
C       -3.77461902       1.03970918      -0.23451593
C       -0.18948627       2.92252306       1.48385762
C        0.74009788       2.79425210      -2.49835049
C       -0.03331484      -2.81581784       1.23860901
C       -2.57772805       2.68720575      -1.24800058
C       -0.54717315       0.94741924      -3.23625291
C        2.23681752       0.39424185       1.25973521
C        0.91052818       0.71059921      -3.48627058
C       -3.17541756      -1.03755087       0.83747227
C       -2.66976160      -0.32056770       1.96265400
C        2.48229003      -2.15598756      -0.03482027
C       -3.43886174      -0.74551878      -1.56725146
C       -2.12637086      -2.61055367      -0.69290887
C       -1.18273343       0.96982566       3.91423776
C        0.62198813      -0.29083975       3.38621008
C        1.05187658       1.08270824       3.24838924
C        1.73758652       1.50037085       2.05762387
C       -2.60621092      -1.82952637      -1.77964798
C        1.07894454      -0.43620546       1.18738914
C       -2.31916474      -2.14849412       0.61429495
C        2.71920887       1.40704840      -2.14820507
C       -0.43637419      -2.30724235      -2.22998540
C        1.39054345      -2.69634530      -0.77271581
C       -0.02975841       1.84738642       3.71075987
C       -3.28906471       1.51538981      -1.51105193
C        2.93315500       0.35792443       0.01313038
C       -0.83937850      -3.01353541      -1.06097349
C       -0.79376006      -0.34453368       3.50926486
C       -0.76454934       2.56564261       2.72623249
C        1.15920420       2.49103982       1.18923870
C        1.64502030       2.51789422      -0.20697216
C        2.36822511      -2.55630643       1.25687080
C       -1.26375582      -2.15995226       1.59497151
C        1.61520221       1.82214995      -2.93124800
C        3.15093452      -0.98000138      -1.99727072
C        0.94393069      -1.87113801      -1.95396797
C       -1.51561179      -1.44768978      -2.62861403
C       -0.50949540       3.54761688      -0.83790498
C        1.95048242      -0.28269281      -3.56407047
C        0.82853275       3.23673946      -1.15675371
C       -3.79961885      -0.37236724      -0.24230549
C       -0.59796460       2.34525123      -2.80693408
C        3.06625135      -0.93633143      -0.60070631
C       -2.88906979       0.38746950      -2.27681179
C       -2.75061714       1.09748419       2.01083344
C        0.20436230      -3.12035895      -0.11563303
C        0.62198438      -0.64647210      -1.20789156
C       -1.61907951       0.00245683      -2.90102436
C       -1.07280154       3.30449567       0.42786731
C       -1.56249311      -1.03688995       2.53072563
C       -2.40263217       2.81803497       0.19360140
60
Properties=species:S:1:pos:R:3 trajectory=trial0001_proposal001_step005_proposal_relax trajectory_step=77 pbc="F F F"
C        1.20595454      -2.51049171       1.96763421
C        2.05021839      -1.51473839      -2.82025375
C        2.58605309       1.51719328      -0.77625247
C       -3.14781338       1.76107842       0.82978839
C       -1.91197383       1.74380272       2.96468548
C        3.05755545       0.19070014      -2.78424352
C        1.10531677      -1.15252780       2.39017603
C        0.44404275      -0.55398336       0.04223948
C       -1.41408616       3.02910145      -1.86613401
C       -3.78352846       1.02605168      -0.21068980
C       -0.19440637       2.93686601       1.47310467
C        0.71071814       2.78562460      -2.51366197
C       -0.00850043      -2.81158829       1.24983045
C       -2.59814159       2.67043095      -1.23849477
C       -0.57034539       0.92930752      -3.22796916
C        2.24496152       0.41303348       1.23858421
C        0.88350353       0.69450829      -3.48320869
C       -3.15835126      -1.04378567       0.86324942
C       -2.64542018      -0.31787727       1.97744893
C        2.49293943      -2.14649509      -0.04712314
C       -3.43933184      -0.76055373      -1.53699859
C       -2.11398491      -2.61322550      -0.66714836
C       -1.16095298       0.98240398       3.91041873
C        0.65000880      -0.27103620       3.37560298
C        1.06203565       1.10409564       3.22106629
C        1.74000873       1.52122758       2.02995840
C       -2.60314818      -1.84116974      -1.75227246
C        1.10155055      -0.43411808       1.18077273
C       -2.29982617      -2.15320260       0.63958798
C        2.69811406       1.40418731      -2.17115075
C       -0.43722322      -2.31423109      -2.21589754
C        1.39866035      -2.69122356      -0.77400727
C       -0.01809494       1.86438214       3.69556767
C       -3.30681193       1.49707081      -1.49213267
C        2.92921710       0.37165041      -0.01131840
C       -0.82875496      -3.01397648      -1.04228688
C       -0.76453113      -0.33314773       3.51262760
C       -0.75913856       2.57870350       2.71791433
C        1.15108429       2.50325382       1.16432272
C        1.62700434       2.52235432      -0.23243526
C        2.39069128      -2.54664733       1.24394371
C       -1.23956679      -2.15907525       1.61286420
C        1.58746833       1.80915360      -2.94205536
C        3.13981537      -0.97401538      -2.01508390
C        0.93971639      -1.86914926      -1.95046265
C       -1.52219520      -1.46254775      -2.61128723
C       -0.53274297       3.53453668      -0.84700012
C        1.92793818      -0.29127321      -3.57467271
C        0.80411978       3.23536361      -1.17710525
C       -3.79436190      -0.38590468      -0.21216998
C       -0.62651144       2.33080124      -2.81212334
C        3.06815834      -0.92594268      -0.61811725
C       -2.89935103       0.36864619      -2.25270220
C       -2.73791197       1.09852380       2.02108347
C        0.22002248      -3.11476606      -0.10555527
C        0.61552277      -0.64367090      -1.20632269
C       -1.63555508      -0.01621244      -2.88931565
C       -1.08715748       3.29964642       0.42260821
C       -1.53404940      -1.02885457       2.54085462
C       -2.41810724       2.81195792       0.19989799
60
Properties=species:S:1:pos:R:3 trajectory=trial0001_proposal001_step005_proposal_relax trajectory_step=78 pbc="F F F"
C        1.28521670      -2.46969952       1.97761388
C        2.01974419      -1.52161403      -2.84620759
C        2.56277845       1.54700094      -0.85003946
C       -3.15842822       1.73923062       0.86982939
C       -1.87074234       1.76296930       2.98045441
C        3.00948640       0.19958256      -2.85637393
C        1.18520219      -1.10693321       2.38780108
C        0.46132521      -0.54489325       0.04233614
C       -1.48836010       2.98850502      -1.88143747
C       -3.80719660       0.98048425      -0.14928545
C       -0.19605427       2.96256528       1.43860358
C        0.63050230       2.76753099      -2.57056576
C        0.05712657      -2.79637953       1.28979558
C       -2.65591163       2.62693421      -1.22596437
C       -0.64540886       0.88500702      -3.23168045
C        2.27708123       0.46328457       1.19060366
C        0.80695591       0.66146145      -3.51043046
C       -3.12821748      -1.07072970       0.94116816
C       -2.59641593      -0.32039761       2.03449753
C        2.52774068      -2.11405673      -0.07012608
C       -3.46218185      -0.81848714      -1.46010816
C       -2.09401032      -2.64151997      -0.59119010
C       -1.08917840       1.01950898       3.92261455
C        0.73202780      -0.21545531       3.36856717
C        1.11793732       1.16408081       3.18173032
C        1.77081293       1.57609066       1.97321310
C       -2.61461810      -1.89054153      -1.67896091
C        1.15010959      -0.40857601       1.16821338
C       -2.25871845      -2.17239272       0.71547493
C        2.64419632       1.41269095      -2.24858685
C       -0.44957838      -2.34202711      -2.17946652
C        1.42192185      -2.68044441      -0.76914667
C        0.03831135       1.91510696       3.67328308
C       -3.36170880       1.44073829      -1.44925417
C        2.93537465       0.41439551      -0.07671104
C       -0.80878213      -3.03160495      -0.98770903
C       -0.68116984      -0.29634444       3.53706919
C       -0.73015007       2.61013612       2.69932900
C        1.14777790       2.53779840       1.10432191
C        1.59528587       2.54308621      -0.30276996
C        2.45758912      -2.50296937       1.23134032
C       -1.17647167      -2.15300337       1.66858610
C        1.50963207       1.79253280      -3.00084036
C        3.11929345      -0.95487571      -2.06743289
C        0.92970913      -1.87504458      -1.94665305
C       -1.55467230      -1.50932506      -2.56475757
C       -0.59116087       3.51625619      -0.88617210
C        1.86453115      -0.30909050      -3.61670015
C        0.74345626       3.23470295      -1.24172035
C       -3.79529996      -0.43322344      -0.13086099
C       -0.70904131       2.29390902      -2.83989864
C        3.07873345      -0.89153899      -0.66809813
C       -2.94934638       0.30897787      -2.20118202
C       -2.70857909       1.09619358       2.06064120
C        0.26126449      -3.10982190      -0.07102377
C        0.60726077      -0.64443930      -1.20966432
C       -1.69320629      -0.06816538      -2.86143826
C       -1.11829500       3.29319759       0.39893520
C       -1.46256700      -1.01144685       2.58570063
C       -2.45238962       2.79130834       0.20891376
60
Properties=species:S:1:pos:R:3 trajectory=trial0001_proposal001_step005_proposal_relax trajectory_step=79 pbc="F F F"
C        1.31221763      -2.45996990       1.98195120
C        2.00803399      -1.52472319      -2.85375027
C        2.55369104       1.55891493      -0.87948946
C       -3.16214448       1.73410512       0.88328940
C       -1.85496510       1.76832854       2.98161368
C        2.98993228       0.20237458      -2.88133892
C        1.21197639      -1.09451451       2.38640000
C        0.46914473      -0.54362567       0.04728443
C       -1.51213058       2.97325142      -1.88742177
C       -3.81131834       0.96544972      -0.12586202
C       -0.19991664       2.97144053       1.42415634
C        0.60086678       2.76049425      -2.59094033
C        0.08017799      -2.79030632       1.30000809
C       -2.67818177       2.60679913      -1.22006203
C       -0.67137380       0.86828852      -3.23232540
C        2.28996240       0.48089196       1.17052093
C        0.78020562       0.64926339      -3.51987855
C       -3.11605815      -1.07735858       0.96924367
C       -2.57903907      -0.32102958       2.05326651
C        2.53748885      -2.10249517      -0.07570741
C       -3.46654956      -0.84132610      -1.43292023
C       -2.08117140      -2.65340377      -0.56687802
C       -1.06434322       1.03373288       3.92491414
C        0.76081948      -0.19563592       3.36258660
C        1.13621201       1.18556531       3.16774763
C        1.77749699       1.59356577       1.95195902
C       -2.61739980      -1.90846304      -1.65243621
C        1.16904648      -0.40056103       1.16158867
C       -2.24426460      -2.17688725       0.74155897
C        2.62404256       1.41809145      -2.27683901
C       -0.45189901      -2.35029780      -2.16761830
C        1.43001511      -2.67166130      -0.76650995
C        0.05865340       1.93264440       3.66243993
C       -3.37909163       1.42373223      -1.43086550
C        2.93764685       0.42995624      -0.09866600
C       -0.80239215      -3.03754824      -0.97025298
C       -0.65021625      -0.28082227       3.54227144
C       -0.72226643       2.62209065       2.69147094
C        1.14359657       2.54909005       1.08311887
C        1.58466390       2.55191799      -0.32611503
C        2.48176359      -2.49143863       1.22614874
C       -1.15247817      -2.14943182       1.68617107
C        1.47890242       1.78711809      -3.02000986
C        3.10876344      -0.94813348      -2.08435776
C        0.92466968      -1.87594543      -1.94588665
C       -1.56447594      -1.52447202      -2.54675502
C       -0.61296767       3.51064824      -0.89979999
C        1.84214421      -0.31687039      -3.62813909
C        0.71998869       3.23037041      -1.25984180
C       -3.79319089      -0.44829291      -0.10097886
C       -0.73744653       2.27921954      -2.84638258
C        3.07961547      -0.87868647      -0.68796081
C       -2.96769912       0.28700441      -2.18297449
C       -2.69691135       1.09614678       2.07353616
C        0.27679123      -3.10874721      -0.05964399
C        0.60310219      -0.64407424      -1.20725946
C       -1.71174004      -0.08572193      -2.84506622
C       -1.13038873       3.29346955       0.39186554
C       -1.43684467      -1.00507552       2.60184385
C       -2.46224289       2.78377943       0.21215849
60
Properties=species:S:1:pos:R:3 trajectory=trial0001_proposal001_step005_proposal_relax trajectory_step=80 pbc="F F F"
C        1.32374738      -2.46060320       1.98508008
C        2.00093293      -1.52685032      -2.85611339
C        2.55002202       1.56613436      -0.89381740
C       -3.16254675       1.73426025       0.89090731
C       -1.84544665       1.76965588       2.97867834
C        2.97880526       0.20392666      -2.89236579
C        1.22399114      -1.09251753       2.38472155
C        0.47225985      -0.54527352       0.05157264
C       -1.52327804       2.96486880      -1.88922895
C       -3.80906758       0.95844952      -0.11396502
C       -0.20445005       2.97649462       1.41641285
C        0.58628326       2.75733011      -2.59924499
C        0.09119372      -2.78763517       1.30220636
C       -2.68478618       2.59628340      -1.21644976
C       -0.68306460       0.85943677      -3.23176684
C        2.29669408       0.48935431       1.15927367
C        0.76743095       0.64287584      -3.52441281
C       -3.10950685      -1.07897072       0.98181285
C       -2.57037672      -0.32028899       2.06259702
C        2.53955189      -2.09578364      -0.07610275
C       -3.46748131      -0.85164644      -1.41871709
C       -2.07433290      -2.65824883      -0.55516378
C       -1.05272767       1.04189670       3.92386874
C        0.77428106      -0.18674761       3.35668553
C        1.14527846       1.19485420       3.15894136
C        1.77633556       1.60056069       1.94067284
C       -2.61491548      -1.91986162      -1.64068665
C        1.18193332      -0.39932864       1.16043553
C       -2.23569042      -2.17824049       0.75176253
C        2.61332145       1.42190866      -2.29360260
C       -0.45231045      -2.35352152      -2.16340032
C        1.43222555      -2.66259429      -0.76422519
C        0.06567548       1.94187670       3.65501697
C       -3.38662144       1.41303540      -1.42054555
C        2.93901211       0.43937927      -0.11068788
C       -0.79508159      -3.04110309      -0.96497808
C       -0.63485093      -0.27207155       3.54172649
C       -0.71994640       2.62790005       2.68642784
C        1.13906452       2.55364557       1.07328832
C        1.58072764       2.55815742      -0.33604838
C        2.49321411      -2.49108241       1.22523254
C       -1.14090715      -2.14635492       1.69229380
C        1.46226943       1.78462081      -3.02878422
C        3.09970311      -0.94396173      -2.09220339
C        0.92080675      -1.87386227      -1.94452828
C       -1.56738044      -1.53049751      -2.53725210
C       -0.62387048       3.50939925      -0.90603617
C        1.83035887      -0.32147741      -3.63089208
C        0.70680433       3.22513851      -1.26538432
C       -3.78926878      -0.45407674      -0.08716464
C       -0.74995068       2.27078133      -2.84732765
C        3.07677414      -0.87161175      -0.69657400
C       -2.97711540       0.27632481      -2.17369851
C       -2.69097627       1.09626284       2.07740730
C        0.28398857      -3.10898664      -0.05659678
C        0.59873634      -0.64249701      -1.20148013
C       -1.71836444      -0.09348322      -2.83191926
C       -1.13693262       3.29683863       0.38892915
C       -1.42433618      -1.00189385       2.61019206
C       -2.46531495       2.77964702       0.21340141
