60
Properties=species:S:1:pos:R:3 trial_index=1 seed_entry_id=0 discovered_entry_id=1 energy=-476.2564697265625 status=accepted pbc="F F F"
C        2.14062419      -2.96360175      -0.94109079
C        2.89812118       0.83345524      -1.65385975
C        1.25855262       1.91570842       2.71680326
C        3.00004606      -1.80852830      -0.96777937
C       -3.51402469       0.51268543       1.85138005
C        2.33891434       1.09657846       0.72713997
C        0.14239311      -3.35008958       0.78996068
C        2.52055820      -1.36104893       2.54879655
C       -2.09715621       0.39999983      -3.88304770
C        0.12835628      -1.19414682      -0.34629903
C       -1.80915861       0.61924854       3.54672310
C        0.67435354       3.77514424       0.66324320
C        0.84100224      -3.06814049      -1.54513277
C       -1.30001378       4.01577608      -0.50303820
C        0.62943485       3.69489578      -1.81391077
C       -0.11523907      -0.14282909       0.65418823
C        1.84662298       2.93490643      -1.78218791
C       -2.65715561      -3.56682719      -0.19318422
C       -2.75957604      -2.29061223       0.06863418
C        3.03810016       1.56508913      -0.42895439
C       -2.10609956       1.51155235      -3.07138659
C       -1.71134179      -2.02895903      -2.08762812
C       -0.16132327      -2.38074362       2.83971863
C       -2.55603802      -0.00721134       0.87487122
C       -1.16866711      -1.82532990       3.32926069
C       -1.25494845       0.40249840       1.26469156
C       -2.32892569      -0.83125721      -1.64054661
C        2.13234278      -2.27151720       1.62290345
C       -1.57661802      -2.91544807      -0.95077144
C        2.12161655       2.20259406       1.60644735
C       -1.06990191      -1.70934342      -4.44591446
C        2.49101194      -0.55745254      -1.45290260
C       -2.04586778      -0.81345896       3.57247229
C       -1.75152579       3.81636288      -1.82494947
C        1.67962776       0.81740180       3.43699165
C       -0.75822167      -2.21442280      -3.15998225
C        0.76367363      -2.81451276       1.85817462
C       -3.08317894       0.06587038       3.16232123
C       -1.06784952       1.18566492       2.48832289
C       -0.12142268       2.25775257       2.43042351
C        2.58565174      -2.48173831       0.27030877
C       -0.16152954      -2.67349383      -0.44469812
C        1.97862466       3.29708090       0.70974467
C        1.20658082       0.36271829       0.34195438
C        1.25359378      -0.46795083      -0.79531138
C       -2.36910956       0.25696145      -2.50782835
C       -1.30246352      -1.43187196      -5.77447004
C        2.22943363       1.76121028      -2.47139150
C       -0.37671638       3.26703220       1.47358088
C       -1.65371707       2.78391917      -2.75950885
C        0.11364720       4.09726765      -0.57450569
C        2.54738866       2.89265752      -0.53958727
C       -0.51749471       3.60963878      -2.68324621
C       -3.52617547       1.88609960       1.60037354
C        0.42873448      -2.84266857      -2.79541102
C        2.23446749      -0.33196570       3.26481781
C       -1.69690519      -0.49602524      -4.80970804
C       -1.64670576       3.45985561       0.79024857
C       -2.73626315      -0.93469122      -0.21426602
C       -2.82523302       2.83938399       1.19300841
