60
Properties=species:S:1:pos:R:3 system=runs/20260728-safe-lbfgs-strict-quench-200-production/output-c60-seed42 state_id=intermediate_accepted pbc="F F F"
C        1.08390347      -2.45430950      -1.10545191
C        2.96535623       0.34292090       2.15032728
C       -0.03801872      -1.56976112       4.16556183
C       -2.42727613       2.34210891      -2.44705648
C       -3.21516988       0.03028507      -2.92309916
C        1.70334204      -0.06716748       3.69940809
C       -0.30660480      -2.71355964      -0.89717724
C        0.73828620      -3.23954957       1.09602623
C       -2.26000495       2.94464359       0.93774333
C       -1.29777294       3.21065526      -2.45994276
C       -3.77866859       0.28218078      -0.46154553
C       -1.48934982       1.15991424       2.24259095
C        1.66400114      -1.38974283      -1.90051630
C       -2.25343526       3.43868341      -0.38056871
C        0.28826476       2.56130505       1.46849663
C       -1.65820159      -2.44432922       1.12625270
C        0.76889281       1.63067567       2.45489508
C        0.13683931       1.54157845      -3.46676973
C       -0.97927916       0.65703031      -3.49097819
C        2.68127320      -2.08469186       0.78273663
C        0.92365198       3.36089697      -2.06328377
C        2.35239791       1.40965148      -2.44802337
C       -2.86758515      -1.30508391      -3.08540658
C       -1.43204296      -2.34480311      -1.64778842
C       -2.66361597      -2.16724774      -0.97244995
C       -2.60265037      -1.71489715       0.40951218
C        2.07768749       2.64791163      -1.78808133
C       -0.55376147      -2.98691809       0.53009330
C        1.29737196       0.77787445      -3.12982567
C        0.28709745      -0.26981692       3.75120230
C        3.01148776       1.30725993      -0.22212619
C        3.15219023      -0.97274698       0.09391156
C       -3.57039577      -1.30428307      -1.58987781
C       -1.11289498       3.75142220      -1.13463098
C        0.44874219      -2.76407369       3.57673455
C        3.02938880       0.63108662      -1.49353093
C       -1.47622514      -1.67178132      -2.89367640
C       -3.92210120      -0.31662119      -1.71833365
C       -3.11305244      -0.36277713       0.63750820
C       -0.10193755      -2.72613990       4.81603027
C        1.70372490      -2.85514383       0.12229825
C        0.92286160      -0.59644878      -2.86079392
C       -0.27738351       0.76420853       2.92226102
C        2.58083863      -0.84762380       2.88240382
C        3.22920577       0.30114831       0.77101624
C        2.19729394       2.47265313      -0.35334440
C       -3.25699840       1.91927746       1.01165435
C        2.04219443       1.16741059       2.91121584
C       -2.72662720       0.70637680       1.58888179
C       -0.03172318       2.86533557      -3.00353828
C       -1.14513172       2.43723324       1.61866684
C        2.34433376      -2.04677032       2.18776978
C        0.26427448       3.66530554      -0.81597481
C       -2.28521661       1.07553668      -3.10239532
C        2.82195205      -0.75570053      -1.29841377
C        1.19559036      -2.88042600       2.39857211
C        0.97107910       3.02030534       0.26985911
C       -3.74596928       1.68268885      -0.30363519
C       -0.50695131      -0.69460827      -3.23493534
C       -3.10662944       2.58496703      -1.19209299
