60
Properties=species:S:1:pos:R:3 system=runs/20260728-safe-lbfgs-strict-quench-200-production/output-c60-seed42 state_id=intermediate_accepted pbc="F F F"
C        1.07582666      -2.45344623      -1.09548335
C        2.98200318       0.34046435       2.14643299
C       -0.11600419      -1.51349745       4.06768041
C       -2.42820168       2.34033089      -2.41748747
C       -3.22123789       0.02760022      -2.88338780
C        1.73468528      -0.06018786       3.69682083
C       -0.30949628      -2.71848263      -0.87805644
C        0.74617127      -3.25275748       1.10213196
C       -2.21644070       2.95342767       0.94845885
C       -1.30308817       3.21297462      -2.43743309
C       -3.74733216       0.26420214      -0.42035668
C       -1.41557183       1.19166003       2.23872469
C        1.64200914      -1.38153624      -1.89384076
C       -2.24480138       3.45206666      -0.36487941
C        0.34896063       2.61388010       1.47772333
C       -1.66593388      -2.48732695       1.14772068
C        0.84386151       1.67445347       2.46086170
C        0.11807463       1.55060652      -3.46042620
C       -0.99346951       0.65751486      -3.47132959
C        2.67974407      -2.08211398       0.78619902
C        0.91963598       3.38215147      -2.07200887
C        2.33407576       1.42056564      -2.44373803
C       -2.86037860      -1.34868571      -3.09422791
C       -1.43342154      -2.34655121      -1.62517026
C       -2.66635924      -2.18697207      -0.94806224
C       -2.60106576      -1.74175268       0.43824483
C        2.07406382       2.66708851      -1.79560766
C       -0.55034377      -3.00411309       0.54754292
C        1.27949029       0.78907428      -3.12779161
C        0.31442316      -0.23403184       3.72279050
C        2.98973211       1.31774803      -0.21070159
C        3.12638716      -0.95571641       0.10133892
C       -3.61080791      -1.71267102      -1.88935982
C       -1.11170463       3.77105202      -1.12544581
C        0.37885735      -2.72300889       3.51874298
C        2.99968942       0.64337642      -1.48396786
C       -1.47629939      -1.65466739      -2.86120060
C       -3.91489637      -0.33149766      -1.67519222
C       -3.07569631      -0.37910958       0.67445234
C       -0.44729127      -2.74217383       4.64418525
C        1.70623978      -2.85935011       0.12526625
C        0.89497343      -0.58432237      -2.84987342
C       -0.21206598       0.81613441       2.91645391
C        2.60148836      -0.85501953       2.88089521
C        3.20185750       0.30766118       0.76915927
C        2.20769711       2.50669720      -0.35924388
C       -3.19345196       1.90964432       1.03099846
C        2.08470288       1.15632634       2.91336482
C       -2.65330996       0.70721580       1.60779439
C       -0.04499753       2.87561058      -2.99795479
C       -1.08378784       2.47079083       1.61847969
C        2.35424750      -2.05470160       2.19310572
C        0.27140018       3.69894276      -0.82067499
C       -2.29783294       1.07542593      -3.07534887
C        2.79310235      -0.74253102      -1.29073810
C        1.20119376      -2.88642370       2.40286672
C        0.99839205       3.07112773       0.26553072
C       -3.70626160       1.66516671      -0.26944200
C       -0.52199033      -0.67653860      -3.20297618
C       -3.09859593       2.58171468      -1.16419580
