54
Lattice="21.66 0.0 0.0 0.0 5.10531 0.0 0.0 0.0 22.55266" Properties=species:S:1:pos:R:3 entry_id=9 rank=26 energy=-200.85797119140625 pbc="T T F"
Cu       0.00000000       0.00000000      10.00000000
Cu       3.61000000       0.00000000      10.00000000
Cu       7.22000000       0.00000000      10.00000000
Cu      10.83000000       0.00000000      10.00000000
Cu      14.44000000       0.00000000      10.00000000
Cu      18.05000000       0.00000000      10.00000000
Cu       0.00000000       2.55265548      10.00000000
Cu       3.61000000       2.55265548      10.00000000
Cu       7.22000000       2.55265548      10.00000000
Cu      10.83000000       2.55265548      10.00000000
Cu      14.44000000       2.55265548      10.00000000
Cu      18.05000000       2.55265548      10.00000000
Cu       1.80500000       1.27632774      11.27632774
Cu       5.41500000       1.27632774      11.27632774
Cu       9.02500000       1.27632774      11.27632774
Cu      12.63500000       1.27632774      11.27632774
Cu      16.24500000       1.27632774      11.27632774
Cu      19.85500000       1.27632774      11.27632774
Cu       1.80500000       3.82898322      11.27632774
Cu       5.41500000       3.82898322      11.27632774
Cu       9.02500000       3.82898322      11.27632774
Cu      12.63500000       3.82898322      11.27632774
Cu      16.24500000       3.82898322      11.27632774
Cu      19.85500000       3.82898322      11.27632774
Cu       0.10191472       5.04246692      12.52645709
Cu       3.52757392       5.02787024      12.54208334
Cu       7.22590310       0.01762862      12.63162863
Cu      10.80507432       0.08495195      12.63780214
Cu      14.39317062       0.03629404      12.57332218
Cu      18.04399447       0.06882658      12.57754673
Cu       0.04353430       2.52102797      12.51667618
Cu       3.51042646       2.46839512      12.54202572
Cu       7.22489780       2.59624795      12.55691057
Cu      10.82608583       2.67640315      12.63140531
Cu      14.37586216       2.51329955      12.58241819
Cu      18.13629533       2.54516451      12.64287600
Cu       5.18930349       3.75701707      13.95816881
Cu       8.88856984       1.42888690      14.01240594
Cu      19.98786150       1.29532981      13.80413128
Cu       9.12696608       4.01861600      13.80926224
Cu       7.15557868       4.13488343      15.26566110
Cu       1.11827659       1.03395372      14.54801993
Cu       1.85238120       3.70261989      13.89818785
Cu       4.08407107       0.91983347      14.86568245
Cu      20.03208498       3.78699667      13.92327543
Cu      16.24748046       3.82652807      13.94239516
O        5.46370037       4.91423910      15.38730351
O       21.18541287       0.08328163      14.71095915
O       18.06571599       3.93428778      14.13436177
O       12.12353276       1.37392269      13.15495001
O        8.56333955       2.91148250      15.20633307
O        5.39194321       2.01853856      13.20681873
O       14.43762335       3.83339271      13.93938794
O        2.61798341       2.09243829      14.72246156
