54
Lattice="21.66 0.0 0.0 0.0 5.10531 0.0 0.0 0.0 22.55266" Properties=species:S:1:pos:R:3 entry_id=0 rank=39 energy=-198.67276000976562 pbc="T T F"
Cu       0.00000000       0.00000000      10.00000000
Cu       3.61000000       0.00000000      10.00000000
Cu       7.22000000       0.00000000      10.00000000
Cu      10.83000000       0.00000000      10.00000000
Cu      14.44000000       0.00000000      10.00000000
Cu      18.05000000       0.00000000      10.00000000
Cu       0.00000000       2.55265548      10.00000000
Cu       3.61000000       2.55265548      10.00000000
Cu       7.22000000       2.55265548      10.00000000
Cu      10.83000000       2.55265548      10.00000000
Cu      14.44000000       2.55265548      10.00000000
Cu      18.05000000       2.55265548      10.00000000
Cu       1.80500000       1.27632774      11.27632774
Cu       5.41500000       1.27632774      11.27632774
Cu       9.02500000       1.27632774      11.27632774
Cu      12.63500000       1.27632774      11.27632774
Cu      16.24500000       1.27632774      11.27632774
Cu      19.85500000       1.27632774      11.27632774
Cu       1.80500000       3.82898322      11.27632774
Cu       5.41500000       3.82898322      11.27632774
Cu       9.02500000       3.82898322      11.27632774
Cu      12.63500000       3.82898322      11.27632774
Cu      16.24500000       3.82898322      11.27632774
Cu      19.85500000       3.82898322      11.27632774
Cu      21.60577334       0.00796896      12.58766652
Cu       3.78280277       0.07886468      12.69895132
Cu       6.29288034       4.74388410      13.33178682
Cu      10.69612902       5.01688996      12.63287632
Cu      14.52955511       0.02998260      12.59488974
Cu      18.04992975       0.05255040      12.43332847
Cu      21.60183414       2.52160627      12.59404193
Cu       3.61792123       2.69287165      12.57209248
Cu       7.17352348       2.55603117      12.39605585
Cu      10.70955643       2.45965474      12.84404331
Cu      14.61887189       2.52721374      12.74814994
Cu      17.99628245       2.57800778      12.52323644
Cu       5.54299677       2.69465009      14.63470584
Cu       8.69980329       0.97696275      13.64986507
Cu      19.72719797       1.26248017      13.85704373
Cu       8.82725881       3.57791769      13.92827804
Cu       8.24231531       4.98405481      15.89274111
Cu       2.10679507       1.28523057      14.19150718
Cu       1.73876853       3.81167568      13.81047838
Cu      10.18756331       1.86045794      15.25268055
Cu      19.78378194       3.69982146      13.82825809
Cu      16.90369665       4.33451010      14.31570381
O        7.06658296       3.85069495      14.99024984
O        0.65334330       0.17110045      14.41334418
O       18.62243504       4.97371050      14.65090409
O       12.62282074       2.53542468      12.81097732
O        9.49724571       0.90600467      16.60663824
O        6.79766133       1.37822465      13.88628486
O       15.17238188       3.95153241      13.93875512
O        3.94859594       1.68153611      14.20044402
