54
Lattice="21.66 0.0 0.0 0.0 5.10531 0.0 0.0 0.0 22.55266" Properties=species:S:1:pos:R:3 entry_id=32 rank=7 energy=-201.76995849609375 pbc="T T F"
Cu       0.00000000       0.00000000      10.00000000
Cu       3.61000000       0.00000000      10.00000000
Cu       7.22000000       0.00000000      10.00000000
Cu      10.83000000       0.00000000      10.00000000
Cu      14.44000000       0.00000000      10.00000000
Cu      18.05000000       0.00000000      10.00000000
Cu       0.00000000       2.55265548      10.00000000
Cu       3.61000000       2.55265548      10.00000000
Cu       7.22000000       2.55265548      10.00000000
Cu      10.83000000       2.55265548      10.00000000
Cu      14.44000000       2.55265548      10.00000000
Cu      18.05000000       2.55265548      10.00000000
Cu       1.80500000       1.27632774      11.27632774
Cu       5.41500000       1.27632774      11.27632774
Cu       9.02500000       1.27632774      11.27632774
Cu      12.63500000       1.27632774      11.27632774
Cu      16.24500000       1.27632774      11.27632774
Cu      19.85500000       1.27632774      11.27632774
Cu       1.80500000       3.82898322      11.27632774
Cu       5.41500000       3.82898322      11.27632774
Cu       9.02500000       3.82898322      11.27632774
Cu      12.63500000       3.82898322      11.27632774
Cu      16.24500000       3.82898322      11.27632774
Cu      19.85500000       3.82898322      11.27632774
Cu       0.00836018       5.09557051      12.52975399
Cu       3.56694859       2.45531722      12.48495118
Cu       7.20928309       0.14195682      12.55124156
Cu       9.82081501       2.77563385      13.43752008
Cu      14.40847735       0.03754767      12.44380511
Cu      18.01391419       5.07599283      12.60019186
Cu      21.65604467       2.54866295      12.57857682
Cu       3.59264878       5.00237458      12.46932752
Cu       4.85105077       3.44750404      14.34765670
Cu      12.71539819       3.96638952      13.93976166
Cu      14.51350199       2.50014756      12.59357869
Cu      18.06685034       2.53975362      12.54619838
Cu       1.87937242       3.73074284      13.80443084
Cu       7.11058298       2.88454075      13.27158714
Cu      18.35020972       4.96127978      15.26052630
Cu      10.82910990       0.02578921      12.50824238
Cu       5.12462423       0.86567611      14.12448743
Cu       1.84150959       1.24313095      13.90787864
Cu      21.16471091       4.29106174      14.93025951
Cu      19.91004473       1.17855798      13.75406318
Cu      18.24942118       2.40630101      15.09590792
Cu      15.89059779       0.00756083      14.39258469
O        3.69972893       2.02430232      14.59221144
O       19.56137339       3.61859237      15.47984305
O       17.00007196       1.10201302      15.35040874
O       10.91689842       4.08177127      14.08689562
O        8.46490053       1.54415244      13.22563624
O        6.36187962       4.51613753      14.21521705
O       14.56074229       3.84795160      14.01337132
O        1.19011126       4.96271628      15.05039138
