60
Properties=species:S:1:pos:R:3 trial_index=28 seed_entry_id=19 discovered_entry_id=21 energy=-492.25457763671875 status=accepted pbc="F F F"
C       13.46311957      -4.53680323      -2.64717740
C       12.45017617      -1.16416375      -4.51252916
C       10.59588985      -0.76560554      -0.25325583
C       14.17537639      -2.20543168      -3.18041232
C        8.77120029      -5.26668610      -3.15404107
C       12.18564827      -0.52614561      -1.91751657
C       12.71907393      -8.72548580      -3.63447629
C       11.61943819      -2.55941561       1.10158953
C       11.01123325      -3.21054649      -6.75441768
C       13.89884277      -3.12484869      -2.23594571
C        9.14115411      -4.05497887      -1.20057354
C        8.82408737      -0.35617198      -2.43316795
C       13.16685704      -4.64808177      -4.13052558
C        7.55319435      -2.04575179      -3.36328964
C        9.08674705      -0.88042756      -4.81537205
C       13.11703000      -2.73253838      -1.09087271
C       10.33471874      -0.18885375      -4.83533345
C       11.81963755      -8.57427737      -4.60723005
C       10.54452826      -7.93670511      -4.90262975
C       12.10272949      -0.36991513      -3.35557427
C        9.46246738      -4.58930979      -5.37915659
C       12.12905428      -6.38248945      -5.75068556
C       13.98840198      -7.01719597      -2.30650575
C        9.25778604      -5.68856630      -4.43532002
C       14.07759687      -5.77908333      -2.12576681
C       11.13741353      -3.49495342       0.18912163
C       11.31603053      -6.12032964      -3.53996405
C       12.18467271      -3.76378817      -0.74923853
C       11.68856016      -7.73834972      -5.75807675
C       10.94368744      -0.00596939      -1.39286338
C       10.57169566      -2.07830076      -6.10050458
C       13.45151334      -2.19416777      -4.36760055
C       11.07544017      -5.37910852      -2.33997748
C        8.71638641      -3.35580994      -5.11276765
C       11.86346597      -1.20688378       0.31569464
C       11.65723540      -5.40126104      -6.61636701
C       13.48845634      -8.11692674      -2.84650958
C        9.69662179      -5.06971543      -2.07598610
C        9.85675985      -3.13963235      -0.35945542
C        9.55928604      -1.71997884      -0.46678426
C       12.17266269      -4.69364251      -1.81476780
C       12.37254235      -5.79869852      -4.44065010
C       10.05834988       0.31648081      -2.44328454
C       12.70717421      -1.39855570      -0.88888957
C       12.73508047      -4.65560254      -7.22424779
C       10.59233689      -4.48591116      -6.28678124
C       12.31949787      -3.24981745      -7.32037308
C       11.33269075      -1.04502095      -5.44814355
C        8.54136667      -1.32050216      -1.39976414
C        7.76031047      -3.28166326      -4.05244518
C        8.27743380      -0.86412906      -3.66826651
C       10.84417882       0.28564040      -3.62605925
C        9.27177704      -2.11196402      -5.51471492
C        7.76786427      -4.29143606      -3.05202837
C       13.37323847      -3.53733414      -4.98420299
C       12.17576843      -1.57089289       1.74191192
C       13.30255857      -3.66808513      -6.37714147
C        7.67320004      -2.28787515      -1.95668786
C       10.19697281      -6.74117090      -4.22135351
C        7.89901841      -3.65541558      -1.76895371
