60
Properties=species:S:1:pos:R:3 trial_index=11 seed_entry_id=9 discovered_entry_id=10 energy=-486.08251953125 status=accepted pbc="F F F"
C        5.13998162      -3.08660665      -0.78690005
C        5.82898854       0.51499191       0.06540555
C        4.49185188      -1.02266177       4.34785130
C        5.01330619      -1.76212741      -0.18936676
C        0.13450164       0.32250626       0.92959421
C        5.74472163      -0.79708054       2.39760801
C        2.62844214      -3.70674162      -1.69227369
C        4.78451789      -4.40261775       2.57838579
C        3.54545776       2.36112537      -1.60173079
C        3.77249511      -1.72751545       0.39449343
C        0.96668581      -0.27010906       3.01345300
C        4.40851954       1.85193897       3.84197640
C        4.68629763      -2.41165037      -2.05935976
C        2.64397195       2.93644054       2.82372774
C        4.68901928       3.26621730       1.84877189
C        3.60890893      -1.93068432       1.70603313
C        5.74302258       2.45711687       1.40975101
C        1.00495847      -2.06842375      -2.81318080
C        0.19325734      -1.29075434      -2.19514480
C        6.11322485       0.21685177       1.45817714
C        1.36480978       1.72487273      -0.43962357
C        2.60578812      -0.36925103      -3.22820914
C        1.69261383      -3.62577879      -0.51385127
C        0.50347748       0.58373553      -0.43039721
C        1.22931596      -2.79957914       0.37635685
C        2.34844708      -1.90819732       2.36007583
C        1.88581924       0.46927121      -2.27849206
C        4.98531846      -4.50245817       1.27847526
C        2.38872688      -1.81083281      -2.98400613
C        5.54181878      -0.23850202       3.69492380
C        4.24196340       2.62058451      -0.35310188
C        5.56874048      -0.60405122      -0.84877692
C        1.18496314      -1.99025741       1.44956395
C        2.42043502       3.06973638       1.41736217
C        4.63827708      -2.37372952       3.76404033
C        3.34134249       0.13195289      -4.25889824
C        1.96754211      -4.80331824      -1.28824702
C        0.43518116      -0.79082008       1.77943681
C        2.14597047      -0.98278223       3.41103978
C        3.22337295      -0.34896703       4.12986774
C        5.11608937      -4.16321139       0.04243988
C        3.32438485      -2.70489202      -2.40729255
C        5.59859037       1.17588467       3.54175189
C        4.83078582      -1.85521307       2.42178064
C        3.99066993       1.11795236      -4.72420319
C        2.27601084       1.65381207      -1.54363313
C        4.36025084       2.22123126      -4.01405658
C        5.45400564       1.93385181       0.08423599
C        3.21722884       1.07708143       4.06434683
C        1.36999904       2.32581604       0.84284772
C        4.05170666       3.01144332       3.08402764
C        6.14636923       1.41532675       2.23713100
C        3.69724280       3.26135206       0.80871897
C        0.53947719       1.50667216       1.66990543
C        5.28390621      -1.07962881      -2.12382291
C        4.62663836      -3.76253843       3.71725300
C        4.16826478       2.53706981      -2.80909851
C        2.11445604       1.80394793       3.49987665
C        0.71446510      -0.11111655      -1.64788669
C        1.00235385       1.13819772       2.95910926
