60
Properties=species:S:1:pos:R:3 trial_index=3 seed_entry_id=2 discovered_entry_id=3 energy=-485.6181945800781 status=accepted pbc="F F F"
C        3.88022621      -4.17225588      -0.33302120
C        3.21978259      -0.51990006       0.39604816
C        2.48392004      -1.42066672       4.84280484
C        3.43401678      -3.07336496       0.67139287
C       -2.32277013      -2.03791894       1.86326503
C        3.59828120      -1.15717172       2.83165589
C        1.56999261      -4.60039520       0.50785878
C        3.40722247      -4.84724355       3.36157354
C       -1.12447925       0.43817192      -2.08666754
C        2.01530646      -3.31842532       1.05431227
C       -1.17818108      -1.94497106       3.86225898
C        1.51970529       1.17998465       3.86452381
C        2.84924143      -3.85924613      -1.27112511
C       -0.53789955       1.44630143       2.84476090
C        1.26392510       2.09858761       1.61044847
C        1.76995993      -2.89607770       2.33917502
C        2.51494523       1.57872816       1.26325611
C       -0.79468025      -4.72758931      -1.37203300
C       -1.84013831      -4.18825272      -0.87052147
C        3.68462029      -0.29450252       1.73079495
C       -1.99065893      -0.61901813       0.05988661
C        0.32048465      -2.60598948      -1.81390161
C        0.77142660      -5.42214933       1.56561535
C       -2.27017434      -1.97219562       0.43646143
C       -0.37926896      -5.05615371       2.10116823
C        0.60013211      -3.09265681       3.11779552
C       -0.91355747      -2.00292053      -1.42160076
C        3.41030361      -5.21165314       2.03108118
C        0.42207379      -4.02644796      -1.56927112
C        3.24480056      -0.47198732       4.02821518
C        1.01765221       0.76083845      -0.22159626
C        3.28925264      -1.82872351      -0.19218711
C       -0.57472715      -3.80377467       2.61909581
C       -0.89167799       1.19358956       1.48533475
C        2.93564700      -2.74849040       4.37894737
C        1.57400553      -1.87896787      -2.07378629
C        2.14431616      -5.55484154       1.44835408
C       -1.64568875      -2.84964667       2.83257631
C        0.21428412      -2.15757008       4.11706591
C        1.07486204      -1.14845711       4.64995230
C        4.13184124      -4.38688697       0.98234913
C        1.62306255      -4.48378325      -0.94862711
C        2.85131863       0.83640330       3.60753888
C        2.91065848      -2.36228773       2.98882969
C        1.54849078      -0.72005000      -2.79579648
C       -1.33212176      -0.59578707      -1.22337282
C        0.87678038       0.23622211      -3.26337306
C        2.36111708       0.64912067       0.14037102
C        0.63293547       0.17512787       4.37030112
C       -1.84822849       0.17416627       1.23212522
C        0.79153973       1.97457135       2.92499485
C        3.29771505       0.98427323       2.24572042
C        0.28246629       1.51666291       0.70178549
C       -2.22850306      -0.67401960       2.31668549
C        2.71201351      -2.41445826      -1.36619732
C        3.26618433      -4.11690580       4.41503678
C       -0.31881092       0.79695994      -3.00476857
C       -0.67216142       0.42075810       3.81327917
C       -1.82036144      -2.81698468      -0.61460932
C       -1.57620288      -0.62371206       3.56797676
