60
Properties=species:S:1:pos:R:3 trial_index=29 seed_entry_id=21 discovered_entry_id=22 energy=-491.89337158203125 status=accepted pbc="F F F"
C       11.44171841      -7.32599302      -4.47430633
C        9.21529569      -4.17448824      -4.95158122
C       10.24522363      -4.19591028      -0.42435341
C       11.54469796      -4.87210851      -4.99372517
C        7.52220071      -8.90462869      -2.11571110
C       10.44860007      -3.62781416      -2.65355025
C       10.65436452     -11.47694680      -5.53395600
C       12.26910061      -6.39532907       0.12329548
C        6.75544164      -6.58428121      -6.06107451
C       11.91441130      -5.89599677      -4.19655973
C        8.88333800      -7.66448675      -0.70219021
C        7.47711676      -4.04870414      -1.05388713
C       10.35609763      -7.39995314      -5.51990420
C        6.09671163      -5.88884760      -1.18582533
C        6.32148893      -4.51425152      -3.16576178
C       11.93257178      -5.69866644      -2.77156396
C        7.21369753      -3.65028306      -3.85925958
C        9.34018493     -11.44187377      -5.76116545
C        8.10771033     -11.01343440      -5.10921830
C        9.50711036      -3.46470382      -3.73500089
C        6.47605833      -8.15605640      -4.12871209
C        8.66807875      -9.12646041      -6.51922172
C       12.30044341      -9.69010209      -4.91588303
C        7.12744254      -9.24772179      -3.44111129
C       12.37085515      -8.47616999      -4.61452212
C       11.23703075      -6.92991335      -0.68780832
C        9.31292280      -9.15739860      -4.19589204
C       11.48375198      -6.89044391      -2.10085687
C        8.45969524     -10.54067261      -6.41596709
C        9.71816235      -3.35670558      -1.45020520
C        6.85963393      -5.47676732      -5.20742454
C       10.27867924      -4.92496047      -5.55179003
C        9.79147598      -8.55459090      -2.97770898
C        6.02884142      -6.99287538      -3.38944286
C       11.62354052      -4.36448411      -0.77221703
C        7.48473114      -8.37154240      -6.63728801
C       11.67828134     -10.80998184      -5.24680414
C        8.88225308      -8.53898927      -1.86146775
C        9.86436626      -6.68088707      -0.34442778
C        9.41577003      -5.31607184      -0.08533248
C       10.91190766      -7.73087354      -3.09177872
C        9.57484729      -8.60089799      -5.48619625
C        8.34957829      -3.17835535      -1.72449998
C       11.59685677      -4.43235219      -2.22024241
C        7.35695578      -7.05553251      -7.26975758
C        6.70161933      -7.90261812      -5.49989202
C        8.25648763      -6.38671588      -8.12860757
C        7.75122315      -4.33077163      -5.02641874
C        8.00235574      -5.05975346      -0.17069512
C        5.95226195      -7.06898974      -1.97006451
C        6.35591449      -4.61840744      -1.76276084
C        8.25552764      -3.06005150      -3.13917130
C        6.17560937      -5.69177107      -3.95863322
C        6.69663002      -8.09148734      -1.31552155
C        9.99972269      -6.21456398      -6.23314050
C       12.45228925      -5.14567707       0.01719021
C        9.25977005      -6.18217472      -7.37667428
C        7.08901434      -6.13746492      -0.18453390
C        8.13597312      -9.99668667      -4.12469920
C        7.52866854      -7.45821709      -0.32977478
