60
Properties=species:S:1:pos:R:3 trial_index=34 seed_entry_id=25 discovered_entry_id=26 energy=-487.6800537109375 status=accepted pbc="F F F"
C       10.07807830      -3.19183909       1.60697538
C       11.93175810      -0.75665937      -1.78424522
C        8.48502196       1.67722445       0.28052658
C       12.02532129      -2.34140928       0.29697513
C        6.21505909      -2.71557026      -1.29164835
C       10.56141571       0.91733752      -0.39773215
C       12.89088770      -3.52625024       0.05564540
C        8.05165610      -0.26784914       2.31545719
C       10.28922023      -3.24620025      -3.58762709
C       10.96704824      -2.11760191       1.19097574
C        5.74008636      -0.60734959      -0.47168923
C        8.56285463       1.68878761      -1.99562101
C       10.24783015      -4.53798250       1.26069001
C        7.46494844       0.35944885      -3.53174608
C        9.70822346       0.41295381      -3.85134487
C       10.29609838      -0.85422530       1.53902222
C       11.06204930       0.46855714      -3.49048175
C        9.30915519      -5.43096015       0.69372996
C        8.00852445      -5.02540068       0.27950308
C       11.53759348       0.60223419      -1.38963362
C        7.81174386      -3.22914796      -2.86939009
C       10.19305032      -5.75229319      -1.56222616
C        7.27425834      -4.29662029       1.17744248
C        7.19867370      -3.66294665      -1.66849731
C        7.52497505      -3.02821444       1.62215460
C        6.97126620      -0.58824365       1.44450733
C        9.13842056      -4.87301190      -1.94589123
C        9.10062337      -1.22971617       2.18679810
C       10.33833491      -5.97660901      -0.15520163
C        9.37263390       1.61907220      -0.82490703
C       10.36469281      -1.78363563      -3.67481178
C       12.51525645      -1.72438775      -0.92737777
C        6.71122525      -1.94395157       1.11150727
C        7.85598543      -0.97056931      -3.90045695
C        9.16480795       1.25542510       1.45269117
C       11.21197103      -6.10629049      -2.44131892
C       12.63635936      -4.80356200       0.39779283
C        6.00856670      -1.96114397      -0.11207880
C        6.45939968       0.25930477       0.41324455
C        7.16935850       1.36381872      -0.12536059
C        8.84826058      -2.60749754       2.03158740
C       11.38221416      -5.21675497       0.60031036
C        7.48776070      -0.47664585      -1.64242555
C       10.29681907       0.45404958       0.96760293
C       12.21467586      -6.56995415      -3.22299283
C        9.10293221      -3.85222913      -2.98227222
C       11.72498401      -5.26246227      -3.54936547
C       11.39659347      -0.90814073      -3.11660795
C        7.19875998       1.52260551      -1.55056889
C        7.16273024      -2.05567751      -3.33319722
C        8.65319256       1.12593175      -3.28543738
C       11.50768321       1.38564241      -2.56819040
C        9.28333007      -0.92584629      -4.03634563
C        6.08802762      -1.81676433      -2.41152828
C       13.48075908      -2.76351548      -1.01137531
C        8.45684977       1.02731169       2.60451023
C       11.34674081      -4.05692146      -3.84143433
C        6.54005089       0.61132581      -2.45943085
C        8.00532975      -4.67568413      -1.09352458
C        5.79922876      -0.49915947      -1.90383534
