60
Properties=species:S:1:pos:R:3 trial_index=27 seed_entry_id=12 discovered_entry_id=20 energy=-490.9047546386719 status=accepted pbc="F F F"
C        6.04501266      -4.38728363      -1.62473995
C        9.08052516      -1.72208838      -2.48528724
C        7.71076719      -0.54665509       1.72815459
C        8.35434756      -4.10374057      -1.88491244
C        3.79862811       0.40641699      -2.33283270
C        8.96792940      -1.75395963       0.20753435
C        5.30885750      -6.66068812      -3.80420252
C        5.44735374      -3.21203215       1.90164380
C        7.44261319      -0.02230439      -5.22267169
C        7.28195409      -4.18095794      -0.95739221
C        4.56192967       0.47569572      -0.15388895
C        8.48866751       1.60843851       0.02330945
C        6.33692236      -4.55108092      -3.02784537
C        7.11266221       2.63712729      -1.52016155
C        9.05337013       1.75834921      -2.35209123
C        7.06886242      -3.41154187       0.15888679
C        9.70713683       0.52676084      -2.27216113
C        4.46332282      -3.34795300      -5.21250214
C        3.84150538      -2.58243769      -4.09273374
C        9.46151640      -1.43248320      -1.10629362
C        5.26853371       0.72294797      -4.10611128
C        5.14844038      -2.39359967      -6.09790840
C        3.67863171      -3.02722016      -2.83736458
C        4.16936087      -0.05152716      -3.62275033
C        4.03990694      -2.91642056      -1.54058175
C        5.11206303      -1.69973381       0.18621050
C        5.11511019      -1.13138768      -5.41972518
C        5.59037888      -3.14679422       0.36555923
C        4.89144384      -4.60246781      -5.02160098
C        8.92992759      -0.53920052       0.96900615
C        8.23492136       0.38356043      -4.06515202
C        8.55526653      -3.02701341      -2.75772080
C        4.11272088      -1.66215643      -0.81509230
C        6.84405621       2.21460820      -2.85931793
C        7.42419677      -1.92971740       1.97509311
C        5.83299592      -2.67363283      -7.25046530
C        5.11820700      -7.88691847      -3.68768763
C        3.81053823      -0.30892829      -1.10166511
C        5.45513368      -0.36205506       0.60581821
C        6.68521928       0.23275798       1.09903656
C        4.99684829      -3.80408308      -0.87841935
C        5.47404356      -5.27380900      -3.99315292
C        9.37844995       0.53091422       0.16708199
C        7.97002019      -2.59094026       0.80971037
C        6.84748039      -2.19433880      -7.86272784
C        5.99067177      -0.02014342      -5.10249640
C        7.73107590      -1.29784275      -7.38732824
C        9.15200562      -0.41473369      -3.20879292
C        7.12271807       1.43441944       0.44802958
C        5.55662763       1.73752879      -3.16156632
C        8.48043756       2.34468113      -1.20158309
C        9.88277491      -0.06257186      -1.02502064
C        8.04315412       1.62473959      -3.36248499
C        4.57996773       1.61642009      -2.11866131
C        7.69775661      -4.08836002      -3.24106509
C        6.31627566      -2.55253901       2.56781690
C        7.95331208      -0.59108363      -6.36806000
C        6.28774271       2.14941496      -0.46939691
C        4.11746913      -1.21163233      -4.39456954
C        5.00129472       1.67103785      -0.76402770
