60
Properties=species:S:1:pos:R:3 trial_index=30 seed_entry_id=22 discovered_entry_id=23 energy=-495.2854919433594 status=accepted pbc="F F F"
C       11.93441364      -6.74141813      -5.28154783
C        9.47817339      -3.86073669      -4.95376060
C       10.60346239      -4.41504596      -0.47072400
C       11.86223699      -4.31136806      -5.09279668
C        7.91951729      -8.85680479      -2.70484153
C       10.73450561      -3.62793797      -2.63610528
C       10.40653063     -10.46874792      -6.85293878
C       12.46911849      -6.04716158      -0.49746052
C        7.04933270      -6.39330156      -6.24895723
C       12.21709750      -5.53924038      -4.54670873
C        9.31428716      -7.80922103      -1.19369763
C        7.81470372      -4.25665636      -1.01655730
C       10.83190861      -6.68526789      -6.15696577
C        6.44651285      -6.08994351      -1.28945500
C        6.60479746      -4.53099475      -3.14003923
C       12.20290818      -5.66557149      -3.12257045
C        7.48994295      -3.61693198      -3.75807751
C        9.24890584      -9.80443780      -7.12282248
C        8.03698818      -9.73270602      -6.30015888
C        9.75925206      -3.32850263      -3.65456311
C        6.52589271      -8.01494389      -4.48135857
C        9.33671722      -8.34370499      -7.34428906
C       12.14470522      -9.18383865      -5.53674101
C        7.45049977      -9.00137542      -4.02486740
C       12.24638712      -8.06025547      -4.76557214
C       11.64811683      -6.97053600      -1.14189956
C        9.61008846      -8.56173190      -4.92119297
C       11.93758536      -6.95650538      -2.55241910
C        7.22452926      -8.64688671      -6.75456670
C       10.04647324      -3.47647194      -1.37290553
C        7.13603495      -5.34809154      -5.27379262
C       10.61855575      -4.31517176      -5.69978756
C       10.18838926      -8.40280125      -3.58882393
C        6.17497714      -6.93963252      -3.58986412
C       11.97875841      -4.61977711      -0.90854090
C        8.02311357      -7.87391096      -7.63546112
C       11.46803013     -10.01205930      -6.23986847
C        9.27975873      -8.50151006      -2.46732339
C       10.28184764      -6.85899651      -0.73644670
C        9.80303046      -5.57251278      -0.26364844
C       11.54328636      -7.97202271      -3.48861745
C        9.95889803      -7.82754098      -6.15839232
C        8.65918789      -3.30048842      -1.60172666
C       11.85332987      -4.50381818      -2.37821105
C        7.66635456      -6.49672816      -7.52925125
C        6.66231551      -7.70598933      -5.85214269
C        8.38426687      -5.47534179      -8.16588572
C        8.01938803      -4.17420487      -4.99516265
C        8.38390398      -5.34578120      -0.26868899
C        6.25212175      -7.17483112      -2.18704387
C        6.67814726      -4.76786702      -1.75127838
C        8.51573535      -3.05115860      -2.99355214
C        6.41307158      -5.61474204      -4.04905776
C        7.10937426      -8.22702685      -1.74418164
C       10.41501476      -5.38880398      -6.66298537
C       13.18358927      -5.03203222      -0.09485985
C        9.50070523      -5.18910284      -7.66250391
C        7.49468144      -6.43693824      -0.37470709
C        8.43829879      -9.37088371      -4.99464939
C        7.97354991      -7.70540297      -0.72768475
