60
Properties=species:S:1:pos:R:3 checkpoint_path=runs/20260728-direction-conditioned-checkpoint-shooting/output-v3/cases/plateau_accepted-seed43-balanced_refinement/macro_checkpoints/step004_checkpoint.xyz pbc="F F F"
C        0.33183287       1.16158574       2.87481259
C       -2.49174264       0.13741873       1.61737343
C       -1.26453993      -2.41714662       0.17338735
C        1.89681878       0.76705746      -2.99900840
C        3.42347307       0.12578356      -1.19589794
C       -0.24712639       0.82110229      -0.80179364
C        1.24779669       0.09826536       2.77516752
C       -0.63409427      -0.66407290       3.81596132
C       -0.73337609      -1.43881825      -3.59247025
C        0.94511334       1.70255428      -3.46632924
C        1.98114143      -1.99456304      -1.35962181
C       -1.95628356      -2.49533950      -1.99156177
C       -0.03954337       1.82906531       1.60379305
C        0.08135049      -0.35294516      -3.93888796
C       -2.50320507      -0.27102747      -2.22710152
C        0.28722070      -1.92293036       1.95804310
C       -2.71364076      -0.62484373      -0.83510122
C        1.10232597       3.00011133      -1.43603854
C        2.18354147       2.17327025      -1.02451305
C       -2.02527006       1.22837848       3.74965797
C       -0.87259948       2.86626385      -2.83235494
C       -1.07976114       3.36049692      -0.44431809
C        3.79249480       0.26778206       0.17204675
C        2.29397583       0.00483086       1.84485812
C        2.53126561      -1.28212907       1.30546753
C        1.40176354      -2.09429392       1.05430772
C       -1.63398585       3.08856575      -1.70209146
C        0.50026036      -1.06921885       3.06200173
C        0.32149835       3.34044472      -0.29635490
C       -0.13296815       0.86945437       0.46045954
C       -2.70798452       1.71493505      -0.22668542
C       -2.28162865       1.34563277       2.37319283
C        3.57414720      -1.16075534       0.36136533
C       -0.21013473       1.00960354      -3.96231497
C       -1.05081739      -1.92587652       1.47147438
C       -1.93975408       2.68997777       0.47027847
C        2.85402278       0.98853260       0.98958636
C        3.14633270      -1.27201363      -0.99950468
C        1.15558159      -2.50816597      -0.29462429
C       -0.17829131      -2.91112116      -0.60917274
C       -0.69239236       0.74056535       3.77147402
C        0.93297600       2.71431687       0.84692642
C       -2.29190177      -1.98578829      -0.70005997
C       -1.91259426      -1.23729130       3.58246938
C       -2.93152114      -0.75288616       4.42071721
C       -2.56803051       2.03360298      -1.58360455
C        0.11416213      -2.39217373      -2.92641870
C       -2.76860704       0.36352724       0.20352486
C       -0.63363119      -3.03968073      -1.94013746
C        0.52980585       2.80607225      -2.69713782
C       -1.97438603      -1.40551522      -2.91402626
C       -2.95212076       0.51578153       4.51757252
C       -1.34876856       1.65251586      -3.45812183
C        2.63600263       1.09723380      -1.83589815
C       -1.45143587       2.31611946       1.70742547
C       -2.02372728      -1.10790248       2.16323116
C       -2.34436383       1.07935922      -2.59961681
C        1.37093804      -1.77695068      -2.63162070
C        2.17238287       2.07780335       0.39440999
C        1.38744998      -0.53099389      -3.33354736
