60
Properties=species:S:1:pos:R:3 checkpoint_path=runs/20260728-direction-conditioned-checkpoint-shooting/output-v3/cases/plateau_accepted-seed43-balanced_refinement/macro_checkpoints/step002_checkpoint.xyz pbc="F F F"
C       -0.47476350       2.44997815       2.10333961
C       -1.42269439      -0.65100052       2.36012107
C        1.27853714      -1.87954487       1.21448318
C        0.47659661       0.60466496      -3.62088517
C        1.99901860       2.14142182      -2.47602336
C       -0.74393438       0.16327884      -0.84022181
C        0.91854384       2.45272103       1.90938562
C        0.45008544       1.20958245       3.76406506
C        0.62324611      -2.71227580      -2.56581035
C       -0.86553389       0.24597300      -3.88445414
C        2.81514777      -0.10616636      -1.53324364
C        0.81279891      -3.40350900      -0.40729263
C       -1.29736616       1.97555732       0.96441051
C        0.22922801      -1.70690064      -3.45842918
C       -1.30184642      -2.66196120      -0.93830504
C        1.91193666       0.29382406       2.05866363
C       -1.07496392      -2.35937489       0.46297238
C       -1.70091309       2.01102576      -2.46391176
C       -0.37029760       2.49355501      -2.32814500
C       -1.90024837       1.25970215       3.79873496
C       -2.85343220      -0.07754795      -2.88289732
C       -3.24980851       1.15648391      -0.80666457
C        2.17856571       3.10801255      -1.44609553
C        1.57412448       2.69691717       0.69326704
C        2.71610495       1.90194529       0.43368922
C        2.67208718       0.55387900       0.85740803
C       -3.43042049       0.04038270      -1.63402772
C        1.41703276       1.42414937       2.74486743
C       -2.38288225       2.18453514      -1.22733480
C       -0.64897461       0.85165460       0.22073328
C       -2.90668884      -0.78121737       0.43206765
C       -2.22121802       0.51136635       2.65361126
C        3.19672651       2.25505020      -0.84610725
C       -1.03334167      -1.16730722      -3.69599240
C        1.08268037      -0.85925997       2.15899261
C       -3.18578535       0.61274810       0.50727748
C        1.08184427       3.23314635      -0.52422341
C        2.95707203       1.26739716      -1.85323986
C        2.78407869      -0.46972599      -0.13811287
C        2.28615654      -1.76245442       0.21096836
C       -0.70822286       1.92320365       3.40624883
C       -1.45683308       2.78990380      -0.30603167
C        0.27103814      -2.75631786       0.74496473
C        0.12499490      -0.10205102       4.20243502
C       -0.82512506      -0.16004907       5.23798092
C       -3.14552239      -1.13536807      -0.90212866
C        1.92766165      -2.34428952      -2.08199380
C       -1.84306798      -1.37126184       1.16412191
C        2.04545917      -2.76466500      -0.75511251
C       -1.95534276       0.92386506      -3.30597958
C       -0.11452890      -3.24060929      -1.48077175
C       -1.84106782       0.57282753       5.01452739
C       -2.20467565      -1.36795568      -2.95324454
C        0.71774414       1.83731834      -2.96511888
C       -2.53038674       1.31620027       1.49964375
C       -0.11961699      -0.76132737       2.95784360
C       -2.30198829      -1.97750461      -1.65866466
C        2.20798933      -0.99661608      -2.46899925
C       -0.22733902       3.08799374      -1.04418522
C        1.18776442      -0.62040759      -3.39811373
