60
Properties=species:S:1:pos:R:3 system=runs/20260728-safe-lbfgs-strict-quench-200-production/output-c60-seed42 state_id=plateau_accepted pbc="F F F"
C       -0.79650293       2.58624611       1.90520337
C       -1.32267593      -1.06436208       2.34834992
C        2.06690761      -1.25004816       1.51810375
C        0.12090325       0.57003545      -3.82183709
C        1.43373301       2.41110310      -2.84901085
C        0.90188648      -2.02741072       1.81134793
C        0.56989495       2.82733132       1.56030994
C        0.57284414       1.78719403       3.60490452
C        0.83843396      -2.59894097      -2.55971691
C       -1.16203847      -0.02029614      -4.00702481
C        2.63960249       0.42314927      -1.75660337
C        1.12400464      -3.09911434      -0.33764800
C       -1.81805312       2.14161949       1.00164054
C        0.26971977      -1.74110980      -3.51546653
C       -1.12122160      -2.96358888      -0.94616943
C        2.29617326       1.14437966       1.94382680
C       -1.00213032      -2.72927201       0.48561386
C       -2.18348749       1.65261157      -2.58445287
C       -0.94157348       2.36018030      -2.54829722
C       -1.68743071       1.03844103       3.69349278
C       -3.06133020      -0.60896570      -2.89185146
C       -3.49192781       0.60653643      -0.80223381
C        1.50912988       3.48982622      -1.90727162
C        1.13485224       3.12673824       0.30983369
C        2.41962278       2.58869768       0.01639917
C        2.73482491       1.31934560       0.57450292
C       -3.65044758      -0.54993282      -1.62152066
C        1.40109517       2.12005813       2.48734186
C       -2.74723042       1.70375970      -1.27411715
C        0.06587487      -1.28634992       2.73890839
C       -2.91309320      -1.26651548       0.45908945
C       -1.99590642       0.21112249       2.59435856
C        2.71058946       2.88399828      -1.33231429
C       -1.08454818      -1.43569079      -3.73753722
C        2.06760093      -0.15958954       2.41834026
C       -3.17579212       0.13480898       0.50587098
C        0.48055887       3.46840048      -0.89691863
C        2.55309861       1.76301237      -2.21151493
C        2.82319840       0.18949348      -0.33269087
C        2.56288873      -1.14533530       0.18976925
C       -0.76742822       2.03117064       3.23340128
C       -1.87081108       2.46126750      -0.40768977
C        0.36925866      -2.86012842       0.83239409
C        0.73234182       0.57783561       4.34873653
C       -0.24599692       0.29725469       5.34129773
C       -3.18495152      -1.68467981      -0.87169979
C        2.02690806      -1.93874429      -2.06666833
C       -1.83615421      -1.82259163       1.20851010
C        2.18540919      -2.20274262      -0.69234539
C       -2.33184762       0.50917603      -3.39835103
C        0.20473707      -3.21594175      -1.44871182
C       -1.45356742       0.51025210       4.98837783
C       -2.20753376      -1.78424822      -2.94893502
C        0.19821460       1.87400324      -3.25180366
C       -2.48257993       0.92871850       1.42867028
C        1.00538282      -0.38815455       3.37411120
C       -2.22009829      -2.39936547      -1.64691190
C        2.10220896      -0.61761083      -2.58208659
C       -0.79118498       2.97481520      -1.25435925
C        1.03107695      -0.49823450      -3.53388171
