60
Properties=species:S:1:pos:R:3 trial_index=90 seed_entry_id=54 discovered_entry_id=55 energy=-502.3258056640625 status=accepted pbc="F F F"
C       -1.25966473      -2.84238368      -0.49711484
C        2.53452890       0.81417899      -2.16803179
C        2.58761827       2.27713332       2.26028267
C       -0.58850578      -3.44994560       0.58127048
C       -3.75097887       0.37454838       0.31691048
C        3.43729275       1.40909429       0.06761047
C        0.99194436      -1.08987812       2.65237037
C        3.00943331      -0.48214090       1.68311823
C       -5.35082771       1.26176249      -2.71943373
C        2.71336479      -2.14681111       0.10207494
C       -2.11918238       0.83783220       1.90866701
C        0.70353290       3.49187795       0.45793496
C        0.95280609      -2.47953311      -1.54897437
C       -1.50350314       3.69138006      -0.23878162
C        0.03474540       3.33271591      -1.90414820
C        2.80389613      -1.88996575       1.49658804
C        1.28270644       2.77470877      -2.20512200
C       -2.39165650      -1.46800274       1.16731239
C       -2.38417027      -2.01720694      -0.16715940
C        3.12994101       1.75135038      -1.27460904
C       -3.40916860       2.39336255      -1.05436596
C       -0.89314566      -1.45229243      -2.49651978
C       -0.04258793      -3.82023663       2.83393679
C       -4.08396080      -0.37041633      -0.84875495
C       -0.95599755      -3.20441464       1.97356585
C       -0.41558528      -0.82501838       2.54881826
C       -4.67647254       0.43817127      -1.83061147
C        1.08131382      -3.50054348       2.05301653
C       -0.47985095      -2.50131562      -1.63019653
C        2.92266151       2.45534579       0.95259368
C        0.19671558       0.71736784      -3.04745506
C        2.51562606      -0.56812844      -1.82790010
C       -1.35963688      -1.83978958       2.10578177
C       -2.20296315       3.09892259      -1.33989304
C        1.56702375       1.37542197       2.54403523
C        0.26188175      -0.70088802      -2.88711983
C        1.71526315      -2.27646204       2.31942775
C       -2.92492104      -0.18404526       1.33587710
C       -0.80765183       0.58871809       2.40494136
C        0.17384572       1.66741729       2.27304077
C        0.81045437      -3.56641221       0.62124042
C        1.61319737      -2.92100501      -0.36455725
C        2.04023712       3.23760194       0.10413156
C        3.40669626       0.05599133       0.41891076
C        3.10879153      -0.94882201      -0.58070349
C       -4.29618346       1.80102226      -1.97341867
C       -1.12167744       1.36677176      -2.89038196
C        1.37381293       1.45134708      -2.74392772
C       -0.13874257       2.82378343       1.45517374
C       -2.17323991      -0.81907145      -2.31608474
C       -0.15414723       3.90684563      -0.61518445
C        2.32944693       2.93329400      -1.25814595
C       -1.18537366       2.69744236      -2.29570624
C       -3.41965942       1.75051460       0.21850957
C        1.41521397      -1.34339837      -2.29768202
C        1.93297189      -0.00394998       2.48210517
C       -2.17310429       0.49339961      -2.72503768
C       -1.49685634       3.02930828       1.01543563
C       -3.03206600      -1.27507262      -1.21531989
C       -2.45851577       2.04968788       1.24264308
