60
Properties=species:S:1:pos:R:3 trial_index=108 seed_entry_id=67 discovered_entry_id=68 energy=-494.66607666015625 status=accepted pbc="F F F"
C        1.03413059      -4.69919387      -0.87654146
C        2.02728169       0.53853820      -1.98694426
C        1.96551820       2.08917921       2.30148549
C        1.45336374      -5.32664020       0.15954463
C       -3.37803689       0.20939251       0.85905112
C        2.83918646       0.98305670       0.27357141
C        0.93059733      -2.46975256       2.55742243
C        2.16549639      -0.39267111       2.15443899
C       -3.37643894       1.05780696      -3.57154634
C        0.81509235      -3.35003123      -0.99838758
C       -1.75168508       1.30960566       2.03332804
C        0.94330226       3.78740348       0.28723667
C       -0.01313462      -2.49090916      -1.77011411
C       -1.22641034       4.01010903      -0.50664507
C        0.44113624       3.71282099      -2.11296461
C        0.99427308      -1.04307178       2.66420951
C        1.44886031       2.75243599      -2.25450132
C       -1.84664470      -2.38005794      -0.04208335
C       -3.24438505      -2.13595181       0.01506650
C        2.82343305       1.30450514      -1.11377479
C       -3.37863003       1.65214396      -1.21821426
C       -1.80031364      -1.06992197      -2.15338780
C        0.32045845      -2.50965076       1.23375093
C       -3.94513538      -0.94867820       0.32223651
C       -1.05798403      -2.07880721       1.11571297
C       -0.20425771      -0.28911611       2.57789066
C       -3.15107204      -0.71328114      -1.99336347
C        1.83361141      -4.65700316       2.46091828
C       -1.33178367      -2.18271820      -1.36400517
C        2.58709472       2.18392701       0.98637353
C       -0.23571456       1.01895853      -3.03582053
C        1.63978467      -0.76192896      -1.61037565
C       -1.34879571      -0.96035976       1.97651426
C       -1.84063239       3.62368359      -1.71688985
C        2.70070361       1.81770027       3.61639929
C       -0.59202780      -0.37925515      -2.69451340
C        1.60829120      -3.54855989       3.07619504
C       -2.35279842       0.04310514       1.81259967
C       -0.39939880       1.15217685       2.47358345
C        0.50525260       2.20638726       2.15460960
C        1.79980809      -5.40974690       1.40675311
C        1.18297002      -2.43167216       0.09525754
C        2.19655858       3.18814285       0.05311517
C        2.39535052      -0.29102813       0.73594702
C        1.87540260      -1.21420436      -0.24934521
C       -3.56449694       0.60600863      -2.24701760
C       -1.09586129       2.14149967      -3.33968188
C        1.11262190       1.41034908      -2.66749258
C        0.05036224       3.20230674       1.24242485
C       -2.86361814       2.71621331      -1.99741906
C        0.17220071       4.24115619      -0.80808078
C        2.45910269       2.67778476      -1.25533144
C       -0.80349043       3.37102558      -2.67517865
C       -3.16312497       1.47118513       0.18606782
C        0.49330724      -1.26652440      -2.28117552
C        2.46492908       0.73029510       2.92952322
C       -2.53948002       2.09061691      -3.30445438
C       -1.29283104       3.26183023       0.70443096
C       -3.89502676      -1.41301231      -1.01044235
C       -2.18932335       2.21357427       1.02503199
