60
Properties=species:S:1:pos:R:3 trial_index=26 seed_entry_id=17 discovered_entry_id=19 energy=-492.7784729003906 status=accepted pbc="F F F"
C        2.67065047      -3.45385795       0.81051404
C        1.89664076       0.41529397      -2.09141632
C        2.03285938       2.32823067       2.02834976
C        3.04047944      -4.46124197       1.45636475
C       -3.44772041       0.74920023       1.10994798
C        2.91912815       0.96477350       0.06364196
C        0.28373386      -5.53681775       0.71688794
C        2.27251617      -0.44528405       1.96363688
C       -3.58271580       1.06231203      -3.38930625
C        1.85849979      -2.66834331       0.01056431
C       -1.70819773       1.87552320       2.08448649
C        1.05883096       3.90401724      -0.06500760
C       -0.31127771      -2.31019480      -1.05835556
C       -1.12493709       4.20962392      -0.78793376
C        0.43705766       3.63693904      -2.42360515
C        0.95970742      -0.47600934       2.28196066
C        1.38402279       2.61136436      -2.51273883
C       -2.27445188      -2.09953270       0.51710143
C       -3.67132410      -1.72175071       0.55353453
C        2.79122416       1.20676852      -1.34263056
C       -3.43722320       1.92889887      -1.12994141
C       -2.07785098      -0.97248040      -1.70313995
C        0.17714404      -4.43294138       0.13862725
C       -4.14706647      -0.39998581       0.72777141
C       -1.63467451      -1.59575079       1.59518252
C       -0.16463672       0.19663580       2.54080142
C       -3.40087885      -0.51857760      -1.60095193
C        1.98142495      -6.41205056       1.94292715
C       -1.67442785      -2.02079848      -0.80573353
C        2.60181469       2.20508394       0.71865588
C       -0.44028572       0.90012964      -2.95643262
C        1.52423696      -0.83743901      -1.58590047
C       -1.51531054      -0.43463371       2.26862668
C       -1.82322090       3.73742313      -1.91976543
C        2.67514290       1.60338136       3.03629322
C       -0.85206560      -0.39725381      -2.35602905
C        0.77593442      -6.54461644       1.44959132
C       -2.42964634       0.65870575       2.07800182
C       -0.35287152       1.66040998       2.43823892
C        0.61828151       2.60183696       1.98870504
C        3.04490458      -5.65593694       2.05726950
C        0.54754152      -3.18668901      -0.33820188
C        2.22992656       3.16077368      -0.28537358
C        2.66494216      -0.34979934       0.55226792
C        2.16911229      -1.32453906      -0.39586978
C       -3.73008516       0.78584089      -2.01606456
C       -1.24568096       2.02727024      -3.37590424
C        0.95449167       1.25770367      -2.75877362
C        0.17850974       3.52773250       0.99176733
C       -2.90917156       2.86816693      -2.04891490
C        0.26905968       4.30799128      -1.17002895
C        2.44315793       2.57438842      -1.56026161
C       -0.85197116       3.31188977      -2.88779539
C       -3.16794694       1.89557757       0.27448632
C        0.20591365      -1.26410383      -1.85031116
C        2.89720789       0.36080172       2.99342995
C       -2.68487277       2.07348759      -3.28088727
C       -1.18147710       3.61324530       0.50605708
C       -4.19907923      -1.01038147      -0.54539322
C       -2.12608349       2.67075606       0.98196072
