60
Properties=species:S:1:pos:R:3 trial_index=115 seed_entry_id=71 discovered_entry_id=72 energy=-493.82720947265625 status=accepted pbc="F F F"
C        0.77659928      -3.66322457      -0.18024599
C        1.79855057       0.40033991      -2.01900322
C        2.11226351       2.45095745       1.85299071
C        1.16259365      -4.98382095      -0.19189727
C       -3.24541646       0.41226036       0.93474970
C        3.07508840       1.26647308      -0.07661689
C       -0.22477077      -4.20393367       2.82520949
C        2.60979553       0.05669009       2.02859990
C       -1.88027495       0.85316455      -3.09416627
C        1.45837635      -1.63791949       1.02932467
C       -1.53103414       1.55672356       1.90049146
C        0.93834084       4.00686176      -0.11360566
C        0.04333321      -2.79493419      -1.05884083
C       -1.28792177       4.18308130      -0.75934283
C        0.19943521       3.76024596      -2.46385537
C        1.32675541      -0.65407193       2.07954975
C        0.99024013       2.57025226      -2.51129082
C       -2.00049836      -2.43722770       0.48185438
C       -3.34813408      -2.01307497       0.35912885
C        2.66780589       1.34919203      -1.43975595
C       -3.15475738       1.63373050      -1.28135114
C       -1.73610394      -1.55844457      -1.80005407
C       -0.24400221      -3.06724241       2.04952149
C       -3.91063166      -0.73554543       0.50608099
C       -1.29521605      -2.10233127       1.70835161
C        0.09132004      -0.03030118       2.35102003
C       -2.95968068      -0.88984216      -1.75637302
C        1.13284348      -6.18270042       2.03647653
C       -1.33852785      -2.48225256      -0.78956682
C        2.71478674       2.50991349       0.55430601
C       -0.54486886       0.34262720      -2.90180109
C        1.67536050      -0.88700503      -1.39250129
C       -1.19224219      -0.72586648       2.09202492
C       -2.02748579       3.88011292      -1.91581742
C        2.67055180       1.46709551       2.66420607
C       -0.55717170      -0.99256389      -2.37853954
C        0.41189822      -5.29921286       2.71709762
C       -2.15682959       0.29204709       1.82703887
C       -0.15894885       1.42758630       2.22937663
C        0.68059520       2.51906715       1.82870151
C        1.30211781      -5.79122240       0.78226787
C        0.78929141      -2.85833955       1.03417370
C        2.13623880       3.35368279      -0.44519291
C        2.91037125       0.05544953       0.58957099
C        2.19585573      -1.00893512      -0.05149254
C       -2.87249438       0.45181841      -2.10239378
C       -1.48053640       3.09690713      -4.12248675
C        0.69510315       1.10591694      -2.69093600
C        0.12355234       3.47886070       0.92886056
C       -2.77612933       2.72385950      -2.13843579
C        0.07661421       4.36554573      -1.17248395
C        2.15052077       2.64314054      -1.67668856
C       -1.08487803       3.88975128      -3.06745220
C       -3.06134781       1.62382238       0.15954545
C        0.55714541      -1.66847641      -1.79049012
C        3.41308025       0.55000069       3.23126598
C       -2.20948289       2.19137911      -3.38634165
C       -1.25373175       3.48460758       0.48795295
C       -3.88207524      -1.34142274      -0.77344371
C       -2.07426462       2.41792647       0.90771339
