60
Properties=species:S:1:pos:R:3 trial_index=91 seed_entry_id=55 discovered_entry_id=56 energy=-500.4246520996094 status=accepted pbc="F F F"
C       -1.16432341      -2.85715936      -0.55252692
C        2.64882114       0.74513706      -2.16002771
C        2.53155384       2.30725198       2.26215503
C       -0.53863340      -3.45947676       0.55772345
C       -3.66293178       0.44108485       0.20345697
C        3.43095811       1.40613252       0.10194103
C        0.97758375      -1.08778284       2.66641929
C        3.01116527      -0.47224963       1.73801570
C       -5.28044492       1.47854669      -1.83692232
C        2.78052887      -2.16545500       0.17739007
C       -2.13488920       0.82046680       1.91038980
C        0.58974083       3.36510594       0.34653666
C        1.08873532      -2.55295747      -1.53059947
C       -1.65649452       3.72526558      -0.18648602
C       -0.04000447       3.15303904      -2.05138232
C        2.82276832      -1.88570338       1.56849013
C        1.28998829       2.63622809      -2.24540557
C       -2.32956136      -1.44980475       1.04965923
C       -2.27248369      -1.98135923      -0.28723646
C        3.15953585       1.71624187      -1.25463557
C       -3.90350408       2.88252291      -0.59701925
C       -0.71853143      -1.55206299      -2.57741852
C       -0.06874615      -3.81130340       2.83101217
C       -3.92081342      -0.27302621      -1.02766607
C       -0.95573415      -3.20743886       1.93272425
C       -0.42762439      -0.83478823       2.53270259
C       -4.87608825       0.24134623      -1.88669061
C        1.08521029      -3.50044127       2.09091996
C       -0.34176008      -2.57065975      -1.66553946
C        2.85188617       2.45437930       0.94838270
C        0.40397856       0.54682953      -3.21433351
C        2.64426078      -0.63126027      -1.79152972
C       -1.35485974      -1.84240194       2.04030561
C       -2.86811820       3.77816313      -0.79863528
C        1.53307427       1.38109941       2.54811660
C        0.45915528      -0.84156995      -2.96404616
C        1.71348101      -2.27377374       2.36368932
C       -2.85935826      -0.16830385       1.21164126
C       -0.82745212       0.57195071       2.40525431
C        0.14030939       1.65137471       2.27453417
C        0.85946227      -3.58145574       0.65269253
C        1.70250621      -2.95802597      -0.31159783
C        1.94698909       3.16476341       0.05657804
C        3.43263177       0.05622508       0.47706286
C        3.18765021      -0.97402123      -0.51208274
C       -5.05607266       2.67903679      -1.41035983
C       -0.92498769       1.19028620      -3.28087182
C        1.49884297       1.33447430      -2.79775565
C       -0.19322948       2.78412809       1.43518929
C       -1.99684841      -0.89254086      -2.49410249
C       -0.31067690       3.70357031      -0.72960449
C        2.29138390       2.85113095      -1.27755374
C       -0.97061373       2.52554058      -2.84926680
C       -3.55814141       1.84364421       0.37490536
C        1.58485672      -1.44384217      -2.29245746
C        1.91306093       0.00531137       2.50552806
C       -2.02569875       0.33295204      -3.12526065
C       -1.55457485       3.01415522       1.07627597
C       -2.85923487      -1.22907873      -1.35401244
C       -2.53071793       2.07172777       1.35831972
