60
Properties=species:S:1:pos:R:3 trial_index=80 seed_entry_id=48 discovered_entry_id=49 energy=-493.4124450683594 status=accepted pbc="F F F"
C        0.76243254      -3.70285875      -0.25466352
C        1.83709521       0.39482181      -2.00004634
C        2.17733382       2.59840214       1.90178646
C        1.13554916      -5.02545453      -0.30766145
C       -3.21318827       0.36643153       1.00211455
C        3.05030112       1.28628402      -0.02636833
C       -0.23978146      -4.30781094       2.72313925
C        2.60722509      -0.03760437       2.04197251
C       -1.80178076       0.91840445      -3.12000814
C        1.48788631      -1.71629754       1.01354580
C       -1.45697224       1.48421820       1.92185097
C        0.92142638       3.98624625      -0.10193588
C        0.03484299      -2.80055729      -1.10148589
C       -1.30512703       4.16545037      -0.67604021
C        0.09219773       3.66742270      -2.41724311
C        1.37464726      -0.78105500       2.12032070
C        0.97959845       2.54923836      -2.50009390
C       -2.00239827      -2.45045128       0.44148351
C       -3.34455866      -2.00857592       0.30358529
C        2.66234357       1.36164605      -1.39809897
C       -3.26166817       1.70062044      -1.20804303
C       -1.71633676      -1.48580273      -1.79698951
C       -0.24246413      -3.14808479       1.98289540
C       -3.91190892      -0.74542322       0.52852709
C       -1.28368597      -2.16306983       1.67594923
C        0.13832408      -0.12437377       2.36430047
C       -2.90762180      -0.75771461      -1.75613792
C        1.09460089      -6.28355605       1.88708986
C       -1.34265235      -2.46222087      -0.82580949
C        2.73708713       2.55686764       0.57765249
C       -0.48344733       0.35571530      -2.85935397
C        1.69722107      -0.89507043      -1.38307075
C       -1.14606684      -0.79901244       2.09476814
C       -2.13785895       3.85028240      -1.81200491
C        2.89824758       2.14049013       3.03697563
C       -0.52571288      -0.96457301      -2.35727577
C        0.38219354      -5.40813906       2.58716534
C       -2.10197292       0.22926545       1.85840574
C       -0.07699050       1.35058806       2.22934688
C        0.73831743       2.47855544       1.83562762
C        1.26713164      -5.86159731       0.64293613
C        0.80010023      -2.92566835       0.97707682
C        2.13141275       3.37134046      -0.44101243
C        2.86861420       0.06085814       0.63016974
C        2.19126209      -1.02672699      -0.04358276
C       -2.83660304       0.59395068      -2.12867700
C       -1.61847528       3.19807378      -4.18929739
C        0.74510157       1.08877452      -2.68458868
C        0.14314895       3.43396195       0.94946407
C       -3.14872907       2.98447097      -1.67599453
C        0.03356966       4.32182728      -1.14287309
C        2.14004127       2.64907803      -1.66159715
C       -1.22046729       3.79213951      -2.97123857
C       -3.04609440       1.57641571       0.25020663
C        0.57811146      -1.66991830      -1.79697538
C        3.02268735       0.88017070       2.97773055
C       -1.85847665       1.97811602      -3.97899299
C       -1.23874418       3.43364421       0.53313085
C       -3.83250845      -1.24161375      -0.78982212
C       -2.03080271       2.35063518       0.95274502
