60
Properties=species:S:1:pos:R:3 trial_index=81 seed_entry_id=49 discovered_entry_id=50 energy=-493.33526611328125 status=accepted pbc="F F F"
C        0.78911283      -3.69581192      -0.24823374
C        1.87607940       0.37083687      -2.03760793
C        2.15732908       2.61800907       1.86198309
C        1.18598957      -5.01209153      -0.29241587
C       -3.22205908       0.35402458       1.05420751
C        3.05774699       1.29702641      -0.05960234
C       -0.19699979      -4.28614926       2.74593070
C        2.61896846      -0.01254650       2.01580837
C       -1.75008630       0.99133814      -3.01372188
C        1.50064298      -1.69730673       1.00321043
C       -1.47376117       1.49589466       1.96455452
C        0.86961167       3.95247712      -0.16564639
C        0.05793117      -2.80554622      -1.10578150
C       -1.36905770       4.10271926      -0.71487392
C        0.02207645       3.54054550      -2.44625358
C        1.38464972      -0.74945991       2.09912394
C        0.97535613       2.49693643      -2.54271632
C       -1.97162865      -2.44511220       0.44851469
C       -3.31743197      -2.01319057       0.31147352
C        2.68572837       1.35696324      -1.43793669
C       -3.31850461       1.68525433      -1.14839282
C       -1.69472523      -1.48400780      -1.79281225
C       -0.21338129      -3.13474326       1.99173820
C       -3.89716590      -0.76070922       0.55367980
C       -1.25914093      -2.15381897       1.68520832
C        0.14761280      -0.10326428       2.36655457
C       -2.87594018      -0.73958103      -1.73218087
C        1.17355556      -6.24340628       1.91872966
C       -1.31563614      -2.45883958      -0.82144925
C        2.71104764       2.56518470       0.53556792
C       -0.46634803       0.34957761      -2.85853261
C        1.72558393      -0.91008986      -1.40519076
C       -1.13417876      -0.78974025       2.11580528
C       -2.23775793       3.76983460      -1.80070080
C        2.88674374       2.16280298       2.99062103
C       -0.50851359      -0.97660726      -2.37186108
C        0.44679666      -5.37455749       2.61049400
C       -2.10517913       0.23102065       1.90597052
C       -0.08541393       1.37193685       2.24196488
C        0.71845400       2.49815244       1.81608659
C        1.33518834      -5.83299382       0.66936373
C        0.82163930      -2.91170849       0.97973885
C        2.09366358       3.35851030      -0.49132104
C        2.88460453       0.07321710       0.60394859
C        2.21060473      -1.02342999      -0.05983353
C       -2.79777043       0.62493233      -2.06845958
C       -1.75968231       3.30668227      -4.40321443
C        0.77690723       1.05133493      -2.72000519
C        0.10998418       3.43226865       0.91522587
C       -3.30057971       2.98545923      -1.60210649
C       -0.03609301       4.23641935      -1.21196605
C        2.13994522       2.63622359      -1.71159963
C       -1.33259027       3.53398811      -2.98711828
C       -3.07593547       1.56425783       0.30422078
C        0.60022308      -1.68234737      -1.81661094
C        3.03839227       0.90452716       2.95290854
C       -1.74495558       2.19708608      -3.70565436
C       -1.28052825       3.42445620       0.52926021
C       -3.80200226      -1.23235283      -0.77288257
C       -2.06215691       2.35069973       0.98976759
