60
Properties=species:S:1:pos:R:3 trial_index=102 seed_entry_id=62 discovered_entry_id=63 energy=-503.4213562011719 status=accepted pbc="F F F"
C       -1.19399540      -2.91653991      -0.44403455
C        2.50550110       0.63684347      -2.36587220
C        2.35224638       2.43608146       1.99859068
C       -0.52094977      -3.47968672       0.66392806
C       -3.77728150       0.39827639       0.40780651
C        3.25491021       1.44047275      -0.12725140
C        0.98934133      -1.01747434       2.63237109
C        2.95192724      -0.36541628       1.59764524
C       -2.35399278       2.35801089      -2.03384812
C        2.74863285      -2.13867745       0.12484293
C       -2.24366430       0.72180175       2.09884308
C        0.25646838       3.25282334       0.05378786
C        1.01978805      -2.64404902      -1.51547771
C       -2.57475566       3.72345201       0.14474478
C       -0.14434418       2.97242157      -2.40838935
C        2.81975605      -1.79255648       1.50092075
C        1.14982908       2.50224681      -2.61037059
C       -2.36623502      -1.52328403       1.19728819
C       -2.28049872      -2.01233827      -0.14923605
C        2.97242769       1.66721671      -1.49447358
C       -4.65085686       2.83597798       0.42613530
C       -0.82812845      -1.76608896      -2.60697584
C        0.04235845      -3.77267811       2.92728794
C       -3.38267199       0.11564643      -0.92765975
C       -0.89746235      -3.21935900       2.04892923
C       -0.42351954      -0.82378569       2.57189441
C       -2.92764651       1.02823536      -1.97074123
C        1.15872166      -3.44545084       2.14105348
C       -0.41036922      -2.70778341      -1.61626266
C        2.60813308       2.49303921       0.66482394
C        0.24402309       0.33589943      -3.41609902
C        2.53198793      -0.71459141      -1.91823699
C       -1.34331145      -1.87066754       2.15605732
C       -3.99227038       3.89989129       0.14137792
C        1.40846894       1.47261298       2.34065835
C        0.33429822      -1.04593252      -3.06404103
C        1.75507326      -2.18844033       2.35013415
C       -2.96748686      -0.27424028       1.39751931
C       -0.88311292       0.55713786       2.42767538
C       -0.00805605       1.67499403       2.12473362
C        0.88141825      -3.57784882       0.71479409
C        1.67990830      -2.97782495      -0.29915945
C        1.64392611       3.09037690      -0.24753844
C        3.32463989       0.11264711       0.30511485
C        3.10149149      -0.97153837      -0.63025691
C       -1.96126398       3.34663733      -1.05738837
C       -1.06276580       0.94096009      -3.42526054
C        1.36632187       1.15948030      -3.08217133
C       -0.48194976       2.75849340       1.24986906
C       -2.05310273      -1.09591831      -2.43434685
C       -0.53922630       3.45595021      -1.12247833
C        2.06835469       2.76441949      -1.57120389
C       -1.23599584       2.27160051      -2.95835810
C       -3.97508576       1.72109465       0.91735921
C        1.47566186      -1.57157883      -2.35408740
C        1.85463751       0.11135594       2.36636896
C       -2.17861030       0.22516131      -2.91482479
C       -1.91749965       2.99012933       1.21968323
C       -2.76475887      -1.16784465      -1.19128503
C       -2.76241937       1.97137031       1.68007753
