60
Properties=species:S:1:pos:R:3 trial_index=39 seed_entry_id=22 discovered_entry_id=26 energy=-492.12054443359375 status=accepted pbc="F F F"
C        1.73104213      -3.52561413       0.05185643
C        2.05101731       0.56946146      -2.09797375
C        2.08924637       1.95030476       2.07032001
C        2.24582732      -4.62321957       0.52926302
C       -3.40522004       0.24031759       0.92239402
C        3.13261660       1.08952434       0.06662878
C        0.61524686      -2.81864024       2.32286022
C        2.49844932      -0.56395753       1.92121968
C       -3.52786294       1.37706302      -3.44553833
C        1.64801226      -2.10946438       0.40301074
C       -1.54594349       1.15347793       1.86987394
C        0.97959874       3.78088961       0.20748145
C       -0.23591403      -2.23071167      -1.16699158
C       -1.23174161       4.04819346      -0.45074106
C        0.27947798       3.63671793      -2.12345985
C        1.21038807      -1.45914922       1.79908658
C        1.34424343       2.75059035      -2.32111341
C       -2.34342810      -2.43813541      -0.00568813
C       -3.69190634      -2.04998768      -0.02325909
C        2.91420546       1.38802849      -1.31600713
C       -3.58047431       1.86435709      -1.03482288
C       -1.97097543      -0.93165122      -2.00286703
C       -0.32182490      -3.11302314       1.19970374
C       -4.18600164      -0.77635146       0.36426296
C       -1.54280892      -2.40320330       1.19811487
C       -0.00459079      -0.56629554       1.89887937
C       -3.30451554      -0.45760737      -1.92135663
C        1.84011315      -4.70989109       2.69098957
C       -1.62088465      -2.02935122      -1.14687665
C        2.75276983       2.23224923       0.83455695
C       -0.27416989       0.96556851      -2.97360696
C        1.66546538      -0.70300764      -1.63032704
C       -1.33426468      -1.11302253       1.74683446
C       -2.01060085       3.67393846      -1.61907600
C        2.53939116       0.79339751       2.71634426
C       -0.67797248      -0.35089805      -2.50217611
C        1.17007566      -3.72835497       3.18250267
C       -2.27100573      -0.04577742       1.70688892
C       -0.16065333       0.89183505       2.04873643
C        0.67474344       2.04468526       1.92150033
C        2.38388374      -5.30973693       1.64438300
C        0.38015753      -2.95175308      -0.08131912
C        2.23758961       3.21874779      -0.08038023
C        2.83569490      -0.20114310       0.52215075
C        2.22807126      -1.08218051      -0.38742748
C       -3.69513844       0.89250242      -2.12072941
C       -1.17354245       2.04643080      -3.34245180
C        1.06216853       1.40090244      -2.69876219
C        0.14763299       3.13940248       1.16429609
C       -3.22708800       3.12401675      -1.46484858
C        0.13543005       4.23562902      -0.84615101
C        2.43454608       2.73504833      -1.40434235
C       -1.00395192       3.25967915      -2.60570910
C       -3.19931953       1.52663878       0.32456245
C        0.36207140      -1.19676747      -1.93202852
C        3.23899728      -0.21577946       3.18610997
C       -2.42324817       1.77276250      -3.87631906
C       -1.22470734       3.23414557       0.71053931
C       -4.15112367      -1.13080793      -0.99926685
C       -2.09035150       2.16014342       1.03125533
