60
Properties=species:S:1:pos:R:3 trial_index=110 seed_entry_id=68 discovered_entry_id=69 energy=-494.7181701660156 status=accepted pbc="F F F"
C        1.02321003      -4.68647113      -0.84009827
C        2.03235964       0.56659830      -1.95518347
C        1.91657763       2.23681920       2.31308780
C        1.39563576      -5.32765600       0.20408259
C       -3.36824607       0.20648432       0.83490590
C        2.83240889       1.01933568       0.32025027
C        0.89408271      -2.48600412       2.58637158
C        2.24978753      -0.49915146       2.16530346
C       -3.35374847       1.03572143      -3.59591649
C        0.84073347      -3.33390959      -0.98010495
C       -1.74466013       1.31888652       2.00474131
C        0.90870707       3.82598997       0.28119700
C        0.01585768      -2.47889965      -1.76021949
C       -1.25355114       4.02338331      -0.53461245
C        0.43060914       3.73013310      -2.12422546
C        1.00029135      -1.05913547       2.63375336
C        1.44555712       2.77422028      -2.24632259
C       -1.83083741      -2.38421331      -0.05136944
C       -3.22950791      -2.14349015       0.00216321
C        2.80808758       1.33893372      -1.07103902
C       -3.37676326       1.64357569      -1.24620193
C       -1.77936266      -1.07206772      -2.15910699
C        0.33683492      -2.49285667       1.23932955
C       -3.93124447      -0.95606760       0.30375696
C       -1.04380107      -2.07196607       1.10335537
C       -0.17965953      -0.27133518       2.53726678
C       -3.13347445      -0.72523249      -2.00841898
C        1.72912467      -4.69411797       2.52913507
C       -1.31019249      -2.18429616      -1.36999016
C        2.54483838       2.23593814       1.02500904
C       -0.22063075       1.02606003      -3.03364471
C        1.65519120      -0.73835814      -1.59067242
C       -1.32874423      -0.94429350       1.94927575
C       -1.85377515       3.62544118      -1.74756656
C        2.59958296       1.61527550       3.39764194
C       -0.57177450      -0.37217702      -2.68925584
C        1.51803031      -3.57792901       3.14296257
C       -2.33866573       0.05008191       1.78572434
C       -0.39493728       1.17512540       2.45667079
C        0.48792070       2.27304234       2.16532280
C        1.70067490      -5.42582508       1.46116761
C        1.21654562      -2.41560376       0.11292843
C        2.16223309       3.22768961       0.06368314
C        2.43261391      -0.28468510       0.75263064
C        1.90097971      -1.19504967      -0.23854111
C       -3.55042391       0.59105030      -2.27029614
C       -1.08457446       2.14042682      -3.35571626
C        1.12159715       1.42795469      -2.65392403
C        0.01300285       3.25199265       1.23294913
C       -2.86678374       2.70757525      -2.02941617
C        0.14491630       4.26546431      -0.82619966
C        2.43853018       2.70576275      -1.22925470
C       -0.80673740       3.37700454      -2.69721940
C       -3.16553198       1.46926825       0.16054168
C        0.51626949      -1.25064951      -2.26577880
C        2.73245417       0.39028010       3.11339401
C       -2.52802389       2.07763360      -3.33043198
C       -1.32242852       3.28447814       0.68330324
C       -3.87998351      -1.42601628      -1.02756741
C       -2.20022672       2.22100062       1.00138729
