60
Properties=species:S:1:pos:R:3 trial_index=13 seed_entry_id=9 discovered_entry_id=10 energy=-491.91796875 status=accepted pbc="F F F"
C        1.14663129      -4.07840903      -1.56248224
C        2.26289232       0.37577926      -1.96416479
C        2.09827654       2.62524582       1.98156751
C        1.45202527      -5.28165705      -1.29023314
C       -3.35336085       0.57348937       1.27660203
C        3.16640704       1.27233992       0.15346247
C        0.04656559      -3.50967457       1.47221979
C        2.39190615      -0.07051613       2.11005201
C       -3.39682897       0.62880375      -3.28733228
C        1.07986755      -1.43364957       0.79437120
C       -1.59062157       1.76882028       2.09608700
C        0.96442846       3.91396565      -0.22170226
C        0.70207901      -2.87633130      -1.15738264
C       -1.23974955       3.97220133      -0.92910408
C        0.30391999       3.28448477      -2.47875028
C        1.06517927      -0.63449145       2.01620440
C        1.41632313       2.44019790      -2.52242973
C       -2.12130996      -2.07895128       0.97801681
C       -3.48890487      -1.85789782       0.79266830
C        3.02473588       1.35264135      -1.27109787
C       -3.45910218       1.65454077      -1.02451249
C       -1.53188442      -1.23307154      -1.28787354
C       -0.59670226      -2.88050856       2.51994828
C       -4.05453312      -0.55716427       0.84894592
C       -1.47902918      -1.87626114       2.26976251
C       -0.04605166       0.12043185       2.53395047
C       -2.89301970      -0.75336228      -1.35662510
C        1.11305571      -5.72284311       0.80762113
C       -1.23819391      -1.97699684      -0.09871868
C        2.73821950       2.53952539       0.70127910
C       -0.08172958       0.46531484      -2.81141049
C        1.95055699      -0.87184027      -1.40463884
C       -1.36109902      -0.47318454       2.56575368
C       -1.98845391       3.33465595      -1.99671695
C        2.70152882       2.04299939       3.12206647
C       -0.35758563      -0.82228024      -2.13783039
C        0.59350027      -4.76845135       1.44318627
C       -2.29261871       0.53676726       2.21051213
C       -0.20830334       1.59079714       2.36716729
C        0.66676939       2.62190208       1.86323587
C        1.55998729      -6.21802868      -0.35345573
C        0.15258223      -2.48584486       0.22962610
C        2.22856596       3.32775888      -0.38801793
C        2.84459518       0.04520126       0.75997516
C        2.12761420      -0.94127724      -0.00610666
C       -3.41743652       0.46502630      -1.86765699
C       -1.05897244       1.40767926      -3.33216843
C        1.21966939       1.02937778      -2.66534168
C        0.13622556       3.48184587       0.84948471
C       -3.20084353       2.81214348      -1.73311007
C        0.12370165       4.12088022      -1.34852373
C        2.48305768       2.63335862      -1.60028970
C       -0.95588232       2.75336313      -2.86299516
C       -3.12838372       1.66891351       0.39205954
C        0.81853498      -1.60868608      -1.87967495
C        2.79865342       0.78101703       3.12616066
C       -2.29559768       0.97660187      -3.77421187
C       -1.22670823       3.44700620       0.38884370
C       -3.83152914      -1.18275861      -0.39540276
C       -2.08667039       2.49022815       0.97411784
