60
Properties=species:S:1:pos:R:3 trial_index=116 seed_entry_id=72 discovered_entry_id=73 energy=-493.96270751953125 status=accepted pbc="F F F"
C        0.77332860      -3.69950913      -0.19349803
C        1.78087606       0.39175991      -1.98832362
C        2.16655603       2.62852769       1.87254987
C        1.16325312      -5.01918558      -0.21948943
C       -3.21959129       0.39250608       0.93693476
C        3.03754952       1.28625333      -0.03500767
C       -0.23652031      -4.25674366       2.80908885
C        2.59071262      -0.00746504       2.04836249
C       -1.89025815       0.82833487      -3.08907554
C        1.46988167      -1.69318145       1.04163381
C       -1.46740510       1.52195807       1.85147003
C        0.94562632       4.01563979      -0.14544253
C        0.03682799      -2.81973994      -1.05757004
C       -1.28332448       4.16983839      -0.77967634
C        0.19929229       3.74740342      -2.48636975
C        1.35454766      -0.74220600       2.13488827
C        0.98709165       2.55661837      -2.51511704
C       -1.99914679      -2.46252146       0.49148007
C       -3.34520180      -2.03239580       0.37574080
C        2.63908256       1.34449689      -1.40312975
C       -3.16130451       1.61526992      -1.28035868
C       -1.74444521      -1.57784260      -1.78830976
C       -0.24150524      -3.11209765       2.04456476
C       -3.90189999      -0.75242948       0.52575402
C       -1.28201200      -2.13405450       1.71423460
C        0.11930023      -0.07647680       2.36013918
C       -2.96862966      -0.91037035      -1.74345656
C        1.12497372      -6.22720597       2.00452556
C       -1.34452208      -2.50685314      -0.78271669
C        2.74085460       2.56769548       0.55531261
C       -0.55379507       0.32654124      -2.88665634
C        1.65760530      -0.89633418      -1.36571080
C       -1.16012595      -0.75632895       2.08846026
C       -2.02611475       3.85458362      -1.92993148
C        2.87446461       2.18028151       3.01842368
C       -0.56601578      -1.00857866      -2.36364425
C        0.39900600      -5.35201244       2.68948108
C       -2.10998525       0.26771812       1.80154482
C       -0.09362021       1.39415596       2.18981122
C        0.72774258       2.51343538       1.79137585
C        1.29959403      -5.82975048       0.75313876
C        0.79426324      -2.90767938       1.02875860
C        2.15473871       3.38325887      -0.47209481
C        2.85154035       0.07132284       0.63518790
C        2.16591162      -1.01784869      -0.02821495
C       -2.88364078       0.42982154      -2.09685809
C       -1.49027858       3.06295918      -4.13400402
C        0.68538624       1.09183274      -2.67634129
C        0.14551684       3.45953049       0.88755090
C       -2.78338980       2.70224324      -2.14366046
C        0.07816256       4.36774639      -1.20100299
C        2.14606644       2.63548718      -1.67837904
C       -1.08931960       3.86004326      -3.08488449
C       -3.04854312       1.60530921       0.15896549
C        0.54867840      -1.68507324      -1.77723970
C        3.00433938       0.91970640       2.97586045
C       -2.22172639       2.16368811      -3.39151039
C       -1.23181160       3.46091062       0.45855468
C       -3.88488166      -1.36061984      -0.75371307
C       -2.03678725       2.38880761       0.88258208
