60
Properties=species:S:1:pos:R:3 system=runs/20260728-safe-lbfgs-strict-quench-200-production/output-c60-seed42 state_id=intermediate_accepted pbc="F F F"
C       -1.40079338      -2.23503592      -0.20990729
C        4.46255138      -2.26535658       4.46994322
C        0.60376010      -0.37166626       2.25500388
C       -1.13643325       3.36012805      -1.96481900
C       -2.92705249       2.99739385      -0.40782469
C        3.53849197      -2.50293733       4.21111043
C       -2.40529557      -1.38075182       0.38045575
C       -1.68586310      -2.71872265       2.05339790
C        1.99073262       2.79990342      -0.67211241
C       -0.48115025       2.99470202      -3.18254320
C       -1.03406654       2.93431854       1.20053667
C        2.34418902       0.96198162       0.62192196
C       -1.34053564      -2.10906318      -1.70601506
C        1.18120924       3.38308114      -1.64410060
C        2.56975477       0.34248988      -1.63466930
C       -1.79740188      -0.47802201       2.40442874
C        2.73942673      -0.80774444      -0.80252069
C       -1.88742414       1.01793169      -3.43030009
C       -2.51468470       1.34736281      -2.18302229
C        0.49944462      -3.20122538       1.76995309
C        0.31350382       1.21572588      -4.32871690
C       -0.79513386      -0.97953883      -4.30763509
C       -4.89866713       2.97138263       0.98551983
C       -2.95069356      -0.12385102      -0.06389102
C       -3.09579953       0.89940396       0.94127809
C       -2.01199396       0.81946148       1.92063650
C        0.33862228      -0.16201406      -4.49354824
C       -2.44826525      -1.55749631       1.76313204
C       -1.79043973      -0.40478595      -3.51501130
C        1.72377946      -1.13097896       1.66486761
C        1.24567205      -2.06455462      -3.89473022
C        1.76178064      -2.47548477       2.09463267
C       -3.62919442       2.28220193       0.70608676
C        0.92131271       2.81555765      -2.89624024
C       -0.52682674      -0.98466670       2.84070073
C       -0.21230209      -2.26631588      -3.88018540
C       -5.89773557       3.73084111       0.87338405
C       -2.34706127       3.20790024       0.78271602
C       -0.88185204       1.68777296       1.89299473
C        0.45521197       1.09135132       2.04403935
C       -0.76048256      -2.98798268       0.96238774
C       -2.11584688      -0.98525405      -2.24580581
C        2.42915172      -0.45255936       0.55939588
C        1.21963952      -3.48164207       4.10283038
C        2.31482942      -2.78992534       3.61221818
C        1.50005829      -0.71328568      -3.85996460
C        1.37859537       3.01297111       0.65065272
C        5.45973118      -2.00161488       4.73229083
C        1.52987972       1.80127222       1.42024285
C       -0.91141331       1.89046422      -3.99060772
C        2.46057240       1.46519204      -0.71055866
C        0.17548383      -3.38548838       3.19692568
C        1.36559014       1.57884913      -3.44861304
C       -2.33685933       2.65270071      -1.63374164
C       -0.64856085      -2.80223647      -2.68805110
C       -0.82357365      -2.38904774       3.15138138
C        2.06177369       0.39789434      -3.01326771
C        0.03108162       3.41614220       0.37750227
C       -2.71390286       0.08619128      -1.44227386
C       -0.09904810       3.66074520      -1.01310313
