60
Properties=species:S:1:pos:R:3 system=runs/20260728-safe-lbfgs-strict-quench-200-production/output-c60-seed42 state_id=intermediate_accepted pbc="F F F"
C       -2.00786641      -2.30975197       0.15379914
C        4.80350974      -3.07189979       2.27064226
C        0.28593335      -0.23858343       2.22601868
C       -1.08563082       3.15321248      -2.11188470
C       -2.98998160       2.95363296      -0.70736772
C        3.53523209      -2.99829678       2.35952334
C       -2.93747124      -1.35794733       0.62473848
C       -2.08476661      -2.49982477       2.44563357
C        1.99577284       2.98394642      -0.52232741
C       -0.30741090       2.72992565      -3.21794220
C       -1.25533651       3.02861463       1.05983125
C        2.30105951       1.08904917       0.75918107
C       -1.45604901      -2.20533104      -1.16150283
C        1.19584974       3.39981706      -1.61310397
C        2.84959435       0.77359547      -1.43619069
C       -2.09488187      -0.27318001       2.52617659
C        2.41724627      -0.50778959      -0.91124694
C       -1.55487587       0.65934966      -3.34152162
C       -2.43142456       1.11113232      -2.27840875
C       -0.04345713      -3.08019161       1.66640772
C        0.73507912       0.95216102      -4.17450006
C        0.03443425      -1.21858371      -3.34978544
C       -5.01422701       2.78643680       0.83105267
C       -3.17296519      -0.12883631      -0.06642967
C       -3.22036736       0.99500968       0.82042933
C       -2.24431696       0.95963396       1.87272937
C        1.00886422      -0.41145747      -3.97662561
C       -2.85105206      -1.35952311       2.05302972
C       -1.26162037      -0.71987062      -3.12490836
C        1.20913988      -0.99661488       1.39330847
C        1.95563837      -1.29908506      -2.02825775
C        1.19892841      -2.42718748       1.45345488
C       -3.70907044       2.33665843       0.44565809
C        1.09223378       2.84555413      -2.90603067
C       -0.82513810      -0.77556188       2.94594735
C        0.67159572      -1.97356065      -2.26263474
C       -6.17207862       3.06065911       1.18330754
C       -2.53013189       3.31548818       0.52362036
C       -1.10581372       1.81455563       1.81373024
C        0.18863531       1.20920954       1.98588484
C       -1.38450216      -2.92276062       1.26636739
C       -1.99703924      -1.15240439      -1.98363296
C        2.09509779      -0.29402790       0.49973328
C        1.33180849      -3.19774188       3.56331203
C        2.18272667      -2.96796587       2.46397473
C        2.19983635      -0.50150492      -3.19605519
C        1.15909943       3.04831769       0.65762413
C        6.08287666      -3.10590949       2.15015595
C        1.31460650       1.86162183       1.41940858
C       -0.55253439       1.49793574      -3.87410382
C        2.72434631       1.76676970      -0.44279050
C        0.04935067      -3.00979628       3.11465134
C        1.74654347       1.72821158      -3.47941864
C       -2.32033373       2.47435496      -1.83907887
C       -0.17465709      -2.64275848      -1.43139534
C       -1.03761564      -2.13155741       3.37031845
C        2.62551728       0.81971237      -2.82936872
C       -0.14977414       3.46501461       0.29389937
C       -2.74755386      -0.05178319      -1.44673748
C       -0.16112865       3.62576298      -1.12152304
