54
Lattice="21.66 0.0 0.0 0.0 5.10531 0.0 0.0 0.0 22.55266" Properties=species:S:1:pos:R:3 trial_index=32 seed_entry_id=29 discovered_entry_id=30 energy=-201.188232421875 status=accepted pbc="T T F"
Cu       0.00000000       0.00000000      10.00000000
Cu       3.61000000       0.00000000      10.00000000
Cu       7.22000000       0.00000000      10.00000000
Cu      10.83000000       0.00000000      10.00000000
Cu      14.44000000       0.00000000      10.00000000
Cu      18.05000000       0.00000000      10.00000000
Cu       0.00000000       2.55265548      10.00000000
Cu       3.61000000       2.55265548      10.00000000
Cu       7.22000000       2.55265548      10.00000000
Cu      10.83000000       2.55265548      10.00000000
Cu      14.44000000       2.55265548      10.00000000
Cu      18.05000000       2.55265548      10.00000000
Cu       1.80500000       1.27632774      11.27632774
Cu       5.41500000       1.27632774      11.27632774
Cu       9.02500000       1.27632774      11.27632774
Cu      12.63500000       1.27632774      11.27632774
Cu      16.24500000       1.27632774      11.27632774
Cu      19.85500000       1.27632774      11.27632774
Cu       1.80500000       3.82898322      11.27632774
Cu       5.41500000       3.82898322      11.27632774
Cu       9.02500000       3.82898322      11.27632774
Cu      12.63500000       3.82898322      11.27632774
Cu      16.24500000       3.82898322      11.27632774
Cu      19.85500000       3.82898322      11.27632774
Cu      21.65210746       0.00258737      12.47382735
Cu       1.32848493       1.28195526      14.21961661
Cu       7.91745205       1.18967254      14.72914502
Cu      12.66387387       1.00399507      13.72616551
Cu      14.50783927       5.08868204      12.60333889
Cu      18.03016400       0.02089660      12.60007915
Cu       0.00765543       2.55316018      12.40585558
Cu       3.35441976       2.65324377      12.62819634
Cu       7.34635344       2.48370698      12.52995301
Cu      10.85890507       2.49674899      12.58272565
Cu      10.50370606       1.14678884      15.00508590
Cu      18.10474328       2.56382319      12.55857730
Cu       5.55055450       3.51867684      13.84140532
Cu       7.27724603       5.05713426      12.54349615
Cu      20.10897986       1.29713979      14.09282312
Cu      10.71197574       5.03983425      12.57476900
Cu       8.00024947       3.68245276      14.78453827
Cu       1.32834302       3.80772056      14.21760078
Cu       3.61728756       0.04838915      12.72367568
Cu      10.61603896       3.66233699      14.87525317
Cu      20.10063529       3.80477561      14.06935235
Cu      14.34276301       2.44600079      12.66750139
O        6.64616529       4.92107282      14.52241419
O       21.54284923       2.54783381      14.62398286
O       15.67848623       3.69530919      13.15421068
O       11.85668417       5.01221754      15.03708436
O        9.22018012       2.43162386      15.43368433
O        4.95709458       1.83751831      13.25207129
O       18.81349435       0.00274120      14.33664250
O        2.62295933       5.09292110      14.40464718
