54
Lattice="21.66 0.0 0.0 0.0 5.10531 0.0 0.0 0.0 22.55266" Properties=species:S:1:pos:R:3 trial_index=25 seed_entry_id=23 discovered_entry_id=24 energy=-201.81478881835938 status=accepted pbc="T T F"
Cu       0.00000000       0.00000000      10.00000000
Cu       3.61000000       0.00000000      10.00000000
Cu       7.22000000       0.00000000      10.00000000
Cu      10.83000000       0.00000000      10.00000000
Cu      14.44000000       0.00000000      10.00000000
Cu      18.05000000       0.00000000      10.00000000
Cu       0.00000000       2.55265548      10.00000000
Cu       3.61000000       2.55265548      10.00000000
Cu       7.22000000       2.55265548      10.00000000
Cu      10.83000000       2.55265548      10.00000000
Cu      14.44000000       2.55265548      10.00000000
Cu      18.05000000       2.55265548      10.00000000
Cu       1.80500000       1.27632774      11.27632774
Cu       5.41500000       1.27632774      11.27632774
Cu       9.02500000       1.27632774      11.27632774
Cu      12.63500000       1.27632774      11.27632774
Cu      16.24500000       1.27632774      11.27632774
Cu      19.85500000       1.27632774      11.27632774
Cu       1.80500000       3.82898322      11.27632774
Cu       5.41500000       3.82898322      11.27632774
Cu       9.02500000       3.82898322      11.27632774
Cu      12.63500000       3.82898322      11.27632774
Cu      16.24500000       3.82898322      11.27632774
Cu      19.85500000       3.82898322      11.27632774
Cu      21.63964270       5.10055159      12.48847471
Cu       1.18961982       1.28135689      14.30985097
Cu       5.54169821       1.26947518      14.02693842
Cu      12.68176267       1.38115671      13.77138194
Cu      12.72706228       3.86635314      13.73819439
Cu      18.09873927       5.09492041      12.57022827
Cu      21.65392644       2.55089044      12.42281399
Cu       3.54618052       2.55278614      12.51605050
Cu       7.24332675       2.55893801      12.51724355
Cu      10.79684167       2.57174161      12.59368644
Cu      10.48033298       1.25446780      14.93189158
Cu      18.20002537       2.54119589      12.65370777
Cu       5.49425214       3.81606185      14.09244559
Cu       7.31026460       0.01853403      12.51288168
Cu      20.07865846       1.29025809      14.11761607
Cu      10.73316661       0.01524439      12.56378441
Cu       8.10114982       3.71760721      14.58741171
Cu       1.17586300       3.81184124      14.32409200
Cu       3.58263327       5.10396216      12.65835252
Cu      10.63950976       3.83968535      15.07418984
Cu      20.08037827       3.79973951      14.13088325
Cu      14.38036469       2.56748959      12.58254069
O        6.82571765       5.08541996      14.46224860
O       21.46426486       2.54097223      14.76552006
O       16.25823764       2.55606128      12.82642019
O       11.98626174       0.05328461      15.03741065
O        9.31289980       2.59368861      15.36610272
O        4.22559998       2.51982692      14.28933570
O       18.77631993       5.09758049      14.34486359
O        2.47947031       5.09075974      14.27306944
