54
Lattice="21.66 0.0 0.0 0.0 5.10531 0.0 0.0 0.0 22.55266" Properties=species:S:1:pos:R:3 trial_index=34 seed_entry_id=25 discovered_entry_id=32 energy=-201.4273681640625 status=accepted pbc="T T F"
Cu       0.00000000       0.00000000      10.00000000
Cu       3.61000000       0.00000000      10.00000000
Cu       7.22000000       0.00000000      10.00000000
Cu      10.83000000       0.00000000      10.00000000
Cu      14.44000000       0.00000000      10.00000000
Cu      18.05000000       0.00000000      10.00000000
Cu       0.00000000       2.55265548      10.00000000
Cu       3.61000000       2.55265548      10.00000000
Cu       7.22000000       2.55265548      10.00000000
Cu      10.83000000       2.55265548      10.00000000
Cu      14.44000000       2.55265548      10.00000000
Cu      18.05000000       2.55265548      10.00000000
Cu       1.80500000       1.27632774      11.27632774
Cu       5.41500000       1.27632774      11.27632774
Cu       9.02500000       1.27632774      11.27632774
Cu      12.63500000       1.27632774      11.27632774
Cu      16.24500000       1.27632774      11.27632774
Cu      19.85500000       1.27632774      11.27632774
Cu       1.80500000       3.82898322      11.27632774
Cu       5.41500000       3.82898322      11.27632774
Cu       9.02500000       3.82898322      11.27632774
Cu      12.63500000       3.82898322      11.27632774
Cu      16.24500000       3.82898322      11.27632774
Cu      19.85500000       3.82898322      11.27632774
Cu      21.55302340       5.09259511      12.51343963
Cu       1.23413134       1.15979506      14.25534410
Cu       5.48762770       1.28349930      14.04182215
Cu      12.59633135       1.25620981      13.81634158
Cu      12.80599707       3.70250768      13.74695150
Cu      18.33961000       0.02599741      12.52676824
Cu      21.62360384       2.55128369      12.43327868
Cu       3.54452586       2.54985279      12.50292705
Cu       7.22310737       2.58078499      12.54517810
Cu      10.86172777       2.56327882      12.54935110
Cu       9.07991101       1.34535978      13.84285358
Cu      17.70706714       2.64492749      12.82882735
Cu       5.43734803       3.82450677      14.11002508
Cu       7.29357125       0.02942420      12.53975652
Cu      19.83606828       1.65226808      13.99631121
Cu      10.76653901       5.08222009      12.55809563
Cu       8.06541718       3.84067678      14.65887679
Cu       1.21576079       3.72392464      14.22641655
Cu       3.58734689       5.10264601      12.64281476
Cu      10.65298389       3.89137058      14.93506104
Cu      16.41863402       0.09563300      13.79303171
Cu      14.39630186       2.43002058      12.54809753
O        6.72298679       0.00447519      14.57829706
O       21.53267663       2.41028711      14.49538408
O       15.78424050       3.54440125      13.27785200
O       12.15520352       4.96628605      14.97738736
O        9.33146890       2.64855512      15.20017751
O        4.16867686       2.52150584      14.29226806
O       17.98540367       1.19605337      14.14409647
O        2.52814975       4.99633862      14.27771207
