54
Lattice="21.66 0.0 0.0 0.0 5.10531 0.0 0.0 0.0 22.55266" Properties=species:S:1:pos:R:3 trial_index=39 seed_entry_id=36 discovered_entry_id=37 energy=-201.77020263671875 status=accepted pbc="T T F"
Cu       0.00000000       0.00000000      10.00000000
Cu       3.61000000       0.00000000      10.00000000
Cu       7.22000000       0.00000000      10.00000000
Cu      10.83000000       0.00000000      10.00000000
Cu      14.44000000       0.00000000      10.00000000
Cu      18.05000000       0.00000000      10.00000000
Cu       0.00000000       2.55265548      10.00000000
Cu       3.61000000       2.55265548      10.00000000
Cu       7.22000000       2.55265548      10.00000000
Cu      10.83000000       2.55265548      10.00000000
Cu      14.44000000       2.55265548      10.00000000
Cu      18.05000000       2.55265548      10.00000000
Cu       1.80500000       1.27632774      11.27632774
Cu       5.41500000       1.27632774      11.27632774
Cu       9.02500000       1.27632774      11.27632774
Cu      12.63500000       1.27632774      11.27632774
Cu      16.24500000       1.27632774      11.27632774
Cu      19.85500000       1.27632774      11.27632774
Cu       1.80500000       3.82898322      11.27632774
Cu       5.41500000       3.82898322      11.27632774
Cu       9.02500000       3.82898322      11.27632774
Cu      12.63500000       3.82898322      11.27632774
Cu      16.24500000       3.82898322      11.27632774
Cu      19.85500000       3.82898322      11.27632774
Cu      21.64191368       0.01158486      12.48275037
Cu       1.23691979       1.31270743      14.27443637
Cu       5.66664910       1.37236969      14.10640660
Cu      12.73302320       1.14203382      13.73969344
Cu      12.70178999       3.64958766      13.75860760
Cu      18.09360946       0.00132444      12.57389899
Cu      21.65203958       2.56263688      12.41285745
Cu       3.54218716       2.56432975      12.57577283
Cu       7.22054609       2.58918658      12.46359170
Cu      10.77417585       2.49806712      12.63612969
Cu       8.71664826       1.29867906      13.92299274
Cu      18.19784728       2.55438832      12.64517294
Cu       5.68941446       3.92120178      14.07750986
Cu       7.27372896       5.09659064      12.44107780
Cu      20.09782811       1.31941384      14.11277903
Cu      10.71942361       5.06579623      12.61740960
Cu      10.80813188       1.12340968      15.28445298
Cu       1.24836923       3.83954480      14.26182109
Cu       3.62273407       0.01539871      12.66317108
Cu      10.61527573       3.71812208      15.05191984
Cu      20.09115616       3.82852485      14.10778374
Cu      14.38258459       2.47101218      12.57057988
O        7.00573602       0.11750980      14.37790972
O       21.50502937       2.57898812      14.70553264
O       16.25710965       2.55740965      12.82799354
O       12.13705217       4.92243114      15.12781435
O        9.44697376       2.34526007      15.36063414
O        4.38302194       2.65341949      14.28784242
O       18.79340454       0.02534960      14.34267774
O        2.54061548       0.03271379      14.28060243
