60
Properties=species:S:1:pos:R:3 trial_index=1 seed_entry_id=0 discovered_entry_id=1 energy=-475.8025207519531 status=accepted pbc="F F F"
C        3.99521141       0.35830287      -0.21991099
C        0.96435801       2.15500767      -1.75461126
C       -1.08834103       2.42243123       2.39716318
C        3.33069513       1.61655192      -0.30151577
C       -2.18018307      -2.07818395       1.66614972
C        0.44303249       2.72571687       0.56825281
C        3.08352406      -1.89395616       1.19866796
C        1.78118401       0.71692834       2.58420150
C       -1.24241970      -0.09973993      -3.62179811
C        1.50850454      -0.47577252       0.31293831
C       -2.12318191      -0.84808453       3.55376768
C       -2.78954998       2.56523877       0.18904542
C        3.41692617      -0.65079671      -1.01997748
C       -4.14785582       1.00735065      -0.86086433
C       -2.69638869       2.20629341      -2.23474927
C        0.83228945       0.16154005       1.52190274
C       -1.32225310       2.52419377      -2.11654445
C        0.99839130      -3.49619846      -0.65009570
C       -0.16644263      -3.05125112      -0.36778051
C        0.46583434       3.12721444      -0.82082981
C       -2.65142158       0.04168969      -3.58581761
C        1.06936821      -1.50313353      -2.02659160
C        2.29480157      -2.03428840       2.42583890
C       -1.21523164      -1.35355562       0.86004377
C        1.09512667      -2.29333852       2.96173661
C       -0.43514142      -0.58006900       1.93829296
C       -0.19652574      -1.04588724      -1.61192270
C        3.15385464       0.45419767       2.23353409
C        1.73589796      -2.35566829      -1.06379131
C       -0.74669886       3.16766990       1.22153058
C        1.19601526      -0.37719212      -4.14923164
C        2.13973291       1.29927842      -1.35444437
C       -0.12537035      -1.79254485       2.80423139
C       -4.19094700       0.40386009      -2.14691051
C       -0.02412525       2.14142168       3.25536112
C        1.81070486      -0.65405166      -2.91419341
C        3.24156931      -0.96650416       2.18048620
C       -1.59722605      -2.05097523       3.02988206
C       -1.60578327       0.12047925       2.73231013
C       -2.07336373       1.38522765       2.20579216
C        3.55977222       0.91786295       0.95696695
C        2.51579715      -1.47185550      -0.14498581
C       -1.65252272       3.36825569       0.15474292
C        0.69633482       1.37292892       0.64759274
C        1.35208460       0.69703747      -0.33820777
C       -0.65048852       0.16167474      -2.29877339
C        0.81008652      -0.31109232      -5.48740829
C       -0.26100638       1.55380427      -2.23376396
C       -2.98954930       1.50618651       1.11676450
C       -3.67492640      -0.68995358      -2.82844110
C       -3.39494898       2.19027598      -1.01888805
C       -0.91233138       3.39312511      -1.07657285
C       -3.28957324       1.18493097      -3.02046979
C       -3.51434084      -1.82090944       1.35968696
C        2.66776732       0.05890964      -2.05046530
C        1.09902885       1.59309230       3.42750062
C       -0.18950182      -0.29993237      -4.51099733
C       -3.89781784       0.51965667       0.48628111
C       -0.75389364      -1.77880376      -0.43612128
C       -4.06164213      -0.78348093       0.91102160
