60
Properties=species:S:1:pos:R:3 trial_index=7 seed_entry_id=5 discovered_entry_id=6 energy=-483.1387023925781 status=accepted pbc="F F F"
C        0.06752756      -3.71316224       1.56791697
C        2.90341823       0.43675687       0.98861103
C       -0.65380610       2.72912761       2.11560062
C        1.21012461      -2.86029716       1.88367808
C       -3.60361672       0.85931358      -1.33934920
C        1.50062580       1.51077088       2.44475891
C       -2.51511756      -2.89059500       1.33203039
C       -0.40110092      -0.23298988       2.31860119
C        3.01624494       0.24035095      -2.93721520
C       -0.14675278      -1.12554213      -0.07132060
C       -3.69574006       2.12597289       0.49196387
C        0.77457421       3.68584260      -0.08269685
C       -0.77944448      -4.32504022       0.76273701
C        0.39059755       3.44416038      -2.36271554
C        2.69348292       3.11286856      -1.47392857
C       -0.77712641      -0.20494285       0.80851313
C        3.09102534       2.27285908      -0.39544096
C       -3.69630908      -3.70327491      -1.79433231
C       -2.99397580      -2.54408879      -1.45275355
C        2.75183598       1.60324334       1.76021802
C        3.01351509       1.57374944      -3.39452005
C       -0.06627491      -2.16637407      -2.25599846
C       -3.34626903      -1.78268413       1.58432702
C       -2.60207555      -0.08415566      -0.82961913
C       -4.33878073      -0.94714908       1.19451939
C       -1.88421120       0.50165744       0.25709116
C       -0.81783633      -1.59644270      -1.26282510
C       -0.84319534      -1.62547745       2.75624713
C       -2.77196713      -3.76620762      -0.76727874
C        0.75771097       2.66934065       2.09127632
C        1.25132370      -1.86140827      -2.44172311
C        1.87280236      -1.85600251       1.14855937
C       -4.84176038       0.04082378       0.61732380
C        0.77218153       3.03235415      -3.62143432
C       -1.31211355       1.96712449       3.13214314
C        1.89061773      -1.18261319      -1.31865004
C       -2.09740964      -1.99546877       2.25022325
C       -4.41442382       1.12227911      -0.14703025
C       -2.36916375       1.87519832       0.63825791
C       -1.30298094       2.85204808       0.86339469
C        0.03332582      -2.66709012       2.54774638
C       -2.04289725      -3.88233871       0.44989749
C        1.48217557       3.33298945       1.06154975
C        1.07340701       0.15196980       2.37867762
C        2.07278100      -0.55036860       1.62020418
C        2.73663950      -0.04658659      -1.53061118
C        2.02169851      -1.82509586      -3.65741165
C        3.04103202       0.82077353      -0.39675386
C       -0.60086598       3.39363777      -0.24020017
C        2.02436429       2.58624091      -3.76338799
C        1.39099089       3.63708347      -1.34989776
C        2.75193893       2.72196272       0.91200073
C        3.08440288       2.79868391      -2.78088937
C       -3.03291861       1.90875456      -2.06474679
C        1.25330442      -1.48197133      -0.06017452
C       -1.20009574       0.72518527       3.11394721
C        2.80391158      -0.83968152      -3.83062169
C       -0.90281298       3.28600289      -1.65242323
C       -2.25244650      -1.37276705      -1.28427803
C       -2.06129028       2.69461643      -2.13002841
