60
Properties=species:S:1:pos:R:3 trial_index=2 seed_entry_id=1 discovered_entry_id=2 energy=-479.116943359375 status=accepted pbc="F F F"
C        3.74434666      -0.11280457       2.57820225
C        1.82754487       0.61562729      -1.71047939
C       -0.93053630       3.58177083      -0.34489391
C        3.95647522       0.70419285       1.36066376
C       -3.43020859      -0.16937075       1.11019975
C        1.35075695       2.75124443      -1.02860329
C        1.21226157      -0.72112446       3.46353766
C        1.04024210       2.14160018       1.42863936
C       -0.37594814      -2.35184752      -2.47214800
C        0.74738170       0.04098186       0.36143506
C       -3.50719621       2.05445955       1.66083303
C       -1.69260953       2.37730767      -2.72818396
C        3.07100422      -1.29969864       2.11608112
C       -3.19909141       0.68693475      -3.22972930
C       -1.00798692       0.38630463      -3.95422908
C        0.04275770       1.02917800       1.01840029
C        0.27400934       0.61788506      -3.41125343
C       -0.34427464      -2.91701485       2.26266682
C       -1.24652078      -2.36622321       1.54219192
C        1.67042814       1.92465887      -2.14897577
C       -1.51659051      -2.02510729      -3.28160171
C        1.11012904      -2.41026600       0.40843619
C        0.01441158       0.00211086       3.76787653
C       -2.03530845      -0.27457912       0.73139250
C       -1.30048368       0.26223627       3.78133595
C       -1.39411565       0.98392470       1.28464539
C        0.17119467      -1.25011814      -0.15241973
C        1.84801537       1.57787140       2.58680415
C        0.96357246      -2.53794593       1.88628154
C        0.05219967       3.27186927      -1.31159696
C        1.82626628      -3.29788118      -0.56844235
C        3.30964868      -0.01292116       0.29523294
C       -1.98239017       0.69203125       2.73336277
C       -3.08058876      -0.66282931      -3.64071828
C       -0.43482149       4.00158740       0.90770462
C        2.52294353      -2.31158459       0.01031543
C        1.25228682       0.63741829       3.40530712
C       -3.38574415       0.78073121       2.24214421
C       -2.40804703       2.15694727       0.86255321
C       -2.15037558       2.82223801      -0.38893414
C        3.14158328       1.14347356       2.41053947
C        1.83885328      -1.70252760       2.64488348
C       -0.36582484       2.78154976      -2.57815747
C        1.82435993       2.10072001       0.13240202
C        2.06313791       0.59804998      -0.22543026
C        0.18739558      -1.23915020      -1.69541234
C        1.30364535      -3.98416297      -1.63249270
C        0.83084724      -0.16628244      -2.34231340
C       -2.58575169       2.28249018      -1.63371207
C       -2.94173592      -1.91082379      -3.02810494
C       -1.99558309       1.32955154      -3.61590403
C        0.65127166       1.96934941      -3.13206176
C       -1.67695159      -0.85257919      -4.06918850
C       -4.36652183      -0.05067191       0.09565113
C        3.25205983      -1.37035525       0.70213415
C        0.39248267       3.45425281       1.66274313
C        0.32276226      -3.52248883      -2.31114636
C       -3.57055183       1.22600057      -1.93958608
C       -1.21213255      -1.41357173       0.53603569
C       -4.31542534       0.53120392      -1.01316822
