60
Properties=species:S:1:pos:R:3 system=runs/20260728-safe-lbfgs-strict-quench-200-production/output-c60-seed42 state_id=intermediate_accepted pbc="F F F"
C       -2.47570341      -2.11144245       0.60770786
C        2.19321452      -2.86346296       0.07373491
C        1.19479405       0.03814380       2.63435633
C       -0.97136743       3.22868802      -1.96306374
C       -2.81326553       3.04491707      -0.33265028
C        2.77127368      -1.86907567       1.77236751
C       -2.88655560      -1.07579588       1.51053814
C       -1.50889422      -2.47408126       2.70971850
C        2.19905954       2.94491456      -0.60671472
C       -0.30512626       2.65537238      -3.08481477
C       -0.82081319       3.01088174       1.27621603
C        2.98462755       1.56111652       0.97802277
C       -2.22494586      -1.99428023      -0.81626755
C        1.33212314       3.30474796      -1.63664777
C        2.93660117       0.46669487      -1.11441773
C       -1.23469288      -0.22625369       3.05868536
C        3.27407539      -0.47583242      -0.04229055
C       -1.87375587       0.80938803      -3.13114464
C       -2.61458877       1.43437490      -2.08613318
C       -0.42675181      -3.43421512       0.94888183
C        0.44570425       0.67213219      -3.86837845
C       -0.78553169      -1.36663042      -3.30503210
C       -3.83354227       2.23346364       0.26764265
C       -3.30834247       0.23923280       1.24443842
C       -2.84645713       1.26665844       2.12030481
C       -1.53744253       1.09986758       2.65878926
C        0.42624679      -0.69353320      -3.64542066
C       -2.17932555      -1.24150290       2.74506842
C       -1.88733588      -0.59577957      -2.88544524
C        2.45431226      -0.52270923       2.17541414
C        1.00582698      -2.26403933      -2.10576723
C       -0.13694963      -3.32892674      -0.40993197
C       -3.25290995       2.50429245       1.58408997
C        1.10888057       2.56636281      -2.80312245
C        0.07734439      -0.79132332       3.02551270
C       -0.39156489      -2.39982087      -2.44566967
C       -3.69517379       0.82063820       0.01558520
C       -2.18481951       3.21939437       0.95215304
C       -0.47431346       1.94650001       2.20790670
C        0.89907391       1.44839219       2.29788836
C       -1.70066876      -3.01972172       1.40149870
C       -2.59470229      -0.86150367      -1.64426993
C        3.15575864       0.21927658       1.19482157
C        1.85925051      -2.91243342       1.48535210
C        1.17475190      -2.96829612      -0.87765091
C        1.48321831      -1.05385579      -2.72380020
C        1.50680484       3.18487879       0.63798232
C        3.17330717      -1.84352821       0.31913955
C        1.88505878       2.21338084       1.59303478
C       -0.73961355       1.44717779      -3.68454890
C        2.97264101       1.77252459      -0.45532498
C        0.54594162      -3.04458095       1.91889559
C        1.53428062       1.24393844      -3.11422038
C       -2.23357718       2.70131682      -1.56736873
C       -1.12744006      -2.79757745      -1.30597452
C       -0.09915903      -2.21655154       2.87830696
C        2.17268143       0.19808196      -2.32251524
C        0.16015932       3.51178022       0.37324217
C       -3.16602393       0.42062458      -1.22751185
C        0.04491483       3.65788758      -1.05298945
