60
Properties=species:S:1:pos:R:3 pbc="F F F"
C        1.30970738      -4.39867575      -3.61151994
C       -0.26657351      -0.00498253      -3.15365524
C        2.93608947       1.60457269       0.06695786
C       -0.28995858      -2.52958164      -2.91138192
C       -0.35926807       0.53691347       3.47204648
C        1.52015389       0.53150790      -1.65128560
C        0.20670456      -3.40153814      -0.53941401
C        2.42766535      -2.00706003       0.39526865
C       -2.86886673       2.20006454      -0.42038098
C       -1.86352793       1.61389487      -2.54272677
C        1.75062151       1.65093057       3.65508564
C        1.03536172       3.58360910      -0.48863646
C       -1.48591928      -2.92410534      -2.29351410
C       -0.71272726       4.41246950       0.70911770
C       -1.22177847       3.67644686      -1.39940708
C        0.91788441       0.31097147       0.62130548
C       -0.90611791       2.64918873      -2.33178612
C       -1.05846083      -3.08001004       1.31838682
C       -1.54171806      -2.77658184       2.54695980
C        0.72940303       0.93039569      -2.77742672
C       -2.64685706       1.86765569       0.94125006
C       -1.67921857      -1.24641015      -0.12774050
C        1.26791410      -2.14213323       1.30942160
C       -0.19079584      -0.81507569       3.00162207
C        0.28640248      -3.01121835       0.82978583
C        1.50961274       0.21375324       1.78788846
C       -1.80110525      -0.60892313       1.25581229
C        2.37761887      -2.71593660      -0.77513971
C       -1.73835406      -2.72441895       0.08852153
C        2.26582277       1.67035225      -1.17847063
C       -3.24552807       0.00316413      -1.76934666
C       -0.21050819      -1.22087920      -2.39009391
C        1.03712758      -1.07263530       2.30332789
C       -2.08534081       4.09623935       0.69993889
C        3.52464360       0.33328415       0.29409653
C       -2.80443404      -1.18903633      -1.12827892
C        1.31809170      -3.26775595      -1.39063894
C        0.68005070       1.19010715       4.15447927
C        2.10435056       1.41100508       2.32317725
C        2.30976347       2.29469954       1.17808374
C        0.89906018      -3.39496853      -2.83503081
C       -1.13355140      -3.37377240      -0.99407978
C        1.42649102       2.75495125      -1.53035678
C        0.67318855      -0.06811229      -0.61720573
C       -0.41708540      -0.89206711      -1.00696751
C       -1.95868446       0.76282747       1.57637925
C       -2.59992571      -0.56348825      -2.92377428
C       -1.58636515       0.41240974      -3.26879741
C        1.25661740       3.20531663       0.87172520
C       -2.21344682       3.04062288       1.60860351
C       -0.20752343       4.24966237      -0.60010624
C        0.44313670       2.29256479      -2.49070943
C       -2.35553410       3.51672369      -0.57748526
C       -1.09972211       1.32896120       2.57809720
C       -2.46477117      -1.87428802      -2.31006349
C        3.31102601      -0.88267210       0.42846316
C       -2.81744930       1.34461280      -1.55627124
C        0.01525294       3.52776417       1.58082918
C       -1.33677475      -1.41152161       2.36997459
C       -0.97464430       2.74001885       2.26213612
