60
Properties=species:S:1:pos:R:3 pbc="F F F"
C        2.00682200      -4.38149867      -3.43643674
C       -0.54233290      -0.00955174      -3.15800613
C        2.85951206       1.54467789       0.03817157
C       -0.16942829      -2.76134229      -2.90146236
C       -0.30636625       0.54919675       3.53900640
C        1.35953959       0.38674263      -1.66335841
C        0.24695176      -3.49189198      -0.51304735
C        2.43836471      -2.04670380       0.44976316
C       -2.80757062       2.28620411      -0.38606221
C       -2.01929964       1.80939419      -2.65583218
C        1.83645402       1.60403595       3.68647842
C        1.01673764       3.53788913      -0.47379595
C       -1.41135250      -3.19955201      -2.37236852
C       -0.65176587       4.49121262       0.76998831
C       -1.24363684       3.77888008      -1.35365042
C        0.67195310       0.51284439       0.59150989
C       -1.00137470       2.76641996      -2.34951533
C       -1.08779676      -3.10130200       1.29294058
C       -1.57232358      -2.73615481       2.50484865
C        0.49771675       0.84643150      -2.73146183
C       -2.49520032       1.92891496       0.94524052
C       -1.72298897      -1.30616383      -0.14850005
C        1.23677110      -2.11205252       1.31268364
C       -0.18769281      -0.79354357       3.02541037
C        0.27340437      -3.02382847       0.83821524
C        1.35340013       0.32885488       1.72695501
C       -1.74963886      -0.59280210       1.22654804
C        2.45959620      -2.83531238      -0.67709912
C       -1.75360987      -2.79530252       0.04065955
C        2.12500466       1.53388146      -1.18252091
C       -3.13242555       0.06402680      -1.82230962
C       -0.64602020      -1.34124430      -2.44463814
C        1.00197448      -1.00207331       2.25233331
C       -2.03226375       4.19084571       0.79676255
C        3.45641423       0.29802340       0.32240819
C       -2.71297795      -1.14273980      -1.26142455
C        1.40030692      -3.35206402      -1.33359669
C        0.79361372       1.11870985       4.22302259
C        2.06289920       1.44754185       2.30502091
C        2.34839919       2.32227518       1.17183665
C        1.15074289      -3.50390315      -2.83273322
C       -1.10362392      -3.50428824      -1.00165352
C        1.29047744       2.62468734      -1.48432159
C        0.51175705      -0.15559878      -0.59282507
C       -0.52772269      -0.98636614      -0.98051476
C       -1.82662900       0.79826700       1.55563283
C       -2.82546813      -0.43543643      -3.14911018
C       -1.78740160       0.58623121      -3.42364745
C        1.32812508       3.26637929       0.88969472
C       -2.08372992       3.07663095       1.65086929
C       -0.19616289       4.26335774      -0.55096213
C        0.29109083       2.21374617      -2.41845965
C       -2.35315347       3.63970867      -0.50296932
C       -0.97685190       1.36060961       2.59420736
C       -2.15825272      -1.75402164      -2.50271034
C        3.30406975      -0.91646302       0.45571122
C       -2.79350981       1.43874007      -1.56320450
C        0.11929664       3.62304239       1.64136483
C       -1.32391936      -1.37902017       2.35486092
C       -0.84167831       2.78163077       2.30310411
