60
Properties=species:S:1:pos:R:3 trial_index=35 seed_entry_id=27 discovered_entry_id=28 energy=-490.8831787109375 status=accepted pbc="F F F"
C        1.99891664      -4.67304883      -3.29229749
C        2.50878373       1.06205919      -2.15687319
C        0.58462909       2.69060911       1.97901571
C        0.03069489      -6.00591040      -2.54735912
C       -3.42232646       1.83330083       2.03055084
C        2.25282949       1.39069991       0.16004647
C        0.30521889      -3.64999349       1.00145184
C        1.44478570      -0.51125358       2.70762790
C       -2.29067199      -0.02759167      -0.96653759
C        2.05302528      -2.49548378      -0.34456791
C       -2.20713636       3.67630759       2.74884878
C        0.27256520       4.38699716      -0.27261918
C        1.76262710      -3.71069081      -2.34227565
C       -1.92549828       4.10710205      -0.86645630
C       -0.32618319       3.03902502      -2.18218942
C        2.04082036      -1.35180379       0.51080657
C        1.03489392       2.78707837      -2.42910137
C       -0.24218712      -5.14687359      -1.46764169
C       -0.88349876      -5.34256661      -0.22957057
C        2.67583727       1.96760612      -1.08960052
C       -2.96834988       0.75922376       0.05564245
C       -0.33058571      -2.57555191      -1.86867983
C       -0.74896498      -2.15193637       2.56013380
C       -3.04025571       0.56832283       1.49412592
C       -1.48507321      -1.15246822       2.59768122
C       -1.36483497       1.35101451       2.91344447
C       -1.62514288      -2.38699478      -1.41147509
C        1.44572845      -1.55940685       1.79431241
C        0.50227672      -3.81185450      -1.49850103
C        1.45289461       2.49447828       0.81322689
C       -0.32462505      -0.08599089      -2.62892576
C        2.34450639      -0.18487064      -1.57082070
C       -1.96624072       0.10762016       2.37980475
C       -2.38311992       2.79785789      -1.15107607
C        0.06697018       1.62178492       2.82929937
C        0.33075822      -1.38817234      -2.30926757
C        0.42387390      -2.58848464       1.95144539
C       -2.41809688       2.28399204       2.92445349
C       -1.00277960       4.17906535       3.15370397
C       -0.10770180       3.95950440       2.10566861
C        1.07538832      -5.63926445      -3.25963492
C        1.05160208      -3.43634381      -0.16189146
C        1.38454639       3.54724207      -0.16479517
C        2.26208294      -0.08165213      -0.14208422
C        1.76354793      -1.33793707      -2.19529628
C       -2.33513795      -1.41205042      -1.05594134
C        0.49594248       0.69049942      -3.42884438
C        1.45992892       1.54325642      -3.02224522
C       -0.51760227       4.56534982       0.87583063
C       -3.15899000       2.14313451      -0.19009062
C       -0.59585865       4.19416252      -1.38369143
C        1.94221122       3.12555560      -1.38177236
C       -1.38919876       2.08932136      -1.91672067
C       -3.51661388       2.80846363       1.00977866
C        2.37812700      -2.53669833      -1.75724819
C        0.93726648       0.55503285       3.06043675
C       -1.37573238       0.64759364      -1.89189827
C       -1.88289641       4.49497698       0.51011778
C       -0.66918936      -4.66662370       0.84661625
C       -2.76910507       3.93771592       1.43148163
