60
Properties=species:S:1:pos:R:3 trial_index=4 seed_entry_id=1 discovered_entry_id=4 energy=-482.3633117675781 status=accepted pbc="F F F"
C        1.60015799      -3.07632031      -0.54270595
C        2.79016351       0.37119654      -2.07202939
C        1.83852979       2.36709305       1.86440126
C        2.56998264      -2.04871458      -0.58025610
C       -2.60698347       0.62284292       2.58969157
C        2.77628103       1.28708499       0.01104565
C       -0.65501938      -2.51761601       1.29363399
C        2.39003543      -1.16639374       2.56464618
C       -2.73271005       0.51544519      -4.01038644
C        0.00975931      -0.99572940      -0.41256781
C       -0.93120551       1.66645384       3.65942187
C        0.60706880       3.63911239      -0.41659653
C        0.31246345      -3.15953226      -1.14470553
C       -1.57322480       3.34925692      -1.15857432
C        0.10078101       2.70853522      -2.62951503
C        0.51983576      -0.09341074       0.57132305
C        1.43992869       2.23549830      -2.65136196
C       -3.07198477      -2.52992393      -0.05508064
C       -3.07355429      -2.20200712       1.18735417
C        3.16346640       1.51314125      -1.34080832
C       -3.71988106       1.07312299      -3.14119435
C       -2.10287398      -2.03242760      -2.23943046
C        0.05843484      -2.31405153       3.56435741
C       -1.54405348      -0.47708960       2.27125292
C       -0.61933864      -1.58448700       4.36929670
C       -0.30678262       0.27486816       1.75072793
C       -3.32627751      -1.55000712      -2.69093523
C        1.81150710      -2.22483970       1.93835937
C       -1.97939902      -2.44632408      -0.88450467
C        2.45182964       2.52136455       0.58953312
C       -0.58757294      -0.33789260      -3.34244110
C        2.22804894      -0.68114292      -1.12368694
C       -1.31337441      -0.55844107       3.79030652
C       -2.21127454       2.56754772      -2.19670269
C        2.33376035       1.33667616       2.64490480
C       -0.89002961      -1.69698313      -2.89893442
C        0.41534389      -2.53652267       2.24087799
C       -1.91275864       0.74964050       3.92054395
C       -0.24419021       1.52348535       2.47738711
C        0.43269781       2.60727290       1.79829652
C        2.18767856      -2.60955780       0.62691603
C       -0.58630802      -2.35548310      -0.21559084
C        1.95826627       3.30130660      -0.49818966
C        1.87681497       0.20094127       0.05170114
C        0.86064802      -0.99364489      -1.70304307
C       -3.53899014      -0.41325481      -3.31099117
C        0.66011445      -0.06285102      -2.77188107
C        1.68447248       0.86215615      -2.85008089
C       -0.17541096       3.27070196       0.70686156
C       -3.50280573       2.10482352      -2.33549852
C       -0.22723672       3.55169988      -1.54944621
C        2.40704129       2.68159115      -1.71350850
C       -1.13159172       2.04571262      -3.02679414
C       -3.01616615       1.63038649       1.78108202
C        0.31232763      -2.23997412      -2.26167165
C        2.54007363       0.08256985       2.84240486
C       -1.38334766       0.77974080      -3.68148905
C       -1.57966904       3.14093104       0.27472738
C       -1.84119826      -1.80682883       1.71321763
C       -2.55538192       2.49038671       0.99132393
