60
Properties=species:S:1:pos:R:3 trial_index=17 seed_entry_id=13 discovered_entry_id=15 energy=-485.23504638671875 status=accepted pbc="F F F"
C        1.58341937      -5.02865524      -1.57579139
C        2.80374741       0.92108443      -2.24515443
C        0.15287802       2.51586596       1.02649965
C       -0.45475006      -5.70644176      -0.37878040
C       -2.33857401      -0.93710689       0.58876988
C        2.41990056       1.49523454      -0.03426651
C        0.36491620      -2.83128376       1.77224067
C        1.92540753       0.18686708       2.76757383
C       -5.03040091       1.28377620       0.28659386
C        2.03634243      -2.34061323       0.03787976
C       -2.04754632       1.25424994      -0.24873960
C        0.54645559       4.47361816      -0.92503073
C        2.17917941      -3.92927624      -1.78691016
C       -1.43113739       4.48895217      -1.87506097
C        0.21961047       3.14427578      -2.84815695
C        2.28466596      -1.10387744       0.71236678
C        1.56684234       2.72996099      -2.88380665
C       -1.33647240      -5.01805498       0.27158462
C       -1.30922767      -3.64694594       0.42980453
C        2.97663931       1.93715820      -1.28487692
C       -4.49454223       2.46898444       0.23025163
C       -0.53221325      -1.78514425      -1.21981665
C        0.46781504      -1.78365836       3.92003624
C       -1.71127416      -1.61892031       1.78340737
C       -0.56540827      -1.06250664       3.85005827
C       -1.20355959       0.65336134       2.05601735
C       -3.81416227      -0.91368018       0.38244072
C        1.96510231      -1.05966623       2.11034046
C       -0.29949605      -2.95714642      -0.42683026
C        1.42492129       2.54362393       0.31805605
C        0.07197048      -0.01400745      -2.92716654
C        2.55220562      -0.26344217      -1.55034027
C       -1.24989818      -0.63254713       2.70571682
C       -1.80388965       3.11517607      -1.77802279
C       -0.06713120       1.53689376       2.07920645
C        0.41723562      -1.21090235      -2.16301557
C        1.13502978      -2.07773868       2.67731801
C       -2.06881662       0.53591370       0.95175796
C       -2.08805984       2.73140747      -0.35112604
C       -0.90857409       3.32287037       0.47436321
C        0.63554413      -5.77091481      -1.06799750
C        0.83986312      -2.95452687       0.44560018
C        1.56849805       3.57548103      -0.64785784
C        2.47772096       0.02217843      -0.13976563
C        1.83473768      -1.42976475      -2.01628453
C       -4.65611390       0.02880206       0.30616885
C        1.01145170       0.52711875      -3.79359696
C        1.93387292       1.38708918      -3.28574252
C       -0.59123117       4.58381511      -0.07418191
C       -3.45056175       3.19746004       0.05580388
C       -0.02894089       4.40666013      -2.21489998
C        2.31828543       3.09267575      -1.73627466
C       -0.86609313       2.31508142      -2.48879649
C       -1.57000061      -0.94576108      -0.76943904
C        2.27892428      -2.63035785      -1.36506292
C        1.10029346       1.12594311       2.75109626
C       -0.88319779       0.88296421      -2.35319043
C       -1.62502980       5.27700035      -0.75579121
C       -1.08597662      -2.86349022       1.66689816
C       -1.63397795       0.39000539      -1.26161605
