60
Properties=species:S:1:pos:R:3 trial_index=2 seed_entry_id=1 discovered_entry_id=2 energy=-478.24993896484375 status=accepted pbc="F F F"
C        1.72507496      -3.18722458      -0.51569682
C        2.30989713       0.06090400      -2.39811983
C        1.92575375       2.33282931       1.80048288
C        2.60624812      -2.10394562      -0.86526568
C       -2.46043614       0.58149756       3.18934919
C        2.60566697       1.03296314      -0.08553057
C       -0.49964353      -2.53348293       1.52140583
C        2.65708297      -1.08203612       2.44705247
C       -2.95962212       0.09302844      -3.96064002
C       -0.05426740      -1.02769238       0.01948637
C       -0.67924610       1.71385036       4.10098461
C        0.41626429       3.27324513      -0.40390494
C        0.43908119      -3.06703003      -1.04739559
C       -1.82788189       3.23876970      -0.78263774
C       -0.26657238       2.45770690      -2.65988180
C        0.30234820      -0.01600587       1.03064263
C        1.05626416       1.99016860      -2.77526717
C       -2.94459747      -2.45976740       0.12160155
C       -2.85214205      -2.08190274       1.34577741
C        2.75449386       1.10793288      -1.52645101
C       -4.28906581       4.47966548      -4.28509742
C       -1.86829418      -2.18889585      -2.09741595
C        0.46602894      -2.23432766       3.67354049
C       -1.44320054      -0.50414591       2.76245142
C       -0.13875162      -1.59082985       4.60212960
C       -0.32124579       0.33594737       2.20675545
C       -3.08068104      -2.04486854      -2.77035188
C        2.01913652      -2.10436494       1.81707754
C       -1.84366662      -2.50642680      -0.70957701
C        2.41311285       2.35725561       0.44693609
C       -0.61209311      -0.50321541      -3.57021280
C        1.75863920      -1.20510867      -1.78853040
C       -1.00176084      -0.60060469       4.20324105
C       -2.42562160       2.81055241      -3.68858704
C        2.53635223       1.39484811       2.60174940
C       -0.65090185      -1.68610501      -2.71787246
C        0.68132502      -2.48581168       2.32790286
C       -1.58014648       0.72822962       4.41209493
C       -0.11721220       1.59880685       2.85419484
C        0.52156760       2.57662677       1.95877889
C        2.32717995      -2.46216234       0.48903708
C       -0.49704861      -2.45173029      -0.02379049
C        1.75571059       3.03179837      -0.62871997
C        1.43561768       0.31343095       0.18315146
C        0.94902341      -0.55343240      -0.78728789
C       -3.37811472      -1.07887123      -3.56321561
C        0.58060329      -0.05623573      -4.05874066
C        1.43537989       0.70600500      -3.35813031
C       -0.19381379       3.08366182       0.85423008
C       -3.34767972       3.65390845      -3.98579519
C       -0.60024233       3.16394102      -1.43989223
C        2.04038796       2.29962415      -1.82170930
C       -1.39938996       1.95072007      -3.45628460
C       -2.87827411       1.60036977       2.38155766
C        0.56520637      -2.16117204      -2.17786398
C        2.81250850       0.15116523       2.76333994
C       -1.67232609       0.52562549      -3.69951590
C       -1.64693277       3.04009802       0.62544623
C       -1.66851310      -1.78586093       2.00832755
C       -2.49965566       2.43921869       1.53565309
