60
Properties=species:S:1:pos:R:3 trial_index=7 seed_entry_id=6 discovered_entry_id=7 energy=-487.220703125 status=accepted pbc="F F F"
C        2.78245288      -4.01804044      -1.05563182
C        2.39894104       0.24612413      -2.27290482
C        0.95861724       1.89597394       2.01351961
C        3.77909139      -4.08928799      -0.02658335
C       -2.29898499       1.09603651       2.66933533
C        2.33644372       0.49087162       0.06868739
C       -1.02400845      -2.16780062       1.37072325
C        1.96494581      -1.20921676       2.67529230
C       -2.87790346       0.83769057      -3.66817393
C        0.50569342      -2.75107911      -0.40346330
C       -1.56453729       3.20077655       4.16749762
C        0.62601608       3.63034450      -0.23930567
C        1.86691970      -4.00419336      -2.01675488
C       -1.48292664       3.83003308      -1.20118529
C        0.19799542       2.86575943      -2.52230303
C        1.70269275      -2.22034694       0.40302117
C        1.48506538       2.30735958      -2.58007696
C       -3.06794939      -1.82720546      -0.34325307
C       -3.23571296      -1.43455114       0.86015240
C        2.78485245       1.04479558      -1.18183588
C       -3.74782291       1.91891435      -3.39764567
C       -1.65591544      -1.81857944      -2.36332325
C       -0.21351151      -2.71155043       3.63761485
C       -1.99098391      -0.31675887       2.77813399
C       -0.58700790      -1.67912150       4.24471978
C       -0.33481022       0.84137979       3.85265143
C       -2.78530208      -1.51757007      -3.14473833
C        1.34183321      -2.12574775       1.84578604
C       -1.84603221      -2.15481878      -0.97626874
C        1.73646036       1.67145658       0.80324749
C       -0.42997859       0.03265010      -3.61386466
C        1.81942902      -0.90710929      -1.73230521
C       -0.98603612      -0.43297311       3.80553626
C       -2.11799084       3.16254704      -2.29463795
C        0.89846639       1.00591746       3.15127202
C       -0.43165481      -1.22428784      -2.83859065
C        0.04348845      -2.53617751       2.24076270
C       -1.40089283       1.79948939       3.61738849
C       -0.80271644       3.14454425       3.10782156
C        0.04245439       3.00507311       2.01384808
C        2.80698953      -3.16618452       0.11219900
C       -0.79365930      -2.39978021      -0.02405623
C        1.70037951       2.73682828      -0.16746442
C        2.00463666      -0.88887173      -0.31104234
C        0.79964621      -1.73498134      -2.33723580
C       -3.25101148      -0.52015243      -3.74197264
C        0.79837619       0.48056862      -4.05769518
C        1.72345846       1.04395625      -3.26117603
C       -0.31886632       3.63952627       0.80280899
C       -3.43121825       2.95525520      -2.71151204
C       -0.07958475       3.75995240      -1.45141245
C        2.27712106       2.33724404      -1.38957040
C       -1.08246528       2.35946749      -2.94930813
C       -2.79404901       1.89225410       1.66612253
C        0.88469638      -3.06563939      -1.76218249
C        1.79821046      -0.08208942       3.18074846
C       -1.46166244       1.09046010      -3.48524090
C       -1.65800584       3.63192128       0.23000897
C       -2.16431720      -1.35131906       1.78590478
C       -2.61410570       2.83842185       0.85763878
