60
Properties=species:S:1:pos:R:3 trial_index=1 seed_entry_id=0 discovered_entry_id=1 energy=-480.9277038574219 status=accepted pbc="F F F"
C        1.55002644      -3.18002630      -0.68063522
C        2.42608609       0.09942977      -2.38172882
C        1.94444104       2.23816166       1.87760425
C        2.50500382      -2.14333364      -0.94725617
C       -2.59942530       0.68202165       2.93284979
C        2.65469301       0.96445999      -0.01988304
C       -0.70114521      -2.48249434       1.30412489
C        2.48060678      -1.23652826       2.40025475
C       -2.80480980       0.67273944      -4.00594782
C       -0.11185817      -0.94440887      -0.12521986
C       -0.83374209       1.71405527       3.98395792
C        0.69014067       3.44883472      -0.34256094
C        0.29590875      -2.96344089      -1.26045578
C       -1.52277089       3.25279163      -0.99994791
C        0.07211264       2.63308391      -2.58433623
C        0.25076739       0.00541612       0.93904033
C        1.37456548       2.13693550      -2.76028937
C       -3.07939844      -2.25625564      -0.16595842
C       -3.03502669      -1.94948306       1.07991459
C        2.89879894       1.07733879      -1.44259652
C       -3.75394333       1.14464466      -3.06000378
C       -1.92431991      -1.82177640      -2.30817420
C        0.17331896      -2.27392361       3.50211201
C       -1.60828420      -0.44324195       2.55413519
C       -0.44843431      -1.62573323       4.41738451
C       -0.41855660       0.35882199       2.08580879
C       -3.15112588      -1.42921401      -2.80826393
C        1.81576993      -2.20306091       1.71069660
C       -1.95053943      -2.28989783      -0.95987072
C        2.52870102       2.27575936       0.56026659
C       -0.49686712      -0.24531549      -3.73913427
C        1.76241364      -1.15513626      -1.86531720
C       -1.25261308      -0.58893435       4.01036214
C       -2.22112920       2.53965468      -2.04836071
C        2.44686180       1.23495700       2.67566171
C       -0.65287001      -1.44215401      -2.90750595
C        0.44039312      -2.51617307       2.16269077
C       -1.79008759       0.75955430       4.21719914
C       -0.19976926       1.59869033       2.77158029
C        0.54687253       2.55927553       1.94779859
C        2.14977632      -2.53741855       0.38058034
C       -0.62963034      -2.33664050      -0.23413427
C        2.01458567       3.05554395      -0.51394032
C        1.43930864       0.29971607       0.15977825
C        0.95200025      -0.49986573      -0.86817749
C       -3.57747691      -0.33297178      -3.37076807
C        0.75074469       0.16453526      -4.09467962
C        1.65249220       0.83690376      -3.36172123
C       -0.06909914       3.16170803       0.82683628
C       -3.52700165       2.11048653      -2.17683986
C       -0.19021080       3.42148763      -1.43807219
C        2.31680336       2.34375570      -1.73126229
C       -1.18351570       2.04514994      -2.95259800
C       -2.92419203       1.71315227       2.10602200
C        0.51141040      -2.02227983      -2.34884407
C        2.66300562      -0.02743713       2.78733227
C       -1.44299004       0.88157917      -3.71991963
C       -1.49419947       3.07638192       0.44803465
C       -1.85450018      -1.70257145       1.77078358
C       -2.46115629       2.50382766       1.24658887
