60
Properties=species:S:1:pos:R:3 trial_index=3 seed_entry_id=1 discovered_entry_id=3 energy=-480.4713134765625 status=accepted pbc="F F F"
C        1.60527418      -3.17789367      -0.63432817
C        2.47269783       0.08250910      -2.36251526
C        1.87908890       2.21731177       1.88273101
C        2.52414175      -2.11286519      -0.87466616
C       -2.78144079       0.74696391       2.36927068
C        2.66314154       0.92190994       0.01249563
C       -0.72092022      -2.49204411       1.28394934
C        2.41633426      -1.23169122       2.49240189
C       -2.78870208       0.67993340      -3.22265052
C       -0.11182257      -0.97122339      -0.17363133
C       -1.21364932       1.84664294       3.68523397
C        0.80958679       3.53791341      -0.36971231
C        0.36564947      -3.00242684      -1.25893043
C       -1.30423816       3.61279842      -1.11382919
C        0.21686854       2.76629531      -2.61972956
C        0.22844425      -0.01557053       0.88181204
C        1.47920161       2.15985610      -2.74157422
C       -3.03969667      -2.47326834      -0.24471953
C       -3.09073919      -2.11292182       0.98741336
C        2.95299325       1.03942572      -1.40576340
C       -3.39486281       0.88046666      -1.97570051
C       -1.86309636      -2.00519504      -2.34112824
C       -0.00725860      -2.07870407       3.50221943
C       -1.74815542      -0.41467394       2.31380363
C       -0.74523881      -1.40479505       4.31115054
C       -0.50486962       0.36939594       1.97065625
C       -3.18416617      -1.69725160      -2.74950395
C        1.75313377      -2.18386591       1.78007073
C       -1.88043055      -2.43611606      -0.99839821
C        2.54136658       2.23534590       0.59945103
C       -0.51182046      -0.22142561      -3.63341741
C        1.79725173      -1.17194954      -1.86034206
C       -1.58793381      -0.44065355       3.79070302
C       -1.97074676       2.70446777      -1.93450189
C        2.32603062       1.23758000       2.73610753
C       -0.62710380      -1.49982783      -2.89998992
C        0.36098856      -2.44453321       2.20673389
C       -2.19330516       0.89969136       3.81798417
C       -0.36828431       1.63344217       2.62030309
C        0.48854481       2.55227140       1.86965703
C        2.12557234      -2.50433190       0.45228451
C       -0.58357325      -2.37390708      -0.24682867
C        2.10129214       3.03623689      -0.48747670
C        1.43040352       0.28225288       0.14017804
C        0.94986178      -0.50078965      -0.90595381
C       -3.48169717      -0.40522828      -2.68121470
C        0.73369071       0.19004046      -3.99385978
C        1.69811235       0.84157257      -3.32879116
C       -0.05334074       3.17741237       0.72280961
C       -2.86854442       1.91575719      -1.17344486
C        0.03367756       3.68965158      -1.53942164
C        2.40787126       2.32335958      -1.69764146
C       -1.06822404       2.16225093      -2.88707092
C       -3.06003835       1.55230917       1.37213718
C        0.56349698      -2.06562199      -2.35421679
C        2.55607874      -0.01764963       2.87422208
C       -1.43476917       0.91670988      -3.47837855
C       -1.41556221       3.15106073       0.22534658
C       -1.91946642      -1.73915938       1.64776352
C       -2.56017628       2.19388627       0.27543661
