60
Properties=species:S:1:pos:R:3 trial_index=36 seed_entry_id=28 discovered_entry_id=29 energy=-484.4391784667969 status=accepted pbc="F F F"
C        1.05520091      -4.38950336      -0.26390385
C        2.48981872       1.33036654      -2.32813009
C        0.58862353       2.34894316       2.05337314
C       -0.36317284      -4.53594873      -0.02120207
C       -2.69474050       0.29951906       1.95784199
C        2.39915362       1.55634999       0.00847559
C       -0.36717041      -1.23561961       0.26924659
C        2.13696306      -0.17268578       2.80938563
C       -2.11583629      -0.51493337      -2.13266960
C        1.81271855      -1.96024649      -0.35875358
C       -2.26949234       2.40206092       2.85672853
C       -0.17939029       4.07416634      -0.10831355
C        1.29086878      -3.63325712      -1.51351687
C       -2.25217525       3.31736498      -0.71352966
C       -0.53384933       2.94990217      -2.24806721
C        2.37183283      -0.95005359       0.43273587
C        0.85534141       2.94196149      -2.47972166
C       -1.15259465      -3.56853441      -0.77025536
C       -2.08455424      -2.80323434      -0.21091587
C        2.60576071       2.22847722      -1.22922362
C       -2.50669230      -0.36850510      -0.75893660
C       -0.18352969      -2.30081556      -2.88790362
C        0.09108862      -3.30764345       2.11807735
C       -2.08914813      -0.91589190       1.71880464
C       -0.33990262      -2.35900280       2.82318375
C       -0.74932867       0.48022240       3.21751034
C       -1.44807435      -2.42795060      -3.56992769
C        1.64901437      -0.72687412       1.63860071
C       -0.02069515      -2.91178051      -1.58101847
C        1.42139391       2.40423019       0.81741000
C        0.01480487       0.06372664      -3.41433157
C        2.48718987       0.00665592      -1.82180405
C       -0.77264235      -0.92772620       2.54877849
C       -2.41125076       2.01318704      -1.22959054
C        0.44650953       1.31352805       3.11391965
C        0.68689248      -1.20410729      -3.06543309
C        0.24336636      -0.79314663       1.43600794
C       -2.01559598       1.01272672       2.98466839
C       -1.30288420       3.25810955       3.30261703
C       -0.39370969       3.38112497       2.23866258
C        0.43439459      -4.08917383       1.03633992
C        0.42803999      -1.93405116      -0.53286157
C        1.08156348       3.46966700      -0.10265422
C        2.57922654       0.15943166      -0.38218661
C        1.97063450      -1.23649366      -2.41515525
C       -2.21192362      -1.62611675      -2.95391695
C        0.77837623       1.03813116      -4.01668641
C        1.49071663       1.85779938      -3.21666365
C       -0.96118599       3.94378709       1.06035688
C       -2.83666916       0.95391797      -0.38045772
C       -1.01953037       3.83051286      -1.23261300
C        1.68049812       3.27205131      -1.36802011
C       -1.40811864       1.80159906      -2.24041670
C       -3.08154472       1.25282023       0.98445266
C        2.24673848      -2.48211383      -1.59944831
C        1.65364842       0.71400818       3.56793806
C       -1.18188268       0.46879512      -2.67257173
C       -2.25306054       3.49610731       0.69724619
C       -1.89660465      -1.38528541       0.27876770
C       -2.84217474       2.54084037       1.52930595
