60
Properties=species:S:1:pos:R:3 trial_index=38 seed_entry_id=30 discovered_entry_id=31 energy=-491.3944091796875 status=accepted pbc="F F F"
C        1.48931109      -4.70033731      -3.44792086
C        2.33898547       1.05001932      -2.20651607
C        0.57593237       2.52939409       1.99485197
C        0.65977640      -6.67402700      -2.20744467
C       -3.55872852       2.01203867       1.97464524
C        2.17039592       1.26782582       0.12366820
C        0.49544077      -3.99974138       1.20004432
C        1.34642768      -0.68301456       2.69395518
C       -2.16792860       0.36582789      -0.84881675
C        1.69202293      -2.53893385      -0.43595643
C       -2.10858060       3.59693839       2.84413111
C        0.45841969       4.44159499      -0.07816899
C        1.53630211      -3.95801021      -2.26222883
C       -1.75022420       4.40189375      -0.69997266
C       -0.24144099       3.31405594      -2.10043993
C        1.76311504      -1.41139660       0.40344275
C        1.09113147       2.95236602      -2.36455628
C        0.65773264      -5.96439127      -0.97807175
C        0.09273799      -6.19209816       0.32279334
C        2.62657040       1.87455596      -1.09793198
C       -3.06501602       1.14100186      -0.07155708
C       -0.93561311      -2.01176397      -2.21502206
C       -0.96815591      -2.05628015       1.75563972
C       -3.27851870       0.80502326       1.28798638
C       -1.68572427      -1.02613274       1.22819959
C       -1.51918787       1.20010685       2.70304755
C       -1.63777222      -1.93146616      -1.17012929
C        1.32421319      -1.66864892       1.73631082
C        1.21733030      -4.65542287      -1.05479572
C        1.46703808       2.37834931       0.84673179
C       -0.47746449       0.31156394      -2.83136817
C        2.07984980      -0.22579656      -1.70270673
C       -2.18653818       0.15330725       1.92970134
C       -2.33125690       3.18305229      -1.11482869
C       -0.06164647       1.42847805       2.72532689
C       -0.00061079      -1.06667283      -2.67389323
C        0.20521566      -2.69578900       1.81042441
C       -2.48302412       2.22510084       2.87604846
C       -0.88720599       3.97666728       3.31841170
C        0.00540867       3.83303122       2.25191513
C        1.06754138      -5.94935451      -3.23126854
C        1.23825669      -3.78188582       0.03184777
C        1.49809808       3.50651295      -0.04578627
C        2.05001583      -0.16280291      -0.24819891
C        1.40098565      -1.29434321      -2.40028299
C       -1.91328839      -0.93803132      -0.24711612
C        0.37270290       1.05301897      -3.63689264
C        1.40227478       1.72670757      -3.06228381
C       -0.32799256       4.58526962       1.08174133
C       -3.19460774       2.53175601      -0.22694152
C       -0.41231424       4.41774098      -1.20378449
C        2.01748112       3.12120162      -1.29455273
C       -1.38951562       2.44388283      -1.91947173
C       -3.50817084       3.09202605       1.04113155
C        1.73625506      -2.57085910      -1.84619389
C        0.77257560       0.36409646       2.99938301
C       -1.42119869       0.98707073      -1.94255195
C       -1.69156082       4.64526336       0.70841200
C       -0.01458919      -5.32393848       1.27641313
C       -2.62198529       4.05884884       1.56899305
