60
Properties=species:S:1:pos:R:3 trial_index=10 seed_entry_id=7 discovered_entry_id=8 energy=-494.48248291015625 status=accepted pbc="F F F"
C        1.16559613      -2.11949459      -2.08306689
C        1.57471124       1.32314930      -2.76098467
C        1.54366145       1.29285857       2.03697183
C        5.86426259      -2.89700643       0.66413019
C       -4.16870293       0.44029779       2.91553950
C        2.27939355       0.87905682      -0.38665712
C       -0.07452956      -2.70128061       1.04760955
C        3.38028176      -2.35301331       0.36617223
C       -2.71454085      -0.21747681      -1.08443309
C        1.19642305      -2.73485202      -0.82953762
C       -2.00307931       1.16898107       3.30972397
C        0.25210883       3.52771540       0.72961660
C       -0.00400887      -1.91532210      -2.87576031
C       -1.98592956       3.23696477       0.23753274
C       -0.58192121       3.59759814      -1.54631396
C        0.95515114      -0.95239653       2.38585932
C        0.67516055       3.42567170      -2.15271180
C       -2.14471785      -2.26292443       0.16328604
C       -3.06915906      -1.21878102      -0.09812953
C        2.12615790       1.72288866      -1.54457415
C       -1.76653180      -0.58001887      -2.08704018
C       -1.18600499      -1.89690549      -2.07986794
C       -1.38551292      -2.30561395       1.39739663
C       -3.98043083      -0.85396059       2.24987097
C       -1.51852143      -1.42342234       2.50640414
C       -0.38746550      -0.59626701       2.83879142
C       -3.80823822       0.82098607       0.68148751
C        7.04482225      -3.19512263       0.96511674
C       -1.27355122      -2.68314907      -0.90738068
C        1.94497218       1.75253133       0.73623007
C        0.43542368       2.32792063      -4.70162239
C        1.39367231      -0.01559616      -2.95940549
C       -2.78073110      -1.04333017       3.00383574
C       -2.37396916       2.30476678      -0.78926961
C        1.93282585       0.03093894       2.44549832
C        0.10301432      -0.16328542      -5.03733065
C        1.05468674      -1.96950613       1.39756277
C       -2.95857079       0.19685664       3.67999942
C       -0.64167451       0.79031221       3.10386763
C        0.23784133       1.75719364       2.48830311
C        4.57687969      -2.60407592       0.52994162
C       -0.04374374      -3.09125405      -0.31367163
C        1.43289688       2.98772085       0.20729854
C        2.16716787      -0.53302945      -0.63056671
C        1.84753086      -0.89136761      -1.96522258
C       -3.07053439       1.08982400      -0.53550483
C        0.54064490       2.32562097      -3.22427535
C       -1.44087383       2.51449646      -1.86156620
C       -0.37124445       2.84661760       1.82062444
C       -0.96768131       0.26926354      -2.89604306
C       -0.77642178       3.91468204      -0.18731864
C        1.62714485       2.99478539      -1.19926728
C       -0.80207968       1.63750637      -2.75630974
C       -3.83612464       1.46809222       1.93654235
C        0.12699910      -0.57306762      -3.60453325
C        2.01797650      -1.91033228       0.19336488
C        0.25780800       1.11964223      -5.14918595
C       -1.78146656       2.84542592       1.58887302
C       -3.84945667      -0.56839169       0.88591030
C       -2.61082894       2.02103852       2.36920136
