60
Properties=species:S:1:pos:R:3 trial_index=13 seed_entry_id=10 discovered_entry_id=11 energy=-494.480712890625 status=accepted pbc="F F F"
C        1.11423366      -2.16256879      -2.07675864
C        1.54669676       1.26710604      -2.80399995
C        1.58378710       1.29638369       1.99335653
C        5.85894397      -2.80388214       0.77265571
C       -4.12267095       0.51260052       2.96450587
C        2.28304130       0.84625924      -0.43441183
C       -0.08623221      -2.69042076       1.07792463
C        3.36752672      -2.36422993       0.37712338
C       -2.73384647      -0.21097402      -1.04664478
C        1.16076833      -2.76363500      -0.81615268
C       -1.94497632       1.22345199       3.31715354
C        0.29530150       3.52636158       0.67593211
C       -0.06477522      -1.95692507      -2.85516480
C       -1.95265390       3.25320330       0.21985165
C       -0.57152428       3.57666237      -1.58837300
C        0.98007564      -0.93835448       2.38117909
C        0.67488323       3.38444262      -2.21009093
C       -2.16499572      -2.24520105       0.21858507
C       -3.08454622      -1.19663860      -0.04318791
C        2.12020100       1.67696651      -1.60093176
C       -1.80427843      -0.59475058      -2.05880246
C       -1.23492021      -1.91637936      -2.04281703
C       -1.38830483      -2.27862248       1.44185154
C       -3.95623181      -0.79163037       2.31308120
C       -1.49722468      -1.38296753       2.54234004
C       -0.35311573      -0.56358333       2.84849572
C       -3.79092386       0.86060041       0.72137294
C        7.05669922      -3.15236138       0.91115842
C       -1.31180784      -2.68549134      -0.85881124
C        1.97237361       1.73674774       0.68190814
C        0.38451740       2.25893386      -4.74023302
C        1.34804529      -0.07158025      -2.98245228
C       -2.74853480      -0.98410556       3.05287967
C       -2.36421472       2.31122593      -0.78869096
C        1.96784938       0.03628650       2.41249927
C        0.02364386      -0.23211670      -5.04000334
C        1.05454129      -1.96693938       1.40322761
C       -2.90455611       0.26662588       3.71526484
C       -0.59043365       0.82867074       3.09808979
C        0.28880464       1.77873172       2.45691447
C        4.56879631      -2.58147014       0.55430691
C       -0.07699381      -3.09667522      -0.27831952
C        1.46399602       2.96982048       0.14405583
C        2.14981838      -0.56688105      -0.65908906
C        1.80701071      -0.93876126      -1.98376134
C       -3.06825702       1.10649160      -0.50878903
C        0.51519181       2.27264788      -3.26508585
C       -1.44510762       2.49788670      -1.87709678
C       -0.31924198       2.86540387       1.78397960
C       -1.00885277       0.23605556      -2.88978713
C       -0.74238639       3.91252063      -0.23079748
C        1.63737458       2.95760654      -1.26524467
C       -0.82721487       1.60381304      -2.76928855
C       -3.79505089       1.52455239       1.96777110
C        0.06816927      -0.62525040      -3.60315676
C        2.00321907      -1.93269533       0.18582703
C        0.18937399       1.04771377      -5.17180567
C       -1.73248471       2.87654348       1.57277720
C       -3.84374041      -0.52563687       0.94367898
C       -2.55784598       2.06955668       2.37502159
