60
Properties=species:S:1:pos:R:3 trial_index=17 seed_entry_id=5 discovered_entry_id=15 energy=-487.3158264160156 status=accepted pbc="F F F"
C        1.63097646      -2.06042595      -2.60372606
C        2.17984587       1.44406424      -2.80038956
C        1.84461072       0.54758081       1.69816291
C        2.28612123      -2.90222997      -0.41886835
C       -3.83265140       0.34699516       2.78326825
C        3.01771720       0.67731159      -0.59553744
C        0.18290201      -5.77829381       4.41594216
C        3.11567003      -1.77284050      -0.11180942
C       -2.44982303       0.56507230      -1.67526395
C       -0.60575310      -6.37962605       3.44634081
C       -1.60833412       0.80931090       3.23377282
C        0.90485409       3.11339475       0.84791462
C        0.73348354      -1.75732453      -3.66171469
C       -1.38282468       3.27217469       0.39366561
C        0.30548951       4.13918995      -1.32030014
C        0.71496090      -1.56119248       1.74586477
C        1.41619492       3.42208756      -1.85585527
C       -2.20095839      -0.89169713      -1.40137174
C       -2.40238873      -1.34528866      -0.00697716
C        2.88733360       1.68841941      -1.59110805
C       -1.87061095       1.19003917      -2.72334186
C       -0.65434980      -1.30420464      -3.35858845
C       -1.40590468      -2.00257485       0.83047981
C       -3.75137144      -0.89301726       2.03988294
C       -1.49643798      -1.66287217       2.21349571
C       -0.28748398      -1.06896137       2.62420012
C       -3.39696248       0.81590555       0.59454891
C        0.89377429      -2.91214638      -0.25911170
C       -1.49478259      -1.57297618      -2.35156488
C        2.51145592       1.25510640       0.65169267
C       -0.03136948       2.50366508      -3.64954710
C        2.07702729       0.11593574      -3.23418477
C       -2.66276299      -1.29211801       2.84166540
C       -2.28412575       2.71007742      -0.45522647
C        2.00102299      -0.90335618       1.73495969
C       -0.27699000      -0.00435104      -3.93445634
C        0.07112385      -2.24562957       0.66855487
C       -2.67984617      -0.06095274       3.55820995
C       -0.29836650       0.29304060       2.98810735
C        0.68626822       1.12976055       2.33103386
C        3.13371879      -1.48152790       1.22360268
C       -1.19672602      -5.80039532       4.55971830
C        2.11964243       2.62131181       0.35238220
C        2.97938091      -0.68358431      -1.03469475
C        2.41864090      -0.92499304      -2.32078406
C       -2.85069113       1.46176602      -0.55745877
C        1.23497269       2.53022376      -2.97717820
C       -0.59170216       4.52801145      -2.32847664
C        0.20892556       2.36725789       1.83389110
C       -0.72653341       3.71710531      -3.49168580
C       -0.04290225       3.78011627       0.00578895
C        2.41477430       2.88397991      -1.00447939
C       -1.30212042       4.98645522      -3.43292326
C       -3.38724148       1.38784329       1.89145505
C        1.07358135      -0.39711087      -4.10775540
C        1.44557775      -2.97822359      -1.56586531
C       -0.83278730       1.26071599      -3.59264307
C       -1.17951245       2.60296596       1.67813986
C       -3.37273977      -0.58388623       0.70949280
C       -2.10932470       1.79642898       2.36264285
