60
Properties=species:S:1:pos:R:3 trial_index=12 seed_entry_id=7 discovered_entry_id=10 energy=-494.4794616699219 status=accepted pbc="F F F"
C        1.14539459      -2.11602393      -2.11368706
C        1.55942377       1.32907048      -2.78000458
C        1.56247480       1.27507138       2.01611676
C        5.81674754      -2.90316540       0.90676504
C       -4.14489913       0.43345087       2.93417704
C        2.28227867       0.87296362      -0.41309364
C       -0.07522024      -2.71145389       1.02176629
C        3.37324812      -2.36078597       0.37227454
C       -2.72236241      -0.21132885      -1.07984972
C        1.18672884      -2.73913347      -0.86404621
C       -1.97481929       1.15381854       3.31575943
C        0.26868214       3.51950507       0.73026300
C       -0.02797599      -1.90603243      -2.89861324
C       -1.97341712       3.23517066       0.25312478
C       -0.58214925       3.60036685      -1.53920903
C        0.96895334      -0.97024784       2.35972022
C        0.66962101       3.43100432      -2.15672078
C       -2.14950206      -2.26410630       0.15347442
C       -3.07369881      -1.21688624      -0.09630178
C        2.12135577       1.72257899      -1.56625059
C       -1.78181717      -0.57030461      -2.09096753
C       -1.20400522      -1.88802369      -2.09394600
C       -1.38262932      -2.31421671       1.38271501
C       -3.96598908      -0.85866807       2.26174471
C       -1.50450082      -1.43563043       2.49624301
C       -0.36884056      -0.61317556       2.82554936
C       -3.79744788       0.82167877       0.70011926
C        7.04730519      -3.07812868       1.07342512
C       -1.28519855      -2.67964869      -0.92485041
C        1.95826297       1.74221050       0.71594968
C        0.40881726       2.34514123      -4.70947258
C        1.37294509      -0.00832537      -2.98146686
C       -2.76156212      -1.05494596       3.00602900
C       -2.37049482       2.30776140      -0.77429654
C        1.95080582       0.00940125       2.41285357
C        0.06972748      -0.14419706      -5.05223859
C        1.05613139      -1.98137439       1.36587852
C       -2.93032783       0.18276558       3.68910888
C       -0.61595667       0.77291478       3.09923684
C        0.26171854       1.74033244       2.48085006
C        4.56109815      -2.59108778       0.61274864
C       -0.05217625      -3.09364372      -0.34175472
C        1.44529785       2.98121694       0.19659343
C        2.16257129      -0.53827621      -0.66118000
C        1.82971686      -0.88955100      -1.99393188
C       -3.06819496       1.09379640      -0.52057600
C        0.52451558       2.33585746      -3.23259413
C       -1.44491000       2.51996520      -1.85235892
C       -0.34867584       2.83468180       1.82265973
C       -0.98649982       0.28040268      -2.90227378
C       -0.76569306       3.91193783      -0.17755620
C        1.62824840       2.99427459      -1.21192213
C       -0.81540487       1.64718728      -2.75697921
C       -3.81632188       1.46440621       1.95732211
C        0.10182474      -0.56070540      -3.62173323
C        2.01635457      -1.91902398       0.15825670
C        0.22731508       1.13881094      -5.16052488
C       -1.76049031       2.83787617       1.60124876
C       -3.84307408      -0.56821747       0.89786803
C       -2.58637623       2.01184113       2.38358538
