60
Properties=species:S:1:pos:R:3 source_escape=runs/20260728-block-krylov-fixed-starter-escape/output/cases/bootstrap_quenched-seed44-discrete/escape.xyz pbc="F F F"
C        3.10403722       0.12097603      -2.36575382
C        1.32016612       3.02100905      -0.76572989
C        1.26935088       0.57074923       3.33028710
C        3.10099609       1.25435467      -1.50183970
C       -2.62301804      -1.99876473       0.15776583
C        1.93637319       1.75778676       1.35909932
C        2.14138105      -2.31998837      -1.75923880
C        3.70730760      -0.93467808       1.24077858
C       -3.80738162       1.16027093      -2.60137802
C        0.88246675      -0.56985807      -0.85198076
C       -1.63585260      -1.57091764       2.22624896
C       -0.89038921       2.43475072       2.86554418
C        1.83886729      -0.11330175      -2.95210402
C       -2.85642737       1.82586700       1.84463348
C       -1.67083808       3.47178747       0.76656832
C        1.03215935      -0.72329646       0.60778570
C       -0.38229135       3.94094355       0.46670623
C       -0.37673222      -2.87867145      -3.25412474
C       -1.54976430      -3.35122485      -3.06435965
C        1.66485187       2.97480019       0.64406466
C       -3.87071650       0.34355647      -1.41075498
C       -0.90234953      -0.51662135      -3.06123258
C        1.78001838      -3.11541317      -0.59238840
C       -2.72984647      -2.39819441      -1.11663369
C        0.63276879      -3.44155500      -0.00448372
C        0.48645415      -1.63670330       1.51725399
C       -2.24828254      -0.97242567      -2.88179201
C        3.63895553      -1.09051782      -0.10849281
C        0.04878180      -1.58134380      -2.97166909
C        1.43367424       1.86517529       2.69858242
C       -1.38124178       1.83661236      -2.58572572
C        1.64253362       1.78475377      -1.56474332
C       -0.18471864      -2.75408585       0.83668680
C       -3.15931306       1.69571963       0.46237849
C        2.34819373      -0.26640897       3.20536869
C       -0.41635658       0.85702136      -2.93812985
C        2.95274860      -2.21741254      -0.67943359
C       -1.58812580      -2.46815861       1.11628514
C       -0.32960033      -1.14953454       2.59850623
C       -0.09719921       0.10420810       3.23685148
C        3.55937912      -0.03421068      -1.07258205
C        1.23526639      -1.23047504      -2.18568647
C        0.41342947       2.86569423       2.61236101
C        1.42156325       0.66408172       0.66630119
C        1.10421868       0.77791033      -0.68235247
C       -3.33858865      -0.18501121      -2.55754687
C       -2.02517882       2.59926976      -1.58425112
C        0.17743246       3.81213260      -0.83998760
C       -1.14732108       1.05344762       3.15732498
C       -3.54169226       0.41150184      -0.04911204
C       -1.93923481       2.90092849       2.02911607
C        0.63752350       3.59226844       1.40054716
C       -2.39777465       2.71243312      -0.22066171
C       -3.15576207      -0.74114230       0.71488933
C        1.01703174       1.07209162      -2.82007575
C        3.27621919      -0.70115215       2.42241048
C       -2.75441095       2.08237552      -2.67504908
C       -2.40099711       0.70208852       2.55798116
C       -2.40178784      -2.37488362      -2.40280861
C       -2.60346508      -0.57228536       2.01147808
