60
Properties=species:S:1:pos:R:3 source_escape=runs/20260728-block-krylov-fixed-starter-escape/output/cases/bootstrap_quenched-seed44-deep_refinement/escape.xyz pbc="F F F"
C        3.69705848      -1.36318953       0.21938866
C        2.38234025       2.10978381      -0.58577445
C       -0.79896943       1.76128283       2.93086363
C        3.55122807      -0.01112252       0.63116008
C       -3.40935552      -1.40355699       0.38264267
C        1.18627386       1.86820096       1.60154776
C        1.99235861      -3.34406537       0.41697711
C        0.99152903      -1.01497256       2.59185957
C       -0.68443387       1.53760348      -3.23478375
C        1.00326919      -1.13503606       0.05105045
C       -3.31335612      -0.73967521       2.56106830
C       -1.56063248       3.39852346       0.76081839
C        3.03761657      -1.65156089      -1.00059641
C       -2.97607497       2.91173223      -0.98812441
C       -0.79126604       3.46822657      -1.56436610
C        0.21066357      -0.70322492       1.29659152
C        0.55818185       3.47525208      -1.11479675
C       -0.05492976      -3.52337548      -1.84696248
C       -1.16437780      -2.97624104      -1.53733220
C        1.82663825       2.69930190       0.61854345
C       -2.73234578       0.31418233      -3.20950819
C        0.68092504      -1.27772746      -2.47891697
C        0.36525037      -3.41660553       2.03012753
C       -2.06142449      -1.20808856      -0.09462918
C       -0.88653165      -3.26227880       2.12864390
C       -1.31605310      -0.93404153       1.28768452
C       -0.69137242      -0.86319926      -2.39786116
C        2.16777329      -1.76544186       2.26953659
C        0.94980535      -2.52657265      -1.82060049
C        0.12726448       2.59809553       2.24272420
C        1.66109369       0.65091360      -3.60000377
C        2.73318478       0.63637368      -0.53491515
C       -1.77197659      -2.26269957       1.84407877
C       -2.76084841       2.43061287      -2.29309315
C       -0.22025754       0.74352258       3.68684560
C        1.80546749      -0.39721278      -2.68141552
C        1.68249552      -3.03804129       1.70747838
C       -3.21687170      -1.90540910       1.76902321
C       -2.25401637       0.02897101       2.14824581
C       -1.99051939       1.44939804       2.19928401
C        3.11606762      -1.13683593       1.44895844
C        1.75549767      -2.28991533      -0.59198649
C       -0.26615114       3.54287780       1.25393099
C        0.80456827       0.66843059       1.01839979
C        1.46557893       0.14035332      -0.05786849
C       -1.31678079       0.23272053      -3.05956074
C        1.74533335       1.62461876      -4.59250051
C        1.68235679       2.75757087      -1.59556535
C       -2.41966096       2.34533147       1.18112535
C       -3.41639343       1.35256665      -2.91535890
C       -1.81828720       3.65287369      -0.60179686
C        0.78393726       3.61400537       0.28787102
C       -1.35266145       2.60935450      -2.57539176
C       -4.24717747      -0.33084404       0.08768238
C        2.81997450      -0.40691900      -1.67838514
C        0.51822126      -0.27392778       3.65749574
C        0.59819293       1.53876893      -3.79257041
C       -3.38187690       2.07457403       0.11898797
C       -1.49336951      -1.62836206      -1.36425915
C       -4.13525553       0.91521537       0.01332857
