60
Properties=species:S:1:pos:R:3 trial_index=13 seed_entry_id=8 discovered_entry_id=10 energy=-486.8946838378906 status=accepted pbc="F F F"
C        1.35151674      -1.32109389      -1.96958336
C        3.81712877      -0.37191966       1.16466864
C        0.04493348       1.59173793       2.89107406
C        2.94751682      -1.77420999      -0.38794956
C       -3.01233684       0.85816504       0.06194053
C        2.30899677       0.42675444       2.91752578
C        0.61058216      -2.55865022      -0.15393273
C        1.52875166      -0.57481907       2.24378190
C       -2.33339521       0.59541969      -3.45979709
C        2.20240205      -0.17202078      -1.89755723
C       -2.78085029       2.02970014       2.26168525
C        1.25049433       3.10393465       0.95147949
C       -0.03393609      -1.59411902      -2.17979740
C        0.22459221       2.88774135      -1.10940149
C        2.39514399       2.00908932      -0.87318746
C        0.29229615       0.29715368       0.16888751
C        3.38365784       1.57824327       0.01669419
C       -2.46176086      -1.86311995       0.53986435
C       -3.76247812      -1.34556455       0.51100052
C        3.46596430       0.62620809       2.10910644
C       -0.97806324       0.14721031      -3.62174853
C       -2.70693836      -1.86907161      -1.85768034
C       -0.32871010      -1.85217063       1.97602431
C       -1.86891036       0.57998581      -0.97112481
C       -1.60234652      -1.39386423       1.56440411
C       -0.48375998       0.68775507      -0.85459156
C       -3.62608174      -0.65710883      -1.83512696
C        1.99550851      -1.86594107       1.74160551
C       -1.90327852      -2.15900361      -0.73333180
C        1.48377523       1.63542877       2.85905986
C       -3.19551674      -1.50254042      -3.96139240
C        3.17253153      -1.65565511       0.99275067
C       -1.77777521      -0.06249196       2.07471710
C        0.28639410       1.51718028      -1.92097392
C       -0.61838206       0.32300633       2.84729389
C       -2.14510110      -1.94004912      -3.14007057
C        0.74066582      -2.46091340       1.23521541
C       -2.66926049       0.86844491       1.51262337
C       -2.02425292       2.90764882       2.74264710
C       -0.65156601       2.75831031       2.39690132
C        1.73160310      -2.18468835      -0.90718645
C       -0.52151559      -2.25154572      -1.00566465
C        2.06514582       2.45136500       1.86776849
C        1.26396185       0.03170456       0.89532921
C        3.27670433      -0.57213701      -1.04885669
C       -2.63547155       0.39837865      -2.12561250
C       -4.24820532      -0.81182036      -3.22364645
C        3.83418326       0.26347314      -0.09734844
C       -0.13882904       3.24712372       1.16841193
C       -0.12862282       1.12287513      -3.24220280
C        1.45139156       2.93190156      -0.41525245
C        3.24044430       1.83593998       1.39258051
C        1.78013614       1.15571641      -1.79792198
C       -3.18267805       2.38382978      -0.30953182
C       -0.92699428      -1.23430150      -3.20580081
C        0.21012716      -0.80810978       2.75959520
C       -3.32906046      -0.12560002      -4.15314471
C       -0.80005075       3.28263831      -0.12626662
C       -3.91911734      -0.31524596      -0.35177933
C       -2.16434641       3.12487927      -0.29217445
