60
Properties=species:S:1:pos:R:3 trial_index=28 seed_entry_id=23 discovered_entry_id=25 energy=-496.1645812988281 status=accepted pbc="F F F"
C        1.59363618      -1.60250772      -1.84846069
C        3.87094531      -1.09540759       1.51681113
C        0.40495798       1.56112291       3.06693052
C        2.96971329      -2.33567650      -0.14928501
C       -3.59814211       2.56037407       0.16340662
C        2.29241948      -0.05924897       3.05863230
C        0.53299055      -2.81525971      -0.15656667
C        1.37575037      -1.09573558       2.82382600
C       -2.15856334       0.92649364      -3.35804763
C        2.58078308      -0.57217906      -1.64771656
C       -2.05019534       3.57655652       1.67524333
C        2.12606607       2.90609792       1.20136765
C        0.21629685      -1.67128469      -2.19416461
C        1.25426135       2.78316607      -0.91200240
C        3.16403566       1.56104000      -0.57415751
C       -3.24700194      -0.97826608       1.36657804
C        3.99025687       0.92635415       0.37956605
C       -2.44518363      -2.40814052       0.14031668
C       -3.72577485      -1.71456057       0.15275928
C        3.57418993      -0.08020772       2.43644933
C       -0.85489965       0.41815050      -3.09839077
C       -2.50756807      -2.16161723      -2.26600637
C       -0.66258480      -1.80131665       1.88614275
C       -4.21521026       2.77719024      -1.08461727
C       -1.97809214      -1.79619249       1.35789984
C       -3.65681928       2.57638538      -2.19976642
C       -3.80886635      -1.59040294      -2.20146311
C        1.67384670      -2.11744580       1.89214588
C       -1.80543998      -2.54462595      -1.10257187
C        1.80830525       1.27858071       2.98399928
C       -2.80349672      -1.18939104      -4.29417234
C        2.94568201      -2.15175691       1.26217055
C       -1.15860608       3.02856394      -0.52889191
C        1.14513205       1.65052210      -1.77658036
C       -0.42826145       0.45482355       3.16474094
C       -1.81386990      -1.76056300      -3.43336465
C        0.44202626      -2.48614753       1.22807049
C       -2.28673940       3.20748245       0.35977545
C       -1.24497732       3.45892396       2.63535344
C        0.00748313       2.84996385       2.47698942
C        1.78004347      -2.58199940      -0.80985097
C       -0.40911996      -2.48434249      -1.18568125
C        2.68068790       2.03571085       2.15285128
C       -1.23168808       2.32109364      -1.78612233
C        3.55782100      -1.17458148      -0.76911686
C       -2.40991644       2.07065534      -2.54580306
C       -4.00369099      -0.90742208      -3.47202933
C        4.19440686      -0.46587051       0.25800182
C        0.72285277       3.19481821       1.28358525
C       -0.17421019       1.43764754      -2.27857846
C        2.45154076       2.70817554      -0.16182246
C        3.75532584       1.18712540       1.77076082
C        2.35796531       0.83544394      -1.53976488
C       -3.78650435       1.48466753       1.02424029
C       -0.64453877      -0.99108604      -3.13462745
C       -0.05527637      -0.82880393       2.84267756
C       -3.14730551       0.14201131      -3.94609950
C        0.18562190       3.20613504      -0.05897211
C       -4.41646769      -1.43801178      -0.97500625
C       -3.56879498       0.35247385       1.51433314
