60
Properties=species:S:1:pos:R:3 trial_index=34 seed_entry_id=25 discovered_entry_id=29 energy=-496.30889892578125 status=accepted pbc="F F F"
C        1.56679164      -1.65284613      -1.83779043
C        3.81165034      -1.08025081       1.56068558
C        0.34257067       1.62304370       3.04462201
C        2.89354077      -2.34252375      -0.08091587
C       -3.46689189       1.93876611       0.23270486
C        2.23838259       0.00058101       3.08202398
C        0.44511835      -2.75128542      -0.09706527
C        1.32947395      -1.05364086       2.89407584
C       -1.96316044       0.91832441      -3.67197744
C        2.57305108      -0.62867129      -1.65323489
C       -2.18497327       3.50117493       1.47527934
C        2.06263068       2.89786323       1.12073813
C        0.19413812      -1.70837980      -2.21092090
C        1.23718394       2.73532114      -1.00767387
C        3.15239408       1.53227231      -0.61065534
C       -3.19674741      -0.75622872       1.59392161
C        3.95229023       0.91218102       0.37359621
C       -2.50168079      -2.05344205       0.17049852
C       -3.52286684      -1.05465562       0.21328207
C        3.51597075      -0.03892236       2.45259997
C       -0.71302756       0.35756861      -3.31427145
C       -2.54132185      -1.86942523      -2.21242805
C       -0.72152129      -1.77263319       2.00274354
C       -3.88008059       1.18007156      -0.93755752
C       -2.04127111      -1.70387519       1.50788443
C       -3.63435936       1.83306429      -2.14196192
C       -3.61474913      -0.96324160      -2.15630856
C        1.60790488      -2.08258149       1.96011654
C       -1.86884059      -2.31504238      -1.04879067
C        1.74664826       1.33572805       2.96308846
C       -2.81061161      -1.22808230      -4.35735286
C        2.87544532      -2.13195703       1.32513515
C       -1.19700170       2.82511158      -0.64487920
C        1.18761169       1.60653174      -1.88101481
C       -0.46882554       0.50781867       3.21360034
C       -1.84699578      -1.76069903      -3.44688540
C        0.36760017      -2.44324336       1.30099329
C       -2.37050345       2.90753596       0.21039712
C       -1.34515155       3.46289419       2.41056446
C       -0.07731325       2.86723875       2.36828603
C        1.70365564      -2.58134158      -0.74482654
C       -0.48041107      -2.41232918      -1.14879072
C        2.61785966       2.06505827       2.10386850
C       -1.19549546       2.16210697      -1.90811004
C        3.51440663      -1.21532176      -0.72676866
C       -2.37904412       1.84250884      -2.66742534
C       -3.88277405      -0.56550886      -3.50175946
C        4.14879307      -0.48454701       0.28752584
C        0.65369554       3.16070935       1.17326847
C       -0.10396953       1.36685921      -2.42415272
C        2.41871692       2.68087212      -0.23134400
C        3.69726466       1.20860952       1.75357280
C        2.37919971       0.78898577      -1.59016685
C       -3.78373000       1.46754200       1.50819632
C       -0.61022861      -1.06471650      -3.22909126
C       -0.10077344      -0.78991087       2.93597048
C       -2.96026398       0.16788605      -4.27688403
C        0.13180059       3.11440581      -0.17328319
C       -3.88532652      -0.28600931      -0.92008039
C       -3.65863685       0.40037543       2.20104991
