60
Properties=species:S:1:pos:R:3 trial_index=27 seed_entry_id=23 discovered_entry_id=24 energy=-490.8388366699219 status=accepted pbc="F F F"
C        2.33354775      -1.56700862      -2.20171186
C        4.18645272      -0.70868252       1.38077945
C        0.05602120       0.68001479       3.11655612
C        3.70464532      -2.04909661      -0.39672118
C       -4.26850743       4.40903683       0.97827642
C        2.37051969      -0.30924598       2.99684909
C        1.42231817      -2.98702533      -0.57909203
C        1.79829764      -1.53521635       2.63645236
C       -4.26998326       1.41224600      -2.57361881
C        3.10858523      -0.38098477      -1.90922860
C       -2.74476660       3.13615794       2.42255010
C        1.22272220       2.38849358       1.21680722
C        0.98880753      -1.86535595      -2.60978636
C        0.22925271       2.79792841      -0.76890274
C        2.66787802       1.73026145      -0.66744807
C       -2.64912339      -2.86393662       1.34034561
C        3.59328598       1.28802825       0.32694617
C       -1.60687997      -3.12647973      -0.26252877
C       -3.03350386      -2.82386799      -0.06202756
C        3.57980919       0.10426205       2.34883566
C        0.66338669      -0.26501233      -4.41447160
C       -1.75741081      -2.29769371      -2.47460939
C        0.05521436      -2.69008572       1.59649971
C       -4.93801802       4.27714102      -0.24691902
C       -1.22932694      -2.99171561       1.10203823
C       -4.87897631       3.53421625      -1.26156058
C       -3.12019709      -1.91817520      -2.23219641
C        2.35797336      -2.31010067       1.59336703
C       -0.95790251      -2.86801028      -1.47737596
C        1.48594411       0.81706404       3.01622860
C       -2.29085109      -0.92104024      -4.20424372
C        3.59930429      -1.95989166       1.01829826
C       -2.23039333       3.11437926       0.02941465
C        1.99400326       1.38314336      -3.09345661
C       -0.39507284      -0.62285410       3.06840494
C       -1.23459598      -1.61629327      -3.61329532
C        1.26995415      -2.89552335       0.83965069
C       -3.07759105       3.60927484       1.17056616
C       -1.94090212       2.35527256       3.02364791
C       -0.70731452       1.87187859       2.64652666
C        2.63993049      -2.52014938      -1.15222382
C        0.44070563      -2.72905872      -1.59780789
C        2.05101542       1.79837426       2.15391129
C       -2.80710523       2.70708962      -1.11543558
C        4.04884268      -0.75975425      -0.91367042
C       -4.01600047       2.52780158      -1.75641664
C       -3.37757234      -0.89797229      -3.29753056
C        4.31690865       0.07692030       0.16921115
C       -0.15867432       2.48568257       1.47180936
C        1.37463063       0.73758401      -4.02018551
C        1.47978658       2.43410281      -0.19846752
C        3.32053319       1.37282349       1.72596234
C        2.65166176       1.01106490      -1.94580327
C       -4.73725560       5.10761082       2.09780284
C        0.17969749      -1.32553561      -3.66613199
C        0.35476024      -1.69511931       2.64554940
C       -4.05283807       0.27929157      -3.00235367
C       -0.77893933       2.88451367       0.23055323
C       -3.74763121      -2.26433828      -1.06865236
C       -5.13988583       5.79838831       3.05481629
