60
Properties=species:S:1:pos:R:3 trial_index=40 seed_entry_id=31 discovered_entry_id=34 energy=-496.5343017578125 status=accepted pbc="F F F"
C        1.78360833      -1.36471460      -1.69282705
C        3.94561984      -0.74520640       1.74124210
C       -0.13033495       0.89258407       3.09822267
C        3.18185647      -2.03047081       0.01826816
C       -4.77752191       1.48029146       0.03273496
C        2.15810648      -0.01902455       3.25702558
C        0.77294956      -2.62958811      -0.00491192
C        1.59794018      -1.30458882       3.21934690
C       -2.08381594       0.93549609      -3.18266060
C        2.77418569      -0.31123945      -1.52360607
C       -2.41787401       2.18698934       0.22124672
C        1.38814818       2.70869164       1.02323876
C        0.38141978      -1.47678375      -2.00205991
C        1.37794213       3.12090039      -1.24307969
C        3.13009290       1.85790620      -0.45237122
C       -1.94283734       0.00796584       1.85577123
C        3.83595737       1.27186951       0.60534736
C       -2.25658005      -1.80045174       0.43351186
C       -3.41139444      -0.94758460       0.39314278
C        3.40595566       0.21582125       2.62336834
C       -0.65963708       0.59776559      -3.04108291
C       -2.40235577      -1.88528952      -2.02445209
C       -0.33340240      -1.90507176       2.15141836
C       -4.72409132       0.55390580      -0.95843735
C       -1.50162790      -1.35525978       1.59588671
C       -4.17915418       0.89034855      -2.23718969
C       -3.66830850      -1.27700025      -1.98059735
C        1.96498974      -2.12953954       2.11350684
C       -1.67337795      -2.17083194      -0.81576076
C        1.27904454       1.08069286       2.96801055
C       -2.28071204      -1.20430862      -4.42656206
C        3.18303861      -1.90938280       1.43309924
C       -0.86571238       4.25314939      -1.35833693
C        1.44164766       1.88960758      -2.06444766
C       -0.45696279      -0.22993813       3.91828893
C       -1.67648451      -1.57604992      -3.22485700
C        0.75521969      -2.46767368       1.40719078
C       -2.00055566       3.75813272      -1.57328086
C       -1.18428362       2.21119574       1.01992761
C       -1.11227290       1.16531062       2.07259766
C        2.00203651      -2.32872621      -0.65464199
C       -0.24941920      -2.25826817      -0.95965939
C        1.95951681       1.95341576       2.06837637
C       -2.57189732       2.55337644      -1.19168527
C        3.72208723      -0.83935525      -0.56767904
C       -2.96034835       1.59578947      -2.24228039
C       -3.95325926      -0.30929824      -2.98139078
C        4.24731930      -0.07387538       0.49072962
C        0.00943675       2.91547086       0.59287350
C        0.35871364       1.41794950      -2.68702149
C        2.21525200       2.89014544      -0.13025788
C        3.28671944       1.44469651       1.90480725
C        2.58102649       1.10429987      -1.52838992
C       -3.56321783       1.45180965       0.71403734
C       -0.47890866      -0.84336070      -2.93899693
C        0.16514973      -1.33285787       3.37934776
C       -2.83886774      -0.10299466      -3.82950088
C        0.14706778       3.59209417      -0.69146063
C       -4.16675824      -0.76785956      -0.75527571
C       -3.17282960       0.17662263       1.19811944
