60
Properties=species:S:1:pos:R:3 trial_index=21 seed_entry_id=15 discovered_entry_id=18 energy=-491.19158935546875 status=accepted pbc="F F F"
C        0.82367828      -1.85339819      -1.42764527
C        3.56774256      -0.81313274       2.33943448
C        1.52984851       3.00366805       3.57630275
C        2.11895905      -2.94350105       0.14984612
C       -2.40625468       4.89909968      -0.30380697
C        3.19846154       1.17993291       3.72086185
C        0.00578816      -4.01551378      -1.12480770
C        2.40166323       0.45903213       4.66762199
C       -2.84736097       0.83822599      -2.22539115
C        1.72350295      -0.89727120      -0.94098639
C       -1.59489771       4.28655955       2.05076987
C        2.48751702       3.14683814       0.90582444
C       -0.34431883      -1.92142020      -2.20733843
C        1.14568828       2.69986472      -0.90078947
C        2.85181164       1.19353749      -0.52523211
C       -4.20465406      -5.74459579      -1.20779195
C        3.62648685       0.57276304       0.46896064
C       -2.95815046      -4.58050968      -1.94663421
C       -4.41556015      -4.52571840      -1.98485889
C        3.94361258       0.51654960       2.71937033
C       -1.51102087       0.32710310      -2.24793478
C       -2.84960189      -2.57782061      -3.16794360
C       -1.49880566      -5.95017387      -0.60795840
C       -3.46715673       4.40399992      -1.05642763
C       -2.76519896      -5.70169509      -1.10794249
C       -3.64942744       3.19862697      -1.43691319
C       -4.26655016      -2.40287620      -2.99982279
C        2.49588039      -0.94556400       4.47155705
C       -2.14365067      -3.56913463      -2.44669344
C        2.77057816       2.42581333       3.18845604
C       -3.29536311      -0.57845324      -4.08974640
C        2.96545231      -1.51532502       3.40807427
C       -1.09312786       3.07343139       0.07027027
C        0.70681551       1.42770372      -1.35588004
C        1.01962059       2.40446478       4.76047169
C       -2.21387416      -1.44428509      -3.67760879
C       -0.44814999      -5.23076815      -0.65353988
C       -1.98802136       3.99037114       0.77087960
C       -0.56638550       4.11184167       2.75969984
C        0.75392790       3.70160814       2.56803259
C        1.08576610      -3.11611220      -0.74853537
C       -0.82400380      -3.25998858      -2.03292671
C        3.30386600       2.56044851       1.88208129
C       -1.53274967       2.17529388      -0.89602106
C        2.52166266      -1.58775705       0.08681811
C       -2.84629581       2.06994883      -1.46339589
C       -4.51391602      -1.00488804      -3.38321732
C        3.35888245      -0.77045253       0.90806827
C        1.20936969       3.66883040       1.22222790
C       -0.67585709       1.21600593      -1.50506392
C        2.44122495       2.54359458      -0.36888008
C        4.02336073       1.36360189       1.58027360
C        1.77963670       0.48917828      -1.14301702
C       -1.19544976       5.53393842      -0.72561016
C       -1.20205703      -0.93544238      -2.82588276
C        1.41213876       1.28756117       5.27355073
C       -3.82017926       0.21271695      -3.02786589
C        0.32376775       3.64508022      -0.05315901
C       -5.03178714      -3.43445590      -2.49497064
C       -0.03474456       5.04016510      -0.59150243
