60
Properties=species:S:1:pos:R:3 trial_index=14 seed_entry_id=8 discovered_entry_id=11 energy=-487.1165466308594 status=accepted pbc="F F F"
C        1.59466369      -1.50735897      -1.79675779
C        3.77190566       0.23186786       1.16592144
C       -0.50871394       1.29182804       2.64270492
C        3.23598758      -1.55176689      -0.21603787
C       -2.70079187       0.34905335      -0.10954238
C        1.98625448       0.87779498       2.86193588
C        0.99616155      -2.70350687       0.11015485
C        1.71169019      -0.50058513       2.95596248
C       -1.54060048       0.85756305      -3.39251662
C        2.36761474      -0.33553273      -1.97231088
C       -3.49497356       0.79498021       2.75575798
C        0.30039586       2.81622672       0.34537010
C        0.11192529      -1.57884850      -1.79502933
C       -0.11970427       2.09473671      -2.08475497
C        1.95938452       1.92782146      -1.25010468
C        0.43538862      -0.04078810      -0.02392002
C        2.90879743       1.81310489      -0.25209400
C       -1.96176396      -1.93849227       0.84094618
C       -2.72881796      -0.73411565       0.84533851
C        3.05038875       1.18343805       1.94903191
C       -0.23158946      -0.93076830      -4.05580042
C       -2.38671411      -2.36986565      -1.47238242
C        0.06613209      -2.06839229       2.38273279
C       -1.62640195       0.46311075      -1.09702384
C       -1.29385137      -1.96798764       2.08542857
C       -0.40153657      -0.29490323      -1.04146055
C       -2.82612500       2.30884867      -2.27122152
C        2.01830662      -1.15037806       1.66304796
C       -1.58202668      -2.57525953      -0.39142912
C        0.85274813       1.69725265       2.48492510
C       -2.97737361      -0.93368738      -3.33382471
C        3.36656447      -1.15087019       1.15939902
C       -1.79051788      -0.85974688       2.85611507
C        0.60498466       1.19079918      -2.89617953
C       -0.69760361      -0.02197910       3.18201673
C       -2.11384976      -1.80641915      -2.69230408
C        1.10610766      -2.32268677       1.47092054
C       -2.92690245      -0.33475228       2.23185470
C       -2.85672024       1.62321856       1.87033712
C       -1.47734237       2.02180620       1.85596137
C        2.07788958      -2.20808938      -0.68510750
C       -0.17320567      -2.58963171      -0.69955335
C        1.22205808       2.46495420       1.36050289
C        1.34991619      -0.24209169       0.76596373
C        3.39877647      -0.40786665      -1.01234753
C       -1.51721251       1.60797164      -2.13160069
C       -3.64137331       1.55289859      -3.05455504
C        3.70571838       0.66797927      -0.18767678
C       -1.06876514       2.86039401       0.75342359
C       -0.27252354       0.39038324      -3.71166843
C        0.69606300       2.54096279      -1.00310816
C        2.54931660       2.14855932       1.05156119
C        1.83305751       0.92640830      -2.25370848
C       -3.36230467       1.48537576       0.50554858
C       -0.70127440      -1.68556286      -3.01990568
C        0.40236317      -0.92465189       3.21551098
C       -2.88163579       0.38244638      -3.52779414
C       -2.11090741       3.37612521      -0.05772883
C       -2.95045613       3.26473928      -1.22550547
C       -3.38855116       2.77642527      -0.00231514
