60
Properties=species:S:1:pos:R:3 trial_index=20 seed_entry_id=15 discovered_entry_id=17 energy=-492.45526123046875 status=accepted pbc="F F F"
C        1.76040015      -1.03812072      -2.13672840
C        4.19589503      -0.34635511       1.14831176
C        0.20091902       0.49900318       3.15228192
C        3.46439594      -1.54415486      -0.64392931
C       -3.79961125       3.37965233       0.07619805
C        2.60053360      -0.16585173       2.99555243
C        1.25746939      -2.64487860      -0.51260832
C        2.17235727      -1.48029743       2.76862358
C       -2.58108904       0.64344764      -3.28122411
C        2.45004300       0.20712758      -1.82327002
C       -3.08659346       1.24072215       1.54260860
C        1.10519057       2.67855399       1.56698939
C        0.40376805      -1.45260590      -2.35971150
C        0.32007022       2.96910857      -0.57026002
C        2.48500924       2.23567105      -0.40788074
C       -2.02907838      -0.95493767       1.57959546
C        3.53293277       1.73910402       0.38619087
C       -1.74141318      -2.51800143       0.27347243
C       -2.87450307      -1.61760958       0.49958033
C        3.69860984       0.36390285       2.25561196
C       -1.18990297       0.36209701      -3.06700555
C       -2.18576916      -2.38068358      -2.06098532
C        0.27243341      -2.32995715       1.81972957
C       -4.48421340       3.13861100      -1.10660510
C       -1.03195290      -2.02419624       1.41312735
C       -4.19576548       2.35792303      -2.07652477
C       -3.48077297      -1.85402915      -1.77810961
C        2.54894659      -2.10417143       1.53873891
C       -1.26383496      -2.68062760      -1.03716653
C        1.59167658       0.84536439       3.05916706
C       -2.91242193      -1.60714589      -4.05198548
C        3.62143276      -1.59509084       0.77113098
C       -1.96318362       2.28788182      -0.28414447
C        0.49334042       1.94228081      -1.56857157
C       -0.03871614      -0.79451273       3.63156969
C       -1.73440022      -1.94683744      -3.32823527
C        1.35168113      -2.60719503       0.91044241
C       -3.14723912       2.14622783       0.58269183
C       -1.99885246       0.46091600       1.94095557
C       -0.74575277       1.19230226       2.28928074
C        2.31384712      -2.03444997      -1.24579746
C        0.09650112      -2.43125866      -1.34334903
C        2.03692427       1.96580793       2.32674080
C       -1.88826980       1.94059996      -1.59919495
C        3.63058207      -0.19135360      -1.09253830
C       -3.02646365       1.67355570      -2.40176136
C       -4.00535974      -1.42652347      -3.06561486
C        4.14849843       0.52861271      -0.00136454
C       -0.29335257       2.37001377       1.61812185
C       -0.68472814       1.41464111      -2.17145136
C        1.47661553       3.01237369       0.22901269
C        3.32538643       1.67628265       1.80080100
C        1.87275814       1.47011550      -1.46862360
C       -2.93969250       4.47188279       0.42725802
C       -0.69968989      -0.96816052      -3.17070427
C        0.77281440      -1.73903397       3.02862460
C       -3.44242008      -0.32449891      -3.78017224
C       -0.87707395       3.03449973       0.34651071
C       -3.77867212      -1.44303624      -0.49622022
C       -1.68105366       4.36211731       0.58760044
