60
Properties=species:S:1:pos:R:3 trial_index=17 seed_entry_id=12 discovered_entry_id=14 energy=-490.99932861328125 status=accepted pbc="F F F"
C        1.93864626      -1.10543633      -2.06484408
C        3.83342429      -0.50547968       1.50459351
C        0.02968584       1.64770246       2.87278943
C        3.31090084      -1.74273291      -0.32762741
C       -3.66025777       2.14978935       0.45763772
C        2.01665262       0.18483844       2.93861319
C        1.01414923      -2.67331190      -0.63957331
C        1.24145107      -0.84519199       2.38538467
C       -2.37112199       0.24193171      -2.44065749
C        2.64146299       0.07439800      -1.61927046
C       -2.66163935       2.60899168       2.67528967
C        1.63044159       3.34107423       1.51407262
C        0.64891214      -1.42639318      -2.57793535
C        0.65141691       3.02438094      -0.52080062
C        2.80332690       2.17461234      -0.32131046
C       -3.28216482      -1.45792505       0.32393121
C        3.73514474       1.62455591       0.57947855
C       -2.03652901      -2.71305166      -0.63559983
C       -3.46568488      -2.50528780      -0.71287802
C        3.34273656       0.37171447       2.48388560
C       -0.96029910       0.30316056      -2.58476280
C       -1.93026702      -2.41522933      -2.99874730
C       -0.54696788      -1.70090347       1.13395570
C       -4.37713884       1.02109496       0.14226514
C       -1.82540233      -1.91832680       0.51933858
C       -3.67001455      -0.11899180      -0.14048806
C       -3.34719397      -2.33333140      -3.01240640
C        1.78586131      -1.83361449       1.52546376
C       -1.26215260      -2.72156219      -1.80764770
C        1.42111657       1.47573118       3.02659232
C       -2.40123701      -0.84391607      -4.54740117
C        3.12111323      -1.67822428       1.08372726
C       -1.59758948       1.08336544       1.08919991
C        0.72228935       1.81039417      -1.27871360
C       -0.65613657       0.66166818       2.10908279
C       -1.32431577      -1.55006495      -3.94237373
C        0.70537151      -2.33283169       0.69610021
C       -2.71940550       1.81556574       1.55554009
C       -1.72738190       3.26460481       3.20838899
C       -0.42083663       3.02566517       2.77498175
C        2.25307785      -2.14896930      -1.12991774
C        0.11736769      -2.43727332      -1.73698908
C        2.25954633       2.42568606       2.38508193
C       -1.48397641       0.84865573      -0.37442704
C        3.69325336      -0.42650118      -0.77898987
C       -2.61726311       0.32194048      -1.05072334
C       -3.66948793      -1.29730138      -3.95438861
C        4.12936312       0.28182546       0.34722474
C        0.20893582       3.59010386       1.64197563
C       -0.44844667       0.99969867      -1.39926929
C        1.89220565       3.14510201       0.15311072
C        3.43052237       1.72691960       1.97392988
C        2.11338114       1.35764019      -1.28210013
C       -2.97391016       3.26814634      -0.08822938
C       -0.33540747      -0.70487297      -3.34764650
C       -0.12219643      -0.65288389       2.04405172
C       -3.12316549      -0.01898604      -3.60753385
C       -0.41338723       3.55141269       0.31686108
C       -4.09554885      -2.57301345      -1.90479894
C       -1.76603784       3.62405977       0.00028247
