60
Properties=species:S:1:pos:R:3 trial_index=30 seed_entry_id=25 discovered_entry_id=26 energy=-493.9647521972656 status=accepted pbc="F F F"
C        1.59653527      -1.72504104      -1.78409675
C        3.60033350      -1.03776002       1.71800194
C        0.39995834       2.18407765       2.56776273
C        2.78833038      -2.39667223       0.08736546
C       -3.09517238       1.85390512       1.00956326
C        1.96946335       0.32275745       2.90097722
C        0.35253140      -2.81684961      -0.15227532
C        0.94648539      -0.53681802       2.49072795
C       -2.11929279       0.83308341      -3.13373685
C        2.62628567      -0.73798592      -1.54297021
C       -1.74076541       3.56265162       1.86964446
C        2.45478467       3.18710711       0.99257180
C        0.24596699      -1.79395993      -2.26875950
C        1.42185453       2.64973391      -0.97598632
C        3.31525783       1.45108613      -0.59681466
C       -3.65349372      -1.29783682       1.17484990
C        4.03862575       0.84929764       0.44734978
C       -2.59885437      -2.41872857      -0.15800907
C       -3.97916717      -1.91980275      -0.14241959
C        3.31519623       0.08581438       2.50814234
C       -0.79449229       0.30955668      -3.03045685
C       -2.52142417      -2.22472882      -2.52907371
C       -0.96770459      -1.31495734       1.45652938
C       -3.66922170       2.22298121      -0.18841223
C       -2.25203637      -1.69275471       1.01376248
C       -3.51048353       2.18785083      -1.44105068
C       -3.84902123      -1.70824077      -2.50317390
C        1.28563503      -1.75886796       1.85230603
C       -1.87725763      -2.59602019      -1.33632196
C        1.71522436       1.70333951       2.74107257
C       -2.69573983      -1.07016657      -4.46289524
C        2.61459010      -2.03850995       1.46114955
C       -0.86237258       2.56825361      -0.13470913
C        1.27515781       1.45840631      -1.74046553
C       -0.64637559       1.35402367       2.09800066
C       -1.76159032      -1.77001900      -3.63000624
C        0.14492937      -2.18881968       1.10858471
C       -1.64267794       2.24204581       1.20291950
C       -0.88201467       4.30218096       2.43599767
C        0.33490853       3.59026933       2.23274063
C        1.66643883      -2.65539809      -0.68731790
C       -0.47462144      -2.56471512      -1.30305543
C        2.79037523       2.29012715       2.02125387
C       -1.09649536       1.91931161      -1.39176209
C        3.50070118      -1.32530083      -0.56116946
C       -2.34033965       1.75130377      -2.06491361
C       -3.96016148      -0.90026140      -3.70466601
C        4.09491063      -0.56506536       0.45723017
C        1.09191621       3.68453712       1.04251610
C       -0.07254839       1.18997689      -2.10848423
C        2.66322085       2.67469486      -0.31599219
C        3.74711072       1.26259283       1.78840344
C        2.48031074       0.67560647      -1.50254955
C       -3.76586669       0.98007245       1.84366539
C       -0.57371492      -1.07360812      -3.23249524
C       -0.38517553      -0.09678759       2.12373667
C       -3.06929678       0.19963105      -3.92799847
C        0.42034924       3.15226396      -0.09734691
C       -4.56810890      -1.66325877      -1.32723754
C       -4.11466244      -0.23190652       1.91571774
