60
Properties=species:S:1:pos:R:3 source_escape=runs/20260728-block-krylov-fixed-starter-escape/output/cases/plateau_accepted-seed44-balanced_refinement/escape.xyz pbc="F F F"
C        1.12674872       2.36624750       1.74886170
C       -2.48863938       1.47734766       0.83431346
C       -1.68731869      -0.21665608       2.80943598
C        1.61617333      -1.44625890      -3.02134865
C        3.15343813      -1.49792727      -1.11545763
C       -1.84253623      -1.02418021       1.66440301
C        1.99407800       1.35973916       2.23251687
C        0.47325528       1.78887809       3.92297504
C       -1.60641791      -2.62814805      -2.39559005
C        0.92349111      -0.66687996      -3.98954632
C        1.08987844      -2.56153484      -0.01905087
C       -2.99578880      -2.12254310      -0.59938759
C        0.81807333       2.62731344       0.37252122
C       -0.55805511      -2.26351617      -3.26270189
C       -2.95929926      -0.49813932      -2.24659394
C        0.65476531      -0.39783535       3.19312321
C       -3.39236414       0.04191069      -0.95497555
C        1.69180352       1.37284259      -2.92962974
C        2.58124662       0.60221833      -2.11730707
C       -1.20373616       2.81851938       2.47326646
C       -0.39956564       1.18211282      -4.18019607
C       -0.20952751       2.79274241      -2.33563462
C        3.83745899      -0.79885691      -0.06720972
C        2.71932100       0.41723307       1.49439818
C        2.45081130      -0.94513839       1.77550429
C        1.09901106      -1.27418246       2.13331819
C       -0.95495062       2.21383032      -3.40723127
C        1.38215065       0.81471104       3.39710938
C        1.11353313       2.37939189      -2.09842095
C       -2.32535453       0.31115000       1.67398260
C       -2.28122420       2.13767508      -1.50429489
C       -1.56426843       2.56832542       1.12532370
C        3.23870743      -1.72005132       0.90573804
C       -0.44308465      -1.12466614      -4.08215386
C       -0.65872405      -0.10968156       3.73625040
C       -1.07932387       2.85193191      -1.20699490
C        3.30637198       0.51394266       0.21380479
C        2.47966454      -2.31837577      -0.13886594
C        0.35539436      -2.07235083       1.14809674
C       -1.11260843      -2.04876785       1.02323528
C        0.14956685       2.58563530       2.78560450
C        1.64793216       2.25755150      -0.75830665
C       -3.65012456      -1.02003949      -0.06339033
C       -1.78508028       1.83476542       4.60224479
C       -2.92569394       2.62387621       4.66359295
C       -2.18685698       1.71989579      -2.85553905
C       -1.00341207      -3.08705401      -1.17449381
C       -2.89945847       1.31278255      -0.53084277
C       -1.77164996      -2.67680884      -0.07637422
C        0.94236214       0.75455418      -3.95291498
C       -2.74817697      -1.88774170      -2.03234211
C       -2.11320203       2.68572634       3.53012581
C       -1.27117454       0.02269344      -4.10404306
C        2.60618954      -0.81748346      -2.21635824
C       -0.58637303       2.86996769       0.11075249
C       -0.61492064       1.09017385       4.53472307
C       -2.34596203       0.34496091      -3.20437350
C        0.39786416      -2.90068789      -1.22169130
C        2.69298033       1.23022663      -0.82744140
C        0.70157047      -2.44265070      -2.55121562
