60
Properties=species:S:1:pos:R:3 system=runs/20260728-safe-lbfgs-strict-quench-200-production/output-c60-seed42 state_id=intermediate_accepted pbc="F F F"
C       -2.47579906      -2.11130666       0.60776210
C        2.19301157      -2.86360876       0.07339763
C        1.19500736       0.03789950       2.63425465
C       -0.97129599       3.22882452      -1.96284973
C       -2.81306947       3.04511270      -0.33229101
C        2.77130380      -1.86938073       1.77204912
C       -2.88650206      -1.07567906       1.51068078
C       -1.50885797      -2.47412820       2.70968491
C        2.19920746       2.94475737      -0.60676319
C       -0.30519112       2.65553048      -3.08469313
C       -0.82050147       3.01085313       1.27642496
C        2.98480730       1.56083299       0.97785135
C       -2.22514928      -1.99409394      -0.81623094
C        1.33221420       3.30469573      -1.63660993
C        2.93652756       0.46651133      -1.11464179
C       -1.23446811      -0.22634154       3.05875812
C        3.27404064      -0.47608338      -0.04258453
C       -1.87395982       0.80966213      -3.13099205
C       -2.61465777       1.43464501      -2.08587909
C       -0.42691284      -3.43423722       0.94871213
C        0.44543282       0.67226855      -3.86840966
C       -0.78590142      -1.36643168      -3.30508401
C       -3.83335493       2.23370227       0.26803896
C       -3.30821745       0.23938968       1.24468665
C       -2.84619899       1.26673197       2.12057584
C       -1.53716009       1.09982202       2.65896159
C        0.42590038      -0.69340645      -3.64553425
C       -2.17919410      -1.24150341       2.74514830
C       -1.88761428      -0.59551798      -2.88536694
C        2.45445788      -0.52301286       2.17518873
C        1.00549910      -2.26403099      -2.10600869
C       -0.13721355      -3.32889078      -0.41011900
C       -3.25260668       2.50442128       1.58445838
C        1.10883206       2.56639937      -2.80311271
C        0.07752581      -0.79150459       3.02545221
C       -0.39193311      -2.39969295      -2.44580444
C       -3.69510333       0.82088173       0.01589633
C       -2.18451608       3.21948272       0.95247706
C       -0.47400698       1.94640396       2.20804466
C        0.89935003       1.44818514       2.29787502
C       -1.70076649      -3.01968180       1.40144737
C       -2.59489641      -0.86125554      -1.64414666
C        3.15587376       0.21897151       1.19457387
C        1.85915605      -2.91262485       1.48503374
C        1.17447547      -2.96833052      -0.87792381
C        1.48292256      -1.05385373      -2.72401766
C        1.50706700       3.18470619       0.63799704
C        3.17322209      -1.84378928       0.31878499
C        1.88532657       2.21313991       1.59297486
C       -0.73981280       1.44739407      -3.68444882
C        2.97271662       1.77230560      -0.45548748
C        0.54587756      -3.04472085       1.91867952
C        1.53410608       1.24395723      -3.11430452
C       -2.23351000       2.70153011      -1.56707590
C       -1.12773853      -2.79744243      -1.30606377
C       -0.09909242      -2.21671258       2.87819479
C        2.17249197       0.19801472      -2.32270015
C        0.16042844       3.51172235       0.37338767
C       -3.16609106       0.42088795      -1.22726661
C        0.04508375       3.65790399      -1.05283182
