60
Properties=species:S:1:pos:R:3 entry_id=11 rank=11 energy=-485.3250427246094 pbc="F F F"
C        1.68893341      -3.50835804      -0.72531134
C        1.81289089      -0.02970093      -2.21689922
C        1.93624684       1.83156655       2.07718825
C        2.50170271      -2.38118984      -1.12358225
C       -2.73331651       0.54999500       0.66218978
C        2.52147927       0.56553966       0.10824090
C       -0.04789389      -3.59560090       1.18462207
C        2.77803371      -1.56519440       2.37451529
C       -2.63319026       1.83423755      -3.69457742
C       -0.31134798      -1.25389073       0.24034662
C       -1.80824399       1.94733522       2.52532694
C        1.22876439       3.62160723      -0.01998886
C        0.34722062      -3.40511153      -1.16388398
C       -0.81859707       4.36169831      -0.74603648
C        0.48145313       3.32296062      -2.30434036
C        0.24425869      -0.40366981       1.28673047
C        1.36577577       2.24788900      -2.43230136
C       -2.52676599      -2.83851050       2.31431887
C       -3.46612128      -3.07854181       1.45133796
C        2.64773430       0.73429018      -1.32491653
C       -3.26326481       1.77765762      -1.44024416
C       -1.86478191      -1.76427255      -1.39341727
C       -0.29677596      -2.88586086       2.37990909
C       -2.55031558      -0.61807783       1.43707893
C       -1.41203727      -2.16954324       2.85073119
C       -0.41890931       0.08883578       2.41965514
C       -2.31313835      -0.42415229      -1.65895603
C        2.29475142      -2.57556593       1.60579117
C       -1.44012540      -2.16841031      -0.04074507
C        2.58296672       1.82541532       0.77146068
C       -1.24913623      -0.34782099      -2.69221387
C        1.44045669      -1.40536779      -1.74093227
C       -1.59604056      -0.76074041       2.51303962
C       -1.69596949       3.71650789      -1.68486552
C        2.34263531       0.82302191       2.91303264
C       -0.88294923      -1.74303479      -2.41439025
C        1.00351885      -3.08768423       1.90198402
C       -2.44253172       1.82669313       1.29572906
C       -0.48581691       1.53890761       2.60818410
C        0.58389831       2.34732392       2.02405274
C        2.46718061      -2.86771553       0.20963453
C       -0.59476087      -3.40514447      -0.10818826
C        2.33009469       2.78958571      -0.24059435
C        1.39619171      -0.18909613       0.44132576
C        0.79320060      -0.99901422      -0.51853174
C       -3.54942854       1.76631483      -2.83335426
C       -0.48419562       0.78237695      -3.13570129
C        0.90991260       0.93574405      -2.80147565
C        0.28327239       3.30655575       1.01452646
C       -2.59866662       2.91099611      -0.93221288
C        0.52327270       4.13397245      -1.14192810
C        2.42535440       2.13066397      -1.51141196
C       -0.87570620       3.13596912      -2.69596181
C       -2.90640861       0.54865792      -0.79077107
C        0.33949727      -2.34042069      -2.15602179
C        2.74953901      -0.40325961       2.90861535
C       -1.25290710       1.96913118      -3.41453908
C       -0.99842784       3.70635828       0.51645914
C       -2.63397073      -1.98528500       0.87664921
C       -2.15585328       2.91215194       0.41986311
