60
Properties=species:S:1:pos:R:3 entry_id=3 rank=22 energy=-479.87713623046875 pbc="F F F"
C        1.68089969      -3.37393145      -0.84281049
C        1.90075705       0.04998604      -2.38809126
C        2.05254854       1.85304781       1.94780688
C        2.45592473      -2.22608462      -1.19294051
C       -3.06818348       1.15621925       1.96736111
C        2.55873811       0.61609498      -0.03717019
C       -0.05685373      -3.59709853       1.16180700
C        2.75632172      -1.58578201       2.32243905
C       -2.65814343       0.99407222      -2.85222080
C       -0.06973109      -1.46660089       0.17035994
C       -1.38045565       1.98230114       3.32315790
C        1.22499121       3.60909964      -0.09111923
C        0.34000580      -3.30724072      -1.25604956
C       -0.80277053       4.34159531      -0.78325368
C        0.47245693       3.42991666      -2.43821364
C        0.34612535      -0.48373327       1.19162107
C        1.36800746       2.33517351      -2.57018089
C       -2.96344539      -3.42891298       0.21305501
C       -3.33779086      -2.33585851       0.75797079
C        2.68735223       0.81099716      -1.46608003
C       -3.01085107       1.83107665      -1.80484069
C       -2.04652266      -1.81140140      -1.46553004
C       -0.34403456      -2.93574577       2.45320553
C       -2.79895091      -0.23389286       1.78573428
C       -1.24494703      -2.03478930       2.73345558
C       -0.37806984       0.09284795       2.26281070
C       -2.80298247      -0.72660304      -0.85766848
C        2.25367428      -2.58640029       1.55693673
C       -1.87394307      -2.91980214      -0.55819855
C        2.67137340       1.86958476       0.64057128
C       -0.93499457      -0.62766205      -3.35440950
C        1.43111564      -1.29630940      -1.91030770
C       -1.60457059      -0.74025200       2.49092439
C       -1.67582974       3.87689593      -1.82495036
C        2.47012722       0.83700822       2.76901657
C       -1.01881515      -1.70095726      -2.48128696
C        1.00355683      -3.19855898       1.89550955
C       -2.62134720       1.82854224       3.18692719
C       -0.26756196       1.47487901       2.63614455
C        0.68795208       2.31664449       1.93721858
C        2.39789795      -2.74338027       0.14240432
C       -0.47513529      -2.90646180      -0.08103854
C        2.35346310       2.83581255      -0.34695101
C        1.38191689      -0.06485011       0.26393765
C        0.77698539      -0.84403868      -0.71218637
C       -3.03662111       0.44690514      -1.59434495
C       -0.18249043       0.52490087      -3.52736986
C        1.05533702       1.00021524      -3.05697657
C        0.28193305       3.23771436       0.92431962
C       -2.62169836       3.02261084      -1.19557446
C        0.52800974       4.14698290      -1.19123119
C        2.40187285       2.19700020      -1.62413559
C       -0.86829344       3.49023078      -2.89842632
C       -2.92424453       1.94247992       0.90709917
C        0.26740491      -2.28130846      -2.25896384
C        2.81883206      -0.40256659       2.80240507
C       -1.59817943       0.58118704      -3.64293460
C       -1.02749228       3.62761183       0.42395654
C       -3.16861411      -0.96707157       0.59125018
C       -2.28545859       2.89243593       0.21991858
