60
Properties=species:S:1:pos:R:3 entry_id=19 rank=5 energy=-488.0613098144531 pbc="F F F"
C        1.69369591      -3.71235319      -0.43519170
C        1.78507099       0.32573139      -2.22218913
C        2.18356391       1.61750968       1.68911250
C        2.77952233      -4.55439006      -0.20147819
C       -2.76672316       0.45895866       0.42118326
C        3.19747073       0.94894648      -0.30018864
C       -0.29912065      -3.41565661       1.35789217
C        2.51255208      -2.09915728       2.66669001
C       -2.76683303       1.87472799      -3.69866870
C        0.67135775      -1.40773317       0.60682407
C       -1.44152037       2.20694025       1.57414756
C        1.21363272       3.79216722       0.08150148
C        0.57433438      -3.07785258      -1.00270148
C       -1.08957235       3.94187352      -0.25668429
C        0.16784456       3.50842831      -2.13171590
C        0.64583464      -0.79665007       1.90629191
C        1.16434411       2.57508511      -2.45414942
C       -2.89032728      -2.80590067       2.76865918
C       -3.35872501      -2.90224863       1.58916097
C        2.77561063       1.17441491      -1.61891600
C       -3.54014323       1.63256540      -1.59653259
C       -1.73918105      -1.72554066      -1.53647547
C       -0.63855988      -2.92438864       2.60855302
C       -2.49352210      -0.72128272       1.16007053
C       -1.67935431      -2.06876354       3.00414338
C       -0.45715038       0.00090596       2.32914654
C       -2.30183932      -0.44569304      -1.87505482
C        2.05000608      -3.25015833       2.12844027
C       -1.68600479      -2.31310155      -0.28316160
C        2.86458372       2.08435365       0.50581285
C       -1.16653878      -0.24157567      -2.80182439
C        1.54394187      -0.96026358      -1.61062654
C       -1.66825349      -0.79540850       2.32257574
C       -1.98693539       3.45760450      -1.25588274
C        2.50049634       0.21171982       1.76935631
C       -0.61468178      -1.53452788      -2.39302630
C        0.64568186      -3.48274421       2.33860497
C       -2.70739159       1.77301546       1.05580389
C       -0.36269114       1.41190492       2.12639408
C        0.88433520       2.13921192       1.91373689
C        2.31567453      -3.74548990       0.82495108
C       -0.25855139      -2.55674639       0.14181458
C        2.34100537       3.08131713      -0.35545762
C        2.74054683      -0.16855877       0.41105465
C        1.76860889      -0.99477311      -0.18326785
C       -3.79661148       1.68426302      -2.99218917
C       -0.54568147       0.97474868      -3.17958891
C        0.80827468       1.23126302      -2.81276080
C        0.54749926       3.34916878       1.25139032
C       -3.20234357       2.82646876      -0.85383626
C        0.20457577       4.12946773      -0.86091481
C        2.34350046       2.53556414      -1.67839327
C       -1.19446577       3.16352118      -2.42155758
C       -2.98432716       0.46879734      -1.00953503
C        0.64778303      -2.01175968      -2.00894927
C        1.95755252      -0.87327026       2.53645272
C       -1.43777825       2.10138392      -3.34030702
C       -0.86716833       3.38445491       1.02454477
C       -2.73215414      -2.06958768       0.63563901
C       -3.51659593       2.77240326       0.50123502
