60
Properties=species:S:1:pos:R:3 entry_id=18 rank=3 energy=-488.1643371582031 pbc="F F F"
C        1.64013818      -3.75448870      -0.48156866
C        1.79372987       0.29326229      -2.24659198
C        2.05192263       1.58378010       1.74068585
C        2.75455598      -4.56880992      -0.30164333
C       -2.77496395       0.49115377       0.42066386
C        3.13165086       0.89360851      -0.23509422
C       -0.30437102      -3.37460023       1.37144335
C        2.66479336      -2.19797605       2.54752549
C       -2.76225081       1.86840797      -3.70431400
C        0.65837387      -1.40172961       0.55383370
C       -1.49558075       2.27360587       1.58773179
C        1.19225572       3.79815394       0.09952653
C        0.52238331      -3.10144581      -1.02065878
C       -1.10423765       3.96323597      -0.27554171
C        0.17292626       3.48864998      -2.12758227
C        0.67850429      -0.54114213       1.67134242
C        1.16738816       2.54774667      -2.43115675
C       -2.86975707      -2.75517253       2.80483450
C       -3.35291213      -2.86062157       1.63190534
C        2.75543144       1.13391102      -1.57333295
C       -3.55040857       1.64910804      -1.61187289
C       -1.77106085      -1.71725923      -1.53296732
C       -0.61485666      -2.89384220       2.62862392
C       -2.48831511      -0.68714868       1.16654011
C       -1.64916319      -2.02332529       3.01328589
C       -0.44395098       0.07070288       2.27286994
C       -2.31936630      -0.43152652      -1.87451280
C        2.07027033      -3.35707658       2.08604457
C       -1.71787636      -2.30064068      -0.27812475
C        2.77219444       2.02176877       0.58135472
C       -1.18148847      -0.24432756      -2.80586974
C        1.54736572      -1.01766379      -1.68624897
C       -1.63119993      -0.76368450       2.30918094
C       -1.99409119       3.47155818      -1.27799977
C        2.09430039       0.07194509       1.78139541
C       -0.65118380      -1.54516998      -2.39976225
C        0.66726104      -3.45856227       2.33392388
C       -2.74137493       1.81391760       1.04343326
C       -0.42906910       1.49583249       2.16869364
C        0.81291126       2.20703311       1.95969658
C        2.29735346      -3.81287647       0.76675659
C       -0.29245022      -2.55472064       0.13781217
C        2.30175541       3.03654878      -0.30056532
C        2.63367048      -0.22687328       0.40494776
C        1.75343200      -1.05439012      -0.27274223
C       -3.80205121       1.68802130      -3.00991119
C       -0.54260228       0.96205768      -3.18896064
C        0.81564225       1.21000727      -2.81991496
C        0.50477700       3.40679902       1.27652913
C       -3.21732052       2.85125395      -0.88131447
C        0.19976107       4.12370945      -0.86421874
C        2.32532757       2.49300175      -1.62343235
C       -1.18987466       3.15600457      -2.43168070
C       -2.99535144       0.49091465      -1.01203245
C        0.60764491      -2.05290339      -2.05111505
C        2.80404195      -0.96115388       2.62001813
C       -1.43287760       2.09256902      -3.34772340
C       -0.90987942       3.44484703       1.02659122
C       -2.74493934      -2.03909012       0.65673817
C       -3.54857541       2.80336424       0.46935123
