60
Properties=species:S:1:pos:R:3 system=runs/20260728-safe-lbfgs-strict-quench-200-production/output-c60-seed42 state_id=intermediate_accepted pbc="F F F"
C       -2.64292912       0.93308816       1.89491161
C       -1.24722670      -3.43560592       0.62110902
C        2.24473974      -2.42151968       2.81275239
C        0.89064331       2.52623944      -2.88655274
C        0.60701160       4.03297361      -0.93409037
C        0.51192860      -3.80136463       1.60633076
C       -1.59035374       1.79872378       2.33050138
C       -1.48746649      -0.04222878       3.67883581
C        2.75450906      -0.24020481      -2.11734461
C        0.25100221       1.59213519      -3.75040758
C        2.35637765       2.41789922      -0.07380653
C        2.39205585      -1.24692775      -0.08202222
C       -3.09547042       0.77942507       0.53028844
C        2.20264298       0.60204322      -3.09249903
C        0.96593592      -2.16858605      -1.74730723
C        0.56915344       0.82085139       2.98559877
C        0.91967019      -2.97901837      -0.53806981
C       -1.90217929       1.94910424      -2.72188442
C       -1.29912995       2.92504062      -1.87288130
C       -2.42887405      -1.49687316       2.23205497
C       -1.24024605      -0.10340045      -3.85244920
C       -3.10040665      -0.13220169      -2.26424787
C       -0.19105793       4.40033267       0.20384593
C       -0.90882697       2.81944365       1.66465327
C        0.50071118       2.91087354       1.85466623
C        1.24700159       1.67723138       2.01823720
C       -2.19065194      -0.81005029      -3.13212614
C       -0.79348397       1.11333188       3.27947770
C       -2.84425023       1.21459532      -1.94001353
C        1.71043356      -3.02862104       1.68334681
C       -2.37832944      -2.12170744      -1.27547282
C       -2.87153735      -1.68532433       0.92630621
C        0.92017456       4.02580841       1.08722831
C        0.98643492       0.35592769      -3.74493660
C        0.75528825      -0.55967163       3.39015053
C       -3.29094220      -1.00728343      -1.18310226
C       -1.28074070       3.51114525       0.49196554
C        1.67762706       3.63819198      -0.05223536
C        2.19399782       1.36986179       0.91465600
C        1.88272073      -1.35843098       3.37877608
C       -2.57816594      -0.20415059       2.78117975
C       -2.80085029       1.68590365      -0.56689855
C        1.82480214      -2.43711199       0.41322684
C       -0.76237360      -3.23433477       1.96952756
C       -2.22349410      -2.61468975       0.05260677
C       -1.54211127      -1.89126727      -2.41343376
C        3.23202316       0.58351849      -1.04467605
C        0.05003014      -3.86143286       0.17372773
C        2.77982573       0.13175760       0.24318855
C       -1.13885702       1.31706116      -3.72724672
C        2.12182316      -1.32813041      -1.50983591
C       -1.22253337      -2.11642343       2.72210672
C        0.05102270      -0.70608845      -3.61729349
C        0.06711072       3.30699665      -2.01658299
C       -3.39103364      -0.58392632       0.16092293
C       -0.57313466      -1.13306787       3.53992289
C       -0.09616904      -1.77995112      -2.64968922
C        2.83835153       1.91667872      -1.29777786
C       -1.92058294       2.85763664      -0.57830789
C        2.16909421       1.95601000      -2.55061062
