60
Properties=species:S:1:pos:R:3 source_escape=runs/20260728-block-krylov-fixed-starter-escape/output/cases/plateau_accepted-seed44-balanced_refinement/escape.xyz pbc="F F F"
C        1.12674799       2.36624647       1.74886176
C       -2.48863944       1.47734748       0.83431370
C       -1.68732003      -0.21665708       2.80943524
C        1.61617403      -1.44625990      -3.02134926
C        3.15343806      -1.49792776      -1.11545888
C       -1.84253593      -1.02417971       1.66440084
C        1.99407818       1.35973888       2.23251712
C        0.47325366       1.78887760       3.92297534
C       -1.60641847      -2.62814884      -2.39559040
C        0.92349170      -0.66688083      -3.98954735
C        1.08987872      -2.56153631      -0.01905061
C       -2.99578709      -2.12254275      -0.59938701
C        0.81807327       2.62731256       0.37252147
C       -0.55805589      -2.26351656      -3.26270161
C       -2.95929772      -0.49813890      -2.24659336
C        0.65476498      -0.39783499       3.19312346
C       -3.39236329       0.04191153      -0.95497551
C        1.69180170       1.37284126      -2.92962924
C        2.58124498       0.60221766      -2.11730657
C       -1.20373681       2.81851942       2.47326671
C       -0.39956541       1.18211186      -4.18019484
C       -0.20952797       2.79274283      -2.33563343
C        3.83745896      -0.79885729      -0.06721209
C        2.71932050       0.41723305       1.49439725
C        2.45081074      -0.94513726       1.77550227
C        1.09901121      -1.27418174       2.13331792
C       -0.95494938       2.21383049      -3.40723122
C        1.38215070       0.81471100       3.39711056
C        1.11353270       2.37939093      -2.09841989
C       -2.32535258       0.31115022       1.67398150
C       -2.28122527       2.13767597      -1.50429489
C       -1.56426924       2.56832598       1.12532402
C        3.23870675      -1.72005095       0.90573560
C       -0.44308426      -1.12466627      -4.08215325
C       -0.65872459      -0.10968090       3.73625000
C       -1.07932342       2.85193154      -1.20699529
C        3.30637082       0.51394230       0.21380390
C        2.47966484      -2.31837637      -0.13886712
C        0.35539548      -2.07234997       1.14809618
C       -1.11260626      -2.04876551       1.02323415
C        0.14956596       2.58563487       2.78560482
C        1.64793190       2.25755169      -0.75830574
C       -3.65012275      -1.02003977      -0.06339050
C       -1.78508181       1.83476632       4.60224624
C       -2.92569465       2.62387905       4.66359339
C       -2.18685628       1.71989627      -2.85553851
C       -1.00341165      -3.08705200      -1.17449385
C       -2.89945880       1.31278261      -0.53084279
C       -1.77164933      -2.67680926      -0.07637405
C        0.94236186       0.75455377      -3.95291514
C       -2.74817632      -1.88774197      -2.03234212
C       -2.11320189       2.68572687       3.53012574
C       -1.27117335       0.02269347      -4.10404032
C        2.60618881      -0.81748380      -2.21635942
C       -0.58637294       2.86996855       0.11075406
C       -0.61492192       1.09017285       4.53472435
C       -2.34596166       0.34496069      -3.20437178
C        0.39786454      -2.90068786      -1.22169121
C        2.69298014       1.23022647      -0.82744154
C        0.70157041      -2.44265143      -2.55121558
