60
Properties=species:S:1:pos:R:3 trial_index=1 seed_entry_id=0 discovered_entry_id=1 energy=-476.8061828613281 status=accepted pbc="F F F"
C        3.21472431      -2.96296291      -0.54912352
C        1.44664697       0.15024382      -2.87663379
C        2.27232352       1.63166040       1.35215441
C        2.46905480      -2.22698251      -2.93010736
C       -4.85455528       3.40357357       2.41668729
C        2.62106800       0.58167636      -0.54080311
C       -3.79281901      -4.67323844       6.79254647
C        4.01905803      -1.08456427       2.44180353
C       -2.43470925       1.08239743      -4.32073108
C        0.55943487      -1.49499008      -0.13845529
C       -1.96291744       1.14915931       2.72050550
C        1.16903712       3.31167728       0.06577731
C        2.43221700      -2.59178217      -1.60447240
C       -1.27537929       3.78838873       0.28253562
C       -0.08123623       3.39443471      -2.81791388
C        0.83073825      -0.59127207       0.91298075
C        0.87325007       2.42667130      -2.96758222
C       -1.51115989      -2.47351954      -1.38001584
C        0.08852532      -3.89592557       2.45877320
C        2.14510953       0.82927253      -1.86559404
C       -3.51202098       2.27278318      -2.30277152
C       -2.42837967      -1.28831733      -3.37333405
C       -2.94120788      -3.01419000       5.03759190
C       -0.82001149      -1.41863620       2.64380199
C       -2.50363988      -2.15927262       4.26196343
C       -0.11874979      -0.35225198       2.00564471
C       -2.93542243       0.00420921      -3.57195739
C        3.99424438      -2.08587877       1.68140147
C       -2.34858448      -2.06425114      -2.22120852
C        3.00024420       1.89653178       0.02492669
C       -0.36212958      -0.58404086      -4.76775663
C        1.24021101      -1.31074779      -2.90830218
C       -2.00854614      -1.11801003       3.47540852
C       -1.96962576       3.80932617      -1.01522086
C        3.05791801       1.22560354       2.50416466
C       -1.21297374      -1.45810173      -4.12389285
C       -3.40195162      -3.98797426       5.81160728
C       -2.56341483       0.14286970       3.37389773
C       -0.58701934       0.95661840       2.25294312
C        1.10173355       2.54331988       1.23704811
C        3.68052133      -2.75235129       0.59464666
C       -0.26986046      -2.29701630      -0.85596664
C        2.21582694       2.85211919      -0.76091012
C        1.83691326       0.31885607       0.59626186
C        1.08052139      -1.92037734      -1.43250728
C       -3.34731125       1.26485123      -3.17351359
C       -0.19271180       0.82355835      -4.63942672
C        0.74381022       1.12186082      -3.63482790
C       -0.15434667       2.19607421       1.71228086
C       -3.03111912       3.15545457      -1.54316714
C       -0.00856533       3.93140079      -0.37438167
C        1.88280628       2.20865865      -1.96338999
C       -0.59155157       3.94146988      -1.70239157
C       -3.69730523       2.94209125       2.27669469
C        0.16043562      -1.54947772      -3.89489538
C        3.68010142       0.15288065       2.74652605
C       -1.35107079       1.54073092      -4.93385359
C       -1.33811523       2.96315042       1.42124089
C       -0.38162076      -2.73199364       2.53545212
C       -2.42951919       2.43566009       2.18285155
