48
Lattice="3.7505 0.0 0.0 3.7504911948102158 15.125142579085033 0.0 -3.7468489513198193 -0.21417911662324746 15.101036335364407" Properties=species:S:1:pos:R:3 source_doi=10.1039/c7sc01459g source_section="SI section 7" source_name=phase-87 reported_vasp_energy_rounded=-429.95 role=reported_phase pbc="T T T"
O        3.30116324       1.25944667       2.89922968
O        3.30127630       7.33882394       2.36956356
O        3.30179540       4.55704619       5.68587456
O        1.42671681       3.93381435       7.13341844
O        1.42552361       5.66896202       1.13862661
O        1.42573109       2.71393039       1.17999375
O        1.42573226       2.92889197       4.13038004
O        1.42629436       5.88421276       4.08888957
O        5.17640883       8.82201796       2.89922968
O        5.17652189      14.90139523       2.36956356
O        5.17704100      12.11961748       5.68587456
O        3.30196241      11.49638564       7.13341844
O        3.30076920      13.23153331       1.13862661
O        3.30097668      10.27650168       1.17999375
O        3.30097786      10.49146327       4.13038004
O        3.30153996      13.44678405       4.08888957
O        1.42773876       1.15235711      10.44974784
O        1.42785182       7.23173439       9.92008172
O        1.42837093       4.44995664      13.23639272
O       -0.44670766       3.82672479      14.68393661
O       -0.44790087       5.56187246       8.68914477
O       -0.44769339       2.60684083       8.73051191
O       -0.44769221       2.82180242      11.68089821
O       -0.44713011       5.77712320      11.63940774
O        3.30298436       8.71492840      10.44974784
O        3.30309742      14.79430568       9.92008172
O        3.30361652      12.01252793      13.23639272
O        1.42853793      11.38929608      14.68393661
O        1.42734473      13.12444375       8.68914477
O        1.42755221      10.16941212       8.73051191
O        1.42755339      10.38437371      11.68089821
O        1.42811548      13.33969449      11.63940774
Ti       1.42642027       4.37002028       5.17656333
Ti       1.42609199       6.84227915       2.58664629
Ti       1.42494558       4.22802708       0.09225133
Ti       1.42585630       1.75585079       2.68219148
Ti       3.30166587      11.93259157       5.17656333
Ti       3.30133759      14.40485044       2.58664629
Ti       3.30019118      11.79059837       0.09225133
Ti       3.30110190       9.31842208       2.68219148
Ti      -0.44700420       4.26293072      12.72708150
Ti      -0.44733248       6.73518959      10.13716446
Ti      -0.44847889       4.12093752       7.64276950
Ti      -0.44756818       1.64876124      10.23270964
Ti       1.42824140      11.82550201      12.72708150
Ti       1.42791311      14.29776088      10.13716446
Ti       1.42676671      11.68350881       7.64276950
Ti       1.42767742       9.21133253      10.23270964
