48
Lattice="11.1993 0.0 0.0 -1.2854978032009368 7.478419419099571 0.0 0.3097925953658349 -1.871895630053651 11.018127943895124" Properties=species:S:1:pos:R:3 source_doi=10.1039/c7sc01459g source_section="SI section 7" source_name=phase-139 reported_vasp_energy_rounded=-429.25 role=reported_phase pbc="T T T"
O        6.07792289       2.80300927       0.97259049
O       -0.46460667       5.52808486       6.94227098
O        2.45951792       6.03087240       7.61443746
O        6.10439451       6.65695460       3.93582189
O        0.17818607       1.78886978       6.94215312
O        5.61512742      -1.12623714      10.20724081
O        1.29366447       1.98074283      10.24417092
O        4.63016850       4.47898690       8.68900853
O        0.65090537       5.72002512      10.24416290
O        6.74712894       2.91778459       3.93578977
O        8.11904828       1.22888737       5.81918163
O        3.10230986       2.29168531       7.61441654
O        7.47626476       4.96814865       5.81923371
O        8.16129758       1.23624241       2.07606874
O        5.43513861       6.54219987       0.97256299
O        1.59307397       0.10736162       8.72613337
O        2.51111496       6.03979748       0.30135596
O        9.93709412      -0.38338889       5.83791390
O       10.06629380       5.41343543       3.97888786
O        4.97239011       2.61301107      10.20720747
O        7.51859573       4.97541868       2.07604325
O        8.69384516       7.10232991       2.09621584
O        6.65695430      -0.94714929       6.88578732
O        5.27287486       0.73983399       8.68899664
O        9.29438397       3.35576727       5.83790033
O       -0.40117544       5.53923451       1.02870228
O        0.24159375       1.80003539       1.02857000
O        6.01419029       2.79202299       6.88586223
O        9.33656031       3.36319870       2.09621673
O        3.15381622       2.30059680       0.30137136
O        0.95031181       3.84658830       8.72609536
O       10.70908276       1.67422893       3.97889878
Ti       9.47434231       5.31171750       2.25823881
Ti      10.07926855       1.56583597       5.68497436
Ti       1.77015171       0.13789830      10.71060268
Ti       0.77885207       5.74193174       8.25565210
Ti       1.12745525       3.87710198      10.71059733
Ti       6.73371747       6.76530095       2.22949979
Ti       1.42159972       2.00273632       8.25562776
Ti       9.43649619       5.30503353       5.68503849
Ti      10.11706873       1.57250578       2.25825881
Ti       5.14404610       0.71769091      10.67766646
Ti       7.33855477       3.01955660       5.65668089
Ti       4.50126854       4.45690309      10.67767276
Ti       5.43866007      -1.15653349       8.22260929
Ti       7.98127749      -0.71964515       5.65669561
Ti       4.79596152       2.58267779       8.22259758
Ti       7.37646683       3.02608808       2.22950273
