60
Properties=species:S:1:pos:R:3 system=runs/20260728-safe-lbfgs-strict-quench-200-production/output-c60-seed42 state_id=intermediate_accepted pbc="F F F"
C       -2.47975616      -2.11061216       0.60576202
C        2.16636373      -2.88579252      -0.05725863
C        1.25845778      -0.04172114       2.59519830
C       -0.98511546       3.28046010      -1.86907472
C       -2.78970916       3.07279703      -0.20006209
C        2.79499076      -1.93949483       1.65035967
C       -2.85876182      -1.09268740       1.54244586
C       -1.46669840      -2.53212277       2.67466172
C        2.21337225       2.93701359      -0.59567675
C       -0.35096435       2.72746007      -3.01915444
C       -0.76047975       2.98247140       1.35960652
C        3.02307821       1.50765664       0.93571344
C       -2.26194425      -1.96103539      -0.82075648
C        1.32599205       3.32907418      -1.59595363
C        2.91569318       0.46534681      -1.18067902
C       -1.16221285      -0.29557847       3.07028751
C        3.26925741      -0.50562174      -0.13990531
C       -1.93804026       0.89680719      -3.07259977
C       -2.64727565       1.50288070      -1.99531282
C       -0.43607253      -3.45999567       0.86582391
C        0.36193170       0.75763304      -3.86835917
C       -0.87520491      -1.28388924      -3.32663733
C       -3.80210398       2.25485147       0.40432502
C       -3.27442126       0.23246698       1.31944812
C       -2.78186543       1.23407331       2.20879009
C       -1.46197003       1.04270325       2.71065193
C        0.33468960      -0.61276831      -3.67790979
C       -2.12341604      -1.29443155       2.75479305
C       -1.95953733      -0.51404463      -2.86191213
C        2.50214265      -0.60090498       2.09440229
C        0.93453423      -2.22635670      -2.19230820
C       -0.17786041      -3.32421148      -0.49690518
C       -3.18863984       2.48813141       1.71270135
C        1.06830137       2.61936592      -2.77332452
C        0.14313085      -0.87139414       2.99240452
C       -0.47139681      -2.34205685      -2.50279024
C       -3.68407690       0.84756138       0.11480981
C       -2.12983387       3.21068471       1.07370278
C       -0.40237348       1.89146378       2.25575378
C        0.96757214       1.37874570       2.29995905
C       -1.69491771      -3.04499420       1.35880660
C       -2.63997624      -0.80418748      -1.61126782
C        3.18803587       0.15957807       1.11649906
C        1.86616872      -2.96705394       1.35985606
C        1.12552729      -2.96193309      -0.98636235
C        1.40924199      -1.00500914      -2.79055614
C        1.55247872       3.15181764       0.67026867
C        3.16173952      -1.88089645       0.18890811
C        1.94321847       2.15285041       1.59119953
C       -0.81131963       1.53798702      -3.63681353
C        2.97950076       1.75458131      -0.49149914
C        0.56289254      -3.10124536       1.82132685
C        1.47384273       1.30132851      -3.12710913
C       -2.24222654       2.75395072      -1.45595905
C       -1.18422661      -2.76216062      -1.35618403
C       -0.05100524      -2.29116861       2.81549528
C        2.12067731       0.23107471      -2.37607796
C        0.20335590       3.49759370       0.44585020
C       -3.18842539       0.47295959      -1.14959124
C        0.05621495       3.68028729      -0.97360279
