60
Properties=species:S:1:pos:R:3 pbc="F F F"
C        1.46609805      -3.49138139       0.78488186
C        0.94635362      -2.01588739      -2.29261186
C        1.42545243       2.48431413      -2.65250579
C        2.27343738      -3.13007672      -0.27264120
C       -1.96992354       2.82933194       1.69791909
C        2.00316644       0.17664436      -2.95332434
C        1.65651456      -0.83851078       1.58110050
C        3.81085519       0.50238656       2.59618894
C       -4.02646060      -0.73633533      -0.92679982
C        2.18055330      -0.31923611       0.25974969
C       -0.04680316       3.80239314       0.44505697
C       -1.01122116       1.70637133      -3.42727428
C        0.22819036      -2.85274976       1.06661060
C       -3.13750779       1.95289214      -2.83518698
C       -2.40653537      -0.26114205      -2.97612386
C        2.15472229       0.96143213      -0.41393826
C       -1.17313124      -1.04429782      -2.97355717
C       -0.00225070       0.31575880       2.77831897
C       -0.92462329       1.18956971       3.39983167
C        1.15811954      -0.94655276      -3.19727312
C       -4.07578760       0.41724295      -0.07567056
C       -1.92537496      -1.12673947       1.94850579
C        2.49046589       1.22182463       2.36024090
C       -1.82957625       2.18228082       2.96345840
C        1.37999568       0.30444283       2.46290371
C        1.81815434       2.25245558       0.17682693
C       -2.80741315       0.00191865       2.16176766
C        3.90604352      -0.86950931       2.40440647
C       -0.57531806      -0.84806770       2.21298746
C        1.37408239       1.37798395      -3.44980977
C       -3.43544640      -2.49732576       0.57267898
C        2.00912163      -2.24684460      -1.35680802
C        2.25572296       2.25996834       1.50493096
C       -4.11858154       1.14854872      -2.24574344
C        5.88911245       2.06541996       3.11843289
C       -2.18894288      -2.28660336       1.13835627
C        2.98449322      -1.68211199       1.82781670
C       -1.02694744       3.72891235       1.21257543
C        0.81637672       3.14794158      -0.41773127
C        0.40954041       2.87644974      -1.80326701
C        2.77243871      -2.93576987       1.06623168
C        0.43082574      -1.62987958       1.64458757
C        0.06381416       0.95071004      -3.85483395
C        2.47409202       0.24547605      -1.65586402
C        2.52480427      -1.00774393      -0.91947125
C       -3.30772098       0.78337238       1.07154661
C       -1.05816504      -2.70560186      -0.97767680
C       -0.53684852      -2.11212689      -2.08028816
C       -0.96217130       2.56442622      -2.28446729
C       -4.16951131       1.56086714      -0.90720078
C       -2.26946120       1.07700446      -3.50851667
C       -0.07887784      -0.43979661      -3.64516836
C       -3.65040252      -0.22222944      -2.22750149
C       -2.77214489       2.10555501       0.79422032
C       -1.04854573      -2.86324671       0.36950527
C        4.90936838       1.33087058       2.88767806
C       -4.11546284      -2.00043129      -0.35840418
C       -2.35371215       2.63822045      -1.80983067
C       -2.32575930       0.88114167       3.21306432
C       -3.08405863       2.42587253      -0.58577639
