60
Properties=species:S:1:pos:R:3 pbc="F F F"
C        4.33916543      -1.14065193      -5.54479128
C        0.95866630       2.90430474      -0.83418898
C       -1.14148822       1.30110355       3.03963263
C        3.27297884       3.08013288       0.00839329
C       -2.27233354      -2.82337322       0.36838669
C        0.44653124       2.41343695       1.54822341
C        3.91718293      -1.69059910      -0.28812816
C        2.03300665       2.04622758       4.26222881
C       -2.40032777       0.59996645      -3.04872074
C        1.94033935      -0.30551636       0.16631585
C       -2.34002340      -2.00342820       2.43425302
C       -2.89987072       2.17191734       1.02506575
C        3.27377736      -0.97112369      -4.83618772
C       -4.36224481       1.21709074      -0.41918208
C       -2.69505442       2.48238590      -1.38684121
C        0.89462056      -0.29918021       1.26709556
C       -1.37657571       2.97624310      -1.15226928
C        1.14289135      -2.97302294      -0.63234476
C        3.57344230      -2.53691272       0.64761635
C        0.31877206       3.23524022       0.37759082
C       -2.77411911      -0.69759580      -2.58259651
C        0.68571764      -1.56435934      -2.41092211
C        2.64565806      -3.14661440       1.32792436
C       -0.89935349      -3.07351021       0.31816470
C        1.38366447      -3.05590365       0.78142208
C       -0.07551091      -1.27634441       1.78597068
C       -0.58959544      -2.08791222      -1.92913657
C        3.48478299       3.08018114       2.50444505
C        1.71141055      -2.01500314      -1.46924436
C       -0.81948586       2.42012916       2.20782417
C        0.22674687       0.55318075      -3.51196317
C        2.27347351       2.31396040      -0.59486339
C        0.07846583      -2.63322080       1.29636014
C       -4.31287768       0.85911425      -1.78092249
C       -0.24371563       1.02211424       4.05847066
C        1.04637465      -0.62462814      -3.45714393
C        2.92133434       2.63028404       3.55840786
C       -2.88737882      -2.84931220       1.67065489
C       -1.39379402      -0.98585312       2.35242234
C       -1.95980196       0.34397560       2.34591077
C        3.61708660       3.26282054       1.22553986
C        2.64945865      -1.20783058      -0.72273777
C       -1.76543201       2.93353204       1.28798126
C        1.12102716       1.19380981       1.31958940
C        2.02501243       1.13189225       0.22226102
C       -1.96464243      -1.66621582      -1.87447421
C       -0.11026300       1.76565778      -2.86609726
C       -0.11180848       2.65732243      -1.78541928
C       -2.93937963       0.78645692       1.38317779
C       -3.97173700      -0.50441498      -1.82438436
C       -3.54183029       2.35146040      -0.22816075
C       -1.06933950       3.41879827       0.16285042
C       -3.19668926       1.55591435      -2.35431290
C       -2.70375660      -1.97308435      -0.65599055
C        2.21375593      -0.78320873      -4.14230078
C        0.89322522       1.45326112       4.44200566
C       -1.10184953       0.93187504      -3.39536084
C       -3.81462855       0.14501019       0.38257070
C       -0.23650631      -3.01161565      -0.91250022
C       -3.72036625      -0.97729618      -0.50244950
