60
Properties=species:S:1:pos:R:3 system=runs/20260728-safe-lbfgs-strict-quench-200-production/output-c60-seed42 state_id=plateau_accepted pbc="F F F"
C       -0.58195213       2.58686504       2.04969334
C       -1.66097577      -1.32175564       2.45956890
C        1.10754818      -2.06361606       0.98552588
C        0.21146906       0.84338530      -4.03399940
C        1.82171649       2.35743942      -2.80082979
C        0.80742644      -1.39437587       2.22521417
C        0.86461541       2.89207598       1.67889538
C        0.83131626       1.68878701       3.62394858
C        0.40634791      -2.41078691      -2.83090910
C       -1.18327074       0.44497411      -4.29559741
C        2.59938185       0.12733159      -1.74682352
C        0.90826731      -3.51309558      -0.85534416
C       -1.71315612       2.25978575       1.22750208
C        0.02116668      -1.46625807      -3.82209504
C       -1.36919355      -2.93396515      -1.23858030
C        2.18363655       0.87783138       1.93391391
C       -1.10438437      -2.83220783       0.21799074
C       -1.81862978       1.78019491      -2.35898663
C       -0.50692113       2.31593865      -2.27254184
C       -1.30475199       0.77787231       3.76725231
C       -3.04473672      -0.13422576      -2.93257653
C       -3.44245230       0.93087353      -0.68167789
C        2.03878855       3.32422166      -1.75112061
C        1.64346575       3.12085011       0.48917686
C        2.80781436       2.25049751       0.16276116
C        2.69609435       0.89518456       0.61452098
C       -3.68751510      -0.15356164      -1.63932957
C        1.65748578       2.09156013       2.54330446
C       -2.45037944       1.86485141      -1.08447431
C       -0.38218942      -1.49519906       3.13866059
C       -2.79582594      -1.08178326       0.31794977
C       -2.09773937       0.14132501       2.73608927
C        3.08952389       2.47456109      -1.19706912
C       -1.27025559      -1.01498678      -4.13891132
C        1.50221579      -0.19688988       2.56529464
C       -3.12900753       0.31225377       0.59084539
C        1.00630131       3.46268783      -0.73812102
C        2.76423010       1.46794506      -2.14412435
C        2.55856730      -0.22801072      -0.32171404
C        2.03330309      -1.58811389      -0.03104144
C       -0.51978565       1.89874699       3.29742094
C       -1.54038756       2.51828598      -0.18153163
C        0.31075810      -3.11102931       0.39243812
C       -0.17455257      -0.39205306       4.17399966
C       -0.62366313       1.02062344       6.44459424
C       -3.18189310      -1.36772833      -1.02605491
C        1.64829861      -1.99490030      -2.31788535
C       -1.91240823      -1.90649089       1.10059682
C        1.97952130      -2.56506723      -1.09438188
C       -2.22327059       0.94211775      -3.40468022
C       -0.13737282      -3.27040409      -1.85341660
C       -0.83083706       0.40827496       5.28091545
C       -2.33383404      -1.34950187      -3.20231968
C        0.50579168       2.01857640      -3.23940215
C       -2.52614112       1.03945327       1.65764066
C        0.98286024       0.30312070       3.75514804
C       -2.39342578      -2.16163953      -1.93505591
C        1.91114351      -0.67748775      -2.68619093
C       -0.28686559       2.88207159      -0.98284647
C        0.93417962      -0.34181319      -3.70617356
