60
Properties=species:S:1:pos:R:3 source_escape=runs/20260728-block-krylov-fixed-starter-escape/output/cases/plateau_accepted-seed44-discrete/escape.xyz pbc="F F F"
C       -0.79693519       2.58219252       1.90989748
C       -1.32031357      -1.06966688       2.34680938
C        2.06885752      -1.25154236       1.51421903
C        0.11847175       0.57677704      -3.82131065
C        1.43063058       2.41699415      -2.84596927
C        0.90456801      -2.03025825       1.80678004
C        0.56909859       2.82479829       1.56462110
C        0.57394519       1.78095022       3.60733026
C        0.83890159      -2.59397103      -2.56528289
C       -1.16417908      -0.01409906      -4.00678431
C        2.63847953       0.42790751      -1.75782100
C        1.12613709      -3.09794089      -0.34428349
C       -1.81868220       2.13845091       1.00612139
C        0.26903300      -1.73481490      -3.51915233
C       -1.11954086      -2.96284923      -0.95123360
C        2.29671276       1.14228280       1.94408765
C       -0.99975360      -2.73101989       0.48089998
C       -2.18591344       1.65558835      -2.58063138
C       -0.94446171       2.36394341      -2.54395037
C       -1.68575068       1.03051722       3.69590929
C       -3.06239743      -0.60604913      -2.89153323
C       -3.49253765       0.60541816      -0.79949749
C        1.50585328       3.49408550      -1.90234615
C        1.13311425       3.12680597       0.31434063
C        2.41806746       2.59013750       0.01918514
C        2.73444267       1.31999951       0.57482817
C       -3.65078991      -0.54969012      -1.62074802
C        1.40130887       2.11638734       2.48988324
C       -2.74890752       1.70401521      -1.26986969
C        0.06860155      -1.29143657       2.73616828
C       -2.91170043      -1.26949577       0.45812975
C       -1.99422743       0.20494376       2.59546811
C        2.70804879       2.88803656      -1.32916882
C       -1.08557011      -1.42992142      -3.73988412
C        2.06932744      -0.16269136       2.41639943
C       -3.17529439       0.13156867       0.50756421
C        0.47789156       3.47018483      -0.89142592
C        2.55080625       1.76852174      -2.21028466
C        2.82306145       0.19183277      -0.33443667
C        2.56397695      -1.14410860       0.18578393
C       -0.76670779       2.02472404       3.23707547
C       -1.87249936       2.46058514      -0.40260602
C        0.37192550      -2.86157367       0.82663677
C        0.73470155       0.57036454       4.34889671
C       -0.24285979       0.28733439       5.34153266
C       -3.18408374      -1.68546674      -0.87323977
C        2.02721626      -1.93384469      -2.07175512
C       -1.83395398      -1.82619855       1.20591737
C        2.18670790      -2.20019510      -0.69800151
C       -2.33397708       0.51349311      -3.39646821
C        0.20628897      -3.21340535      -1.45501345
C       -1.45078060       0.50016125       4.98970906
C       -2.20784702      -1.78065114      -2.95123600
C        0.19523808       1.87978171      -3.24899321
C       -2.48207315       0.92429950       1.43136143
C        1.00785015      -0.39370071       3.37239873
C       -2.21921592      -2.39811557      -1.65031196
C        2.10130721      -0.61173839      -2.58485118
C       -0.79372348       2.97637104      -1.24900087
C        1.02953652      -0.49139058      -3.53580122
