60
Properties=species:S:1:pos:R:3 system=runs/20260728-safe-lbfgs-strict-quench-200-production/output-c60-seed42 state_id=plateau_accepted pbc="F F F"
C       -2.81816074      -0.45908967       1.48437190
C        0.33782416      -2.26224522       1.59311262
C        1.95831046       0.43382825       1.68997699
C        0.00582969       2.08037677      -3.37548020
C       -1.43714146       3.36217507      -1.85767485
C        1.10862528      -0.10750467       2.66236698
C       -2.71443446       0.94182902       1.74883157
C       -1.90980597      -0.17554655       3.60453154
C        3.12535691       1.21389099      -2.05358420
C        0.20993974       0.87680820      -4.11284809
C        0.68271907       3.23533345      -0.40510142
C        3.53442601       0.44931249       0.04831417
C       -2.60818937      -1.09238826       0.21105166
C        2.21314764       1.36540564      -3.11244447
C        2.63496713      -1.16448283      -1.33327574
C       -0.65275331       1.65047050       2.83314425
C        2.22434224      -1.46398166       0.03373078
C       -1.82819490      -0.06476257      -3.20169422
C       -2.15008316       1.20748440      -2.63726286
C       -1.86975122      -2.42793751       2.68561898
C        0.10047844      -1.39090804      -3.90607664
C       -1.45276606      -2.27972477      -2.19144910
C       -2.54245906       3.39264146      -0.94733854
C       -2.61963276       2.01859581       0.86576411
C       -1.62938241       3.00363102       1.13993350
C       -0.40887166       2.55935867       1.74434596
C       -0.26537796      -2.39524244      -2.99987985
C       -1.96519388       1.09236844       2.94796861
C       -2.20250741      -1.07469697      -2.26086114
C        0.72182239      -1.49261182       2.74197400
C        0.36109665      -2.77053349      -0.79973872
C       -1.07908973      -2.56610023       1.51101866
C       -1.65722335       3.93769172       0.08467233
C        1.55095627       0.39527883      -3.87880351
C        0.18560985       0.64819878       3.41735143
C       -1.06260627      -2.68815776      -0.86652405
C       -2.98607439       2.09728835      -0.49989967
C       -0.55108095       3.80250805      -0.80691884
C        0.79655709       2.63737846       0.92435655
C        1.95305147       1.77406968       1.13405668
C       -2.42952431      -1.13244366       2.70084071
C       -2.75767219      -0.45321001      -1.08133249
C        2.74495149      -0.40963968       0.85301873
C       -0.02309684      -1.63461832       3.98902120
C       -0.28228390      -2.90151599       4.80292873
C        0.84429446      -2.59952817      -2.11968855
C        2.82525913       2.25803544      -1.09886484
C        1.07192288      -2.26930580       0.33311675
C        3.02853227       1.77656037       0.18990778
C       -0.69610587      -0.21452891      -4.02970538
C        3.42002659       0.03618831      -1.31752895
C       -1.15399773      -2.74028864       3.83046131
C        1.47106977      -0.99448746      -3.62467904
C       -1.26991865       2.31750804      -2.78817236
C       -1.75092723      -2.25269397       0.27426552
C       -0.61673037      -0.32766095       4.12283472
C        1.88695132      -1.68152389      -2.42671418
C        1.59837104       2.88319918      -1.44599249
C       -2.85380572       0.99467264      -1.38272988
C        1.25388182       2.39890395      -2.75558752
