60
Properties=species:S:1:pos:R:3 system=runs/20260728-safe-lbfgs-strict-quench-200-production/output-c60-seed42 state_id=plateau_accepted pbc="F F F"
C       -2.83089969      -0.45364197       1.50524524
C        0.37481226      -2.24943080       1.62598224
C        1.99507798       0.45794804       1.68632295
C       -0.01225878       2.06929865      -3.37571396
C       -1.45086921       3.35679646      -1.85994596
C        1.16395855      -0.07715808       2.66924885
C       -2.70362734       0.93833378       1.76746405
C       -1.86763899      -0.19006804       3.60822212
C        3.12022141       1.22699343      -2.07541863
C        0.19291836       0.86317214      -4.10562318
C        0.68108877       3.24535936      -0.42176346
C        3.55215189       0.47267726       0.02531796
C       -2.60858954      -1.08004163       0.23390488
C        2.20223304       1.37147535      -3.12900018
C        2.64905540      -1.15567386      -1.33309794
C       -0.62621392       1.64556941       2.82123675
C        2.25880012      -1.45269011       0.04422805
C       -1.83901024      -0.07867312      -3.18344525
C       -2.15884638       1.19454932      -2.61442929
C       -1.91188318      -2.46052028       2.67156370
C        0.09555812      -1.40402532      -3.88653104
C       -1.42068711      -2.25331663      -2.14699425
C       -2.55392637       3.38215421      -0.94415042
C       -2.61664811       2.01652735       0.87411554
C       -1.62385378       3.00212778       1.13874590
C       -0.39652068       2.56074732       1.72975235
C       -0.26212578      -2.39649998      -2.96579067
C       -1.93002474       1.08043414       2.94729630
C       -2.19637317      -1.08022122      -2.23173592
C        0.78865216      -1.48268625       2.78067392
C        0.39268721      -2.76320688      -0.77027539
C       -1.05166324      -2.52687454       1.53778179
C       -1.66274602       3.93214085       0.08127888
C        1.53776092       0.38920500      -3.87957261
C        0.22674216       0.66806996       3.40831836
C       -1.02832469      -2.65083442      -0.83546914
C       -2.98417940       2.08288072      -0.49002154
C       -0.56007098       3.80531199      -0.81606015
C        0.80604067       2.64560290       0.90705289
C        1.97205759       1.79481844       1.11445312
C       -2.42412939      -1.14345057       2.71869360
C       -2.76101238      -0.44371900      -1.05889242
C        2.78166075      -0.38618854       0.84539782
C        0.08341894      -1.58606106       4.02618438
C       -0.54991335      -2.74792925       4.45098888
C        0.86217056      -2.60602629      -2.09721352
C        2.82320837       2.27547790      -1.12632771
C        1.10898371      -2.26257095       0.36021770
C        3.04084295       1.79923376       0.16672646
C       -0.70841553      -0.23048410      -4.01442601
C        3.42328519       0.05108589      -1.33604538
C       -1.57279602      -3.18533962       3.83430144
C        1.46620504      -0.99780486      -3.61374826
C       -1.28352183       2.30584821      -2.77908048
C       -1.71886901      -2.21337391       0.29816278
C       -0.56144376      -0.32670271       4.11831226
C        1.89377464      -1.68101428      -2.41795405
C        1.59338784       2.89473683      -1.46683679
C       -2.84612760       0.98779396      -1.36588994
C        1.24201236       2.40347452      -2.77050966
