54
Lattice="21.66 0.0 0.0 0.0 5.10531 0.0 0.0 0.0 22.55266" Properties=species:S:1:pos:R:3 entry_id=25 rank=0 energy=-202.027587890625 pbc="T T F"
Cu       0.00000000       0.00000000      10.00000000
Cu       3.61000000       0.00000000      10.00000000
Cu       7.22000000       0.00000000      10.00000000
Cu      10.83000000       0.00000000      10.00000000
Cu      14.44000000       0.00000000      10.00000000
Cu      18.05000000       0.00000000      10.00000000
Cu       0.00000000       2.55265548      10.00000000
Cu       3.61000000       2.55265548      10.00000000
Cu       7.22000000       2.55265548      10.00000000
Cu      10.83000000       2.55265548      10.00000000
Cu      14.44000000       2.55265548      10.00000000
Cu      18.05000000       2.55265548      10.00000000
Cu       1.80500000       1.27632774      11.27632774
Cu       5.41500000       1.27632774      11.27632774
Cu       9.02500000       1.27632774      11.27632774
Cu      12.63500000       1.27632774      11.27632774
Cu      16.24500000       1.27632774      11.27632774
Cu      19.85500000       1.27632774      11.27632774
Cu       1.80500000       3.82898322      11.27632774
Cu       5.41500000       3.82898322      11.27632774
Cu       9.02500000       3.82898322      11.27632774
Cu      12.63500000       3.82898322      11.27632774
Cu      16.24500000       3.82898322      11.27632774
Cu      19.85500000       3.82898322      11.27632774
Cu      21.63788171       0.00300869      12.48895635
Cu       1.18309096       1.29315084      14.31572186
Cu       5.48071160       1.32311221      14.02909518
Cu      12.56382936       1.31218353      13.83456964
Cu      12.78192355       3.75378214      13.73448075
Cu      18.08839687       5.10337228      12.56563571
Cu      21.65327283       2.55445678      12.42142392
Cu       3.54339902       2.55944449      12.49764356
Cu       7.22444317       2.59437336      12.54175132
Cu      10.85608262       2.57704434      12.53763757
Cu       9.09160978       1.36644654      13.84959009
Cu      18.19220300       2.55027430      12.64863493
Cu       5.44158918       3.86373685      14.10306919
Cu       7.29158069       0.04518947      12.53348787
Cu      20.08068511       1.29744204      14.12663237
Cu      10.76037109       5.09631401      12.55612557
Cu       8.07199619       3.88368455      14.64523371
Cu       1.18331816       3.82153790      14.31287846
Cu       3.57294639       0.00832937      12.64579670
Cu      10.65289913       3.95203191      14.94369166
Cu      20.07804789       3.80550409      14.11976124
Cu      14.36833401       2.44716185      12.59158159
O        6.72496077       0.04742285      14.56742250
O       21.46330741       2.55680260      14.76256136
O       16.24540685       2.54311532      12.82347543
O       12.16900789       5.00703200      14.98824664
O        9.33971073       2.69401247      15.18722099
O        4.16447564       2.57192787      14.28697539
O       18.77433147       5.10409529      14.33572762
O        2.47708730       0.00517847      14.26603280
54
Lattice="21.66 0.0 0.0 0.0 5.10531 0.0 0.0 0.0 22.55266" Properties=species:S:1:pos:R:3 entry_id=38 rank=1 energy=-201.95407104492188 pbc="T T F"
Cu       0.00000000       0.00000000      10.00000000
Cu       3.61000000       0.00000000      10.00000000
Cu       7.22000000       0.00000000      10.00000000
Cu      10.83000000       0.00000000      10.00000000
Cu      14.44000000       0.00000000      10.00000000
Cu      18.05000000       0.00000000      10.00000000
Cu       0.00000000       2.55265548      10.00000000
Cu       3.61000000       2.55265548      10.00000000
Cu       7.22000000       2.55265548      10.00000000
Cu      10.83000000       2.55265548      10.00000000
Cu      14.44000000       2.55265548      10.00000000
Cu      18.05000000       2.55265548      10.00000000
Cu       1.80500000       1.27632774      11.27632774
Cu       5.41500000       1.27632774      11.27632774
Cu       9.02500000       1.27632774      11.27632774
Cu      12.63500000       1.27632774      11.27632774
Cu      16.24500000       1.27632774      11.27632774
Cu      19.85500000       1.27632774      11.27632774
Cu       1.80500000       3.82898322      11.27632774
Cu       5.41500000       3.82898322      11.27632774
Cu       9.02500000       3.82898322      11.27632774
Cu      12.63500000       3.82898322      11.27632774
Cu      16.24500000       3.82898322      11.27632774
Cu      19.85500000       3.82898322      11.27632774
Cu      21.63610053       5.09952302      12.49305900
Cu       1.13957267       1.27289435      14.34482585
Cu       5.41004952       1.24887139      14.05741612
Cu      12.73169626       1.38498135      13.78937107
Cu      12.75696889       3.82187731      13.77662727
Cu      18.08560905       5.10008895      12.56117676
Cu      21.65350835       2.54841008      12.42387020
Cu       3.53378744       2.54525600      12.49696600
Cu       7.25146708       2.54161712      12.55608223
Cu      10.84425811       2.55944166      12.58814731
Cu       9.01938967       1.31517022      13.88161301
Cu      18.19646332       2.54734630      12.64171516
Cu       5.40171137       3.78079111      14.05292235
Cu       7.24224335       5.09693650      12.49919858
Cu      20.05713100       1.28814043      14.11172758
Cu      10.84551969       0.00245244      12.55944330
Cu      11.07411135       0.02305868      15.15984424
Cu       1.13336454       3.80101168      14.34988373
Cu       3.54271124       5.09649407      12.66277700
Cu       9.01415903       3.77788543      13.88377830
Cu      20.06227414       3.79604972      14.12747835
Cu      14.38651249       2.57537014      12.53504501
O        6.66137470       5.06102557      14.33944665
O       21.42480851       2.53536693      14.79520475
O       16.25591414       2.55361015      12.82168013
O       12.89818938       0.04843397      15.08663894
O        9.28581231       5.09933195      15.22267459
O        4.11623020       2.51139028      14.30135677
O       18.75471005       5.09310557      14.33322793
O        2.42662679       5.08506985      14.27625519
54
Lattice="21.66 0.0 0.0 0.0 5.10531 0.0 0.0 0.0 22.55266" Properties=species:S:1:pos:R:3 entry_id=33 rank=2 energy=-201.85006713867188 pbc="T T F"
Cu       0.00000000       0.00000000      10.00000000
Cu       3.61000000       0.00000000      10.00000000
Cu       7.22000000       0.00000000      10.00000000
Cu      10.83000000       0.00000000      10.00000000
Cu      14.44000000       0.00000000      10.00000000
Cu      18.05000000       0.00000000      10.00000000
Cu       0.00000000       2.55265548      10.00000000
Cu       3.61000000       2.55265548      10.00000000
Cu       7.22000000       2.55265548      10.00000000
Cu      10.83000000       2.55265548      10.00000000
Cu      14.44000000       2.55265548      10.00000000
Cu      18.05000000       2.55265548      10.00000000
Cu       1.80500000       1.27632774      11.27632774
Cu       5.41500000       1.27632774      11.27632774
Cu       9.02500000       1.27632774      11.27632774
Cu      12.63500000       1.27632774      11.27632774
Cu      16.24500000       1.27632774      11.27632774
Cu      19.85500000       1.27632774      11.27632774
Cu       1.80500000       3.82898322      11.27632774
Cu       5.41500000       3.82898322      11.27632774
Cu       9.02500000       3.82898322      11.27632774
Cu      12.63500000       3.82898322      11.27632774
Cu      16.24500000       3.82898322      11.27632774
Cu      19.85500000       3.82898322      11.27632774
Cu      21.54590765       5.10090463      12.49839388
Cu       1.11600048       1.18885667      14.28761804
Cu       5.50271597       1.27237634      14.03363430
Cu      12.51902613       1.39978718      13.84231790
Cu      13.05720329       3.87758723      13.78316711
Cu      18.21737876       0.01724315      12.47907310
Cu      21.62008568       2.55690548      12.42492751
Cu       3.55299738       2.54626083      12.50280625
Cu       7.22712054       2.58057593      12.53848808
Cu      10.86930568       2.62394417      12.53618628
Cu       9.09787900       1.34979327      13.82817878
Cu      16.62268236       2.60507082      13.67085052
Cu       5.46490376       3.81560459      14.10948864
Cu       7.29508117       0.03241466      12.53262845
Cu      19.66120962       1.78419728      13.84502808
Cu      10.79714936       0.01142023      12.54501071
Cu       8.13841828       3.87259140      14.62369019
Cu       1.09505911       3.75209677      14.27104516
Cu       3.54767614       5.09524095      12.68721185
Cu      10.76234561       3.90032193      14.86241172
Cu      16.17682862       0.12427693      13.71265186
Cu      14.41135236       2.41145914      12.47598736
O        6.74801668       5.10078126      14.58152405
O       21.39360872       2.43756152      14.47193607
O       15.11134299       3.71405847      13.89062793
O       12.16959203       5.06436239      14.98066588
O        9.42242439       2.68194803      15.14160966
O        4.18780909       2.52115448      14.28578037
O       17.82684388       1.21779306      14.02897940
O        2.41653374       5.02236927      14.28823254
54
Lattice="21.66 0.0 0.0 0.0 5.10531 0.0 0.0 0.0 22.55266" Properties=species:S:1:pos:R:3 entry_id=7 rank=3 energy=-201.848388671875 pbc="T T F"
Cu       0.00000000       0.00000000      10.00000000
Cu       3.61000000       0.00000000      10.00000000
Cu       7.22000000       0.00000000      10.00000000
Cu      10.83000000       0.00000000      10.00000000
Cu      14.44000000       0.00000000      10.00000000
Cu      18.05000000       0.00000000      10.00000000
Cu       0.00000000       2.55265548      10.00000000
Cu       3.61000000       2.55265548      10.00000000
Cu       7.22000000       2.55265548      10.00000000
Cu      10.83000000       2.55265548      10.00000000
Cu      14.44000000       2.55265548      10.00000000
Cu      18.05000000       2.55265548      10.00000000
Cu       1.80500000       1.27632774      11.27632774
Cu       5.41500000       1.27632774      11.27632774
Cu       9.02500000       1.27632774      11.27632774
Cu      12.63500000       1.27632774      11.27632774
Cu      16.24500000       1.27632774      11.27632774
Cu      19.85500000       1.27632774      11.27632774
Cu       1.80500000       3.82898322      11.27632774
Cu       5.41500000       3.82898322      11.27632774
Cu       9.02500000       3.82898322      11.27632774
Cu      12.63500000       3.82898322      11.27632774
Cu      16.24500000       3.82898322      11.27632774
Cu      19.85500000       3.82898322      11.27632774
Cu       0.00326692       5.08008071      12.56762352
Cu       2.44532909       5.05024193      13.37019754
Cu       5.27094519       0.79388660      13.90261402
Cu      10.80671684       0.03189174      12.54181927
Cu      12.94332579       3.78780582      13.86883089
Cu      18.03495370       5.10489998      12.61334165
Cu       0.03507327       2.55307260      12.52171245
Cu       2.36074863       2.52417692      13.37096368
Cu       7.22777507       2.51579171      12.53933495
Cu      10.88799541       2.57216810      12.52757371
Cu      12.91238693       1.26018103      13.78876400
Cu      18.06756361       2.46187194      12.50469869
Cu       5.15530883       3.37981191      13.85379697
Cu       9.03285347       1.34187766      13.82394038
Cu      19.88794320       1.24163700      13.81458889
Cu       7.29617490       5.05714326      12.56958357
Cu       7.65365405       3.67170845      14.81815577
Cu       0.55082707       3.76161435      14.87796238
Cu       0.56829393       1.24035661      14.91226783
Cu      10.34664422       3.83075907      14.68872296
Cu      19.78595282       3.82608193      13.87164071
Cu      15.94507262       3.10877049      13.66590409
O        6.07835774       4.60177204      14.90071298
O       20.80789401       2.49361872      15.07217059
O       17.67221713       3.72209624      13.97932266
O       11.71522761       5.07211693      14.44154996
O        9.09526350       2.61924956      15.22277229
O        4.20071353       2.02128640      13.03663451
O       14.24800772       2.51471228      13.92285086
O        1.85126412       5.04604646      15.20138600
54
Lattice="21.66 0.0 0.0 0.0 5.10531 0.0 0.0 0.0 22.55266" Properties=species:S:1:pos:R:3 entry_id=5 rank=4 energy=-201.8468017578125 pbc="T T F"
Cu       0.00000000       0.00000000      10.00000000
Cu       3.61000000       0.00000000      10.00000000
Cu       7.22000000       0.00000000      10.00000000
Cu      10.83000000       0.00000000      10.00000000
Cu      14.44000000       0.00000000      10.00000000
Cu      18.05000000       0.00000000      10.00000000
Cu       0.00000000       2.55265548      10.00000000
Cu       3.61000000       2.55265548      10.00000000
Cu       7.22000000       2.55265548      10.00000000
Cu      10.83000000       2.55265548      10.00000000
Cu      14.44000000       2.55265548      10.00000000
Cu      18.05000000       2.55265548      10.00000000
Cu       1.80500000       1.27632774      11.27632774
Cu       5.41500000       1.27632774      11.27632774
Cu       9.02500000       1.27632774      11.27632774
Cu      12.63500000       1.27632774      11.27632774
Cu      16.24500000       1.27632774      11.27632774
Cu      19.85500000       1.27632774      11.27632774
Cu       1.80500000       3.82898322      11.27632774
Cu       5.41500000       3.82898322      11.27632774
Cu       9.02500000       3.82898322      11.27632774
Cu      12.63500000       3.82898322      11.27632774
Cu      16.24500000       3.82898322      11.27632774
Cu      19.85500000       3.82898322      11.27632774
Cu       0.00539635       5.08243852      12.57394320
Cu       2.47043776       5.05583983      13.35842874
Cu       5.27618138       0.85042064      13.90413586
Cu      10.80804587       0.03838241      12.53153283
Cu      12.92603187       3.80096552      13.86690043
Cu      18.02831080       5.09867841      12.62015720
Cu       0.03877475       2.55606917      12.52149961
Cu       2.36404842       2.52730543      13.36398010
Cu       7.22345209       2.52868705      12.54328824
Cu      10.88495815       2.57865461      12.52787343
Cu      12.89599578       1.26996481      13.78698343
Cu      18.06936500       2.45469360      12.49939992
Cu       5.14490277       3.43484276      13.85136311
Cu       9.02823071       1.34206130      13.82329410
Cu      19.89512082       1.24610671      13.82359984
Cu       7.29237856       5.06623850      12.56624972
Cu       7.62582003       3.71512079      14.81564590
Cu       0.56596259       3.78941339      14.87200373
Cu       0.58542849       1.26827501      14.90827377
Cu      10.31490302       3.85656989      14.67146796
Cu      19.78541072       3.83137954      13.87205620
Cu      15.93661841       3.09266425      13.65848556
O        6.05644934       4.65366995      14.91474038
O       20.82098215       2.51755849      15.07052702
O       17.66589231       3.70217964      13.97538010
O       11.69847764       5.08558068      14.44335032
O        9.05921299       2.64711860      15.19917758
O        4.21319451       2.07289845      13.01886365
O       14.23040747       2.52638121      13.91433988
O        1.86995576       5.07483963      15.18834592
54
Lattice="21.66 0.0 0.0 0.0 5.10531 0.0 0.0 0.0 22.55266" Properties=species:S:1:pos:R:3 entry_id=34 rank=5 energy=-201.84405517578125 pbc="T T F"
Cu       0.00000000       0.00000000      10.00000000
Cu       3.61000000       0.00000000      10.00000000
Cu       7.22000000       0.00000000      10.00000000
Cu      10.83000000       0.00000000      10.00000000
Cu      14.44000000       0.00000000      10.00000000
Cu      18.05000000       0.00000000      10.00000000
Cu       0.00000000       2.55265548      10.00000000
Cu       3.61000000       2.55265548      10.00000000
Cu       7.22000000       2.55265548      10.00000000
Cu      10.83000000       2.55265548      10.00000000
Cu      14.44000000       2.55265548      10.00000000
Cu      18.05000000       2.55265548      10.00000000
Cu       1.80500000       1.27632774      11.27632774
Cu       5.41500000       1.27632774      11.27632774
Cu       9.02500000       1.27632774      11.27632774
Cu      12.63500000       1.27632774      11.27632774
Cu      16.24500000       1.27632774      11.27632774
Cu      19.85500000       1.27632774      11.27632774
Cu       1.80500000       3.82898322      11.27632774
Cu       5.41500000       3.82898322      11.27632774
Cu       9.02500000       3.82898322      11.27632774
Cu      12.63500000       3.82898322      11.27632774
Cu      16.24500000       3.82898322      11.27632774
Cu      19.85500000       3.82898322      11.27632774
Cu      21.55056805       5.08933485      12.50028723
Cu       1.11140928       1.15925336      14.29962952
Cu       5.48379151       1.27638668      14.04641038
Cu      12.52743190       1.37088913      13.83021954
Cu      13.06784664       3.84494498      13.80483955
Cu      18.19878860       0.03877848      12.44805186
Cu      21.61054884       2.54720446      12.43344829
Cu       3.55026871       2.54587968      12.49878722
Cu       7.22218224       2.58419883      12.54132638
Cu      10.87544028       2.61585720      12.53468331
Cu       9.10321074       1.34438901      13.82281228
Cu      16.60439297       2.41857585      13.72526233
Cu       5.44989870       3.81944991      14.10426711
Cu       7.28723514       0.03877153      12.52896696
Cu      19.69510410       1.65231146      13.87510059
Cu      10.80326632       0.00442872      12.53811072
Cu       8.12429947       3.87834866      14.61944581
Cu       1.09063778       3.72184947      14.28102989
Cu       3.54378751       5.09873468      12.68946885
Cu      10.75288075       3.89036135      14.85601978
Cu      16.26419975       5.01796549      13.83377661
Cu      14.41666695       2.42109130      12.46456578
O        6.73607513       0.00162702      14.56888760
O       21.38974930       2.40507618      14.48533512
O       15.12155228       3.56131549      13.97559105
O       12.17105004       5.04230342      14.97678724
O        9.40239365       2.68295917      15.13585912
O        4.16966768       2.52550339      14.28742144
O       17.85091476       1.07008493      14.09891519
O        2.41025384       4.99394282      14.28874866
54
Lattice="21.66 0.0 0.0 0.0 5.10531 0.0 0.0 0.0 22.55266" Properties=species:S:1:pos:R:3 entry_id=24 rank=6 energy=-201.81478881835938 pbc="T T F"
Cu       0.00000000       0.00000000      10.00000000
Cu       3.61000000       0.00000000      10.00000000
Cu       7.22000000       0.00000000      10.00000000
Cu      10.83000000       0.00000000      10.00000000
Cu      14.44000000       0.00000000      10.00000000
Cu      18.05000000       0.00000000      10.00000000
Cu       0.00000000       2.55265548      10.00000000
Cu       3.61000000       2.55265548      10.00000000
Cu       7.22000000       2.55265548      10.00000000
Cu      10.83000000       2.55265548      10.00000000
Cu      14.44000000       2.55265548      10.00000000
Cu      18.05000000       2.55265548      10.00000000
Cu       1.80500000       1.27632774      11.27632774
Cu       5.41500000       1.27632774      11.27632774
Cu       9.02500000       1.27632774      11.27632774
Cu      12.63500000       1.27632774      11.27632774
Cu      16.24500000       1.27632774      11.27632774
Cu      19.85500000       1.27632774      11.27632774
Cu       1.80500000       3.82898322      11.27632774
Cu       5.41500000       3.82898322      11.27632774
Cu       9.02500000       3.82898322      11.27632774
Cu      12.63500000       3.82898322      11.27632774
Cu      16.24500000       3.82898322      11.27632774
Cu      19.85500000       3.82898322      11.27632774
Cu      21.63964270       5.10055159      12.48847471
Cu       1.18961982       1.28135689      14.30985097
Cu       5.54169821       1.26947518      14.02693842
Cu      12.68176267       1.38115671      13.77138194
Cu      12.72706228       3.86635314      13.73819439
Cu      18.09873927       5.09492041      12.57022827
Cu      21.65392644       2.55089044      12.42281399
Cu       3.54618052       2.55278614      12.51605050
Cu       7.24332675       2.55893801      12.51724355
Cu      10.79684167       2.57174161      12.59368644
Cu      10.48033298       1.25446780      14.93189158
Cu      18.20002537       2.54119589      12.65370777
Cu       5.49425214       3.81606185      14.09244559
Cu       7.31026460       0.01853403      12.51288168
Cu      20.07865846       1.29025809      14.11761607
Cu      10.73316661       0.01524439      12.56378441
Cu       8.10114982       3.71760721      14.58741171
Cu       1.17586300       3.81184124      14.32409200
Cu       3.58263327       5.10396216      12.65835252
Cu      10.63950976       3.83968535      15.07418984
Cu      20.08037827       3.79973951      14.13088325
Cu      14.38036469       2.56748959      12.58254069
O        6.82571765       5.08541996      14.46224860
O       21.46426486       2.54097223      14.76552006
O       16.25823764       2.55606128      12.82642019
O       11.98626174       0.05328461      15.03741065
O        9.31289980       2.59368861      15.36610272
O        4.22559998       2.51982692      14.28933570
O       18.77631993       5.09758049      14.34486359
O        2.47947031       5.09075974      14.27306944
54
Lattice="21.66 0.0 0.0 0.0 5.10531 0.0 0.0 0.0 22.55266" Properties=species:S:1:pos:R:3 entry_id=37 rank=7 energy=-201.77020263671875 pbc="T T F"
Cu       0.00000000       0.00000000      10.00000000
Cu       3.61000000       0.00000000      10.00000000
Cu       7.22000000       0.00000000      10.00000000
Cu      10.83000000       0.00000000      10.00000000
Cu      14.44000000       0.00000000      10.00000000
Cu      18.05000000       0.00000000      10.00000000
Cu       0.00000000       2.55265548      10.00000000
Cu       3.61000000       2.55265548      10.00000000
Cu       7.22000000       2.55265548      10.00000000
Cu      10.83000000       2.55265548      10.00000000
Cu      14.44000000       2.55265548      10.00000000
Cu      18.05000000       2.55265548      10.00000000
Cu       1.80500000       1.27632774      11.27632774
Cu       5.41500000       1.27632774      11.27632774
Cu       9.02500000       1.27632774      11.27632774
Cu      12.63500000       1.27632774      11.27632774
Cu      16.24500000       1.27632774      11.27632774
Cu      19.85500000       1.27632774      11.27632774
Cu       1.80500000       3.82898322      11.27632774
Cu       5.41500000       3.82898322      11.27632774
Cu       9.02500000       3.82898322      11.27632774
Cu      12.63500000       3.82898322      11.27632774
Cu      16.24500000       3.82898322      11.27632774
Cu      19.85500000       3.82898322      11.27632774
Cu      21.64191368       0.01158486      12.48275037
Cu       1.23691979       1.31270743      14.27443637
Cu       5.66664910       1.37236969      14.10640660
Cu      12.73302320       1.14203382      13.73969344
Cu      12.70178999       3.64958766      13.75860760
Cu      18.09360946       0.00132444      12.57389899
Cu      21.65203958       2.56263688      12.41285745
Cu       3.54218716       2.56432975      12.57577283
Cu       7.22054609       2.58918658      12.46359170
Cu      10.77417585       2.49806712      12.63612969
Cu       8.71664826       1.29867906      13.92299274
Cu      18.19784728       2.55438832      12.64517294
Cu       5.68941446       3.92120178      14.07750986
Cu       7.27372896       5.09659064      12.44107780
Cu      20.09782811       1.31941384      14.11277903
Cu      10.71942361       5.06579623      12.61740960
Cu      10.80813188       1.12340968      15.28445298
Cu       1.24836923       3.83954480      14.26182109
Cu       3.62273407       0.01539871      12.66317108
Cu      10.61527573       3.71812208      15.05191984
Cu      20.09115616       3.82852485      14.10778374
Cu      14.38258459       2.47101218      12.57057988
O        7.00573602       0.11750980      14.37790972
O       21.50502937       2.57898812      14.70553264
O       16.25710965       2.55740965      12.82799354
O       12.13705217       4.92243114      15.12781435
O        9.44697376       2.34526007      15.36063414
O        4.38302194       2.65341949      14.28784242
O       18.79340454       0.02534960      14.34267774
O        2.54061548       0.03271379      14.28060243
54
Lattice="21.66 0.0 0.0 0.0 5.10531 0.0 0.0 0.0 22.55266" Properties=species:S:1:pos:R:3 entry_id=36 rank=8 energy=-201.76873779296875 pbc="T T F"
Cu       0.00000000       0.00000000      10.00000000
Cu       3.61000000       0.00000000      10.00000000
Cu       7.22000000       0.00000000      10.00000000
Cu      10.83000000       0.00000000      10.00000000
Cu      14.44000000       0.00000000      10.00000000
Cu      18.05000000       0.00000000      10.00000000
Cu       0.00000000       2.55265548      10.00000000
Cu       3.61000000       2.55265548      10.00000000
Cu       7.22000000       2.55265548      10.00000000
Cu      10.83000000       2.55265548      10.00000000
Cu      14.44000000       2.55265548      10.00000000
Cu      18.05000000       2.55265548      10.00000000
Cu       1.80500000       1.27632774      11.27632774
Cu       5.41500000       1.27632774      11.27632774
Cu       9.02500000       1.27632774      11.27632774
Cu      12.63500000       1.27632774      11.27632774
Cu      16.24500000       1.27632774      11.27632774
Cu      19.85500000       1.27632774      11.27632774
Cu       1.80500000       3.82898322      11.27632774
Cu       5.41500000       3.82898322      11.27632774
Cu       9.02500000       3.82898322      11.27632774
Cu      12.63500000       3.82898322      11.27632774
Cu      16.24500000       3.82898322      11.27632774
Cu      19.85500000       3.82898322      11.27632774
Cu      21.64836698       0.00077982      12.48920775
Cu       1.24710996       1.29869181      14.28067806
Cu       5.66551718       1.36696602      14.10121855
Cu      12.71253510       1.15839640      13.75277161
Cu      12.69788988       3.66397585      13.75830566
Cu      18.09929651       5.10384400      12.57786474
Cu      21.65202238       2.55402414      12.41681065
Cu       3.53968887       2.56016747      12.57036536
Cu       7.21662933       2.58672461      12.46057365
Cu      10.77648194       2.50526184      12.62983004
Cu       8.72976675       1.31086468      13.91197416
Cu      18.20237832       2.55045992      12.65583082
Cu       5.68393932       3.91657735      14.07532086
Cu       7.28164550       5.09474769      12.44871833
Cu      20.10199041       1.30104350      14.11931928
Cu      10.71797524       5.07082553      12.61875676
Cu      10.79243310       1.10893281      15.30620355
Cu       1.25705434       3.82641032      14.27467157
Cu       3.62608394       0.01158604      12.67075233
Cu      10.61178130       3.70116107      15.06213742
Cu      20.10230200       3.81212906      14.12095050
Cu      14.38052356       2.47062692      12.57991546
O        7.00076447       0.10960402      14.38096641
O       21.51169037       2.56173972      14.71374643
O       16.25826091       2.55569567      12.82611077
O       12.12687584       4.91881330      15.13564135
O        9.43582814       2.33408004      15.37995733
O        4.38118132       2.64483600      14.28083331
O       18.79954201       0.00324870      14.34767567
O        2.55117807       0.01926922      14.29677851
54
Lattice="21.66 0.0 0.0 0.0 5.10531 0.0 0.0 0.0 22.55266" Properties=species:S:1:pos:R:3 entry_id=29 rank=9 energy=-201.73394775390625 pbc="T T F"
Cu       0.00000000       0.00000000      10.00000000
Cu       3.61000000       0.00000000      10.00000000
Cu       7.22000000       0.00000000      10.00000000
Cu      10.83000000       0.00000000      10.00000000
Cu      14.44000000       0.00000000      10.00000000
Cu      18.05000000       0.00000000      10.00000000
Cu       0.00000000       2.55265548      10.00000000
Cu       3.61000000       2.55265548      10.00000000
Cu       7.22000000       2.55265548      10.00000000
Cu      10.83000000       2.55265548      10.00000000
Cu      14.44000000       2.55265548      10.00000000
Cu      18.05000000       2.55265548      10.00000000
Cu       1.80500000       1.27632774      11.27632774
Cu       5.41500000       1.27632774      11.27632774
Cu       9.02500000       1.27632774      11.27632774
Cu      12.63500000       1.27632774      11.27632774
Cu      16.24500000       1.27632774      11.27632774
Cu      19.85500000       1.27632774      11.27632774
Cu       1.80500000       3.82898322      11.27632774
Cu       5.41500000       3.82898322      11.27632774
Cu       9.02500000       3.82898322      11.27632774
Cu      12.63500000       3.82898322      11.27632774
Cu      16.24500000       3.82898322      11.27632774
Cu      19.85500000       3.82898322      11.27632774
Cu      21.63487272       5.10507399      12.48813058
Cu       1.16799425       1.28959192      14.31351397
Cu       5.53402566       1.26873755      14.01897705
Cu      12.69097984       1.04410104      13.72295413
Cu      14.50049431       5.09179512      12.59985147
Cu      18.02042190       0.01935991      12.58732638
Cu      21.65502784       2.55196325      12.42028063
Cu       3.54437771       2.55033086      12.51599403
Cu       7.23068742       2.56222173      12.51103165
Cu      10.85268777       2.52855488      12.60548793
Cu      10.53497370       1.28484093      14.94994385
Cu      18.10731010       2.56203969      12.56047175
Cu       5.49450583       3.81484318      14.09688569
Cu       7.29082835       0.02961268      12.49591199
Cu      20.04825136       1.30462869      14.10052656
Cu      10.71425396       5.06969281      12.57941286
Cu       8.14170416       3.76898009      14.50909258
Cu       1.16778532       3.81927751      14.31259242
Cu       3.56420286       5.10147625      12.67130936
Cu      10.76265581       3.84280954      14.92449969
Cu      20.03156195       3.80870175      14.07898478
Cu      14.35988154       2.45553750      12.64589497
O        6.82139177       5.09059277      14.45707888
O       21.43220651       2.55973348      14.72363111
O       15.67933318       3.70963461      13.15517882
O       11.94147744       0.10098951      15.15146901
O        9.37949510       2.64988724      15.21276720
O        4.22165895       2.52105557      14.29040505
O       18.74980650       0.01355903      14.33796314
O        2.46486960       5.10449265      14.29150624
54
Lattice="21.66 0.0 0.0 0.0 5.10531 0.0 0.0 0.0 22.55266" Properties=species:S:1:pos:R:3 entry_id=6 rank=10 energy=-201.61737060546875 pbc="T T F"
Cu       0.00000000       0.00000000      10.00000000
Cu       3.61000000       0.00000000      10.00000000
Cu       7.22000000       0.00000000      10.00000000
Cu      10.83000000       0.00000000      10.00000000
Cu      14.44000000       0.00000000      10.00000000
Cu      18.05000000       0.00000000      10.00000000
Cu       0.00000000       2.55265548      10.00000000
Cu       3.61000000       2.55265548      10.00000000
Cu       7.22000000       2.55265548      10.00000000
Cu      10.83000000       2.55265548      10.00000000
Cu      14.44000000       2.55265548      10.00000000
Cu      18.05000000       2.55265548      10.00000000
Cu       1.80500000       1.27632774      11.27632774
Cu       5.41500000       1.27632774      11.27632774
Cu       9.02500000       1.27632774      11.27632774
Cu      12.63500000       1.27632774      11.27632774
Cu      16.24500000       1.27632774      11.27632774
Cu      19.85500000       1.27632774      11.27632774
Cu       1.80500000       3.82898322      11.27632774
Cu       5.41500000       3.82898322      11.27632774
Cu       9.02500000       3.82898322      11.27632774
Cu      12.63500000       3.82898322      11.27632774
Cu      16.24500000       3.82898322      11.27632774
Cu      19.85500000       3.82898322      11.27632774
Cu       0.00053698       5.03406161      12.61538916
Cu       2.15530740       0.82083829      13.66436251
Cu       5.27042382       1.11628011      13.91444959
Cu      10.79282265       0.02603741      12.55337902
Cu      12.90801095       3.74954466      13.87473463
Cu      18.00059949       5.08112029      12.57611783
Cu       0.11852903       2.49545872      12.64294538
Cu       3.62142848       2.56610095      12.43071738
Cu       7.16671290       2.53520848      12.51806647
Cu      10.88278148       2.56596602      12.52995008
Cu      12.87494566       1.21928713      13.79798225
Cu      18.03775546       2.44840341      12.48455569
Cu       2.67301486       3.52680311      14.65932497
Cu       9.02418286       1.41290399      13.81687057
Cu      19.79804989       1.18833470      13.77898123
Cu       7.25180019       5.10512564      12.56328108
Cu       7.68033460       3.69549483      14.70609705
Cu       0.17057002       3.57822904      15.13361597
Cu       0.16900167       1.02101296      15.18585156
Cu      10.32165591       3.77506161      14.71884802
Cu      19.72342489       3.76123144      13.84917751
Cu      15.90253256       3.06580183      13.64368741
O        6.27253823       4.71789447      14.19316308
O       20.45500398       2.31992701      15.25720675
O       17.61364857       3.71606986      13.94930264
O       11.67775766       5.02982774      14.44932270
O        9.03116687       2.60761596      15.29282261
O        3.68081089       2.02443597      14.27673434
O       14.20817336       2.47188774      13.91361948
O        1.54841612       4.84667131      15.36487758
54
Lattice="21.66 0.0 0.0 0.0 5.10531 0.0 0.0 0.0 22.55266" Properties=species:S:1:pos:R:3 entry_id=22 rank=11 energy=-201.57565307617188 pbc="T T F"
Cu       0.00000000       0.00000000      10.00000000
Cu       3.61000000       0.00000000      10.00000000
Cu       7.22000000       0.00000000      10.00000000
Cu      10.83000000       0.00000000      10.00000000
Cu      14.44000000       0.00000000      10.00000000
Cu      18.05000000       0.00000000      10.00000000
Cu       0.00000000       2.55265548      10.00000000
Cu       3.61000000       2.55265548      10.00000000
Cu       7.22000000       2.55265548      10.00000000
Cu      10.83000000       2.55265548      10.00000000
Cu      14.44000000       2.55265548      10.00000000
Cu      18.05000000       2.55265548      10.00000000
Cu       1.80500000       1.27632774      11.27632774
Cu       5.41500000       1.27632774      11.27632774
Cu       9.02500000       1.27632774      11.27632774
Cu      12.63500000       1.27632774      11.27632774
Cu      16.24500000       1.27632774      11.27632774
Cu      19.85500000       1.27632774      11.27632774
Cu       1.80500000       3.82898322      11.27632774
Cu       5.41500000       3.82898322      11.27632774
Cu       9.02500000       3.82898322      11.27632774
Cu      12.63500000       3.82898322      11.27632774
Cu      16.24500000       3.82898322      11.27632774
Cu      19.85500000       3.82898322      11.27632774
Cu       0.01504399       0.01035975      12.48984372
Cu       0.86879431       1.29439228      14.53970441
Cu       5.41075819       1.27167391      14.01561624
Cu      12.61917299       1.00390282      13.84926311
Cu      12.66665490       3.56883262      13.95301645
Cu      18.22558754       0.07864615      12.68989174
Cu       0.06641653       2.56295844      12.44496802
Cu       3.55119971       2.55086680      12.46619305
Cu       7.21809447       2.54843786      12.51723758
Cu      10.80054380       2.44940009      12.57015738
Cu      10.03125321       1.00881122      14.69000993
Cu      18.13322880       2.51682470      12.64105339
Cu       5.29982585       3.81767745      14.05751856
Cu       7.30883161       0.00787681      12.55733289
Cu      20.00562433       1.32040804      13.86968791
Cu      10.78112800       5.00043513      12.48758206
Cu       7.74404893       3.56478794      14.73515913
Cu       0.87082775       3.81349807      14.54468084
Cu       3.39529824       5.10492728      12.78103637
Cu      10.23712760       3.52647203      14.89631050
Cu      20.02587852       3.87332703      13.87107543
Cu      15.44094269       2.86122491      13.40997634
O        6.65886799       5.05793154      14.45713864
O       21.16806702       2.55595243      14.97860540
O       16.90744253       3.90699894      13.22307231
O       11.50897474       4.87581181      14.81035932
O        8.92294763       2.32033485      15.35391772
O        4.05499800       2.49344450      14.28362501
O       13.93131195       2.22859298      14.10917907
O        2.15154302       5.10415343      14.32521528
54
Lattice="21.66 0.0 0.0 0.0 5.10531 0.0 0.0 0.0 22.55266" Properties=species:S:1:pos:R:3 entry_id=23 rank=12 energy=-201.4872589111328 pbc="T T F"
Cu       0.00000000       0.00000000      10.00000000
Cu       3.61000000       0.00000000      10.00000000
Cu       7.22000000       0.00000000      10.00000000
Cu      10.83000000       0.00000000      10.00000000
Cu      14.44000000       0.00000000      10.00000000
Cu      18.05000000       0.00000000      10.00000000
Cu       0.00000000       2.55265548      10.00000000
Cu       3.61000000       2.55265548      10.00000000
Cu       7.22000000       2.55265548      10.00000000
Cu      10.83000000       2.55265548      10.00000000
Cu      14.44000000       2.55265548      10.00000000
Cu      18.05000000       2.55265548      10.00000000
Cu       1.80500000       1.27632774      11.27632774
Cu       5.41500000       1.27632774      11.27632774
Cu       9.02500000       1.27632774      11.27632774
Cu      12.63500000       1.27632774      11.27632774
Cu      16.24500000       1.27632774      11.27632774
Cu      19.85500000       1.27632774      11.27632774
Cu       1.80500000       3.82898322      11.27632774
Cu       5.41500000       3.82898322      11.27632774
Cu       9.02500000       3.82898322      11.27632774
Cu      12.63500000       3.82898322      11.27632774
Cu      16.24500000       3.82898322      11.27632774
Cu      19.85500000       3.82898322      11.27632774
Cu      21.65355524       0.08042187      12.50890037
Cu       1.21010396       1.29368240      14.39015976
Cu       5.53487226       1.25576296      14.02184492
Cu      12.73278268       1.37060380      13.74065135
Cu      12.72647280       3.84765566      13.74183906
Cu      17.24171156       4.79253329      13.38303510
Cu      21.62559666       2.64223197      12.48150106
Cu       3.54964328       2.54685204      12.51655703
Cu       7.24287696       2.55485040      12.51818696
Cu      10.80253563       2.56866419      12.59618417
Cu      10.50922308       1.28092019      14.91434831
Cu      18.03424297       2.30707197      12.74392149
Cu       5.48669781       3.79844705      14.09399882
Cu       7.30521626       0.01310420      12.50985393
Cu      20.13799809       1.74396348      14.27578668
Cu      10.74543419       0.01150954      12.56501764
Cu       8.10084304       3.71240705      14.59290121
Cu       1.10128052       3.82923073      14.40910393
Cu       3.59662557       5.09738160      12.62500994
Cu      10.64017519       3.86211029      15.08084527
Cu      19.70017147       4.25780149      13.67536711
Cu      14.45046009       2.61087747      12.57618613
O        6.81846288       5.07134697      14.45863568
O       21.63547568       2.51493641      15.06456287
O       16.21480224       3.25561052      13.17471090
O       11.99872892       0.06581722      15.02068482
O        9.32705562       2.60093766      15.36607601
O        4.21753985       2.50222273      14.29515112
O       18.55818525       0.78047556      14.09322304
O        2.42755213       5.06377940      14.16834418
54
Lattice="21.66 0.0 0.0 0.0 5.10531 0.0 0.0 0.0 22.55266" Properties=species:S:1:pos:R:3 entry_id=9 rank=13 energy=-201.44891357421875 pbc="T T F"
Cu       0.00000000       0.00000000      10.00000000
Cu       3.61000000       0.00000000      10.00000000
Cu       7.22000000       0.00000000      10.00000000
Cu      10.83000000       0.00000000      10.00000000
Cu      14.44000000       0.00000000      10.00000000
Cu      18.05000000       0.00000000      10.00000000
Cu       0.00000000       2.55265548      10.00000000
Cu       3.61000000       2.55265548      10.00000000
Cu       7.22000000       2.55265548      10.00000000
Cu      10.83000000       2.55265548      10.00000000
Cu      14.44000000       2.55265548      10.00000000
Cu      18.05000000       2.55265548      10.00000000
Cu       1.80500000       1.27632774      11.27632774
Cu       5.41500000       1.27632774      11.27632774
Cu       9.02500000       1.27632774      11.27632774
Cu      12.63500000       1.27632774      11.27632774
Cu      16.24500000       1.27632774      11.27632774
Cu      19.85500000       1.27632774      11.27632774
Cu       1.80500000       3.82898322      11.27632774
Cu       5.41500000       3.82898322      11.27632774
Cu       9.02500000       3.82898322      11.27632774
Cu      12.63500000       3.82898322      11.27632774
Cu      16.24500000       3.82898322      11.27632774
Cu      19.85500000       3.82898322      11.27632774
Cu       0.00299957       0.00689358      12.57236696
Cu       2.50896155       3.95727449      13.68702885
Cu       6.33586453       1.26929954      14.37765818
Cu      10.78480342       0.04598079      12.54511821
Cu      12.90665036       3.80185766      13.86681167
Cu      18.00651976       0.02742553      12.59828803
Cu       0.10578847       2.58318421      12.57563847
Cu       2.64588270       1.37494459      13.75236536
Cu       7.18272514       2.58419613      12.50588604
Cu      10.87553853       2.58232572      12.52797376
Cu      12.87510180       1.27166565      13.79716287
Cu      18.04985332       2.48063239      12.48939879
Cu       5.12273568       3.55550373      13.91877919
Cu       8.95975862       1.40662702      13.80824808
Cu      19.86675589       1.30615013      13.80608379
Cu       7.27583783       5.08850980      12.51696035
Cu       7.56156557       3.57698807      14.93108453
Cu       0.30216022       3.96341365      14.93337785
Cu       0.39276545       1.41172580      14.97088866
Cu      10.29994974       3.83811124      14.69116348
Cu      19.72357157       3.88325202      13.84459413
Cu      15.90766830       3.10517567      13.65061187
O        6.07004714       4.64558026      15.07395460
O       20.64287129       2.62631189      15.19107240
O       17.62586332       3.74128660      13.95269578
O       11.66859614       5.08203226      14.43330693
O        9.08663978       2.61142135      15.28000900
O        3.73670346       2.69565366      13.01473455
O       14.20944521       2.52672075      13.92545127
O        1.76741658       0.11548417      14.94674462
54
Lattice="21.66 0.0 0.0 0.0 5.10531 0.0 0.0 0.0 22.55266" Properties=species:S:1:pos:R:3 entry_id=27 rank=14 energy=-201.43936157226562 pbc="T T F"
Cu       0.00000000       0.00000000      10.00000000
Cu       3.61000000       0.00000000      10.00000000
Cu       7.22000000       0.00000000      10.00000000
Cu      10.83000000       0.00000000      10.00000000
Cu      14.44000000       0.00000000      10.00000000
Cu      18.05000000       0.00000000      10.00000000
Cu       0.00000000       2.55265548      10.00000000
Cu       3.61000000       2.55265548      10.00000000
Cu       7.22000000       2.55265548      10.00000000
Cu      10.83000000       2.55265548      10.00000000
Cu      14.44000000       2.55265548      10.00000000
Cu      18.05000000       2.55265548      10.00000000
Cu       1.80500000       1.27632774      11.27632774
Cu       5.41500000       1.27632774      11.27632774
Cu       9.02500000       1.27632774      11.27632774
Cu      12.63500000       1.27632774      11.27632774
Cu      16.24500000       1.27632774      11.27632774
Cu      19.85500000       1.27632774      11.27632774
Cu       1.80500000       3.82898322      11.27632774
Cu       5.41500000       3.82898322      11.27632774
Cu       9.02500000       3.82898322      11.27632774
Cu      12.63500000       3.82898322      11.27632774
Cu      16.24500000       3.82898322      11.27632774
Cu      19.85500000       3.82898322      11.27632774
Cu       0.00065454       5.09657808      12.50008972
Cu       0.85770065       1.26346194      14.53919581
Cu       5.38003396       1.17734646      14.08298994
Cu      12.72450156       1.26075864      13.84023798
Cu      12.72565197       3.89657834      13.83160500
Cu      18.16213773       5.09753802      12.77559980
Cu       0.05690650       2.54429655      12.45075451
Cu       3.55592549       2.53751327      12.47222309
Cu       7.17622886       2.49965032      12.58560651
Cu      10.83741655       2.53367685      12.59063768
Cu       9.05434452       1.21709254      14.01431999
Cu      18.14574311       2.54746830      12.55428562
Cu       5.33898537       3.72243800      14.11958065
Cu       7.17010607       5.08670914      12.51806888
Cu      19.96099814       1.27038410      13.87134745
Cu      10.98004310       0.00993830      12.60453058
Cu       7.92206032       3.63297349      14.83311457
Cu       0.84987878       3.78579708      14.54192014
Cu       3.38818290       5.08372649      12.80316494
Cu      10.91012248       2.57831139      15.20308740
Cu      19.96305269       3.81077304      13.87225338
Cu      14.35105286       0.01510574      12.56081310
O        6.63776553       4.98171362      14.55265153
O       21.15489622       2.52542623      14.95829718
O       16.22099994       0.00204226      12.81663229
O        9.17035627       4.62845329      13.17986388
O        9.11231568       2.39257075      15.43727409
O        4.04981616       2.43184626      14.28838870
O       12.73954424       2.59452637      15.16084040
O        2.13932545       5.06900981      14.33756078
54
Lattice="21.66 0.0 0.0 0.0 5.10531 0.0 0.0 0.0 22.55266" Properties=species:S:1:pos:R:3 entry_id=32 rank=15 energy=-201.4273681640625 pbc="T T F"
Cu       0.00000000       0.00000000      10.00000000
Cu       3.61000000       0.00000000      10.00000000
Cu       7.22000000       0.00000000      10.00000000
Cu      10.83000000       0.00000000      10.00000000
Cu      14.44000000       0.00000000      10.00000000
Cu      18.05000000       0.00000000      10.00000000
Cu       0.00000000       2.55265548      10.00000000
Cu       3.61000000       2.55265548      10.00000000
Cu       7.22000000       2.55265548      10.00000000
Cu      10.83000000       2.55265548      10.00000000
Cu      14.44000000       2.55265548      10.00000000
Cu      18.05000000       2.55265548      10.00000000
Cu       1.80500000       1.27632774      11.27632774
Cu       5.41500000       1.27632774      11.27632774
Cu       9.02500000       1.27632774      11.27632774
Cu      12.63500000       1.27632774      11.27632774
Cu      16.24500000       1.27632774      11.27632774
Cu      19.85500000       1.27632774      11.27632774
Cu       1.80500000       3.82898322      11.27632774
Cu       5.41500000       3.82898322      11.27632774
Cu       9.02500000       3.82898322      11.27632774
Cu      12.63500000       3.82898322      11.27632774
Cu      16.24500000       3.82898322      11.27632774
Cu      19.85500000       3.82898322      11.27632774
Cu      21.55302340       5.09259511      12.51343963
Cu       1.23413134       1.15979506      14.25534410
Cu       5.48762770       1.28349930      14.04182215
Cu      12.59633135       1.25620981      13.81634158
Cu      12.80599707       3.70250768      13.74695150
Cu      18.33961000       0.02599741      12.52676824
Cu      21.62360384       2.55128369      12.43327868
Cu       3.54452586       2.54985279      12.50292705
Cu       7.22310737       2.58078499      12.54517810
Cu      10.86172777       2.56327882      12.54935110
Cu       9.07991101       1.34535978      13.84285358
Cu      17.70706714       2.64492749      12.82882735
Cu       5.43734803       3.82450677      14.11002508
Cu       7.29357125       0.02942420      12.53975652
Cu      19.83606828       1.65226808      13.99631121
Cu      10.76653901       5.08222009      12.55809563
Cu       8.06541718       3.84067678      14.65887679
Cu       1.21576079       3.72392464      14.22641655
Cu       3.58734689       5.10264601      12.64281476
Cu      10.65298389       3.89137058      14.93506104
Cu      16.41863402       0.09563300      13.79303171
Cu      14.39630186       2.43002058      12.54809753
O        6.72298679       0.00447519      14.57829706
O       21.53267663       2.41028711      14.49538408
O       15.78424050       3.54440125      13.27785200
O       12.15520352       4.96628605      14.97738736
O        9.33146890       2.64855512      15.20017751
O        4.16867686       2.52150584      14.29226806
O       17.98540367       1.19605337      14.14409647
O        2.52814975       4.99633862      14.27771207
54
Lattice="21.66 0.0 0.0 0.0 5.10531 0.0 0.0 0.0 22.55266" Properties=species:S:1:pos:R:3 entry_id=16 rank=16 energy=-201.39334106445312 pbc="T T F"
Cu       0.00000000       0.00000000      10.00000000
Cu       3.61000000       0.00000000      10.00000000
Cu       7.22000000       0.00000000      10.00000000
Cu      10.83000000       0.00000000      10.00000000
Cu      14.44000000       0.00000000      10.00000000
Cu      18.05000000       0.00000000      10.00000000
Cu       0.00000000       2.55265548      10.00000000
Cu       3.61000000       2.55265548      10.00000000
Cu       7.22000000       2.55265548      10.00000000
Cu      10.83000000       2.55265548      10.00000000
Cu      14.44000000       2.55265548      10.00000000
Cu      18.05000000       2.55265548      10.00000000
Cu       1.80500000       1.27632774      11.27632774
Cu       5.41500000       1.27632774      11.27632774
Cu       9.02500000       1.27632774      11.27632774
Cu      12.63500000       1.27632774      11.27632774
Cu      16.24500000       1.27632774      11.27632774
Cu      19.85500000       1.27632774      11.27632774
Cu       1.80500000       3.82898322      11.27632774
Cu       5.41500000       3.82898322      11.27632774
Cu       9.02500000       3.82898322      11.27632774
Cu      12.63500000       3.82898322      11.27632774
Cu      16.24500000       3.82898322      11.27632774
Cu      19.85500000       3.82898322      11.27632774
Cu       0.03967210       0.00009471      12.56245265
Cu       0.47485731       1.24324853      14.91475066
Cu       5.86663279       1.03579255      13.91547830
Cu      12.99741602       0.04249836      13.88305203
Cu      12.87618807       2.67777092      13.85789290
Cu      18.07777880       0.00662217      12.64411396
Cu       0.11619483       2.55065436      12.53480958
Cu       3.57034083       2.58333701      12.48065868
Cu       7.23429164       2.50558578      12.38452950
Cu      10.69991848       2.57240148      12.57315802
Cu      10.74082608       0.10027524      15.17032011
Cu      18.05876900       2.48931309      12.60439858
Cu       5.74877003       3.61604245      13.99099155
Cu       8.80643155       1.35402916      13.82888180
Cu      19.85962055       1.26029211      13.80457300
Cu      10.76824338       0.00957646      12.55084706
Cu       8.78444014       3.92215170      13.74430363
Cu       0.56233447       3.78671358      14.82607251
Cu       3.09580242       1.03207284      14.49135132
Cu      10.69450077       2.71040356      15.19087885
Cu      19.89627674       3.86094616      13.80706409
Cu      15.40378694       2.51915726      13.25909901
O        7.11814101       4.83064271      14.25572227
O       20.77981530       2.54645559      15.03237202
O       16.73459987       3.78968585      13.27442143
O       12.16424335       3.93710118      15.11512737
O        9.51665670       1.38173559      15.62670241
O        4.45803432       2.26444272      14.20220196
O       13.94362747       1.38704274      13.03302687
O        1.79271069       5.08745052      15.19558688
54
Lattice="21.66 0.0 0.0 0.0 5.10531 0.0 0.0 0.0 22.55266" Properties=species:S:1:pos:R:3 entry_id=31 rank=17 energy=-201.38938903808594 pbc="T T F"
Cu       0.00000000       0.00000000      10.00000000
Cu       3.61000000       0.00000000      10.00000000
Cu       7.22000000       0.00000000      10.00000000
Cu      10.83000000       0.00000000      10.00000000
Cu      14.44000000       0.00000000      10.00000000
Cu      18.05000000       0.00000000      10.00000000
Cu       0.00000000       2.55265548      10.00000000
Cu       3.61000000       2.55265548      10.00000000
Cu       7.22000000       2.55265548      10.00000000
Cu      10.83000000       2.55265548      10.00000000
Cu      14.44000000       2.55265548      10.00000000
Cu      18.05000000       2.55265548      10.00000000
Cu       1.80500000       1.27632774      11.27632774
Cu       5.41500000       1.27632774      11.27632774
Cu       9.02500000       1.27632774      11.27632774
Cu      12.63500000       1.27632774      11.27632774
Cu      16.24500000       1.27632774      11.27632774
Cu      19.85500000       1.27632774      11.27632774
Cu       1.80500000       3.82898322      11.27632774
Cu       5.41500000       3.82898322      11.27632774
Cu       9.02500000       3.82898322      11.27632774
Cu      12.63500000       3.82898322      11.27632774
Cu      16.24500000       3.82898322      11.27632774
Cu      19.85500000       3.82898322      11.27632774
Cu      21.63827722       5.10037340      12.48088341
Cu       3.51491086       0.02357702      12.61410563
Cu       5.43441711       1.14405873      14.01076040
Cu      10.83567483       5.00776368      12.48880169
Cu      13.31220720       0.08082578      13.57708280
Cu      18.04848836       0.05928815      12.41962597
Cu      21.59353860       2.55791044      12.56066195
Cu       3.47439080       2.55153547      12.59658960
Cu       7.34178418       2.51715464      12.56516416
Cu      10.85616891       2.48225952      12.62464010
Cu      14.45162657       2.67090159      12.56297964
Cu      18.01429364       2.56306973      12.52305366
Cu       4.14261419       3.95397620      14.83564219
Cu       7.27776929       5.09829481      12.61038489
Cu      19.77880797       1.21795124      13.84662923
Cu       9.06559960       3.71149194      13.80490683
Cu       7.28014833       4.82510956      15.24574806
Cu       1.56103083       1.34736187      14.11547619
Cu       1.40584138       3.92962404      14.27788803
Cu      10.42785281       0.45993275      14.82252149
Cu      19.76883052       3.69894971      13.82150963
Cu      16.48725784       4.36442796      14.04288766
O        5.47782631       5.06427428      15.40667615
O        0.09881863       0.16221537      14.46425316
O       18.30832855       4.88584384      14.37893072
O       11.82208832       1.21935549      13.85342930
O        9.06555666       4.56325765      15.50843982
O        5.47340260       2.77786506      13.10595213
O       14.68868208       3.98858661      13.90967940
O        2.76530421       2.70438966      14.62687645
54
Lattice="21.66 0.0 0.0 0.0 5.10531 0.0 0.0 0.0 22.55266" Properties=species:S:1:pos:R:3 entry_id=8 rank=18 energy=-201.2987518310547 pbc="T T F"
Cu       0.00000000       0.00000000      10.00000000
Cu       3.61000000       0.00000000      10.00000000
Cu       7.22000000       0.00000000      10.00000000
Cu      10.83000000       0.00000000      10.00000000
Cu      14.44000000       0.00000000      10.00000000
Cu      18.05000000       0.00000000      10.00000000
Cu       0.00000000       2.55265548      10.00000000
Cu       3.61000000       2.55265548      10.00000000
Cu       7.22000000       2.55265548      10.00000000
Cu      10.83000000       2.55265548      10.00000000
Cu      14.44000000       2.55265548      10.00000000
Cu      18.05000000       2.55265548      10.00000000
Cu       1.80500000       1.27632774      11.27632774
Cu       5.41500000       1.27632774      11.27632774
Cu       9.02500000       1.27632774      11.27632774
Cu      12.63500000       1.27632774      11.27632774
Cu      16.24500000       1.27632774      11.27632774
Cu      19.85500000       1.27632774      11.27632774
Cu       1.80500000       3.82898322      11.27632774
Cu       5.41500000       3.82898322      11.27632774
Cu       9.02500000       3.82898322      11.27632774
Cu      12.63500000       3.82898322      11.27632774
Cu      16.24500000       3.82898322      11.27632774
Cu      19.85500000       3.82898322      11.27632774
Cu      21.65500034       0.03706584      12.46444364
Cu       3.49846851       0.02295980      12.60530680
Cu       5.38118931       1.15293434      13.99871517
Cu      10.89713978       5.07569342      12.58003764
Cu      14.40325350       5.08465462      12.60470428
Cu      18.05999736       5.05258544      12.44333985
Cu      21.60802300       2.61323665      12.53717954
Cu       3.44039736       2.55493184      12.62818485
Cu       7.32829576       2.50926407      12.54752752
Cu      10.82561947       2.58416251      12.55831926
Cu      14.44223999       2.60345860      12.59723892
Cu      18.05474795       2.53671668      12.53185993
Cu       4.00012778       3.97404447      14.85815307
Cu       7.28253940       5.08834181      12.63303460
Cu      19.86816658       1.43257554      13.83965755
Cu       9.02980664       3.65404365      13.84517391
Cu       7.10657573       4.75764166      15.25952593
Cu       1.49008267       1.32441417      14.11965200
Cu       1.30399412       3.91130552      14.33955390
Cu      10.02676620       0.59708995      14.82331617
Cu      19.80294849       3.89298307      13.84427677
Cu      16.71924068       0.88882578      14.16265372
O        5.32386775       5.09334360      15.40911013
O        0.00106873       0.14320744      14.48082630
O       18.45986791       0.20923150      14.43893928
O       11.37148955       1.36003145      13.86762248
O        8.87288050       4.48927077      15.55632031
O        5.45139871       2.76681190      13.06873098
O       14.96940835       1.29911947      13.86044183
O        2.67001826       2.68933088      14.66188832
54
Lattice="21.66 0.0 0.0 0.0 5.10531 0.0 0.0 0.0 22.55266" Properties=species:S:1:pos:R:3 entry_id=30 rank=19 energy=-201.188232421875 pbc="T T F"
Cu       0.00000000       0.00000000      10.00000000
Cu       3.61000000       0.00000000      10.00000000
Cu       7.22000000       0.00000000      10.00000000
Cu      10.83000000       0.00000000      10.00000000
Cu      14.44000000       0.00000000      10.00000000
Cu      18.05000000       0.00000000      10.00000000
Cu       0.00000000       2.55265548      10.00000000
Cu       3.61000000       2.55265548      10.00000000
Cu       7.22000000       2.55265548      10.00000000
Cu      10.83000000       2.55265548      10.00000000
Cu      14.44000000       2.55265548      10.00000000
Cu      18.05000000       2.55265548      10.00000000
Cu       1.80500000       1.27632774      11.27632774
Cu       5.41500000       1.27632774      11.27632774
Cu       9.02500000       1.27632774      11.27632774
Cu      12.63500000       1.27632774      11.27632774
Cu      16.24500000       1.27632774      11.27632774
Cu      19.85500000       1.27632774      11.27632774
Cu       1.80500000       3.82898322      11.27632774
Cu       5.41500000       3.82898322      11.27632774
Cu       9.02500000       3.82898322      11.27632774
Cu      12.63500000       3.82898322      11.27632774
Cu      16.24500000       3.82898322      11.27632774
Cu      19.85500000       3.82898322      11.27632774
Cu      21.65210746       0.00258737      12.47382735
Cu       1.32848493       1.28195526      14.21961661
Cu       7.91745205       1.18967254      14.72914502
Cu      12.66387387       1.00399507      13.72616551
Cu      14.50783927       5.08868204      12.60333889
Cu      18.03016400       0.02089660      12.60007915
Cu       0.00765543       2.55316018      12.40585558
Cu       3.35441976       2.65324377      12.62819634
Cu       7.34635344       2.48370698      12.52995301
Cu      10.85890507       2.49674899      12.58272565
Cu      10.50370606       1.14678884      15.00508590
Cu      18.10474328       2.56382319      12.55857730
Cu       5.55055450       3.51867684      13.84140532
Cu       7.27724603       5.05713426      12.54349615
Cu      20.10897986       1.29713979      14.09282312
Cu      10.71197574       5.03983425      12.57476900
Cu       8.00024947       3.68245276      14.78453827
Cu       1.32834302       3.80772056      14.21760078
Cu       3.61728756       0.04838915      12.72367568
Cu      10.61603896       3.66233699      14.87525317
Cu      20.10063529       3.80477561      14.06935235
Cu      14.34276301       2.44600079      12.66750139
O        6.64616529       4.92107282      14.52241419
O       21.54284923       2.54783381      14.62398286
O       15.67848623       3.69530919      13.15421068
O       11.85668417       5.01221754      15.03708436
O        9.22018012       2.43162386      15.43368433
O        4.95709458       1.83751831      13.25207129
O       18.81349435       0.00274120      14.33664250
O        2.62295933       5.09292110      14.40464718
54
Lattice="21.66 0.0 0.0 0.0 5.10531 0.0 0.0 0.0 22.55266" Properties=species:S:1:pos:R:3 entry_id=19 rank=20 energy=-201.1517791748047 pbc="T T F"
Cu       0.00000000       0.00000000      10.00000000
Cu       3.61000000       0.00000000      10.00000000
Cu       7.22000000       0.00000000      10.00000000
Cu      10.83000000       0.00000000      10.00000000
Cu      14.44000000       0.00000000      10.00000000
Cu      18.05000000       0.00000000      10.00000000
Cu       0.00000000       2.55265548      10.00000000
Cu       3.61000000       2.55265548      10.00000000
Cu       7.22000000       2.55265548      10.00000000
Cu      10.83000000       2.55265548      10.00000000
Cu      14.44000000       2.55265548      10.00000000
Cu      18.05000000       2.55265548      10.00000000
Cu       1.80500000       1.27632774      11.27632774
Cu       5.41500000       1.27632774      11.27632774
Cu       9.02500000       1.27632774      11.27632774
Cu      12.63500000       1.27632774      11.27632774
Cu      16.24500000       1.27632774      11.27632774
Cu      19.85500000       1.27632774      11.27632774
Cu       1.80500000       3.82898322      11.27632774
Cu       5.41500000       3.82898322      11.27632774
Cu       9.02500000       3.82898322      11.27632774
Cu      12.63500000       3.82898322      11.27632774
Cu      16.24500000       3.82898322      11.27632774
Cu      19.85500000       3.82898322      11.27632774
Cu      21.65529469       0.03603487      12.47667457
Cu       3.50002495       0.09416967      12.61347541
Cu       4.08812608       1.47474216      14.91607951
Cu      10.85068539       5.05091627      12.62020846
Cu      13.93830193       1.99940220      13.42696449
Cu      18.05021051       0.00521641      12.44223928
Cu      21.60376886       2.62160599      12.52821540
Cu       3.56143489       2.59643857      12.55144703
Cu       7.20107605       2.43033576      12.61050228
Cu      10.86064141       2.58874221      12.59437631
Cu      16.78254133       3.79259585      14.22375970
Cu      18.11160618       2.53447565      12.50314097
Cu       4.45770319       4.03734031      14.68304833
Cu       7.22147347       5.07804417      12.66545847
Cu      19.91001457       1.30966572      13.84777471
Cu       9.05868315       3.74092504      13.88222286
Cu       6.89705600       1.33410319      15.03733662
Cu       1.63508539       1.45760906      13.99463186
Cu       1.50813557       4.02991328      14.18120988
Cu       9.10651954       1.10276866      13.82767103
Cu      19.79158094       3.82883448      13.83382386
Cu      16.83075061       1.24080826      14.28003111
O        5.41278169       0.36383828      15.45621238
O        0.13902925       0.25745693      14.45704371
O       18.19162103       5.04386097      14.56486904
O       12.21834590       1.30477331      13.21294879
O        8.41827622       2.37633572      15.02669173
O        5.86771750       3.73531472      13.19223417
O       15.47784165       2.49676749      14.29751422
O        2.85359318       2.86304326      14.85936457
54
Lattice="21.66 0.0 0.0 0.0 5.10531 0.0 0.0 0.0 22.55266" Properties=species:S:1:pos:R:3 entry_id=26 rank=21 energy=-201.15097045898438 pbc="T T F"
Cu       0.00000000       0.00000000      10.00000000
Cu       3.61000000       0.00000000      10.00000000
Cu       7.22000000       0.00000000      10.00000000
Cu      10.83000000       0.00000000      10.00000000
Cu      14.44000000       0.00000000      10.00000000
Cu      18.05000000       0.00000000      10.00000000
Cu       0.00000000       2.55265548      10.00000000
Cu       3.61000000       2.55265548      10.00000000
Cu       7.22000000       2.55265548      10.00000000
Cu      10.83000000       2.55265548      10.00000000
Cu      14.44000000       2.55265548      10.00000000
Cu      18.05000000       2.55265548      10.00000000
Cu       1.80500000       1.27632774      11.27632774
Cu       5.41500000       1.27632774      11.27632774
Cu       9.02500000       1.27632774      11.27632774
Cu      12.63500000       1.27632774      11.27632774
Cu      16.24500000       1.27632774      11.27632774
Cu      19.85500000       1.27632774      11.27632774
Cu       1.80500000       3.82898322      11.27632774
Cu       5.41500000       3.82898322      11.27632774
Cu       9.02500000       3.82898322      11.27632774
Cu      12.63500000       3.82898322      11.27632774
Cu      16.24500000       3.82898322      11.27632774
Cu      19.85500000       3.82898322      11.27632774
Cu       0.00980797       0.00831613      12.47705517
Cu       0.90388731       1.29667620      14.49824988
Cu       5.33585628       1.37438285      14.10948741
Cu      12.59227369       1.02235099      13.86035948
Cu      12.63823955       3.60424181      13.98788139
Cu      18.22920804       0.06160638      12.70375566
Cu       0.06609500       2.56051291      12.43178973
Cu       3.56917259       2.56443862      12.46566738
Cu       8.30417985       2.39672359      13.24608432
Cu      10.80791278       2.47332798      12.56598277
Cu      10.05352388       1.07130453      14.75418980
Cu      18.13895900       2.49770106      12.64446391
Cu       5.32856705       3.93041294      14.05653819
Cu       7.32219871       5.08817948      12.54089396
Cu      20.01920881       1.30783417      13.87337690
Cu      10.77020324       5.01828809      12.50102703
Cu       7.70166624       3.86202512      15.08135105
Cu       0.91930075       3.81633735      14.49674205
Cu       3.45521953       0.02614725      12.73515432
Cu      10.20270401       3.59497382      14.92522605
Cu      20.04218365       3.85819276      13.86710810
Cu      15.42690613       2.85714028      13.40850069
O        6.66537125       0.12143957      14.40000126
O       21.21568447       2.55691352      14.94942725
O       16.91084371       3.88063357      13.22358721
O       11.51389671       4.91572385      14.91133289
O        8.82220737       2.39538790      15.33820643
O        4.04132184       2.64663213      14.29144179
O       13.90332818       2.25863317      14.10742445
O        2.19111562       0.01453848      14.26703694
54
Lattice="21.66 0.0 0.0 0.0 5.10531 0.0 0.0 0.0 22.55266" Properties=species:S:1:pos:R:3 entry_id=15 rank=22 energy=-201.13040161132812 pbc="T T F"
Cu       0.00000000       0.00000000      10.00000000
Cu       3.61000000       0.00000000      10.00000000
Cu       7.22000000       0.00000000      10.00000000
Cu      10.83000000       0.00000000      10.00000000
Cu      14.44000000       0.00000000      10.00000000
Cu      18.05000000       0.00000000      10.00000000
Cu       0.00000000       2.55265548      10.00000000
Cu       3.61000000       2.55265548      10.00000000
Cu       7.22000000       2.55265548      10.00000000
Cu      10.83000000       2.55265548      10.00000000
Cu      14.44000000       2.55265548      10.00000000
Cu      18.05000000       2.55265548      10.00000000
Cu       1.80500000       1.27632774      11.27632774
Cu       5.41500000       1.27632774      11.27632774
Cu       9.02500000       1.27632774      11.27632774
Cu      12.63500000       1.27632774      11.27632774
Cu      16.24500000       1.27632774      11.27632774
Cu      19.85500000       1.27632774      11.27632774
Cu       1.80500000       3.82898322      11.27632774
Cu       5.41500000       3.82898322      11.27632774
Cu       9.02500000       3.82898322      11.27632774
Cu      12.63500000       3.82898322      11.27632774
Cu      16.24500000       3.82898322      11.27632774
Cu      19.85500000       3.82898322      11.27632774
Cu       0.03540223       0.00016592      12.51066276
Cu       2.42708363       4.95116835      13.27678529
Cu       5.77807401       1.30601209      14.18302296
Cu      10.73649186       5.09901208      12.65256655
Cu      12.71715437       3.92368721      13.87314355
Cu      18.06549711       0.01106241      12.67208454
Cu       0.21192281       2.55130250      12.68012588
Cu       3.54045485       2.53948298      12.58095016
Cu       7.18014195       2.55463122      12.45038571
Cu      10.72582013       2.54702693      12.66612190
Cu      10.92456715       1.20837714      15.10392098
Cu      18.05181274       2.47575269      12.61345682
Cu       5.79916562       3.84829553      14.25031331
Cu       8.78585773       1.25248497      13.86249106
Cu      19.93599182       1.29331509      13.80997647
Cu       7.21019241       5.09283314      12.44245329
Cu       8.79739516       3.79237656      13.89504125
Cu       0.66436350       3.96876865      14.84968982
Cu       3.18678178       1.35176968      14.99124030
Cu      10.78137565       3.74122942      15.39034044
Cu      19.88608434       3.96121112      13.80274998
Cu      15.08148345       2.95608164      13.14560725
O        7.12700116       0.03089091      14.56142053
O       21.00859744       2.66243789      14.63568776
O       16.74841617       3.74719483      13.29687683
O       12.16757690       4.97326211      15.28848952
O        9.48424347       2.42525562      15.35254020
O        4.41304658       2.60403432      14.37623753
O       13.32230387       2.53681759      12.78526920
O        2.14031447       4.98682526      15.19835710
54
Lattice="21.66 0.0 0.0 0.0 5.10531 0.0 0.0 0.0 22.55266" Properties=species:S:1:pos:R:3 entry_id=11 rank=23 energy=-201.07427978515625 pbc="T T F"
Cu       0.00000000       0.00000000      10.00000000
Cu       3.61000000       0.00000000      10.00000000
Cu       7.22000000       0.00000000      10.00000000
Cu      10.83000000       0.00000000      10.00000000
Cu      14.44000000       0.00000000      10.00000000
Cu      18.05000000       0.00000000      10.00000000
Cu       0.00000000       2.55265548      10.00000000
Cu       3.61000000       2.55265548      10.00000000
Cu       7.22000000       2.55265548      10.00000000
Cu      10.83000000       2.55265548      10.00000000
Cu      14.44000000       2.55265548      10.00000000
Cu      18.05000000       2.55265548      10.00000000
Cu       1.80500000       1.27632774      11.27632774
Cu       5.41500000       1.27632774      11.27632774
Cu       9.02500000       1.27632774      11.27632774
Cu      12.63500000       1.27632774      11.27632774
Cu      16.24500000       1.27632774      11.27632774
Cu      19.85500000       1.27632774      11.27632774
Cu       1.80500000       3.82898322      11.27632774
Cu       5.41500000       3.82898322      11.27632774
Cu       9.02500000       3.82898322      11.27632774
Cu      12.63500000       3.82898322      11.27632774
Cu      16.24500000       3.82898322      11.27632774
Cu      19.85500000       3.82898322      11.27632774
Cu       0.09427557       0.05785956      12.55986692
Cu       3.51573599       0.07938594      12.54759476
Cu       5.15136207       1.37361548      13.95951640
Cu      10.79176770       4.99012634      12.59241015
Cu      13.69004269       2.05816956      13.46020510
Cu      18.06850063       0.00727189      12.46431640
Cu       0.00735071       2.58675016      12.54414952
Cu       3.52116926       2.64539925      12.51884722
Cu       7.21914472       2.50562150      12.56746946
Cu      10.80750549       2.56771469      12.59267207
Cu      16.52485813       3.88256327      14.08138047
Cu      18.10315749       2.55045997      12.53315879
Cu       4.00676926       4.23284695      14.89446427
Cu       7.21344934       5.09454230      12.62069864
Cu      19.89365932       1.28925639      13.84067786
Cu       8.95413348       3.68115867      13.96518420
Cu       7.10898125       1.03524041      15.27090228
Cu       1.88721152       1.45241815      13.91045072
Cu       1.04245916       4.09811419      14.59625743
Cu       9.09797871       1.06734906      13.81924718
Cu      19.85464299       3.73770472      13.82415212
Cu      16.52434418       1.34317794      14.12273737
O        5.42711562       0.21357785      15.38211722
O       21.07827956       5.01454273      14.61646437
O       17.83185316       0.05729693      14.43798577
O       12.07454348       1.22305628      13.22262515
O        8.52586938       2.24592125      15.16397056
O        5.38481743       3.10848488      13.20240769
O       15.22014232       2.62675753      14.24411542
O        2.54323812       3.05936332      14.81968814
54
Lattice="21.66 0.0 0.0 0.0 5.10531 0.0 0.0 0.0 22.55266" Properties=species:S:1:pos:R:3 entry_id=2 rank=24 energy=-201.0426025390625 pbc="T T F"
Cu       0.00000000       0.00000000      10.00000000
Cu       3.61000000       0.00000000      10.00000000
Cu       7.22000000       0.00000000      10.00000000
Cu      10.83000000       0.00000000      10.00000000
Cu      14.44000000       0.00000000      10.00000000
Cu      18.05000000       0.00000000      10.00000000
Cu       0.00000000       2.55265548      10.00000000
Cu       3.61000000       2.55265548      10.00000000
Cu       7.22000000       2.55265548      10.00000000
Cu      10.83000000       2.55265548      10.00000000
Cu      14.44000000       2.55265548      10.00000000
Cu      18.05000000       2.55265548      10.00000000
Cu       1.80500000       1.27632774      11.27632774
Cu       5.41500000       1.27632774      11.27632774
Cu       9.02500000       1.27632774      11.27632774
Cu      12.63500000       1.27632774      11.27632774
Cu      16.24500000       1.27632774      11.27632774
Cu      19.85500000       1.27632774      11.27632774
Cu       1.80500000       3.82898322      11.27632774
Cu       5.41500000       3.82898322      11.27632774
Cu       9.02500000       3.82898322      11.27632774
Cu      12.63500000       3.82898322      11.27632774
Cu      16.24500000       3.82898322      11.27632774
Cu      19.85500000       3.82898322      11.27632774
Cu      21.62448815       0.00138365      12.51538641
Cu       3.55499547       0.01661433      12.62308371
Cu       5.66544989       1.03053229      13.98759604
Cu      10.81838080       4.95834429      12.51139124
Cu      13.41568542       5.09445342      13.55239245
Cu      18.04200095       0.05473934      12.41600037
Cu      21.59287444       2.55931569      12.58953671
Cu       3.48026297       2.55688455      12.57188281
Cu       7.37561746       2.61957067      12.54097871
Cu      10.87549511       2.39656139      12.63868713
Cu      14.44995303       2.62060532      12.55107754
Cu      17.99926819       2.56663741      12.51368887
Cu       4.34972514       3.90814969      14.79539878
Cu       8.66500054       0.89736689      13.62440128
Cu      19.73398686       1.24294678      13.84106696
Cu       9.14746317       3.46566240      13.95424880
Cu       7.50839875       4.71232808      15.44658046
Cu       1.67019844       1.39319466      14.11809488
Cu       1.58884387       3.96541457      14.20824973
Cu      10.66197139       0.25312811      14.92661816
Cu      19.75154548       3.70436955      13.81921248
Cu      16.56486229       4.33858240      14.08921493
O        5.71153398       4.97403923      15.40083378
O        0.27922721       0.17003643      14.44677023
O       18.35878942       4.93118148      14.41092471
O       11.94229826       1.10644647      13.86522276
O        9.29909638       4.37199688      15.66586169
O        5.51531298       2.60097527      12.98532678
O       14.78967671       3.90151606      13.90751882
O        2.91520254       2.71666429      14.61081290
54
Lattice="21.66 0.0 0.0 0.0 5.10531 0.0 0.0 0.0 22.55266" Properties=species:S:1:pos:R:3 entry_id=3 rank=25 energy=-200.9873046875 pbc="T T F"
Cu       0.00000000       0.00000000      10.00000000
Cu       3.61000000       0.00000000      10.00000000
Cu       7.22000000       0.00000000      10.00000000
Cu      10.83000000       0.00000000      10.00000000
Cu      14.44000000       0.00000000      10.00000000
Cu      18.05000000       0.00000000      10.00000000
Cu       0.00000000       2.55265548      10.00000000
Cu       3.61000000       2.55265548      10.00000000
Cu       7.22000000       2.55265548      10.00000000
Cu      10.83000000       2.55265548      10.00000000
Cu      14.44000000       2.55265548      10.00000000
Cu      18.05000000       2.55265548      10.00000000
Cu       1.80500000       1.27632774      11.27632774
Cu       5.41500000       1.27632774      11.27632774
Cu       9.02500000       1.27632774      11.27632774
Cu      12.63500000       1.27632774      11.27632774
Cu      16.24500000       1.27632774      11.27632774
Cu      19.85500000       1.27632774      11.27632774
Cu       1.80500000       3.82898322      11.27632774
Cu       5.41500000       3.82898322      11.27632774
Cu       9.02500000       3.82898322      11.27632774
Cu      12.63500000       3.82898322      11.27632774
Cu      16.24500000       3.82898322      11.27632774
Cu      19.85500000       3.82898322      11.27632774
Cu      21.63850477       5.06332052      12.49278185
Cu       3.51766620       5.09669066      12.62984669
Cu       4.23038284       1.20448146      14.84099035
Cu      10.84462161       5.03174838      12.45501252
Cu      13.58115232       0.01233311      13.50009939
Cu      18.04751879       0.05095777      12.41733249
Cu      21.59900821       2.48919040      12.56779836
Cu       3.44902769       2.55355527      12.60111645
Cu       7.36553885       2.61943335      12.55606651
Cu      10.88673114       2.49965956      12.65347064
Cu      14.45684263       2.58416956      12.56320775
Cu      18.01804758       2.57383007      12.52039570
Cu       5.44374906       4.03769120      14.04169717
Cu       8.92752759       1.30882079      13.74899010
Cu      19.73983893       1.22691604      13.83564757
Cu       9.09783171       3.80190669      13.86443159
Cu       7.39600052       0.15978253      15.33442164
Cu       1.49379395       1.15251263      14.25420078
Cu       1.57948411       3.73096636      14.12014298
Cu      10.96178825       0.59251683      14.78556878
Cu      19.81750116       3.68629108      13.82930047
Cu      16.61657609       4.29835264      14.10898488
O        5.57941198       0.12403550      15.42823466
O        0.16573444       4.95311872      14.46070148
O       18.39761673       4.90975049      14.40826753
O       12.30385169       1.34926881      13.75408237
O        9.25671257       5.09813194      15.32759279
O        5.49610305       2.51262558      12.96759213
O       14.85343531       3.84165846      13.92626406
O        2.81767974       2.40828758      14.64181540
54
Lattice="21.66 0.0 0.0 0.0 5.10531 0.0 0.0 0.0 22.55266" Properties=species:S:1:pos:R:3 entry_id=4 rank=26 energy=-200.97781372070312 pbc="T T F"
Cu       0.00000000       0.00000000      10.00000000
Cu       3.61000000       0.00000000      10.00000000
Cu       7.22000000       0.00000000      10.00000000
Cu      10.83000000       0.00000000      10.00000000
Cu      14.44000000       0.00000000      10.00000000
Cu      18.05000000       0.00000000      10.00000000
Cu       0.00000000       2.55265548      10.00000000
Cu       3.61000000       2.55265548      10.00000000
Cu       7.22000000       2.55265548      10.00000000
Cu      10.83000000       2.55265548      10.00000000
Cu      14.44000000       2.55265548      10.00000000
Cu      18.05000000       2.55265548      10.00000000
Cu       1.80500000       1.27632774      11.27632774
Cu       5.41500000       1.27632774      11.27632774
Cu       9.02500000       1.27632774      11.27632774
Cu      12.63500000       1.27632774      11.27632774
Cu      16.24500000       1.27632774      11.27632774
Cu      19.85500000       1.27632774      11.27632774
Cu       1.80500000       3.82898322      11.27632774
Cu       5.41500000       3.82898322      11.27632774
Cu       9.02500000       3.82898322      11.27632774
Cu      12.63500000       3.82898322      11.27632774
Cu      16.24500000       3.82898322      11.27632774
Cu      19.85500000       3.82898322      11.27632774
Cu       0.00302757       0.00866441      12.46182328
Cu       3.57376119       0.04276760      12.63954929
Cu       6.09994934       1.70822398      14.53343023
Cu      10.74392563       5.00979898      12.47515119
Cu      13.12460396       5.10092468      13.59222918
Cu      18.15109581       0.06563955      12.63633901
Cu       0.03316722       2.58784466      12.41361329
Cu       3.49697478       2.56619336      12.60020659
Cu       7.26003254       2.53370995      12.46694979
Cu      10.88723744       2.48534765      12.62413857
Cu      14.38809253       2.58333200      12.51635527
Cu      18.05864393       2.52292036      12.59239691
Cu       5.86871773       4.32784368      14.46529784
Cu       8.21234535       0.29734001      13.35842904
Cu      20.07554502       1.32900080      13.81221403
Cu       8.96159432       2.98045410      14.08612613
Cu       8.02567051       4.73367943      15.79309808
Cu       1.34284602       3.86108963      14.23300739
Cu       1.37667561       1.32182823      14.19856403
Cu      10.56748265       5.05003498      14.89172723
Cu      20.01885840       3.88871572      13.89589799
Cu      16.22307791       3.94387638      13.85271700
O        6.37774060       0.41554600      15.79867595
O       21.60900965       2.57532899      14.58400416
O       18.04710486       3.79370801      14.13326253
O       11.65302496       1.11062156      13.90325675
O        9.57797570       3.77513263      15.74025397
O        5.34965211       2.95497753      13.32779339
O       14.41430461       3.84895118      13.92898323
O        2.68739361       0.02219961      14.35465795
54
Lattice="21.66 0.0 0.0 0.0 5.10531 0.0 0.0 0.0 22.55266" Properties=species:S:1:pos:R:3 entry_id=35 rank=27 energy=-200.8863525390625 pbc="T T F"
Cu       0.00000000       0.00000000      10.00000000
Cu       3.61000000       0.00000000      10.00000000
Cu       7.22000000       0.00000000      10.00000000
Cu      10.83000000       0.00000000      10.00000000
Cu      14.44000000       0.00000000      10.00000000
Cu      18.05000000       0.00000000      10.00000000
Cu       0.00000000       2.55265548      10.00000000
Cu       3.61000000       2.55265548      10.00000000
Cu       7.22000000       2.55265548      10.00000000
Cu      10.83000000       2.55265548      10.00000000
Cu      14.44000000       2.55265548      10.00000000
Cu      18.05000000       2.55265548      10.00000000
Cu       1.80500000       1.27632774      11.27632774
Cu       5.41500000       1.27632774      11.27632774
Cu       9.02500000       1.27632774      11.27632774
Cu      12.63500000       1.27632774      11.27632774
Cu      16.24500000       1.27632774      11.27632774
Cu      19.85500000       1.27632774      11.27632774
Cu       1.80500000       3.82898322      11.27632774
Cu       5.41500000       3.82898322      11.27632774
Cu       9.02500000       3.82898322      11.27632774
Cu      12.63500000       3.82898322      11.27632774
Cu      16.24500000       3.82898322      11.27632774
Cu      19.85500000       3.82898322      11.27632774
Cu      21.58365740       5.10189768      12.50082684
Cu       1.39941205       1.15475943      14.16909966
Cu       5.49371567       1.21589230      13.84842801
Cu      11.06289651       1.17236774      15.06493977
Cu      13.43580283       3.48232226      14.53193860
Cu      18.07484634       0.05566032      12.49425782
Cu      21.63871708       2.56856397      12.40485973
Cu       3.57994397       2.52958240      12.57862061
Cu       7.26712769       2.55445154      12.53713907
Cu      10.89716688       2.49536384      12.63240968
Cu       8.93526399       1.14229067      13.84439069
Cu      16.45699950       1.73050890      13.83325448
Cu       5.33433081       3.88301713      13.76975563
Cu       7.24280846       5.07268425      12.44744495
Cu      19.89501501       1.69357320      13.93414255
Cu      10.84175375       5.07262661      12.58245527
Cu       8.26861411       3.61361990      14.79382186
Cu       1.37020253       3.69766157      14.13948610
Cu       3.56715217       0.01444306      12.67948839
Cu      10.86928141       3.72241866      14.99655615
Cu      13.11873368       0.84766029      13.64365601
Cu      14.45817615       2.58101425      12.39503621
O        7.36450664       0.10454267      14.40136491
O       21.65174750       2.38389286      14.41367268
O       14.65070585       2.07791483      14.24494053
O       12.35078069       4.88026898      15.18983594
O        9.62598135       2.37663665      15.36542190
O        6.52817272       2.66144869      14.52910030
O       18.16079282       1.08167383      14.06501016
O        2.66206816       4.96589523      14.43159672
54
Lattice="21.66 0.0 0.0 0.0 5.10531 0.0 0.0 0.0 22.55266" Properties=species:S:1:pos:R:3 entry_id=14 rank=28 energy=-200.8072509765625 pbc="T T F"
Cu       0.00000000       0.00000000      10.00000000
Cu       3.61000000       0.00000000      10.00000000
Cu       7.22000000       0.00000000      10.00000000
Cu      10.83000000       0.00000000      10.00000000
Cu      14.44000000       0.00000000      10.00000000
Cu      18.05000000       0.00000000      10.00000000
Cu       0.00000000       2.55265548      10.00000000
Cu       3.61000000       2.55265548      10.00000000
Cu       7.22000000       2.55265548      10.00000000
Cu      10.83000000       2.55265548      10.00000000
Cu      14.44000000       2.55265548      10.00000000
Cu      18.05000000       2.55265548      10.00000000
Cu       1.80500000       1.27632774      11.27632774
Cu       5.41500000       1.27632774      11.27632774
Cu       9.02500000       1.27632774      11.27632774
Cu      12.63500000       1.27632774      11.27632774
Cu      16.24500000       1.27632774      11.27632774
Cu      19.85500000       1.27632774      11.27632774
Cu       1.80500000       3.82898322      11.27632774
Cu       5.41500000       3.82898322      11.27632774
Cu       9.02500000       3.82898322      11.27632774
Cu      12.63500000       3.82898322      11.27632774
Cu      16.24500000       3.82898322      11.27632774
Cu      19.85500000       3.82898322      11.27632774
Cu      21.59448855       0.03236334      12.58657082
Cu       1.83192246       4.29232762      14.02911177
Cu       5.55978496       1.19024769      13.81328162
Cu      10.83682790       5.02748550      12.52570554
Cu      12.74825620       3.34755954      13.74451510
Cu      18.08201022       0.04522515      12.60587401
Cu      21.63131321       2.55187217      12.58335094
Cu       3.78187105       2.37010156      12.63052655
Cu       7.28041768       2.50079509      12.50191695
Cu      10.73618635       2.46565642      12.53407922
Cu      14.37553522       0.15779001      12.61652995
Cu      18.04421338       2.51166329      12.57525905
Cu       5.43861139       3.59082858      13.78802164
Cu      10.28593675       1.05794823      14.68973873
Cu      19.78464536       1.30440754      13.87711591
Cu       7.37546196       5.04480650      12.63155669
Cu       7.81935659       3.50389601      14.79954017
Cu      21.58741362       4.00644624      15.56949162
Cu       0.10300988       1.45245800      15.30770211
Cu      10.38862795       3.57042163      14.85263036
Cu      19.81763824       3.86732455      13.83600728
Cu      15.29944682       2.80003977      13.33831176
O        6.55312504       4.87851121      14.60290012
O       20.30243663       2.64597088      15.34419803
O       16.81198592       3.84182613      13.32797019
O       11.65199862       4.82967310      14.39905418
O        9.13745405       2.34488341      15.37636661
O        1.96759383       2.74772109      13.00280401
O       13.80306413       1.78983385      13.56328162
O        1.34340355       0.13389236      15.54253238
54
Lattice="21.66 0.0 0.0 0.0 5.10531 0.0 0.0 0.0 22.55266" Properties=species:S:1:pos:R:3 entry_id=12 rank=29 energy=-200.75186157226562 pbc="T T F"
Cu       0.00000000       0.00000000      10.00000000
Cu       3.61000000       0.00000000      10.00000000
Cu       7.22000000       0.00000000      10.00000000
Cu      10.83000000       0.00000000      10.00000000
Cu      14.44000000       0.00000000      10.00000000
Cu      18.05000000       0.00000000      10.00000000
Cu       0.00000000       2.55265548      10.00000000
Cu       3.61000000       2.55265548      10.00000000
Cu       7.22000000       2.55265548      10.00000000
Cu      10.83000000       2.55265548      10.00000000
Cu      14.44000000       2.55265548      10.00000000
Cu      18.05000000       2.55265548      10.00000000
Cu       1.80500000       1.27632774      11.27632774
Cu       5.41500000       1.27632774      11.27632774
Cu       9.02500000       1.27632774      11.27632774
Cu      12.63500000       1.27632774      11.27632774
Cu      16.24500000       1.27632774      11.27632774
Cu      19.85500000       1.27632774      11.27632774
Cu       1.80500000       3.82898322      11.27632774
Cu       5.41500000       3.82898322      11.27632774
Cu       9.02500000       3.82898322      11.27632774
Cu      12.63500000       3.82898322      11.27632774
Cu      16.24500000       3.82898322      11.27632774
Cu      19.85500000       3.82898322      11.27632774
Cu      21.62392880       0.00628137      12.56199314
Cu       3.57560053       0.11719167      12.55117851
Cu       5.27770151       1.62086769      13.87846417
Cu      10.85700032       5.04329024      12.60495853
Cu      13.81790824       2.22602846      13.46202109
Cu      18.00802711       0.01324311      12.45874580
Cu      21.60188472       2.56297585      12.61336684
Cu       3.52910869       2.64411100      12.48278787
Cu       7.31109743       2.42331483      12.56125314
Cu      10.84247116       2.58959055      12.58854720
Cu      16.81612895       3.92052590      14.26767322
Cu      18.05631971       2.54772186      12.46479250
Cu       4.48590728       4.26668988      14.80189706
Cu       7.18871004       5.04054521      12.74344667
Cu      19.73246580       1.24673609      13.84454599
Cu       9.06221887       3.70647490      13.96109772
Cu       7.19374593       1.27759936      15.32547611
Cu       1.86707920       1.50750276      14.13690609
Cu       1.80581365       4.05623319      14.13000640
Cu       9.14180209       1.08382309      13.83583547
Cu      19.75939453       3.71482020      13.83137964
Cu      16.33561331       1.31287796      13.77906073
O        5.51233887       0.54744477      15.44113613
O        0.51672179       0.25576697      14.41819322
O       18.41123319       4.94527151      14.53777583
O       12.20309944       1.32160237      13.21681297
O        8.72125862       2.30705212      15.21030971
O        5.83675102       3.52733974      13.25376182
O       15.34125000       2.81087743      14.33090873
O        3.19443373       2.84652309      14.51165636
54
Lattice="21.66 0.0 0.0 0.0 5.10531 0.0 0.0 0.0 22.55266" Properties=species:S:1:pos:R:3 entry_id=17 rank=30 energy=-200.568115234375 pbc="T T F"
Cu       0.00000000       0.00000000      10.00000000
Cu       3.61000000       0.00000000      10.00000000
Cu       7.22000000       0.00000000      10.00000000
Cu      10.83000000       0.00000000      10.00000000
Cu      14.44000000       0.00000000      10.00000000
Cu      18.05000000       0.00000000      10.00000000
Cu       0.00000000       2.55265548      10.00000000
Cu       3.61000000       2.55265548      10.00000000
Cu       7.22000000       2.55265548      10.00000000
Cu      10.83000000       2.55265548      10.00000000
Cu      14.44000000       2.55265548      10.00000000
Cu      18.05000000       2.55265548      10.00000000
Cu       1.80500000       1.27632774      11.27632774
Cu       5.41500000       1.27632774      11.27632774
Cu       9.02500000       1.27632774      11.27632774
Cu      12.63500000       1.27632774      11.27632774
Cu      16.24500000       1.27632774      11.27632774
Cu      19.85500000       1.27632774      11.27632774
Cu       1.80500000       3.82898322      11.27632774
Cu       5.41500000       3.82898322      11.27632774
Cu       9.02500000       3.82898322      11.27632774
Cu      12.63500000       3.82898322      11.27632774
Cu      16.24500000       3.82898322      11.27632774
Cu      19.85500000       3.82898322      11.27632774
Cu      21.65674211       0.00530514      12.46501068
Cu       1.58201346       1.32511045      13.78466308
Cu       6.09983198       0.78215415      14.00740956
Cu      13.01195007       0.07097174      13.92483402
Cu      12.89532541       2.70541935      13.88545675
Cu      18.09393425       0.03787094      12.68065921
Cu       0.04443714       2.60134955      12.47683154
Cu       3.60036550       2.40555633      12.60410309
Cu       7.22572080       2.48716532      12.42587590
Cu      10.75943698       2.59265800      12.53179045
Cu      10.74630855       0.10497557      15.18915315
Cu      18.08562063       2.50324693      12.61866487
Cu       5.69531111       3.29885184      14.17247512
Cu       8.91879183       1.41166720      13.80161702
Cu      19.96592473       1.32371480      13.83258269
Cu      10.80787844       0.03285679      12.53664609
Cu       8.90691598       3.97173615      13.74647745
Cu       0.83236926       3.83279976      14.60536103
Cu       3.62864578       0.85381593      14.97459663
Cu      10.70740559       2.71890545      15.21272518
Cu      19.90972277       3.97539468      13.83746648
Cu      15.42016237       2.52585115      13.26444946
O        6.99242578       4.40090187      13.40058859
O       21.00586190       2.68457805      14.72006049
O       16.75372185       3.79751289      13.27109646
O       12.18043238       3.95343925      15.15500310
O        9.50588507       1.38278936      15.62440500
O        5.10181496       1.88143811      15.14049152
O       13.94723756       1.40863190      13.05363684
O        2.02618012       0.02027509      15.08985357
54
Lattice="21.66 0.0 0.0 0.0 5.10531 0.0 0.0 0.0 22.55266" Properties=species:S:1:pos:R:3 entry_id=10 rank=31 energy=-200.44699096679688 pbc="T T F"
Cu       0.00000000       0.00000000      10.00000000
Cu       3.61000000       0.00000000      10.00000000
Cu       7.22000000       0.00000000      10.00000000
Cu      10.83000000       0.00000000      10.00000000
Cu      14.44000000       0.00000000      10.00000000
Cu      18.05000000       0.00000000      10.00000000
Cu       0.00000000       2.55265548      10.00000000
Cu       3.61000000       2.55265548      10.00000000
Cu       7.22000000       2.55265548      10.00000000
Cu      10.83000000       2.55265548      10.00000000
Cu      14.44000000       2.55265548      10.00000000
Cu      18.05000000       2.55265548      10.00000000
Cu       1.80500000       1.27632774      11.27632774
Cu       5.41500000       1.27632774      11.27632774
Cu       9.02500000       1.27632774      11.27632774
Cu      12.63500000       1.27632774      11.27632774
Cu      16.24500000       1.27632774      11.27632774
Cu      19.85500000       1.27632774      11.27632774
Cu       1.80500000       3.82898322      11.27632774
Cu       5.41500000       3.82898322      11.27632774
Cu       9.02500000       3.82898322      11.27632774
Cu      12.63500000       3.82898322      11.27632774
Cu      16.24500000       3.82898322      11.27632774
Cu      19.85500000       3.82898322      11.27632774
Cu       0.00258669       0.02221353      12.60006681
Cu       2.24978197       4.02202799      13.77420180
Cu       6.29636588       0.82805315      14.43437155
Cu      10.80919513       0.06546063      12.51477980
Cu      13.04784673       3.88520897      13.81910461
Cu      18.01432566       0.05699460      12.57106763
Cu       0.06913243       2.59222631      12.60397664
Cu       2.37171003       1.42208929      13.82875515
Cu       7.07182941       2.52079436      12.55046587
Cu      10.95230132       2.58657913      12.70421236
Cu      13.06959637       1.34415332      13.78672438
Cu      18.05208782       2.51201369      12.48198882
Cu       4.77054051       3.47194328      13.86377507
Cu       8.73441871       1.37249451      13.92975410
Cu      19.83964529       1.34128266      13.81951842
Cu       7.23855989       5.07133641      12.44723820
Cu       7.02252278       3.14422147      14.90306893
Cu       0.16123533       3.98957284      15.11970459
Cu       0.22903045       1.43421562      15.16487453
Cu       9.00608193       4.03647757      13.79182848
Cu      19.73668813       3.91078762      13.83812150
Cu      16.00459135       3.21622825      13.70333778
O        5.65126478       4.37472804      15.23876380
O       20.49495439       2.65697102      15.30189388
O       17.71201374       3.82144225      13.97646685
O       11.82166697       0.07318451      14.13656091
O       10.02396487       2.61521088      14.43048776
O        3.32754402       2.73905069      12.91101435
O       14.33738171       2.61810086      13.98112073
O        1.61650061       0.15764120      15.11098442
54
Lattice="21.66 0.0 0.0 0.0 5.10531 0.0 0.0 0.0 22.55266" Properties=species:S:1:pos:R:3 entry_id=28 rank=32 energy=-200.40963745117188 pbc="T T F"
Cu       0.00000000       0.00000000      10.00000000
Cu       3.61000000       0.00000000      10.00000000
Cu       7.22000000       0.00000000      10.00000000
Cu      10.83000000       0.00000000      10.00000000
Cu      14.44000000       0.00000000      10.00000000
Cu      18.05000000       0.00000000      10.00000000
Cu       0.00000000       2.55265548      10.00000000
Cu       3.61000000       2.55265548      10.00000000
Cu       7.22000000       2.55265548      10.00000000
Cu      10.83000000       2.55265548      10.00000000
Cu      14.44000000       2.55265548      10.00000000
Cu      18.05000000       2.55265548      10.00000000
Cu       1.80500000       1.27632774      11.27632774
Cu       5.41500000       1.27632774      11.27632774
Cu       9.02500000       1.27632774      11.27632774
Cu      12.63500000       1.27632774      11.27632774
Cu      16.24500000       1.27632774      11.27632774
Cu      19.85500000       1.27632774      11.27632774
Cu       1.80500000       3.82898322      11.27632774
Cu       5.41500000       3.82898322      11.27632774
Cu       9.02500000       3.82898322      11.27632774
Cu      12.63500000       3.82898322      11.27632774
Cu      16.24500000       3.82898322      11.27632774
Cu      19.85500000       3.82898322      11.27632774
Cu       0.04285725       5.09535954      12.67469612
Cu       1.96741317       1.17444760      13.81876246
Cu       5.39460746       1.21408025      14.08548622
Cu      13.02826848       2.34346388      13.51292272
Cu      15.46674494       2.54707466      13.26195348
Cu      17.83539878       5.09818519      12.72441444
Cu      21.63123418       2.53924456      12.60356260
Cu       3.64812761       2.53829431      12.48581642
Cu       7.21504544       2.52613047      12.59288466
Cu      10.82251645       2.54292529      12.47187987
Cu       9.23504466       1.28074195      13.96015793
Cu      18.00978762       2.51248325      12.51358529
Cu       5.33879898       3.76086914      14.14267321
Cu       7.18358732       5.09045731      12.55101257
Cu      19.66394075       1.31656916      13.80041033
Cu      11.76921786       0.02032448      13.28027031
Cu       7.95614102       3.67298966      14.77835577
Cu       1.95623948       3.89138902      13.81472637
Cu       3.65948162       5.08489295      12.51772940
Cu      10.85074222       3.13559868      14.92489288
Cu      19.68239544       3.70893186      13.79893860
Cu      14.38524452       0.31319843      12.78582403
O        6.68498821       5.01832357      14.54527321
O        0.81619028       2.53115709      14.36365454
O       15.98511479       4.39240341      13.26018112
O        9.72230873       5.04409937      12.75491815
O        9.19483347       2.47098176      15.37052719
O        4.05412292       2.45696902      14.42619472
O       12.50014893       3.83253534      14.55372273
O       20.73039223       5.07467334      14.42764000
54
Lattice="21.66 0.0 0.0 0.0 5.10531 0.0 0.0 0.0 22.55266" Properties=species:S:1:pos:R:3 entry_id=21 rank=33 energy=-200.35015869140625 pbc="T T F"
Cu       0.00000000       0.00000000      10.00000000
Cu       3.61000000       0.00000000      10.00000000
Cu       7.22000000       0.00000000      10.00000000
Cu      10.83000000       0.00000000      10.00000000
Cu      14.44000000       0.00000000      10.00000000
Cu      18.05000000       0.00000000      10.00000000
Cu       0.00000000       2.55265548      10.00000000
Cu       3.61000000       2.55265548      10.00000000
Cu       7.22000000       2.55265548      10.00000000
Cu      10.83000000       2.55265548      10.00000000
Cu      14.44000000       2.55265548      10.00000000
Cu      18.05000000       2.55265548      10.00000000
Cu       1.80500000       1.27632774      11.27632774
Cu       5.41500000       1.27632774      11.27632774
Cu       9.02500000       1.27632774      11.27632774
Cu      12.63500000       1.27632774      11.27632774
Cu      16.24500000       1.27632774      11.27632774
Cu      19.85500000       1.27632774      11.27632774
Cu       1.80500000       3.82898322      11.27632774
Cu       5.41500000       3.82898322      11.27632774
Cu       9.02500000       3.82898322      11.27632774
Cu      12.63500000       3.82898322      11.27632774
Cu      16.24500000       3.82898322      11.27632774
Cu      19.85500000       3.82898322      11.27632774
Cu       0.03924068       0.02021566      12.55034175
Cu       0.55756872       1.30210751      14.87002854
Cu       5.97742740       1.10806885      13.97429317
Cu      13.17701842       0.03293275      13.49100546
Cu      13.42279596       2.51242386      13.44933637
Cu      18.14041081       0.06296620      12.65149150
Cu       0.11565991       2.56946371      12.52689438
Cu       3.60037325       2.60490222      12.49475033
Cu       7.26543638       2.54678279      12.39067552
Cu      10.79428815       2.50854862      12.52476482
Cu      11.15427590       1.13636245      14.60642072
Cu      18.06895618       2.52410794      12.61266862
Cu       5.90028466       3.70060033      14.04644020
Cu       8.75371160       1.13478368      13.77482822
Cu      19.90214010       1.31686303      13.82103688
Cu      10.76675960       5.02781438      12.54622591
Cu       8.87249124       3.73153829      14.01394718
Cu       0.63930053       3.84672906      14.78484250
Cu       3.23079095       1.09320077      14.50815110
Cu      11.51270498       3.68671389      14.75714746
Cu      19.92286494       3.90063891      13.82533035
Cu      15.24892539       3.92755476      14.19348585
O        7.29832255       4.93321498      14.35456458
O       20.86010716       2.60286034      15.03142996
O       16.79912996       3.87498946      13.22673868
O       13.47039237       3.81137521      14.89536438
O        9.98515475       2.58058119      15.13482606
O        4.57180706       2.35701132      14.21057959
O       14.31234707       1.20384725      12.42997010
O        1.88314705       0.04477803      15.12442887
54
Lattice="21.66 0.0 0.0 0.0 5.10531 0.0 0.0 0.0 22.55266" Properties=species:S:1:pos:R:3 entry_id=20 rank=34 energy=-200.18484497070312 pbc="T T F"
Cu       0.00000000       0.00000000      10.00000000
Cu       3.61000000       0.00000000      10.00000000
Cu       7.22000000       0.00000000      10.00000000
Cu      10.83000000       0.00000000      10.00000000
Cu      14.44000000       0.00000000      10.00000000
Cu      18.05000000       0.00000000      10.00000000
Cu       0.00000000       2.55265548      10.00000000
Cu       3.61000000       2.55265548      10.00000000
Cu       7.22000000       2.55265548      10.00000000
Cu      10.83000000       2.55265548      10.00000000
Cu      14.44000000       2.55265548      10.00000000
Cu      18.05000000       2.55265548      10.00000000
Cu       1.80500000       1.27632774      11.27632774
Cu       5.41500000       1.27632774      11.27632774
Cu       9.02500000       1.27632774      11.27632774
Cu      12.63500000       1.27632774      11.27632774
Cu      16.24500000       1.27632774      11.27632774
Cu      19.85500000       1.27632774      11.27632774
Cu       1.80500000       3.82898322      11.27632774
Cu       5.41500000       3.82898322      11.27632774
Cu       9.02500000       3.82898322      11.27632774
Cu      12.63500000       3.82898322      11.27632774
Cu      16.24500000       3.82898322      11.27632774
Cu      19.85500000       3.82898322      11.27632774
Cu       0.06062638       0.07045218      12.52412228
Cu       3.64530151       0.11376736      12.55100356
Cu       4.23175485       1.64348893      14.86851580
Cu      10.77334963       5.04915398      12.62650015
Cu      13.18977115       2.70816114      13.46455389
Cu      18.06891313       5.08261735      12.53694034
Cu      21.63962197       2.60783955      12.58125215
Cu       1.81846054       4.03133929      13.78023026
Cu       7.14889593       2.11274751      12.73515883
Cu      10.75508421       2.59667256      12.56819711
Cu      15.62747382       0.06293184      13.52338639
Cu      18.14167529       2.60656310      12.56318104
Cu       4.11618338       4.22472641      14.95020302
Cu       6.13524034       5.04462154      13.56013175
Cu      19.84430293       1.39693901      13.87007622
Cu       9.05202730       3.80477814      13.91633750
Cu       6.96745280       1.57294605      15.26024412
Cu       1.89453060       1.44649535      13.81231991
Cu       0.11752158       0.20700896      14.96342767
Cu       9.11734848       1.16452863      13.93579111
Cu      19.85649024       3.87626342      13.89614243
Cu      15.76996238       2.64069271      13.64321175
O        5.50731086       0.37952224      15.36041236
O       19.95021859       0.08704840      15.25220917
O       17.03669052       1.29180954      13.68914480
O       12.07885118       1.27488682      13.20368903
O        8.53338206       2.49269482      15.18019241
O        7.06546703       3.99740587      12.34750313
O       14.45217028       3.87405668      14.03437941
O        2.83419134       2.84699727      14.91736799
54
Lattice="21.66 0.0 0.0 0.0 5.10531 0.0 0.0 0.0 22.55266" Properties=species:S:1:pos:R:3 entry_id=18 rank=35 energy=-199.92616271972656 pbc="T T F"
Cu       0.00000000       0.00000000      10.00000000
Cu       3.61000000       0.00000000      10.00000000
Cu       7.22000000       0.00000000      10.00000000
Cu      10.83000000       0.00000000      10.00000000
Cu      14.44000000       0.00000000      10.00000000
Cu      18.05000000       0.00000000      10.00000000
Cu       0.00000000       2.55265548      10.00000000
Cu       3.61000000       2.55265548      10.00000000
Cu       7.22000000       2.55265548      10.00000000
Cu      10.83000000       2.55265548      10.00000000
Cu      14.44000000       2.55265548      10.00000000
Cu      18.05000000       2.55265548      10.00000000
Cu       1.80500000       1.27632774      11.27632774
Cu       5.41500000       1.27632774      11.27632774
Cu       9.02500000       1.27632774      11.27632774
Cu      12.63500000       1.27632774      11.27632774
Cu      16.24500000       1.27632774      11.27632774
Cu      19.85500000       1.27632774      11.27632774
Cu       1.80500000       3.82898322      11.27632774
Cu       5.41500000       3.82898322      11.27632774
Cu       9.02500000       3.82898322      11.27632774
Cu      12.63500000       3.82898322      11.27632774
Cu      16.24500000       3.82898322      11.27632774
Cu      19.85500000       3.82898322      11.27632774
Cu      21.62050224       5.09201675      12.52920600
Cu       2.81914773       0.69774100      13.85534358
Cu       5.46585084       0.96317301      14.00427957
Cu      10.82839285       5.03390235      12.52689224
Cu      12.81647945       3.32110383      13.93141428
Cu      18.06343344       0.00547885      12.58690243
Cu      21.63439120       2.47846091      12.44867314
Cu       3.56362283       2.67938912      12.47612248
Cu       7.21666752       2.45733851      12.51757544
Cu      10.79083472       2.46915485      12.56051089
Cu      14.26833941       0.63004744      13.12037541
Cu      18.03121803       2.57369536      12.54235663
Cu       5.35241593       3.45592483      14.08301691
Cu      10.36858038       1.05630390      14.73349834
Cu      19.75624071       1.32876181      13.83848327
Cu       7.29778269       5.01922804      12.56440405
Cu       7.93976810       3.38538333      14.73826419
Cu       0.70690238       3.61798755      14.48620303
Cu       0.39729087       1.09280688      14.70673843
Cu      10.47326184       3.57396839      14.89497235
Cu      19.83846979       3.87691864      13.88314395
Cu      15.69992568       2.70518410      13.33130564
O        6.67656574       4.72916177      14.48832213
O       20.88004522       2.61600874      15.09948085
O       14.44897666       4.12829778      12.26232127
O       11.69069763       4.85500510      14.36374694
O        9.24992133       2.32377591      15.45470017
O        2.13693482       4.16306116      13.42590225
O       14.15081334       2.06325682      14.23248423
O        4.00624185       2.10986008      14.33341665
54
Lattice="21.66 0.0 0.0 0.0 5.10531 0.0 0.0 0.0 22.55266" Properties=species:S:1:pos:R:3 entry_id=1 rank=36 energy=-199.8289337158203 pbc="T T F"
Cu       0.00000000       0.00000000      10.00000000
Cu       3.61000000       0.00000000      10.00000000
Cu       7.22000000       0.00000000      10.00000000
Cu      10.83000000       0.00000000      10.00000000
Cu      14.44000000       0.00000000      10.00000000
Cu      18.05000000       0.00000000      10.00000000
Cu       0.00000000       2.55265548      10.00000000
Cu       3.61000000       2.55265548      10.00000000
Cu       7.22000000       2.55265548      10.00000000
Cu      10.83000000       2.55265548      10.00000000
Cu      14.44000000       2.55265548      10.00000000
Cu      18.05000000       2.55265548      10.00000000
Cu       1.80500000       1.27632774      11.27632774
Cu       5.41500000       1.27632774      11.27632774
Cu       9.02500000       1.27632774      11.27632774
Cu      12.63500000       1.27632774      11.27632774
Cu      16.24500000       1.27632774      11.27632774
Cu      19.85500000       1.27632774      11.27632774
Cu       1.80500000       3.82898322      11.27632774
Cu       5.41500000       3.82898322      11.27632774
Cu       9.02500000       3.82898322      11.27632774
Cu      12.63500000       3.82898322      11.27632774
Cu      16.24500000       3.82898322      11.27632774
Cu      19.85500000       3.82898322      11.27632774
Cu      21.59786043       5.08413892      12.54174009
Cu       3.68778425       5.09285425      12.64388862
Cu       6.10926472       4.85308215      13.51545726
Cu      10.85112572       5.03475145      12.44267257
Cu      14.43386909       0.02060354      12.60735260
Cu      18.04328217       0.05057781      12.43808986
Cu      21.58817902       2.48506366      12.57162269
Cu       3.52106648       2.62348973      12.54469694
Cu       7.27059549       2.73146185      12.46847834
Cu      10.70201526       2.56755564      12.69680217
Cu      14.48666946       2.52299212      12.60827319
Cu      18.02318785       2.56750696      12.51415199
Cu       4.97399414       2.66391207      14.66319545
Cu       8.34914203       1.51563558      14.37501894
Cu      19.73994737       1.22234134      13.85610981
Cu       9.00065630       4.06020619      13.75816284
Cu       7.59439928       4.50240414      15.65818854
Cu       1.81244141       1.16920382      14.09584641
Cu       1.64610127       3.73670168      13.83247219
Cu      10.68669691       0.75905319      14.70211983
Cu      19.80207169       3.67391441      13.82820216
Cu      16.70334579       4.23285645      14.17691749
O        5.86869048       4.09158346      15.34918454
O        0.39819776       5.10377185      14.45802069
O       18.45161926       4.91020361      14.46606652
O       11.96035939       1.26572285      13.43759884
O        9.22497328       0.26714476      15.69050010
O        6.50185785       1.64379111      13.83122763
O       14.94114787       3.82445072      13.91030286
O        3.68022763       1.41667256      14.09794584
54
Lattice="21.66 0.0 0.0 0.0 5.10531 0.0 0.0 0.0 22.55266" Properties=species:S:1:pos:R:3 entry_id=13 rank=37 energy=-199.415283203125 pbc="T T F"
Cu       0.00000000       0.00000000      10.00000000
Cu       3.61000000       0.00000000      10.00000000
Cu       7.22000000       0.00000000      10.00000000
Cu      10.83000000       0.00000000      10.00000000
Cu      14.44000000       0.00000000      10.00000000
Cu      18.05000000       0.00000000      10.00000000
Cu       0.00000000       2.55265548      10.00000000
Cu       3.61000000       2.55265548      10.00000000
Cu       7.22000000       2.55265548      10.00000000
Cu      10.83000000       2.55265548      10.00000000
Cu      14.44000000       2.55265548      10.00000000
Cu      18.05000000       2.55265548      10.00000000
Cu       1.80500000       1.27632774      11.27632774
Cu       5.41500000       1.27632774      11.27632774
Cu       9.02500000       1.27632774      11.27632774
Cu      12.63500000       1.27632774      11.27632774
Cu      16.24500000       1.27632774      11.27632774
Cu      19.85500000       1.27632774      11.27632774
Cu       1.80500000       3.82898322      11.27632774
Cu       5.41500000       3.82898322      11.27632774
Cu       9.02500000       3.82898322      11.27632774
Cu      12.63500000       3.82898322      11.27632774
Cu      16.24500000       3.82898322      11.27632774
Cu      19.85500000       3.82898322      11.27632774
Cu       0.02155683       0.00740420      12.54494856
Cu       1.93083661       3.94783482      13.78062582
Cu       4.47874067       0.27064265      13.48542335
Cu      10.91358038       5.05418587      12.49995039
Cu      14.43155411       2.64472928      12.64303742
Cu      18.07400775       0.04979304      12.58914749
Cu       0.02758500       2.58807428      12.55189842
Cu       2.12785724       1.38419135      13.99111148
Cu       7.22277555       2.45648352      12.53397621
Cu      10.83212540       2.51415715      12.53973596
Cu      14.39863816       5.08962342      12.66159599
Cu      18.05658065       2.51570418      12.60264225
Cu       4.26286024       2.92177852      13.53502484
Cu       9.12492277       1.12036295      14.00271540
Cu      19.93617318       1.30646997      13.82907648
Cu       7.20342275       5.01346166      12.59320919
Cu       6.52850640       3.46470778      14.67019353
Cu      21.65398589       2.60277470      15.12605259
Cu      21.65383122       0.04188058      15.12092185
Cu       9.19853478       3.68609101      14.16720416
Cu      19.88710480       3.85908545      13.93624627
Cu      16.17177610       3.88282044      13.71108589
O        4.88005949       4.16427951      14.79164741
O        1.24644508       1.32110272      15.62493553
O       17.98042848       3.83223627      14.14945187
O       10.46400367       4.98408990      14.31407873
O        7.98718103       2.38911281      14.70338882
O        3.44270693       1.54146988      12.59466594
O       13.17850998       1.34686708      13.16452304
O        1.26694108       3.87728651      15.60431399
54
Lattice="21.66 0.0 0.0 0.0 5.10531 0.0 0.0 0.0 22.55266" Properties=species:S:1:pos:R:3 entry_id=0 rank=38 energy=-198.67654418945312 pbc="T T F"
Cu       0.00000000       0.00000000      10.00000000
Cu       3.61000000       0.00000000      10.00000000
Cu       7.22000000       0.00000000      10.00000000
Cu      10.83000000       0.00000000      10.00000000
Cu      14.44000000       0.00000000      10.00000000
Cu      18.05000000       0.00000000      10.00000000
Cu       0.00000000       2.55265548      10.00000000
Cu       3.61000000       2.55265548      10.00000000
Cu       7.22000000       2.55265548      10.00000000
Cu      10.83000000       2.55265548      10.00000000
Cu      14.44000000       2.55265548      10.00000000
Cu      18.05000000       2.55265548      10.00000000
Cu       1.80500000       1.27632774      11.27632774
Cu       5.41500000       1.27632774      11.27632774
Cu       9.02500000       1.27632774      11.27632774
Cu      12.63500000       1.27632774      11.27632774
Cu      16.24500000       1.27632774      11.27632774
Cu      19.85500000       1.27632774      11.27632774
Cu       1.80500000       3.82898322      11.27632774
Cu       5.41500000       3.82898322      11.27632774
Cu       9.02500000       3.82898322      11.27632774
Cu      12.63500000       3.82898322      11.27632774
Cu      16.24500000       3.82898322      11.27632774
Cu      19.85500000       3.82898322      11.27632774
Cu      21.60611946       0.00780473      12.58597940
Cu       3.77174321       0.08411540      12.69517958
Cu       6.26806002       4.74331068      13.33867744
Cu      10.69620496       5.02022528      12.63076948
Cu      14.51850158       0.02145348      12.59845257
Cu      18.04879482       0.05161376      12.43739826
Cu      21.60745904       2.51986165      12.58951837
Cu       3.61775430       2.69829133      12.57623513
Cu       7.17233950       2.56196469      12.39520051
Cu      10.69741714       2.46350485      12.83695112
Cu      14.61047995       2.51618655      12.73677773
Cu      17.99156472       2.57603817      12.53255890
Cu       5.53406295       2.69100596      14.63424135
Cu       8.69357429       0.98254139      13.64617093
Cu      19.73257554       1.25212292      13.85479398
Cu       8.82088994       3.58565288      13.92968005
Cu       8.22115534       4.99103565      15.88822369
Cu       2.09315555       1.29469173      14.18420341
Cu       1.73389750       3.82070111      13.81202211
Cu      10.18315176       1.85506556      15.25136986
Cu      19.79516534       3.68695702      13.82608631
Cu      16.85592671       4.30856195      14.28862657
O        7.05014364       3.85311649      14.98831793
O        0.64114648       0.17546557      14.41890687
O       18.58484191       4.95368514      14.59432714
O       12.60899879       2.53318260      12.80771434
O        9.47081319       0.91769344      16.60543965
O        6.78959743       1.37730057      13.87743494
O       15.11453475       3.93347975      13.95579040
O        3.93724329       1.68119884      14.20322225
