60
Properties=species:S:1:pos:R:3 entry_id=28 rank=11 energy=-479.3121643066406 pbc="F F F"
C        1.81440724      -5.62675618       0.03362533
C        3.37454761       1.01053775      -2.62329970
C        1.41708183       1.79208261       1.20867708
C        3.20733058       0.04966749      -3.56181182
C       -2.47481469       2.80114765       2.67029031
C        1.92578078      -0.09943878      -0.84501108
C       -0.11464031      -2.63857423       3.32682660
C        2.69782436      -1.30212455       2.94487135
C       -6.42994990       0.60999087      -2.14747413
C        0.17828634      -2.45241056       0.52573358
C       -2.06476232       1.47813923       2.58122330
C        1.03439336       3.82990155       0.22550675
C        0.97450621      -4.81735913      -0.74346205
C       -0.05580284       5.91976486      -0.17459699
C        2.68158780       4.67741112      -2.50329925
C        0.17753253      -1.03219410       0.82500752
C        3.56208079       3.62695547      -2.53208346
C       -1.34024562      -2.08950317      -1.29543980
C       -3.36101476       0.36833506       0.70488631
C        2.70684818       0.92163937      -1.29904210
C       -5.40394434      -0.17560783      -2.47701786
C       -2.07131249      -2.18134673      -2.54987701
C       -1.12611281      -1.90170154       3.35508338
C       -2.24218090      -0.37583665       0.44557605
C       -1.64261022      -0.80986655       2.71342522
C       -1.00295250      -0.29587590       1.40686586
C       -3.11095523      -1.26992431      -1.95645826
C        2.28424114      -2.50146261       3.12362111
C       -0.28524005      -2.86110230      -0.78606038
C        1.94319770       2.70335286       0.25745798
C       -0.51640081      -2.67594159      -4.41127548
C        2.65954952      -0.88223786      -4.19152920
C       -3.26032797       0.08626312       4.36850645
C       -4.49860140       0.90730589       0.54949164
C        1.96646060       0.51699237       1.51699310
C       -1.58474163      -2.59698015      -3.73028639
C        1.06657649      -3.05316211       2.74016307
C       -2.51591058       0.23815915       3.25980149
C       -0.91687580       1.18137227       1.80157004
C        0.06246782       2.12712356       1.46055419
C        1.34981164      -4.54977529       0.71057374
C        0.88241895      -3.41226688       1.32634983
C        2.91530639       2.20511375      -0.63342334
C        1.34283211      -0.28231377       0.36992103
C        0.18828692      -4.01123689      -1.40636832
C       -4.29511099      -0.76271834      -2.33251694
C        1.79828670      -1.75332547      -4.64208731
C        4.02024179       2.30500159      -2.70607610
C       -0.07791906       3.49935156       1.05947141
C       -5.65254086       1.32173606       0.09168880
C        1.00014810       5.03372357      -0.58166137
C        3.91516808       2.91053547      -1.35769005
C        1.83309371       5.09761855      -1.67961291
C       -1.15083269       4.40934421       1.33222519
C        0.70676076      -2.37821147      -4.73859100
C        2.64473229      -0.08480144       2.51057873
C       -6.38697841       1.20342202      -0.96431084
C       -0.98966290       5.66427782       0.66067247
C       -2.22299803      -1.14887639      -0.73084637
C       -2.15639422       3.91643552       2.17000120
