60
Properties=species:S:1:pos:R:3 entry_id=32 rank=24 energy=-477.9457092285156 pbc="F F F"
C       -1.67138385      -6.09810412       2.55038382
C        2.43199136       2.63601046      -4.15899817
C        0.99362730       1.16860255      -0.08967594
C        2.49572709       1.57260049      -4.90498496
C       -1.16660516       2.85028535       3.11179800
C        5.75995097      -1.72764880      -0.16301285
C       -1.19350944      -2.74509512       4.10490565
C        1.97428128      -1.53916144       2.38250308
C       -4.05403032       0.06605668      -3.93850702
C       -1.66362965      -2.96601448       1.83501609
C       -1.23716322       1.46211130       2.77558871
C        0.56417790       3.96425409      -0.00840574
C       -1.73761129      -6.07201409       1.18610228
C       -0.10910369       5.91256095       1.29628870
C        1.70652458       5.63203305      -2.05249175
C       -1.51688387      -1.55532922       2.11690638
C        2.27029658       6.39789867      -3.10212654
C       -1.36593435      -3.65253367      -1.84930328
C       -2.44717383       0.74243979      -0.65082571
C        2.22480396       3.55910577      -3.33176879
C       -3.47034815      -0.88199635      -3.17506618
C       -0.80419464      -3.70423575      -2.97684295
C       -0.08107671      -2.97449926       4.90366509
C       -2.00812251      -0.46853665      -0.11047061
C       -1.43101757      -1.40060581       3.57856947
C       -1.41358977      -0.47037469       1.20205256
C       -2.24308024      -1.61624819      -0.96203463
C        1.75786949      -2.13697458       3.46849267
C       -1.73279490      -3.62316143       0.55445995
C        1.43407678       1.99469032      -1.10539769
C        0.63386757      -2.84204309      -4.86972032
C        2.32459258       0.41164021      -5.37924432
C       -1.54143021      -0.30397798       4.35352828
C       -3.00267856       1.56856480      -1.41452650
C        1.56684311       0.00890963       0.41183184
C       -0.10549571      -3.46239409      -4.04884266
C        1.09373677      -2.66249002       4.46367217
C       -1.58828554       0.99182252       4.07940863
C       -0.89031840       0.85168818       1.58146361
C       -0.06916608       1.72738126       0.77201002
C       -1.55587106      -5.05244579       3.28368033
C       -1.54380931      -3.68870940       3.08660912
C        1.24554293       3.34506895      -1.12603813
C        6.17231414      -0.64814560       0.36892421
C       -1.72499325      -5.01608026       0.46750311
C       -2.86410631      -1.35807179      -2.18808517
C        1.93911011      -0.80194015      -5.57723384
C        2.77949029       7.10079463      -3.99412879
C       -0.07755144       3.14274096       0.96834043
C       -3.66002766       2.07286496      -2.46820032
C        0.53743612       5.42663675       0.09758608
C        1.75936521       4.18119785      -2.20932165
C        1.11895095       6.12436229      -0.92700643
C       -0.66946791       3.75304982       2.14538461
C        1.35571236      -1.92132701      -5.41086406
C        1.88235592      -0.80741692       1.30042959
C       -4.01499126       1.27848855      -3.44294647
C       -0.62846896       5.16266365       2.18703927
C       -1.78590854      -2.96321006      -0.72805526
C       -1.57285605       2.44407324       4.40601456
