60
Properties=species:S:1:pos:R:3 entry_id=16 rank=28 energy=-476.5032653808594 pbc="F F F"
C        2.31666819      -3.06034739      -0.73908996
C        0.88405671       0.50638660      -4.54406109
C        0.04397552       0.74535346       1.78412028
C        2.42249159       1.95559588      -0.90689848
C       -6.11838111       0.36692851       5.65251222
C       -1.09529574       0.16966053       2.32178325
C        0.87795050      -2.07477310       2.28196089
C       -0.58271950      -0.01590190       4.76337371
C       -7.17380965      -1.47694022      -2.43184938
C       -0.92792268      -1.62878101       0.63516373
C       -4.68645433      -0.20769432       3.60524170
C        7.21697526       5.56864608      -1.07191359
C        1.12384555      -2.77045921      -1.45590711
C        6.01448437       4.62631489      -3.03367354
C        4.62280380       3.51842502      -4.84849863
C       -1.73752318      -0.87528980       1.58354886
C        3.87323733       2.89491014      -3.88198944
C       -1.14840591      -2.27109762      -1.92843964
C       -5.10438688      -1.30773049      -0.27632591
C        3.05162427       2.29460044      -2.04376194
C       -5.93158373      -1.71226587      -2.66088584
C       -2.37408052      -2.08091608      -2.81796488
C        1.78995477      -2.68397056       3.13391236
C       -3.78933900      -1.34625154       0.34638565
C        2.76823613      -3.53604858       3.39607322
C       -3.20508108      -0.92354808       1.57521318
C       -3.48560448      -1.91520458      -1.91842179
C        0.32757016      -0.94526827       4.59965228
C       -1.55979177      -1.94138793      -0.57974075
C        5.46609102       4.17800346      -0.67762741
C       -0.13144737      -0.24668761      -4.76674445
C        1.73217789       1.59555054       0.06177317
C        3.66715889      -4.36012926       3.72626610
C       -6.32775552      -1.00867436       0.26676596
C       -1.55756452       1.00952999       4.90168545
C       -2.11745405      -1.65437494      -4.07958349
C        0.80841337      -1.66519456       3.62494069
C       -7.39035397       0.85469366       7.81020296
C       -3.96181993      -0.50043848       2.64107924
C       -6.93379782       0.66814216       6.63918388
C        1.26173693      -2.57836296      -0.01900526
C        0.41382771      -2.04769227       0.95903832
C        5.17349207       3.95457683      -2.02442223
C        0.89839109       1.20230301       1.00106961
C        0.11214785      -2.57634403      -2.27535214
C       -4.89882022      -1.66604209      -1.75810270
C        1.83618383       1.25286562      -4.17641628
C        2.75239485       1.99576012      -3.57188212
C        6.41114717       4.92351092      -0.19007858
C       -7.45657048      -0.97905824      -0.35239047
C        5.68325933       4.38140288      -4.37455067
C        4.14325833       3.13086785      -2.51487429
C        5.43467712       4.22370025      -5.73496759
C       -5.44720772       0.10601334       4.63090807
C       -1.16638331      -0.99348021      -4.62877391
C       -1.43713163       0.50824634       3.64984306
C       -8.09604590      -1.13719794      -1.51775634
C        7.03876573       5.43354935      -2.54129837
C       -2.93315614      -1.75970652      -0.64864378
C        8.01775136       6.22269266      -1.99328047
