60
Properties=species:S:1:pos:R:3 entry_id=18 rank=23 energy=-477.9547119140625 pbc="F F F"
C        1.34397717      -5.69753843      -0.18484177
C        2.07806382       0.08077225      -2.54389427
C        2.21747967       2.06014797       1.94637017
C        2.37929397      -1.22704161      -2.86180013
C       -1.80030172       3.08574762       2.72596076
C        2.16569239       0.66268500       0.05931248
C       -0.47288118      -3.34289185       3.37511115
C        1.97259205      -1.26447020       3.70319838
C       -5.52342025       0.56094103      -2.18503516
C        0.31212005      -2.22008719       0.55062363
C       -1.75251427       1.69666775       2.92333897
C        1.56117411       4.23162464       0.16181629
C        0.87855806      -4.68306274      -1.06119176
C        0.64967276       5.19893250      -0.48006331
C        1.17081214       3.53724695      -3.57812541
C        0.44664975      -0.88043277       1.11003271
C        1.48961359       2.32588422      -3.03716695
C       -0.29492904      -2.80571928      -1.93008620
C       -3.15403233       0.12256805       0.50915800
C        2.13127426       0.82868274      -1.34311489
C       -4.33132729      -0.11593184      -2.60085699
C       -1.09028669      -1.98479125      -2.84715558
C       -1.40413589      -2.69950012       3.94550474
C       -1.94127942      -0.47927842       0.40275377
C       -2.12043502      -1.66784993       4.27054718
C       -0.80648783      -0.14475524       1.29917312
C       -2.07912694      -1.29747243      -2.05521141
C        1.55482548      -2.39272004       3.32229333
C       -0.48248137      -2.18109667      -0.62303372
C        2.27223336       1.97002435       0.55363369
C       -0.73197440      -0.01045410      -4.47524720
C        1.88170623      -1.92084748      -3.83308915
C       -2.40114687      -0.40791831       4.18270710
C       -4.30191887       0.46089711       0.04189383
C        2.02173549       0.68306481       2.40252445
C       -0.60614889      -1.37557957      -4.00738862
C        0.73625714      -3.30069566       2.68411513
C       -2.36524696       0.80662768       3.82111824
C       -0.95041135       0.92371089       2.10401377
C        2.12519516       3.37976915       2.43125329
C        0.98958553      -4.52786549       0.41643443
C        0.76498088      -3.41777544       1.19206476
C        1.96108308       2.96518840      -0.40576793
C        1.64441287      -0.09461582       1.17279210
C        0.42271164      -3.94491412      -2.04224332
C       -3.22889666      -0.66109292      -2.51336359
C        0.66645508       0.22213936      -4.45090890
C        1.47128745       0.93353616      -3.53574322
C        1.80198702       4.28156346       1.55501332
C       -5.23082455       0.69362333      -0.80326929
C        0.69961717       5.31554422      -1.84765248
C        1.87778630       2.21034414      -1.63942316
C        0.94404147       4.62224260      -2.88433818
C       -1.54690692       4.15904613       2.15895569
C        0.77152551      -1.27204438      -4.36430746
C        2.19542409       0.02785656       3.57420247
C       -6.61771685       0.96019410      -2.89571060
C       -0.37841790       5.55907960       0.40620978
C       -1.58390944      -1.30576097      -0.71102252
C       -1.08604087       5.10627750       1.33496948
