60
Properties=species:S:1:pos:R:3 entry_id=21 rank=3 energy=-482.0251159667969 pbc="F F F"
C        1.32277921      -5.66017362       0.13763154
C        2.86965572       1.01066598      -2.90152575
C        1.79740251       1.88937042       1.88896541
C        2.68712807      -0.20593199      -3.51513787
C       -2.23260416       3.17881323       2.48890621
C        2.50438612       0.87761479      -0.08319795
C       -0.07778498      -3.19028090       2.63700323
C        2.71882641      -1.39958467       3.53233938
C       -5.74815335       0.63996991      -2.49397160
C        0.26819871      -2.04556884       0.43244779
C       -1.86756455       1.82434427       2.46448722
C        1.36620597       4.09361164       0.21471239
C        0.54496869      -4.86751606      -0.76601682
C       -0.35868854       5.58948276       0.08082869
C        2.13077306       4.67940296      -2.65095076
C        0.53682040      -0.65884529       0.77158582
C        2.65247127       3.35710629      -2.68980213
C       -0.91153052      -3.17901284      -1.56511623
C       -2.89929499       0.74908454       0.18730538
C        2.75591641       1.32281804      -1.45155105
C       -4.75860732      -0.26541080      -2.54035761
C       -1.96946076      -2.68239638      -2.44517483
C       -1.17105920      -2.58734809       3.05273905
C       -1.80971437      -0.09301570       0.22353633
C       -2.00600112      -1.68060574       3.31733320
C       -0.60639676       0.21275898       0.99071531
C       -2.60561292      -1.54987330      -1.79351967
C        2.34555521      -2.61243806       3.29440616
C       -0.74582578      -2.17878039      -0.52430347
C        2.48926079       2.06705479       0.68753151
C       -0.90375305      -3.11325958      -4.55875660
C        2.18564140      -1.18334550      -4.10345998
C       -2.47747073      -0.45829216       3.34248632
C       -3.95324283       1.41059872       0.04099255
C        2.08682836       0.50899224       2.21580903
C       -1.91237313      -3.02446668      -3.77011234
C        1.30059799      -3.08760935       2.62058569
C       -2.51312404       0.77113447       3.08327334
C       -0.63264806       1.46151187       1.74968457
C        0.46923075       2.40102354       1.77243568
C        0.87447789      -4.45789959       0.58521065
C        0.68009869      -3.21811568       1.24424737
C        2.38345828       3.21446879      -0.12835169
C        1.85542773      -0.08424854       0.84873224
C       -0.18491712      -4.30665115      -1.70254513
C       -3.72695893      -0.90639889      -2.24046051
C        1.39163190      -2.10447915      -4.58336260
C        2.89745230       2.29103151      -3.57794126
C        0.39631377       3.69188952       1.16561618
C       -5.09063718       1.90400301      -0.43559499
C        0.84539282       5.20601079      -0.55495266
C        2.69984328       2.74386667      -1.40777429
C        1.45370945       5.34776753      -1.81982089
C       -1.80757219       4.36156092       1.86477429
C        0.33934370      -2.76869275      -4.79086329
C        2.61113393      -0.14584913       3.27880353
C       -5.71570324       1.49391701      -1.49660553
C       -0.68525985       4.64115516       1.07141761
C       -1.75432913      -1.20673885      -0.66998858
C       -2.95468193       4.37156644       2.65070606
