115
Lattice="13.75323 0.0 0.0 0.0 13.75323 0.0 0.0 0.0 23.89" Properties=species:S:1:pos:R:3 entry_id=16 rank=28 energy=-572.0162963867188 pbc="T T F"
Pd       0.00000000       0.00000000      10.00000000
Pd       2.75064538       0.00000000      10.00000000
Pd       5.50129076       0.00000000      10.00000000
Pd       8.25193614       0.00000000      10.00000000
Pd      11.00258152       0.00000000      10.00000000
Pd       0.00000000       2.75064538      10.00000000
Pd       2.75064538       2.75064538      10.00000000
Pd       5.50129076       2.75064538      10.00000000
Pd       8.25193614       2.75064538      10.00000000
Pd      11.00258152       2.75064538      10.00000000
Pd       0.00000000       5.50129076      10.00000000
Pd       2.75064538       5.50129076      10.00000000
Pd       5.50129076       5.50129076      10.00000000
Pd       8.25193614       5.50129076      10.00000000
Pd      11.00258152       5.50129076      10.00000000
Pd       0.00000000       8.25193614      10.00000000
Pd       2.75064538       8.25193614      10.00000000
Pd       5.50129076       8.25193614      10.00000000
Pd       8.25193614       8.25193614      10.00000000
Pd      11.00258152       8.25193614      10.00000000
Pd       0.00000000      11.00258152      10.00000000
Pd       2.75064538      11.00258152      10.00000000
Pd       5.50129076      11.00258152      10.00000000
Pd       8.25193614      11.00258152      10.00000000
Pd      11.00258152      11.00258152      10.00000000
Pd       1.33305437       1.38035701      12.05221797
Pd       4.08925664       1.38750338      11.98771029
Pd       6.82888190       1.38154444      11.99332965
Pd       9.57512057       1.39592898      11.89594876
Pd      12.38684272       1.37174114      11.92044161
Pd       1.37065655       4.09970544      12.00656864
Pd       4.10125007       4.12393621      12.00820233
Pd       6.82444734       4.12497179      12.00908219
Pd       9.56728621       4.13975942      11.94281254
Pd      12.36578195       4.13265160      11.93417299
Pd       1.37110082       6.89256210      11.94010419
Pd       4.13935064       6.87026939      11.96482277
Pd       6.87097415       6.85831372      11.95140951
Pd       9.64205429       6.82915781      11.94515418
Pd      12.39111484       6.85622887      11.94896407
Pd       1.35216595       9.69735034      11.99083951
Pd       4.11777592       9.66324146      11.95099537
Pd       6.89476706       9.64088005      11.95142944
Pd       9.64982872       9.59779534      11.89439304
Pd      12.42487279       9.60955999      11.94161946
Pd       1.35802606      12.41462245      12.04582394
Pd       4.10624816      12.40887780      12.00662317
Pd       6.86816975      12.39901143      11.97280504
Pd       9.63028672      12.36702810      11.91406436
Pd      12.41879361      12.34804731      11.97632258
Pd       0.02939575       0.00579343      14.06386001
Pd       2.75842185       0.05230644      14.05932987
Pd       5.51993158       0.01595918      14.03452419
Pd       8.27139408      13.74535404      13.99642481
Pd      11.04878810       0.09238782      14.01453554
Pd       2.62345398       2.77677243      14.20969946
Pd       5.44921539       2.74156013      13.98801944
Pd       8.19711384       2.69737162      14.01833078
Pd      10.88017956       2.76575099      13.82484840
Pd      13.59689701       2.75902456      13.97820274
Pd      13.73709852       5.51420314      13.96417258
Pd       2.65964578       5.54879267      14.00573222
Pd       5.33090901       5.49793770      14.02088830
Pd       8.29597122       5.48393218      13.91654621
Pd      11.03972475       5.43873288      13.93497466
Pd      13.73239518       8.27459895      13.92294429
Pd       2.75247023       8.30459549      13.95292339
Pd       5.51841670       8.28015416      13.94561120
Pd       8.23966837       8.20648969      13.88804369
Pd      10.92954294       8.15692816      14.05356733
Pd       0.05568941      10.99471469      14.13973681
Pd       2.76444574      11.02985884      13.95370196
Pd       5.50527050      11.02868878      13.90558144
Pd       8.38374458      10.96774137      13.97438426
Pd      11.08472464      10.87661132      13.96401710
Pd      12.45433070       6.49166729      16.25853756
Pd       9.13703358       9.13779720      16.16772583
Pd       1.56755272      12.58094495      16.37924015
Pd       1.45210879       7.09270889      16.21880089
Pd      11.94066292       9.38314900      16.33224821
Pd       8.04598713       1.51824099      16.69354780
Pd       4.21112273       1.39636695      16.23500321
Pd       5.60077110       9.85319984      16.37759170
Pd       4.15301163      12.21210389      15.92355994
Pd       9.93073944      12.28811447      16.61816540
Pd       0.87766233       4.41237236      16.34987361
Pd       3.77963409       4.34330487      16.28647788
Pd      11.18658790       3.14410646      16.50232982
Pd       2.49257582       9.76056299      16.39479667
Pd       7.03525808       7.23717092      16.23720343
Pd       6.76684744      12.86309051      16.34225368
Pd       9.71878614       6.38845046      16.11963667
Pd       8.05164058       4.21782401      16.33523682
Pd       1.00104878       1.64639652      16.32461987
Pd       4.18538808       7.08462697      15.97007279
O        9.30877277       3.03354520      17.17951150
O       10.41022626      10.38297432      17.03166934
O       11.42118653      12.33331143      15.32679315
O       11.05904068       1.16981464      16.05389458
O        9.98100206       0.56690681      16.74763541
O        4.08486175       8.80942989      17.05939961
O        2.51392675       0.51034051      16.92317782
O       13.59932160       0.65579793      17.77994108
O        8.28308548      12.37925811      17.57857982
O        0.82134622      10.78663368      16.04300648
O        0.01402442      13.12070310      17.73792574
O        2.36884557       5.50960367      17.05324139
O        6.82138509       5.45772517      15.45525594
O        7.32159055       8.92294447      17.11283485
O        5.24386472       3.09232301      15.94832083
O       13.23160998       3.00566367      15.99551914
O       11.18652485       5.13156187      16.86934090
O       13.49469646       8.18000023      15.95833406
O        6.19816146       0.84881986      17.01017794
O        6.93511111      11.07028915      15.50036954
