115
Lattice="13.75323 0.0 0.0 0.0 13.75323 0.0 0.0 0.0 23.89" Properties=species:S:1:pos:R:3 entry_id=11 rank=29 energy=-572.00390625 pbc="T T F"
Pd       0.00000000       0.00000000      10.00000000
Pd       2.75064538       0.00000000      10.00000000
Pd       5.50129076       0.00000000      10.00000000
Pd       8.25193614       0.00000000      10.00000000
Pd      11.00258152       0.00000000      10.00000000
Pd       0.00000000       2.75064538      10.00000000
Pd       2.75064538       2.75064538      10.00000000
Pd       5.50129076       2.75064538      10.00000000
Pd       8.25193614       2.75064538      10.00000000
Pd      11.00258152       2.75064538      10.00000000
Pd       0.00000000       5.50129076      10.00000000
Pd       2.75064538       5.50129076      10.00000000
Pd       5.50129076       5.50129076      10.00000000
Pd       8.25193614       5.50129076      10.00000000
Pd      11.00258152       5.50129076      10.00000000
Pd       0.00000000       8.25193614      10.00000000
Pd       2.75064538       8.25193614      10.00000000
Pd       5.50129076       8.25193614      10.00000000
Pd       8.25193614       8.25193614      10.00000000
Pd      11.00258152       8.25193614      10.00000000
Pd       0.00000000      11.00258152      10.00000000
Pd       2.75064538      11.00258152      10.00000000
Pd       5.50129076      11.00258152      10.00000000
Pd       8.25193614      11.00258152      10.00000000
Pd      11.00258152      11.00258152      10.00000000
Pd       1.33305437       1.38035701      12.05221797
Pd       4.08925664       1.38750338      11.98771029
Pd       6.82888190       1.38154444      11.99332965
Pd       9.57512057       1.39592898      11.89594876
Pd      12.38684272       1.37174114      11.92044161
Pd       1.37065655       4.09970544      12.00656864
Pd       4.10125007       4.12393621      12.00820233
Pd       6.82444734       4.12497179      12.00908219
Pd       9.56728621       4.13975942      11.94281254
Pd      12.36578195       4.13265160      11.93417299
Pd       1.37110082       6.89256210      11.94010419
Pd       4.13935064       6.87026939      11.96482277
Pd       6.87097415       6.85831372      11.95140951
Pd       9.64205429       6.82915781      11.94515418
Pd      12.39111484       6.85622887      11.94896407
Pd       1.35216595       9.69735034      11.99083951
Pd       4.11777592       9.66324146      11.95099537
Pd       6.89476706       9.64088005      11.95142944
Pd       9.64982872       9.59779534      11.89439304
Pd      12.42487279       9.60955999      11.94161946
Pd       1.35802606      12.41462245      12.04582394
Pd       4.10624816      12.40887780      12.00662317
Pd       6.86816975      12.39901143      11.97280504
Pd       9.63028672      12.36702810      11.91406436
Pd      12.41879361      12.34804731      11.97632258
Pd       0.03815499       0.02255716      14.17405239
Pd       2.81410133       0.10849801      14.05761956
Pd       5.58298878      13.72178028      14.06890932
Pd       8.30140888       0.03363247      13.98809446
Pd      10.99344050       0.01372941      13.82259987
Pd       2.63790760       2.82702260      14.19396903
Pd       5.45459753       2.69391305      13.97309557
Pd       8.20411425       2.73471166      14.03040789
Pd      10.88109866       2.70844617      13.94405137
Pd      13.62221001       2.77916385      13.98579775
Pd       0.00204881       5.51470176      13.98225995
Pd       2.68778670       5.57645109      14.00326198
Pd       5.36704793       5.47810149      14.00241421
Pd       8.33678318       5.53961277      13.88774580
Pd      11.06173669       5.41771862      13.96425355
Pd       0.05591462       8.24857109      13.91627045
Pd       2.82493384       8.31827424      13.94087407
Pd       5.59626410       8.26988801      13.97098169
Pd       8.33773571       8.27402744      14.02530549
Pd      11.02147791       8.16808713      13.96705150
Pd      13.69221300      10.99124540      14.10719813
Pd       2.75117653      11.09857851      13.99932211
Pd       5.47609216      10.97634183      13.91094614
Pd       8.21927272      11.01879145      13.91609862
Pd      10.93675381      10.93315242      13.90662095
Pd      12.59637934       6.73132855      16.25433162
Pd       9.06986739       9.48015320      16.55856213
Pd       1.83930970      12.71104915      16.39018821
Pd       1.63364904       7.23798061      16.29751162
Pd      12.18499322       9.54360786      16.04515031
Pd       8.41674578       1.67153471      16.71973334
Pd       4.16899938       1.45818855      16.24119736
Pd       5.91276911       9.85584708      16.40634165
Pd       4.44076927      12.22955696      16.00212077
Pd      10.49601957      12.69190490      16.39627299
Pd       1.17688692       4.59723745      16.33335989
Pd       3.97899080       4.33955550      16.25984360
Pd      11.41780327       3.53141457      16.57228549
Pd       2.87784383       9.79025658      16.36344800
Pd       7.11354385       7.13058133      16.29973919
Pd       7.18014000      12.79895257      16.36842371
Pd       9.82028247       6.69826178      16.04164754
Pd       8.25824843       4.34085956      16.32750414
Pd       1.11488690       1.81749156      16.41114148
Pd       4.31524780       7.06783983      15.98847235
O        9.55820750       3.27049264      17.25419371
O       10.58290601      10.68606851      16.03211338
O       12.17006338      12.80718466      15.17368227
O       11.41748217       1.62404403      16.06810739
O       10.47230557       0.88906998      16.80527657
O        4.39133562       8.80156615      17.07973762
O        2.56544190       0.64622840      17.07311118
O       13.70504531       0.68507432      17.74759721
O        8.88510143      12.60768542      17.43262640
O        1.33879563      10.91415349      15.74172827
O        0.18340104      13.15977749      17.66685803
O        2.71596440       5.70250522      17.03199209
O        6.90222948       5.41249871      15.40246833
O        7.43525847       8.71462995      17.34680758
O        5.36919735       3.00273383      15.93355051
O       13.45959644       3.27061688      16.00054323
O       11.27482313       5.49222629      16.95266273
O        0.00120116       8.34495559      15.98434513
O        6.68269608       0.83890235      16.82806549
O        7.54660478      10.90353653      15.87399001
