60
Properties=species:S:1:pos:R:3 pbc="F F F"
C       -2.66443730      -0.71866505      -2.57074306
C       -1.41152880      -1.17418349      -3.00582651
C       -0.68014105      -0.00000121      -3.41108856
C       -2.66443749       0.71866507      -2.57074369
C       -1.41152816       1.17418266      -3.00582804
C       -3.24173467       1.16313148      -1.36322741
C       -3.24173329      -1.16313266      -1.36322769
C       -3.65656379      -0.00000086      -0.60754825
C       -2.63717060      -2.22249114      -0.71170992
C       -0.73025350      -2.21548093      -2.30930905
C       -1.41250417      -2.78539136      -1.21137776
C        0.73025428      -2.21548064      -2.30930994
C        0.68014145       0.00000024      -3.41108820
C        1.41152873      -1.17418203      -3.00582699
C        1.41152925       1.17418231      -3.00582667
C       -0.73025251       2.21548166      -2.30930979
C        0.73025523       2.21548022      -2.30930978
C       -2.63717244       2.22249091      -0.71170946
C       -1.41250317       2.78539330      -1.21137717
C       -2.60403110       2.25862976       0.72626033
C       -3.53798197       0.00000100       0.76484686
C       -3.04523252       1.16655308       1.45307943
C       -2.60402997      -2.25863017       0.72626089
C       -3.04523240      -1.16655343       1.45307935
C       -0.68711824      -3.28539813      -0.07731786
C       -1.40930917      -2.94745909       1.12224625
C        1.41250313      -2.78539219      -1.21137800
C        0.68711620      -3.28539914      -0.07731628
C        2.63717165      -2.22249008      -0.71171170
C        2.66443670      -0.71866428      -2.57074205
C        2.66443718       0.71866391      -2.57074208
C        3.24173334      -1.16313116      -1.36322811
C        3.24173320       1.16313219      -1.36322824
C        3.65656355      -0.00000116      -0.60754920
C        1.41250271       2.78539213      -1.21137724
C        2.63717025       2.22249135      -0.71171131
C       -0.68711577       3.28539862      -0.07731526
C       -1.40930873       2.94745937       1.12224651
C        0.68711755       3.28539809      -0.07731566
C       -0.71896725       2.55438700       2.25151519
C       -2.29219648       0.72066322       2.59790283
C       -2.29219633      -0.72066480       2.59790223
C       -1.16628840       1.40813371       3.00092529
C       -0.71897025      -2.55438494       2.25151657
C       -1.16628778      -1.40813374       3.00092493
C        1.40930977      -2.94746008       1.12224720
C        2.60403271      -2.25862957       0.72625892
C        0.71896689      -2.55438602       2.25151712
C        3.53798206      -0.00000100       0.76484659
C        3.04523325      -1.16655278       1.45307936
C        2.60403088       2.25862961       0.72626053
C        1.40930842       2.94745923       1.12224617
C        0.71896823       2.55438610       2.25151536
C        3.04523270       1.16655477       1.45307892
C       -0.00000035       0.69030508       3.44895335
C        0.00000114      -0.69030602       3.44895277
C        1.16628705      -1.40813376       3.00092563
C        2.29219641      -0.72066349       2.59790346
C        1.16628742       1.40813440       3.00092505
C        2.29219629       0.72066390       2.59790348
