115
Lattice="13.75323 0.0 0.0 0.0 13.75323 0.0 0.0 0.0 23.89" Properties=species:S:1:pos:R:3 trial_index=25 seed_entry_id=17 discovered_entry_id=19 energy=-574.232177734375 status=accepted pbc="T T F"
Pd       0.00000000       0.00000000      10.00000000
Pd       2.75064538       0.00000000      10.00000000
Pd       5.50129076       0.00000000      10.00000000
Pd       8.25193614       0.00000000      10.00000000
Pd      11.00258152       0.00000000      10.00000000
Pd       0.00000000       2.75064538      10.00000000
Pd       2.75064538       2.75064538      10.00000000
Pd       5.50129076       2.75064538      10.00000000
Pd       8.25193614       2.75064538      10.00000000
Pd      11.00258152       2.75064538      10.00000000
Pd       0.00000000       5.50129076      10.00000000
Pd       2.75064538       5.50129076      10.00000000
Pd       5.50129076       5.50129076      10.00000000
Pd       8.25193614       5.50129076      10.00000000
Pd      11.00258152       5.50129076      10.00000000
Pd       0.00000000       8.25193614      10.00000000
Pd       2.75064538       8.25193614      10.00000000
Pd       5.50129076       8.25193614      10.00000000
Pd       8.25193614       8.25193614      10.00000000
Pd      11.00258152       8.25193614      10.00000000
Pd       0.00000000      11.00258152      10.00000000
Pd       2.75064538      11.00258152      10.00000000
Pd       5.50129076      11.00258152      10.00000000
Pd       8.25193614      11.00258152      10.00000000
Pd      11.00258152      11.00258152      10.00000000
Pd       1.33305437       1.38035701      12.05221797
Pd       4.08925664       1.38750338      11.98771029
Pd       6.82888190       1.38154444      11.99332965
Pd       9.57512057       1.39592898      11.89594876
Pd      12.38684272       1.37174114      11.92044161
Pd       1.37065655       4.09970544      12.00656864
Pd       4.10125007       4.12393621      12.00820233
Pd       6.82444734       4.12497179      12.00908219
Pd       9.56728621       4.13975942      11.94281254
Pd      12.36578195       4.13265160      11.93417299
Pd       1.37110082       6.89256210      11.94010419
Pd       4.13935064       6.87026939      11.96482277
Pd       6.87097415       6.85831372      11.95140951
Pd       9.64205429       6.82915781      11.94515418
Pd      12.39111484       6.85622887      11.94896407
Pd       1.35216595       9.69735034      11.99083951
Pd       4.11777592       9.66324146      11.95099537
Pd       6.89476706       9.64088005      11.95142944
Pd       9.64982872       9.59779534      11.89439304
Pd      12.42487279       9.60955999      11.94161946
Pd       1.35802606      12.41462245      12.04582394
Pd       4.10624816      12.40887780      12.00662317
Pd       6.86816975      12.39901143      11.97280504
Pd       9.63028672      12.36702810      11.91406436
Pd      12.41879361      12.34804731      11.97632258
Pd      13.66524921      13.71353320      13.98431226
Pd       2.68275396       0.01280720      14.12975187
Pd       5.45382276      13.73183453      14.04711139
Pd       8.27056402      13.70566202      13.96127566
Pd      10.95395229       0.01379873      13.93570178
Pd      13.68554934       2.78073654      13.97644231
Pd       2.74139386       2.76771847      14.03357488
Pd       5.54175640       2.68965797      14.10031196
Pd       8.28669898       2.77271189      13.95499221
Pd      10.98039872       2.69752169      13.91625092
Pd       0.03019631       5.50544309      13.94230287
Pd       2.68962097       5.58382452      13.95384345
Pd       5.41785537       5.54594243      14.01198027
Pd       8.12969402       5.55429964      13.98681678
Pd      11.07050128       5.47071289      13.94473818
Pd       0.00567389       8.23788705      13.97884942
Pd       2.75165415       8.30422817      13.93115200
Pd       5.57572186       8.31418756      13.96787718
Pd       8.26203630       8.27876182      13.98708426
Pd      11.02842453       8.26191124      13.90683760
Pd      13.72859336      10.96174932      14.07457511
Pd       2.73975282      11.00859629      13.91648040
Pd       5.52564613      10.99641152      13.99734964
Pd       8.22655549      10.97031352      13.89460496
Pd      10.95161458      11.03542475      13.96873158
Pd      12.35636703       6.58603705      16.19725486
Pd       8.91362532      11.01855365      16.50624209
Pd       1.36869183      12.47635385      16.59558600
Pd       1.36073685       7.00744366      16.01065823
Pd      12.12743576       9.46313306      16.19209926
Pd       8.13616171       1.50897764      16.39346985
Pd       3.95405136       0.92684271      16.72981160
Pd       5.54128267       9.96969005      16.71347916
Pd       3.90791708      11.95954256      15.97011426
Pd      11.70924922       1.22016771      16.28428343
Pd      13.74019021       4.32752969      16.51785336
Pd       3.44605057       4.59991137      16.34536954
Pd       9.88903201       3.93520653      16.29846345
Pd       2.21777233       9.74007563      16.30606127
Pd       7.27447422       8.00876977      16.89795251
Pd       6.52564100      12.98649850      16.58573309
Pd       9.77642703       7.60569357      16.21964342
Pd       6.80741332       5.07320020      16.62532584
Pd       1.06794420       1.64074849      16.13836592
Pd       4.12788421       7.10601855      15.89789779
O        9.56901191       5.75449224      15.45215804
O        8.44549173      13.19605200      15.97496958
O       13.39530063       0.19998757      15.98898504
O       10.05237633       2.03650585      16.91195716
O        7.97267380       3.50101935      16.61956719
O        3.90721274       8.89714552      16.83453300
O        5.95411351       1.16449224      15.92172805
O        2.90609646       2.57647654      16.11939649
O       10.83300677      10.94947094      15.95975085
O        0.52611200      10.77511034      16.05303906
O        2.13754953       0.37129753      17.38455925
O        1.70843474       5.19098418      17.02201131
O        5.82484687       6.71500045      17.00851067
O        8.90649424       9.12062161      17.14666547
O        5.25008350       4.15422050      15.62255560
O       13.17906428       2.49629750      17.12067647
O       11.79771362       4.62917808      15.94827087
O       13.40256885       8.10059312      16.81116071
O        4.74669570      13.01782048      17.45868073
O        7.04217857      11.17304498      17.16563588
