115
Lattice="13.75323 0.0 0.0 0.0 13.75323 0.0 0.0 0.0 23.89" Properties=species:S:1:pos:R:3 trial_index=36 seed_entry_id=18 discovered_entry_id=29 energy=-572.2064819335938 status=accepted pbc="T T F"
Pd       0.00000000       0.00000000      10.00000000
Pd       2.75064538       0.00000000      10.00000000
Pd       5.50129076       0.00000000      10.00000000
Pd       8.25193614       0.00000000      10.00000000
Pd      11.00258152       0.00000000      10.00000000
Pd       0.00000000       2.75064538      10.00000000
Pd       2.75064538       2.75064538      10.00000000
Pd       5.50129076       2.75064538      10.00000000
Pd       8.25193614       2.75064538      10.00000000
Pd      11.00258152       2.75064538      10.00000000
Pd       0.00000000       5.50129076      10.00000000
Pd       2.75064538       5.50129076      10.00000000
Pd       5.50129076       5.50129076      10.00000000
Pd       8.25193614       5.50129076      10.00000000
Pd      11.00258152       5.50129076      10.00000000
Pd       0.00000000       8.25193614      10.00000000
Pd       2.75064538       8.25193614      10.00000000
Pd       5.50129076       8.25193614      10.00000000
Pd       8.25193614       8.25193614      10.00000000
Pd      11.00258152       8.25193614      10.00000000
Pd       0.00000000      11.00258152      10.00000000
Pd       2.75064538      11.00258152      10.00000000
Pd       5.50129076      11.00258152      10.00000000
Pd       8.25193614      11.00258152      10.00000000
Pd      11.00258152      11.00258152      10.00000000
Pd       1.33305437       1.38035701      12.05221797
Pd       4.08925664       1.38750338      11.98771029
Pd       6.82888190       1.38154444      11.99332965
Pd       9.57512057       1.39592898      11.89594876
Pd      12.38684272       1.37174114      11.92044161
Pd       1.37065655       4.09970544      12.00656864
Pd       4.10125007       4.12393621      12.00820233
Pd       6.82444734       4.12497179      12.00908219
Pd       9.56728621       4.13975942      11.94281254
Pd      12.36578195       4.13265160      11.93417299
Pd       1.37110082       6.89256210      11.94010419
Pd       4.13935064       6.87026939      11.96482277
Pd       6.87097415       6.85831372      11.95140951
Pd       9.64205429       6.82915781      11.94515418
Pd      12.39111484       6.85622887      11.94896407
Pd       1.35216595       9.69735034      11.99083951
Pd       4.11777592       9.66324146      11.95099537
Pd       6.89476706       9.64088005      11.95142944
Pd       9.64982872       9.59779534      11.89439304
Pd      12.42487279       9.60955999      11.94161946
Pd       1.35802606      12.41462245      12.04582394
Pd       4.10624816      12.40887780      12.00662317
Pd       6.86816975      12.39901143      11.97280504
Pd       9.63028672      12.36702810      11.91406436
Pd      12.41879361      12.34804731      11.97632258
Pd       0.01645538      13.71416724      14.11731649
Pd       2.75675107       0.08973641      14.11826711
Pd       5.49408548      13.72163132      14.01743525
Pd       8.20075226      13.62877533      14.04269072
Pd      10.87660127       0.01115291      13.81511838
Pd      13.75265470       2.77584985      14.03652330
Pd       2.78689818       2.81461956      14.01665474
Pd       5.53979691       2.67967254      14.03045276
Pd       8.26681082       2.77199133      13.94933278
Pd      11.00446899       2.73387412      14.00744936
Pd      13.74855735       5.47764898      14.02419241
Pd       2.71425227       5.54925326      13.95230504
Pd       5.50067803       5.59794621      14.00694081
Pd       8.27876003       5.56634640      13.97268923
Pd      11.00589167       5.49237001      14.01941260
Pd       0.09289624       8.20823570      13.99553350
Pd       2.84041696       8.25645361      13.98957481
Pd       5.58054920       8.31256769      13.93389470
Pd       8.26575377       8.27473128      13.93241126
Pd      11.03818436       8.24674175      13.89484938
Pd      13.64958178      10.96003919      14.06565580
Pd       2.77174964      11.02863980      13.99683269
Pd       5.51810609      11.02602328      13.91672301
Pd       8.20611603      10.94996119      13.87924353
Pd      10.89609617      11.02191330      13.92935831
Pd      12.41227557       6.61926712      16.24975259
Pd       8.86653719      10.86636230      16.47473604
Pd       1.64920518      12.83117200      16.50581878
Pd       1.47165896       6.71513669      16.20044092
Pd      12.10147737       9.62279962      15.99648415
Pd       8.46280941       1.33394475      16.32937801
Pd       4.40484570       1.40298738      16.08114107
Pd       5.50543288       9.74793165      16.24248704
Pd       4.12027329      12.11257551      15.98940201
Pd      12.63231405       1.31784927      16.34686080
Pd       0.10615791       4.40121611      16.70740661
Pd       3.69449558       4.34425485      16.20760289
Pd      10.14000787       4.03383041      16.47417635
Pd       2.34331191       9.54751956      16.36598184
Pd       7.30729892       7.88602158      16.70889300
Pd       6.58129306      12.80805533      16.94498460
Pd       9.75625747       7.13804115      15.90180829
Pd       7.17636485       4.95093946      16.47000194
Pd       1.50817152       1.83495426      16.09519502
Pd       4.34902071       7.09547460      16.00197618
O        9.03532320       5.61932501      17.09072891
O        8.44538256      13.02409793      16.12811525
O       12.12276245      13.52428009      15.32872214
O       10.65955941       2.10937912      16.02018294
O        8.31928889       3.31480494      16.02908712
O        2.92075508       7.89608457      17.19644675
O        6.44603507       1.01398001      16.79539154
O        3.46038679       0.98655424      17.86355870
O       10.75421342      11.02271331      15.94532229
O        1.32905501      11.09419206      15.60171940
O        2.15696601       0.64978201      17.68810455
O        2.00957150       4.90343552      16.99140304
O        6.00413189       6.48990940      17.04119902
O        8.95548979       8.90383400      16.84607119
O        5.55631491       4.13774920      15.54889317
O       13.73521941       2.51948686      17.38201619
O       11.90148792       4.83254831      16.93858774
O       13.52565972       8.28440947      16.06143640
O        4.86770231      12.48309715      17.72239167
O        6.97551222      10.87560287      17.10074977
