115
Lattice="13.75323 0.0 0.0 0.0 13.75323 0.0 0.0 0.0 23.89" Properties=species:S:1:pos:R:3 trial_index=71 seed_entry_id=59 discovered_entry_id=60 energy=-572.5421142578125 status=accepted pbc="T T F"
Pd       0.00000000       0.00000000      10.00000000
Pd       2.75064538       0.00000000      10.00000000
Pd       5.50129076       0.00000000      10.00000000
Pd       8.25193614       0.00000000      10.00000000
Pd      11.00258152       0.00000000      10.00000000
Pd       0.00000000       2.75064538      10.00000000
Pd       2.75064538       2.75064538      10.00000000
Pd       5.50129076       2.75064538      10.00000000
Pd       8.25193614       2.75064538      10.00000000
Pd      11.00258152       2.75064538      10.00000000
Pd       0.00000000       5.50129076      10.00000000
Pd       2.75064538       5.50129076      10.00000000
Pd       5.50129076       5.50129076      10.00000000
Pd       8.25193614       5.50129076      10.00000000
Pd      11.00258152       5.50129076      10.00000000
Pd       0.00000000       8.25193614      10.00000000
Pd       2.75064538       8.25193614      10.00000000
Pd       5.50129076       8.25193614      10.00000000
Pd       8.25193614       8.25193614      10.00000000
Pd      11.00258152       8.25193614      10.00000000
Pd       0.00000000      11.00258152      10.00000000
Pd       2.75064538      11.00258152      10.00000000
Pd       5.50129076      11.00258152      10.00000000
Pd       8.25193614      11.00258152      10.00000000
Pd      11.00258152      11.00258152      10.00000000
Pd       1.33305437       1.38035701      12.05221797
Pd       4.08925664       1.38750338      11.98771029
Pd       6.82888190       1.38154444      11.99332965
Pd       9.57512057       1.39592898      11.89594876
Pd      12.38684272       1.37174114      11.92044161
Pd       1.37065655       4.09970544      12.00656864
Pd       4.10125007       4.12393621      12.00820233
Pd       6.82444734       4.12497179      12.00908219
Pd       9.56728621       4.13975942      11.94281254
Pd      12.36578195       4.13265160      11.93417299
Pd       1.37110082       6.89256210      11.94010419
Pd       4.13935064       6.87026939      11.96482277
Pd       6.87097415       6.85831372      11.95140951
Pd       9.64205429       6.82915781      11.94515418
Pd      12.39111484       6.85622887      11.94896407
Pd       1.35216595       9.69735034      11.99083951
Pd       4.11777592       9.66324146      11.95099537
Pd       6.89476706       9.64088005      11.95142944
Pd       9.64982872       9.59779534      11.89439304
Pd      12.42487279       9.60955999      11.94161946
Pd       1.35802606      12.41462245      12.04582394
Pd       4.10624816      12.40887780      12.00662317
Pd       6.86816975      12.39901143      11.97280504
Pd       9.63028672      12.36702810      11.91406436
Pd      12.41879361      12.34804731      11.97632258
Pd      13.70707921      13.74462074      14.03909587
Pd       2.76061125       0.03222041      14.06416668
Pd       5.50000728       0.02498663      14.06458855
Pd       8.18957141       0.01693537      14.04283961
Pd      10.88782219       0.03748697      13.97089371
Pd      13.68959130       2.79307204      13.98451742
Pd       2.70220182       2.77334100      14.04189969
Pd       5.50052163       2.78951619      14.07752240
Pd       8.27467711       2.75305499      13.97261386
Pd      11.00515263       2.72576022      13.71453434
Pd      13.75163236       5.48861493      14.00360970
Pd       2.74215012       5.55949948      13.99721764
Pd       5.49057811       5.52945018      14.04825401
Pd       8.21370926       5.48799774      14.01514550
Pd      10.98180653       5.39841616      13.98458889
Pd      13.73172515       8.24299922      13.95275899
Pd       2.74252519       8.33303763      13.91435609
Pd       5.53563625       8.31360134      13.87211076
Pd       8.30828951       8.24808760      13.90244078
Pd      11.00530821       8.12668670      14.06679612
Pd      13.74547778      10.95423211      14.14865684
Pd       2.75565189      11.05077321      13.94089481
Pd       5.50541915      11.03259146      13.90219210
Pd       8.21511432      11.00294104      14.01887620
Pd      10.94796106      10.92923078      13.89405428
Pd      12.33584063       6.29470615      16.31771178
Pd       9.49225441       9.29974711      16.27516095
Pd       1.73534860      12.60971294      16.48168702
Pd       1.38709663       7.05979836      15.91830656
Pd      12.29236123       9.35551640      16.20979491
Pd       7.72259227       1.68438388      16.53260754
Pd       4.39373306       1.28843141      16.56160458
Pd       5.84081510       9.74470833      16.29473067
Pd       4.29189551      12.04649686      15.95707598
Pd      11.99065485      12.41189879      16.10111773
Pd       0.28475802       4.14394277      16.62743878
Pd       3.44948496       4.27342484      16.51672035
Pd      11.05163601       2.54058386      16.27205776
Pd       2.46992364       9.79446694      16.33980166
Pd       6.89667168       7.05435724      15.89849405
Pd       6.90234638      12.57218826      16.37937269
Pd       9.58111153       6.28389358      16.31634159
Pd       6.36404157       4.64240829      17.14080418
Pd       0.87847388       1.48394297      16.27935612
Pd       4.15627878       7.13604079      15.83793818
O        9.15789487       2.77923833      15.78460072
O        8.50045917      12.87911649      17.72290656
O       13.61328176      13.51772871      16.19198364
O       10.91562544       0.49954380      15.92358413
O        8.79241306       0.36378866      17.92376763
O        4.14968682       8.91073234      16.85396560
O        5.10803517       3.15213638      16.10191518
O        2.67682209       2.36240908      16.12332686
O       10.84970985      10.76685740      15.96965975
O        0.78752810      10.81355144      16.08232470
O        3.44786682      13.39279525      17.18310301
O        1.79525461       5.32558441      16.96357119
O        4.68024701       5.71469657      17.18557814
O        8.46263696       7.76435846      16.93413232
O        7.51556612       3.29250647      17.71260976
O       12.91663028       2.57026366      16.85167295
O       10.97490523       4.84618889      16.02034868
O       13.42698225       7.84491926      16.79422468
O        6.19366741       0.55129480      17.07620109
O        7.58368045      10.70525992      15.99375315
