115
Lattice="13.75323 0.0 0.0 0.0 13.75323 0.0 0.0 0.0 23.89" Properties=species:S:1:pos:R:3 trial_index=125 seed_entry_id=86 discovered_entry_id=104 energy=-573.0789184570312 status=accepted pbc="T T F"
Pd       0.00000000       0.00000000      10.00000000
Pd       2.75064538       0.00000000      10.00000000
Pd       5.50129076       0.00000000      10.00000000
Pd       8.25193614       0.00000000      10.00000000
Pd      11.00258152       0.00000000      10.00000000
Pd       0.00000000       2.75064538      10.00000000
Pd       2.75064538       2.75064538      10.00000000
Pd       5.50129076       2.75064538      10.00000000
Pd       8.25193614       2.75064538      10.00000000
Pd      11.00258152       2.75064538      10.00000000
Pd       0.00000000       5.50129076      10.00000000
Pd       2.75064538       5.50129076      10.00000000
Pd       5.50129076       5.50129076      10.00000000
Pd       8.25193614       5.50129076      10.00000000
Pd      11.00258152       5.50129076      10.00000000
Pd       0.00000000       8.25193614      10.00000000
Pd       2.75064538       8.25193614      10.00000000
Pd       5.50129076       8.25193614      10.00000000
Pd       8.25193614       8.25193614      10.00000000
Pd      11.00258152       8.25193614      10.00000000
Pd       0.00000000      11.00258152      10.00000000
Pd       2.75064538      11.00258152      10.00000000
Pd       5.50129076      11.00258152      10.00000000
Pd       8.25193614      11.00258152      10.00000000
Pd      11.00258152      11.00258152      10.00000000
Pd       1.33305437       1.38035701      12.05221797
Pd       4.08925664       1.38750338      11.98771029
Pd       6.82888190       1.38154444      11.99332965
Pd       9.57512057       1.39592898      11.89594876
Pd      12.38684272       1.37174114      11.92044161
Pd       1.37065655       4.09970544      12.00656864
Pd       4.10125007       4.12393621      12.00820233
Pd       6.82444734       4.12497179      12.00908219
Pd       9.56728621       4.13975942      11.94281254
Pd      12.36578195       4.13265160      11.93417299
Pd       1.37110082       6.89256210      11.94010419
Pd       4.13935064       6.87026939      11.96482277
Pd       6.87097415       6.85831372      11.95140951
Pd       9.64205429       6.82915781      11.94515418
Pd      12.39111484       6.85622887      11.94896407
Pd       1.35216595       9.69735034      11.99083951
Pd       4.11777592       9.66324146      11.95099537
Pd       6.89476706       9.64088005      11.95142944
Pd       9.64982872       9.59779534      11.89439304
Pd      12.42487279       9.60955999      11.94161946
Pd       1.35802606      12.41462245      12.04582394
Pd       4.10624816      12.40887780      12.00662317
Pd       6.86816975      12.39901143      11.97280504
Pd       9.63028672      12.36702810      11.91406436
Pd      12.41879361      12.34804731      11.97632258
Pd      13.70060582       0.05156009      14.06200161
Pd       2.80551061       0.03687515      13.98709574
Pd       5.53098747       0.05630606      14.04953002
Pd       8.31971204      13.56161127      13.92627123
Pd      11.00623532      13.73450758      14.05582754
Pd      13.66154502       2.78523877      14.06057354
Pd       2.61938201       2.75159532      14.03093706
Pd       5.39958395       2.99907202      14.02134559
Pd       8.22197184       2.65476724      13.83706115
Pd      10.96279906       2.73693686      13.88345004
Pd      13.75176216       5.47127930      13.92048930
Pd       2.78655541       5.52242452      13.96317120
Pd       5.51957948       5.67944723      14.06825885
Pd       8.29099426       5.35328729      14.07909786
Pd      11.01066824       5.48141702      14.02930084
Pd      13.73583064       8.21141200      14.03088917
Pd       2.72424059       8.29903972      14.01571703
Pd       5.51127402       8.38516726      13.97387291
Pd       8.26219895       8.12270919      13.86670674
Pd      11.01324492       8.24640151      13.97080380
Pd      13.73117735      10.96516918      14.00127756
Pd       2.77535670      11.03819372      13.98673174
Pd       5.50102321      11.09213665      14.05786188
Pd       8.20343764      10.82566639      14.08207140
Pd      10.92848841      10.97075686      13.94905159
Pd      12.21274511       7.37263152      16.35582593
Pd       9.29656160      11.79552807      16.61420363
Pd       1.56934978      12.50521996      16.13999838
Pd       1.31685944       6.67141869      15.93481723
Pd      12.09690207      10.56068686      16.53085993
Pd       7.38520876       1.39469186      16.81902610
Pd       4.44650646       1.09466630      16.70644002
Pd       6.72164293       9.82775393      16.55083822
Pd       3.95198712      11.06965690      16.46848298
Pd      12.07359008       2.26243714      16.45946464
Pd      13.13929143       4.80718484      16.63433600
Pd       2.70863002       4.03962307      16.48087573
Pd       9.32963468       3.30420388      16.11684233
Pd       1.18709739       9.16710473      16.52265030
Pd       7.31257121       6.79289088      16.10378304
Pd       6.39288969      12.70510530      16.35679499
Pd       9.37467081       8.88406926      16.04928393
Pd       6.11000538       4.55102194      16.60478074
Pd       1.21516022       1.85977325      16.51259025
Pd       3.88255980       7.21935650      16.32906323
O        8.10562265       4.88499127      16.24988418
O        8.33012184      13.48370570      15.99712975
O        0.02357583       0.16442618      16.07470840
O       10.43102420       1.67644827      15.64823885
O        5.91710868       2.48545484      17.42489600
O        3.15527401       9.19921450      16.06220161
O        6.72474533       1.65188545      14.85168232
O        4.00870173       2.77919419      15.64876854
O       11.04825012      12.16399233      15.69560828
O        0.28382913      11.02213602      16.05965122
O        2.62831300       0.46486393      16.03067461
O        1.28678449       5.14820175      17.23861728
O        5.85858895       8.13547098      16.05060335
O       10.27802599      10.17619551      17.27491719
O        4.31417183       5.34310833      16.90937514
O       13.60229752       2.95536881      17.40978397
O       11.42106832       5.61396256      16.00613318
O       13.06548603       8.93756087      17.19601155
O        4.62978805      12.80052874      17.21458086
O        7.53970012      11.36336604      17.44343130
