115
Lattice="13.75323 0.0 0.0 0.0 13.75323 0.0 0.0 0.0 23.89" Properties=species:S:1:pos:R:3 trial_index=141 seed_entry_id=117 discovered_entry_id=118 energy=-573.4854736328125 status=accepted pbc="T T F"
Pd       0.00000000       0.00000000      10.00000000
Pd       2.75064538       0.00000000      10.00000000
Pd       5.50129076       0.00000000      10.00000000
Pd       8.25193614       0.00000000      10.00000000
Pd      11.00258152       0.00000000      10.00000000
Pd       0.00000000       2.75064538      10.00000000
Pd       2.75064538       2.75064538      10.00000000
Pd       5.50129076       2.75064538      10.00000000
Pd       8.25193614       2.75064538      10.00000000
Pd      11.00258152       2.75064538      10.00000000
Pd       0.00000000       5.50129076      10.00000000
Pd       2.75064538       5.50129076      10.00000000
Pd       5.50129076       5.50129076      10.00000000
Pd       8.25193614       5.50129076      10.00000000
Pd      11.00258152       5.50129076      10.00000000
Pd       0.00000000       8.25193614      10.00000000
Pd       2.75064538       8.25193614      10.00000000
Pd       5.50129076       8.25193614      10.00000000
Pd       8.25193614       8.25193614      10.00000000
Pd      11.00258152       8.25193614      10.00000000
Pd       0.00000000      11.00258152      10.00000000
Pd       2.75064538      11.00258152      10.00000000
Pd       5.50129076      11.00258152      10.00000000
Pd       8.25193614      11.00258152      10.00000000
Pd      11.00258152      11.00258152      10.00000000
Pd       1.33305437       1.38035701      12.05221797
Pd       4.08925664       1.38750338      11.98771029
Pd       6.82888190       1.38154444      11.99332965
Pd       9.57512057       1.39592898      11.89594876
Pd      12.38684272       1.37174114      11.92044161
Pd       1.37065655       4.09970544      12.00656864
Pd       4.10125007       4.12393621      12.00820233
Pd       6.82444734       4.12497179      12.00908219
Pd       9.56728621       4.13975942      11.94281254
Pd      12.36578195       4.13265160      11.93417299
Pd       1.37110082       6.89256210      11.94010419
Pd       4.13935064       6.87026939      11.96482277
Pd       6.87097415       6.85831372      11.95140951
Pd       9.64205429       6.82915781      11.94515418
Pd      12.39111484       6.85622887      11.94896407
Pd       1.35216595       9.69735034      11.99083951
Pd       4.11777592       9.66324146      11.95099537
Pd       6.89476706       9.64088005      11.95142944
Pd       9.64982872       9.59779534      11.89439304
Pd      12.42487279       9.60955999      11.94161946
Pd       1.35802606      12.41462245      12.04582394
Pd       4.10624816      12.40887780      12.00662317
Pd       6.86816975      12.39901143      11.97280504
Pd       9.63028672      12.36702810      11.91406436
Pd      12.41879361      12.34804731      11.97632258
Pd       0.10638972       0.04008771      14.02845332
Pd       2.79866997       0.06411111      14.18350065
Pd       5.56784099      13.73338918      13.97853221
Pd       8.26989177      13.69354487      13.95389732
Pd      11.11877674       0.00811555      14.05379312
Pd      13.68038197       2.81057267      13.99299519
Pd       2.66374425       2.79707051      14.02909492
Pd       5.40800158       2.67796934      14.01262406
Pd       8.16410779       2.72338558      13.99507237
Pd      10.89537773       2.73814812      13.92826864
Pd       0.00416679       5.53361709      13.90771039
Pd       2.72159074       5.56787477      13.92203787
Pd       5.55923485       5.63448914      13.97105336
Pd       8.28954485       5.43309625      14.08371293
Pd      11.02983616       5.49098356      14.01166031
Pd       0.00765569       8.26688653      14.00263956
Pd       2.76519777       8.31812953      13.90219269
Pd       5.57734805       8.33620788      13.91619356
Pd       8.33310441       8.15005262      13.97456075
Pd      11.03921583       8.21165246      14.02002914
Pd      13.69779477      11.03244203      14.03925396
Pd       2.65902673      11.03636475      14.04029592
Pd       5.38547069      11.00484783      14.04953635
Pd       8.12160134      10.90030363      13.94485770
Pd      10.81897285      10.89974778      13.88412889
Pd      12.57423710       7.19574451      16.48896458
Pd       9.23074672      11.76032045      16.22429519
Pd       0.89649896      12.24010316      16.83297611
Pd       1.49805794       6.79384508      15.98283093
Pd      11.88434692      10.50494536      16.36312050
Pd       8.90310609       1.55640326      16.45422172
Pd       5.33450347       1.61702339      16.66382575
Pd       7.00519763       9.19947146      16.21649967
Pd       3.46901489      12.05607925      16.44423503
Pd      12.34890521       1.47244209      16.10509551
Pd      13.56953529       4.64149250      16.48755713
Pd       3.38274753       4.46898906      16.27946196
Pd       9.99378162       4.44491757      16.57324003
Pd       1.40244043       9.55348766      15.92998366
Pd       7.42234696       6.56090885      16.50272178
Pd       6.68629344      12.65095978      16.34827676
Pd       9.57438129       8.18607828      16.65848229
Pd       6.85893907       3.84680706      16.33236652
Pd       1.78229161       1.51660335      16.36083728
Pd       4.12043262       7.06108008      15.79866320
O        9.26137498       6.20488483      17.09242624
O        9.60642827      13.60694569      15.58610823
O        0.20627681       0.25905745      16.11860906
O       10.65587743       2.54782058      16.03096789
O        8.47191617       3.32916689      17.28484309
O        2.20036700      10.82114306      17.30696654
O        7.11809680       0.71844343      16.92441746
O        3.49580404       2.44326325      16.77325162
O       12.10331624      11.99695591      15.04890244
O       12.99078545      11.54579083      17.57919315
O        4.34203099      13.65578684      15.67596672
O        1.67917803       5.01254786      17.06318361
O        5.76484581       7.62488070      16.68175019
O       11.44512989       8.78012503      17.20864371
O        5.16924954       4.22688082      15.41352224
O        0.03069334       2.68356463      16.94621489
O       11.68310947       5.35162288      16.00266074
O        0.44541350       8.17617531      17.07795642
O        5.83274313      10.91974104      16.04939385
O        8.73708132      10.01077366      16.87905066
