115
Lattice="13.75323 0.0 0.0 0.0 13.75323 0.0 0.0 0.0 23.89" Properties=species:S:1:pos:R:3 trial_index=75 seed_entry_id=38 discovered_entry_id=62 energy=-570.7256469726562 status=accepted pbc="T T F"
Pd       0.00000000       0.00000000      10.00000000
Pd       2.75064538       0.00000000      10.00000000
Pd       5.50129076       0.00000000      10.00000000
Pd       8.25193614       0.00000000      10.00000000
Pd      11.00258152       0.00000000      10.00000000
Pd       0.00000000       2.75064538      10.00000000
Pd       2.75064538       2.75064538      10.00000000
Pd       5.50129076       2.75064538      10.00000000
Pd       8.25193614       2.75064538      10.00000000
Pd      11.00258152       2.75064538      10.00000000
Pd       0.00000000       5.50129076      10.00000000
Pd       2.75064538       5.50129076      10.00000000
Pd       5.50129076       5.50129076      10.00000000
Pd       8.25193614       5.50129076      10.00000000
Pd      11.00258152       5.50129076      10.00000000
Pd       0.00000000       8.25193614      10.00000000
Pd       2.75064538       8.25193614      10.00000000
Pd       5.50129076       8.25193614      10.00000000
Pd       8.25193614       8.25193614      10.00000000
Pd      11.00258152       8.25193614      10.00000000
Pd       0.00000000      11.00258152      10.00000000
Pd       2.75064538      11.00258152      10.00000000
Pd       5.50129076      11.00258152      10.00000000
Pd       8.25193614      11.00258152      10.00000000
Pd      11.00258152      11.00258152      10.00000000
Pd       1.33305437       1.38035701      12.05221797
Pd       4.08925664       1.38750338      11.98771029
Pd       6.82888190       1.38154444      11.99332965
Pd       9.57512057       1.39592898      11.89594876
Pd      12.38684272       1.37174114      11.92044161
Pd       1.37065655       4.09970544      12.00656864
Pd       4.10125007       4.12393621      12.00820233
Pd       6.82444734       4.12497179      12.00908219
Pd       9.56728621       4.13975942      11.94281254
Pd      12.36578195       4.13265160      11.93417299
Pd       1.37110082       6.89256210      11.94010419
Pd       4.13935064       6.87026939      11.96482277
Pd       6.87097415       6.85831372      11.95140951
Pd       9.64205429       6.82915781      11.94515418
Pd      12.39111484       6.85622887      11.94896407
Pd       1.35216595       9.69735034      11.99083951
Pd       4.11777592       9.66324146      11.95099537
Pd       6.89476706       9.64088005      11.95142944
Pd       9.64982872       9.59779534      11.89439304
Pd      12.42487279       9.60955999      11.94161946
Pd       1.35802606      12.41462245      12.04582394
Pd       4.10624816      12.40887780      12.00662317
Pd       6.86816975      12.39901143      11.97280504
Pd       9.63028672      12.36702810      11.91406436
Pd      12.41879361      12.34804731      11.97632258
Pd      13.68979432      13.72414538      14.07240780
Pd       2.72019781      13.72538812      14.03570236
Pd       5.44229102       0.07918147      14.02493861
Pd       8.18728565      13.74180102      13.98644838
Pd      10.92695081      13.65756354      13.99246577
Pd      13.69427108       2.76493110      14.01353053
Pd       2.78195648       2.77148813      13.99582120
Pd       5.49360440       2.80097751      13.99869095
Pd       8.23484782       2.83322536      13.92031527
Pd      10.97723382       2.70892053      13.95850912
Pd       0.01937842       5.51206520      13.94364329
Pd       2.75107530       5.47355915      13.98841540
Pd       5.48466759       5.53209632      13.98611241
Pd       8.24512038       5.56779175      13.97762968
Pd      11.01333961       5.45663463      13.89736182
Pd      13.74052873       8.24391678      14.02515075
Pd       2.75065555       8.20436254      13.94715110
Pd       5.50031266       8.31976463      13.97710296
Pd       8.30028324       8.26554268      13.95245017
Pd      11.00912982       8.21453618      14.10371689
Pd      13.73362399      10.97789806      13.96782232
Pd       2.77622533      10.97999111      14.00136431
Pd       5.50458800      11.07172295      13.99828188
Pd       8.24711708      10.99341798      13.90373137
Pd      10.95792135      10.99026254      13.90202919
Pd      12.44334373       7.12537440      16.38368699
Pd       9.45907858      11.77221145      16.24719277
Pd       1.32401304      12.10618059      15.98105626
Pd       1.42682356       5.92543483      16.20212962
Pd      12.26268168      10.00017531      15.93124541
Pd       8.68680694       1.74797706      16.31210009
Pd       3.53151444      13.37272182      16.73130970
Pd       6.90242176       9.66149982      15.91199678
Pd       4.16925120      10.02821928      16.31304539
Pd      12.38328077       1.47720917      16.28992326
Pd      13.01145115       4.01074455      16.44168482
Pd       4.97218112       2.32151549      16.64928471
Pd       9.72480345       5.82348566      16.44142999
Pd       1.44841845       8.54710888      16.48042836
Pd       6.76726281       6.96417675      15.90093459
Pd       6.49979405      12.57942319      16.56858427
Pd       9.30393679       8.43332659      16.66113809
Pd       6.86230857       4.29224494      16.19441114
Pd       1.43546416       1.42171296      15.84323099
Pd       4.14496476       6.19488102      16.27933718
O        8.25196513       6.85614190      17.23684170
O        8.29847306      13.48965076      16.09860158
O       12.50484383       0.08759158      17.83637870
O       10.54457801       1.28226966      15.53035905
O        8.83316315       3.79841014      15.91487206
O        3.39951527       8.12880648      15.96907891
O        5.33658508       0.39735707      16.07926135
O        3.08435300       1.55364130      16.96999411
O       12.05044122      11.68014565      17.29723365
O        2.14834117      10.47386978      16.83260041
O       13.04245760      12.61457238      17.46326681
O       13.64208087       5.73146827      17.42331473
O        4.96319644       4.44900026      16.84829878
O       10.33689221      10.06358638      16.64402205
O        6.96107742       2.46129131      17.09357593
O        0.20146169       2.39742709      17.08861862
O       11.57837098       5.35784626      15.87476251
O       13.34680841       8.73791441      17.09428134
O        4.70701062      11.76605695      17.04859175
O        7.66136324      11.09132450      17.10195614
