115
Lattice="13.75323 0.0 0.0 0.0 13.75323 0.0 0.0 0.0 23.89" Properties=species:S:1:pos:R:3 trial_index=131 seed_entry_id=108 discovered_entry_id=109 energy=-573.0980224609375 status=accepted pbc="T T F"
Pd       0.00000000       0.00000000      10.00000000
Pd       2.75064538       0.00000000      10.00000000
Pd       5.50129076       0.00000000      10.00000000
Pd       8.25193614       0.00000000      10.00000000
Pd      11.00258152       0.00000000      10.00000000
Pd       0.00000000       2.75064538      10.00000000
Pd       2.75064538       2.75064538      10.00000000
Pd       5.50129076       2.75064538      10.00000000
Pd       8.25193614       2.75064538      10.00000000
Pd      11.00258152       2.75064538      10.00000000
Pd       0.00000000       5.50129076      10.00000000
Pd       2.75064538       5.50129076      10.00000000
Pd       5.50129076       5.50129076      10.00000000
Pd       8.25193614       5.50129076      10.00000000
Pd      11.00258152       5.50129076      10.00000000
Pd       0.00000000       8.25193614      10.00000000
Pd       2.75064538       8.25193614      10.00000000
Pd       5.50129076       8.25193614      10.00000000
Pd       8.25193614       8.25193614      10.00000000
Pd      11.00258152       8.25193614      10.00000000
Pd       0.00000000      11.00258152      10.00000000
Pd       2.75064538      11.00258152      10.00000000
Pd       5.50129076      11.00258152      10.00000000
Pd       8.25193614      11.00258152      10.00000000
Pd      11.00258152      11.00258152      10.00000000
Pd       1.33305437       1.38035701      12.05221797
Pd       4.08925664       1.38750338      11.98771029
Pd       6.82888190       1.38154444      11.99332965
Pd       9.57512057       1.39592898      11.89594876
Pd      12.38684272       1.37174114      11.92044161
Pd       1.37065655       4.09970544      12.00656864
Pd       4.10125007       4.12393621      12.00820233
Pd       6.82444734       4.12497179      12.00908219
Pd       9.56728621       4.13975942      11.94281254
Pd      12.36578195       4.13265160      11.93417299
Pd       1.37110082       6.89256210      11.94010419
Pd       4.13935064       6.87026939      11.96482277
Pd       6.87097415       6.85831372      11.95140951
Pd       9.64205429       6.82915781      11.94515418
Pd      12.39111484       6.85622887      11.94896407
Pd       1.35216595       9.69735034      11.99083951
Pd       4.11777592       9.66324146      11.95099537
Pd       6.89476706       9.64088005      11.95142944
Pd       9.64982872       9.59779534      11.89439304
Pd      12.42487279       9.60955999      11.94161946
Pd       1.35802606      12.41462245      12.04582394
Pd       4.10624816      12.40887780      12.00662317
Pd       6.86816975      12.39901143      11.97280504
Pd       9.63028672      12.36702810      11.91406436
Pd      12.41879361      12.34804731      11.97632258
Pd      13.70864425       0.06427823      14.07044786
Pd       2.81301104       0.03909134      13.98996293
Pd       5.53974206       0.06785660      14.05080250
Pd       8.33733729      13.60447269      13.92606034
Pd      11.03421219      13.72411709      14.01518717
Pd      13.65561421       2.78916280      14.06361868
Pd       2.62061574       2.75794582      14.03334160
Pd       5.39926243       3.00966714      14.02606907
Pd       8.21472175       2.71186539      13.86320514
Pd      10.95080315       2.72101254      13.88738558
Pd      13.74173826       5.47454376      13.92281490
Pd       2.78634187       5.52432208      13.95695973
Pd       5.52534763       5.67918148      14.08138311
Pd       8.26785305       5.42489789      13.98639379
Pd      10.98691052       5.47781308      14.04792410
Pd      13.72890463       8.22337445      14.02210255
Pd       2.71527412       8.29771384      13.99615180
Pd       5.50255483       8.39039588      13.96255275
Pd       8.25097585       8.13928658      13.88072648
Pd      11.00655113       8.24262368      13.96140185
Pd      13.73605631      10.97398747      13.99787046
Pd       2.77839338      11.03712808      13.99106662
Pd       5.50087787      11.10609328      14.06834728
Pd       8.20099317      10.85334270      14.06382041
Pd      10.92693529      10.96266403      13.94902612
Pd      12.20481234       7.42888437      16.35899890
Pd       9.29903891      11.84970252      16.58980314
Pd       1.57530468      12.54245344      16.14727905
Pd       1.32988101       6.71463504      15.91105081
Pd      12.10123318      10.61564030      16.51967753
Pd       7.38472371       1.45406850      16.83266098
Pd       4.43134781       1.13474573      16.71795121
Pd       6.74083051       9.85248768      16.51602184
Pd       3.95643273      11.12404464      16.47431236
Pd      12.01514235       2.40924195      16.46643244
Pd      13.14630264       4.88711962      16.65586822
Pd       2.69216374       4.07878285      16.47687697
Pd       9.19666533       3.53642941      16.19129348
Pd       1.19005627       9.21088351      16.51398761
Pd       7.34746056       6.75346799      16.14582886
Pd       6.39561494      12.76434199      16.38086334
Pd       9.38630621       8.92828881      16.03563632
Pd       6.08320929       4.56869382      16.75798929
Pd       1.19256300       1.89982259      16.50724182
Pd       3.88919627       7.28629636      16.31242735
O        8.04350900       4.99107576      16.79562828
O        8.33482838      13.54383532      15.99669457
O        0.03558514       0.18770983      16.07893772
O       10.31195021       1.96505625      15.70029117
O        5.89258508       2.50122109      17.46715583
O        3.16096087       9.26265821      16.05650478
O        6.72322658       1.67453138      14.86069641
O        4.00279313       2.81743446      15.65694982
O       11.05220114      12.21884288      15.66554973
O        0.28868255      11.06302457      16.05541562
O        2.62289603       0.50608524      16.03098058
O        1.29293329       5.21270190      17.24309662
O        5.90880694       8.13944876      16.00435332
O       10.28038601      10.23466062      17.25217867
O        4.28325986       5.40173965      16.87517753
O       13.59236512       3.00647252      17.40343130
O       11.41829002       5.66552965      16.01848418
O       13.06599025       8.99037843      17.18919299
O        4.62905794      12.85020632      17.23181822
O        7.54475448      11.39498117      17.41745550
