115
Lattice="13.75323 0.0 0.0 0.0 13.75323 0.0 0.0 0.0 23.89" Properties=species:S:1:pos:R:3 trial_index=106 seed_entry_id=60 discovered_entry_id=89 energy=-572.54052734375 status=accepted pbc="T T F"
Pd       0.00000000       0.00000000      10.00000000
Pd       2.75064538       0.00000000      10.00000000
Pd       5.50129076       0.00000000      10.00000000
Pd       8.25193614       0.00000000      10.00000000
Pd      11.00258152       0.00000000      10.00000000
Pd       0.00000000       2.75064538      10.00000000
Pd       2.75064538       2.75064538      10.00000000
Pd       5.50129076       2.75064538      10.00000000
Pd       8.25193614       2.75064538      10.00000000
Pd      11.00258152       2.75064538      10.00000000
Pd       0.00000000       5.50129076      10.00000000
Pd       2.75064538       5.50129076      10.00000000
Pd       5.50129076       5.50129076      10.00000000
Pd       8.25193614       5.50129076      10.00000000
Pd      11.00258152       5.50129076      10.00000000
Pd       0.00000000       8.25193614      10.00000000
Pd       2.75064538       8.25193614      10.00000000
Pd       5.50129076       8.25193614      10.00000000
Pd       8.25193614       8.25193614      10.00000000
Pd      11.00258152       8.25193614      10.00000000
Pd       0.00000000      11.00258152      10.00000000
Pd       2.75064538      11.00258152      10.00000000
Pd       5.50129076      11.00258152      10.00000000
Pd       8.25193614      11.00258152      10.00000000
Pd      11.00258152      11.00258152      10.00000000
Pd       1.33305437       1.38035701      12.05221797
Pd       4.08925664       1.38750338      11.98771029
Pd       6.82888190       1.38154444      11.99332965
Pd       9.57512057       1.39592898      11.89594876
Pd      12.38684272       1.37174114      11.92044161
Pd       1.37065655       4.09970544      12.00656864
Pd       4.10125007       4.12393621      12.00820233
Pd       6.82444734       4.12497179      12.00908219
Pd       9.56728621       4.13975942      11.94281254
Pd      12.36578195       4.13265160      11.93417299
Pd       1.37110082       6.89256210      11.94010419
Pd       4.13935064       6.87026939      11.96482277
Pd       6.87097415       6.85831372      11.95140951
Pd       9.64205429       6.82915781      11.94515418
Pd      12.39111484       6.85622887      11.94896407
Pd       1.35216595       9.69735034      11.99083951
Pd       4.11777592       9.66324146      11.95099537
Pd       6.89476706       9.64088005      11.95142944
Pd       9.64982872       9.59779534      11.89439304
Pd      12.42487279       9.60955999      11.94161946
Pd       1.35802606      12.41462245      12.04582394
Pd       4.10624816      12.40887780      12.00662317
Pd       6.86816975      12.39901143      11.97280504
Pd       9.63028672      12.36702810      11.91406436
Pd      12.41879361      12.34804731      11.97632258
Pd      13.70489295      13.74600082      14.04084372
Pd       2.75766722       0.03452327      14.06061283
Pd       5.49703264       0.02552930      14.06001599
Pd       8.18913892       0.01840152      14.03810956
Pd      10.88777793       0.04313065      13.97208608
Pd      13.68847305       2.79109321      13.98850937
Pd       2.69957811       2.77407081      14.04105896
Pd       5.50125038       2.79094104      14.07727046
Pd       8.27250841       2.75727996      13.97167719
Pd      11.00468514       2.72865073      13.71539210
Pd       0.00460410       5.48390855      14.00458798
Pd       2.75054434       5.55857955      13.99694604
Pd       5.49704475       5.52870251      14.04732947
Pd       8.22114374       5.48971638      14.01629786
Pd      10.98813784       5.40334616      13.98165564
Pd      13.73716083       8.23860406      13.95063496
Pd       2.74719182       8.33268173      13.91332800
Pd       5.53924481       8.31211433      13.87491858
Pd       8.31156243       8.24898335      13.90451254
Pd      11.01107411       8.13593235      14.06019599
Pd      13.74857694      10.95244476      14.15029105
Pd       2.75453024      11.05067757      13.93765982
Pd       5.50325006      11.03098492      13.90154121
Pd       8.21679416      11.00111375      14.01705175
Pd      10.95030640      10.93452867      13.89496555
Pd      12.34765623       6.29290313      16.31682591
Pd       9.51470293       9.30674436      16.26701394
Pd       1.72807315      12.63032609      16.47993156
Pd       1.40217425       7.05418521      15.91221065
Pd      12.31696127       9.34889025      16.20888904
Pd       7.71396437       1.68918261      16.52426384
Pd       4.38816163       1.29348780      16.55412658
Pd       5.85225810       9.74961967      16.29169242
Pd       4.28602666      12.05056480      15.95313294
Pd      11.99522317      12.42442374      16.10051528
Pd       0.27851992       4.14702683      16.66276468
Pd       3.44569319       4.27788780      16.52264993
Pd      11.04791301       2.54374388      16.27491558
Pd       2.47483900       9.80363573      16.33535264
Pd       6.90531553       7.04877142      15.89985085
Pd       6.90293502      12.57290579      16.37078504
Pd       9.59476862       6.30169875      16.30918985
Pd       6.35653200       4.64286372      17.15062106
Pd       0.87125614       1.50449806      16.29111700
Pd       4.16615972       7.13558999      15.84128218
O        9.15531490       2.78294680      15.78221117
O        8.51567250      12.89128070      17.69777455
O       13.61076702      13.53768186      16.20102590
O       10.91192672       0.50140663      15.92714817
O        8.77930427       0.37978705      17.91809319
O        4.15637773       8.91851098      16.84382062
O        5.10399642       3.15771951      16.09961244
O        2.67280919       2.37177990      16.12106454
O       10.88079691      10.76542150      15.97046798
O        0.78964320      10.82293351      16.08540674
O        3.44391492      13.39915399      17.17946249
O        1.79236191       5.32790300      16.97664065
O        4.67535263       5.71582929      17.19652888
O        8.47192693       7.77935404      16.92338772
O        7.51886433       3.29634456      17.70998276
O       12.90617898       2.57557187      16.87507515
O       10.97799940       4.85397091      16.01583088
O       13.44825400       7.83595533      16.79469713
O        6.18729504       0.55154072      17.06355167
O        7.59333677      10.71020224      15.99190157
