115
Lattice="13.75323 0.0 0.0 0.0 13.75323 0.0 0.0 0.0 23.89" Properties=species:S:1:pos:R:3 trial_index=138 seed_entry_id=74 discovered_entry_id=115 energy=-572.9159545898438 status=accepted pbc="T T F"
Pd       0.00000000       0.00000000      10.00000000
Pd       2.75064538       0.00000000      10.00000000
Pd       5.50129076       0.00000000      10.00000000
Pd       8.25193614       0.00000000      10.00000000
Pd      11.00258152       0.00000000      10.00000000
Pd       0.00000000       2.75064538      10.00000000
Pd       2.75064538       2.75064538      10.00000000
Pd       5.50129076       2.75064538      10.00000000
Pd       8.25193614       2.75064538      10.00000000
Pd      11.00258152       2.75064538      10.00000000
Pd       0.00000000       5.50129076      10.00000000
Pd       2.75064538       5.50129076      10.00000000
Pd       5.50129076       5.50129076      10.00000000
Pd       8.25193614       5.50129076      10.00000000
Pd      11.00258152       5.50129076      10.00000000
Pd       0.00000000       8.25193614      10.00000000
Pd       2.75064538       8.25193614      10.00000000
Pd       5.50129076       8.25193614      10.00000000
Pd       8.25193614       8.25193614      10.00000000
Pd      11.00258152       8.25193614      10.00000000
Pd       0.00000000      11.00258152      10.00000000
Pd       2.75064538      11.00258152      10.00000000
Pd       5.50129076      11.00258152      10.00000000
Pd       8.25193614      11.00258152      10.00000000
Pd      11.00258152      11.00258152      10.00000000
Pd       1.33305437       1.38035701      12.05221797
Pd       4.08925664       1.38750338      11.98771029
Pd       6.82888190       1.38154444      11.99332965
Pd       9.57512057       1.39592898      11.89594876
Pd      12.38684272       1.37174114      11.92044161
Pd       1.37065655       4.09970544      12.00656864
Pd       4.10125007       4.12393621      12.00820233
Pd       6.82444734       4.12497179      12.00908219
Pd       9.56728621       4.13975942      11.94281254
Pd      12.36578195       4.13265160      11.93417299
Pd       1.37110082       6.89256210      11.94010419
Pd       4.13935064       6.87026939      11.96482277
Pd       6.87097415       6.85831372      11.95140951
Pd       9.64205429       6.82915781      11.94515418
Pd      12.39111484       6.85622887      11.94896407
Pd       1.35216595       9.69735034      11.99083951
Pd       4.11777592       9.66324146      11.95099537
Pd       6.89476706       9.64088005      11.95142944
Pd       9.64982872       9.59779534      11.89439304
Pd      12.42487279       9.60955999      11.94161946
Pd       1.35802606      12.41462245      12.04582394
Pd       4.10624816      12.40887780      12.00662317
Pd       6.86816975      12.39901143      11.97280504
Pd       9.63028672      12.36702810      11.91406436
Pd      12.41879361      12.34804731      11.97632258
Pd      12.77483998      13.30909661      15.68570257
Pd       2.72921900       0.03284948      14.02314309
Pd       5.46818136       0.02085854      14.03669321
Pd       8.22891736      13.65539233      13.95914476
Pd      10.94072271       0.11326127      13.87581341
Pd      13.73715032       2.65910804      13.96021843
Pd       2.71050204       2.74700592      13.98057081
Pd       5.46358996       2.73075579      14.00361203
Pd       8.25788614       2.67941450      13.94868066
Pd      10.93725451       2.79330225      13.92401625
Pd       0.02820625       5.53732982      14.04215624
Pd       2.69940467       5.51296186      14.01993131
Pd       5.45682537       5.45363533      14.06973653
Pd       8.26750645       5.43414368      14.00922206
Pd      10.98467242       5.55635082      14.03109472
Pd      13.66859705       8.22361488      13.98881009
Pd       2.68907583       8.26825639      13.89049434
Pd       5.50385835       8.37093365      13.94234667
Pd       8.28831624       8.16576159      13.95350846
Pd      10.96738974       8.28577808      13.99090556
Pd       0.02968096      11.02600745      14.00808615
Pd       2.82350931      11.03137227      13.95813496
Pd       5.54053690      11.05705887      14.05155602
Pd       8.28007536      10.91077641      13.92109817
Pd      11.00853132      11.05182260      13.91748499
Pd      12.10449386       6.98290250      16.11232978
Pd       9.49259815      11.45766192      16.45731360
Pd       1.47323890      12.12466350      16.09146938
Pd       1.31278218       5.58999725      17.28741155
Pd      12.29150572       9.85673866      16.28111358
Pd       9.07850082       1.22705598      16.31734113
Pd       5.40593807       1.88636942      16.85041397
Pd       7.00745248       9.49316127      15.92699279
Pd       3.97476054      10.46841136      16.39121643
Pd      11.81113128       1.98068910      16.39556449
Pd      12.88137590       4.19231584      17.28540799
Pd       4.01445094       4.00414402      15.94164630
Pd       9.53958638       4.61612044      16.59830310
Pd       0.96796651       8.34414359      16.57212115
Pd       7.01848259       6.69812655      16.16340275
Pd       6.49845524      12.35641196      16.65556217
Pd       9.59407525       8.09680421      16.51413913
Pd       7.02888936       3.93850470      15.97812717
Pd       1.69955064       1.86472553      16.56435165
Pd       3.32101706       7.04948072      16.45050910
O        8.75609957       6.39313702      16.92872732
O        8.34477529      13.14702682      15.98590392
O       13.61652431       1.38150814      15.73819776
O       10.11367967       2.74051427      16.95884382
O        7.32942883       2.17978817      16.95546868
O        2.85835835       8.91941684      15.86561910
O        5.39175867       0.08767276      16.03079879
O        3.52970071       2.40910794      17.14279307
O       11.46610595      11.83645396      15.82969392
O        0.46262657      10.40110693      16.01396882
O        2.38465557       0.07939440      15.99128279
O        0.91732030       3.49444089      17.48041257
O        5.21331363       7.01246814      15.48237249
O       10.44267148       9.77475840      16.97912305
O        3.29354134       5.28617658      17.29568836
O       11.35653593       5.35925023      17.20327449
O       12.42991726       4.14626244      14.80045950
O       13.65158895       6.97571779      17.47344460
O        4.93462562      11.64028794      17.48679680
O        7.72461796      10.88374392      17.18997177
