115
Lattice="13.75323 0.0 0.0 0.0 13.75323 0.0 0.0 0.0 23.89" Properties=species:S:1:pos:R:3 trial_index=78 seed_entry_id=64 discovered_entry_id=65 energy=-573.623779296875 status=accepted pbc="T T F"
Pd       0.00000000       0.00000000      10.00000000
Pd       2.75064538       0.00000000      10.00000000
Pd       5.50129076       0.00000000      10.00000000
Pd       8.25193614       0.00000000      10.00000000
Pd      11.00258152       0.00000000      10.00000000
Pd       0.00000000       2.75064538      10.00000000
Pd       2.75064538       2.75064538      10.00000000
Pd       5.50129076       2.75064538      10.00000000
Pd       8.25193614       2.75064538      10.00000000
Pd      11.00258152       2.75064538      10.00000000
Pd       0.00000000       5.50129076      10.00000000
Pd       2.75064538       5.50129076      10.00000000
Pd       5.50129076       5.50129076      10.00000000
Pd       8.25193614       5.50129076      10.00000000
Pd      11.00258152       5.50129076      10.00000000
Pd       0.00000000       8.25193614      10.00000000
Pd       2.75064538       8.25193614      10.00000000
Pd       5.50129076       8.25193614      10.00000000
Pd       8.25193614       8.25193614      10.00000000
Pd      11.00258152       8.25193614      10.00000000
Pd       0.00000000      11.00258152      10.00000000
Pd       2.75064538      11.00258152      10.00000000
Pd       5.50129076      11.00258152      10.00000000
Pd       8.25193614      11.00258152      10.00000000
Pd      11.00258152      11.00258152      10.00000000
Pd       1.33305437       1.38035701      12.05221797
Pd       4.08925664       1.38750338      11.98771029
Pd       6.82888190       1.38154444      11.99332965
Pd       9.57512057       1.39592898      11.89594876
Pd      12.38684272       1.37174114      11.92044161
Pd       1.37065655       4.09970544      12.00656864
Pd       4.10125007       4.12393621      12.00820233
Pd       6.82444734       4.12497179      12.00908219
Pd       9.56728621       4.13975942      11.94281254
Pd      12.36578195       4.13265160      11.93417299
Pd       1.37110082       6.89256210      11.94010419
Pd       4.13935064       6.87026939      11.96482277
Pd       6.87097415       6.85831372      11.95140951
Pd       9.64205429       6.82915781      11.94515418
Pd      12.39111484       6.85622887      11.94896407
Pd       1.35216595       9.69735034      11.99083951
Pd       4.11777592       9.66324146      11.95099537
Pd       6.89476706       9.64088005      11.95142944
Pd       9.64982872       9.59779534      11.89439304
Pd      12.42487279       9.60955999      11.94161946
Pd       1.35802606      12.41462245      12.04582394
Pd       4.10624816      12.40887780      12.00662317
Pd       6.86816975      12.39901143      11.97280504
Pd       9.63028672      12.36702810      11.91406436
Pd      12.41879361      12.34804731      11.97632258
Pd      13.75284388      13.74541285      14.01223311
Pd       2.79831553       0.02298019      14.05811016
Pd       5.45763378       0.14333766      13.97186233
Pd       8.20456836      13.70042062      13.95968935
Pd      11.01438249      13.70464460      14.06026901
Pd      13.67666137       2.78721729      13.99809963
Pd       2.67420507       2.73834360      14.03506115
Pd       5.42301656       2.84358198      14.13017860
Pd       8.14125309       2.76418805      13.96276210
Pd      10.88483348       2.68001408      13.96027072
Pd       0.08069167       5.53534183      13.90626331
Pd       2.80587377       5.47343469      13.92282809
Pd       5.55445999       5.62022346      13.95025037
Pd       8.32948890       5.50106871      14.09450425
Pd      11.12137229       5.44881966      13.95488632
Pd       0.05027756       8.22156011      14.05858463
Pd       2.76679604       8.25921789      14.04383799
Pd       5.49602170       8.35759816      14.00861437
Pd       8.22282551       8.22374960      13.88088114
Pd      11.07164204       8.18132705      13.99127202
Pd      13.69189363      10.94080268      13.95539565
Pd       2.72016948      11.01210912      13.88146430
Pd       5.47092060      11.11292134      13.97172408
Pd       8.20286082      10.95837134      14.03337354
Pd      10.92354259      10.89923817      13.94465006
Pd      12.57523442       7.00279847      16.31512448
Pd       9.59509808      11.85773320      16.72662358
Pd       1.64708727      12.05669686      16.11258443
Pd       1.67858939       6.64588350      15.99385730
Pd      12.15914544      10.18344802      16.61288818
Pd       8.66941988       1.57287580      16.39959392
Pd       5.13873571       1.54435349      16.58148367
Pd       6.72248432       9.74217817      16.04931388
Pd       3.99464042      10.12602727      15.94011784
Pd      12.28481464       1.38055256      16.08391589
Pd       0.03162956       4.50330510      16.40636011
Pd       3.79371258       3.99397446      16.25892844
Pd       9.97041147       4.33375368      16.29737245
Pd       1.48119294       9.18517160      16.69533256
Pd       7.65590702       7.05592514      16.44325413
Pd       6.49586697      12.61184964      15.92892800
Pd       9.45551875       9.11509054      15.93912831
Pd       6.64165766       4.42093082      16.27258921
Pd       1.63219829       1.35230267      16.52399948
Pd       4.23647383       7.35940177      16.54700532
O        9.26613449       6.13535010      15.90110096
O        9.37543388      13.61478669      15.68510172
O        0.07979871       0.14181734      16.06286493
O       10.56184524       2.40591495      16.13336592
O        8.24113911       3.46665879      16.92038620
O        3.33298933       8.89213043      17.37133491
O        6.88327538       0.69261530      16.78051926
O        3.32185506       2.27263692      17.02851001
O       11.32348415      11.80341800      15.75395171
O        0.24609862      10.67473573      15.97020899
O        2.85539491      13.58393687      16.10112991
O        1.93258125       4.84681016      16.85359535
O        6.14713969       8.07227448      17.10030729
O       10.31088352      10.09911954      17.43775754
O        4.99053875       5.58325820      15.94233434
O        0.05140169       2.55980854      16.98515170
O       11.85179625       5.13519445      15.95064256
O       13.23402824       8.60890390      17.22261641
O        6.90371090      11.42238069      17.55318602
O        8.10225642      11.76845905      18.07289510
