115
Lattice="13.75323 0.0 0.0 0.0 13.75323 0.0 0.0 0.0 23.89" Properties=species:S:1:pos:R:3 trial_index=104 seed_entry_id=86 discovered_entry_id=87 energy=-575.4927368164062 status=accepted pbc="T T F"
Pd       0.00000000       0.00000000      10.00000000
Pd       2.75064538       0.00000000      10.00000000
Pd       5.50129076       0.00000000      10.00000000
Pd       8.25193614       0.00000000      10.00000000
Pd      11.00258152       0.00000000      10.00000000
Pd       0.00000000       2.75064538      10.00000000
Pd       2.75064538       2.75064538      10.00000000
Pd       5.50129076       2.75064538      10.00000000
Pd       8.25193614       2.75064538      10.00000000
Pd      11.00258152       2.75064538      10.00000000
Pd       0.00000000       5.50129076      10.00000000
Pd       2.75064538       5.50129076      10.00000000
Pd       5.50129076       5.50129076      10.00000000
Pd       8.25193614       5.50129076      10.00000000
Pd      11.00258152       5.50129076      10.00000000
Pd       0.00000000       8.25193614      10.00000000
Pd       2.75064538       8.25193614      10.00000000
Pd       5.50129076       8.25193614      10.00000000
Pd       8.25193614       8.25193614      10.00000000
Pd      11.00258152       8.25193614      10.00000000
Pd       0.00000000      11.00258152      10.00000000
Pd       2.75064538      11.00258152      10.00000000
Pd       5.50129076      11.00258152      10.00000000
Pd       8.25193614      11.00258152      10.00000000
Pd      11.00258152      11.00258152      10.00000000
Pd       1.33305437       1.38035701      12.05221797
Pd       4.08925664       1.38750338      11.98771029
Pd       6.82888190       1.38154444      11.99332965
Pd       9.57512057       1.39592898      11.89594876
Pd      12.38684272       1.37174114      11.92044161
Pd       1.37065655       4.09970544      12.00656864
Pd       4.10125007       4.12393621      12.00820233
Pd       6.82444734       4.12497179      12.00908219
Pd       9.56728621       4.13975942      11.94281254
Pd      12.36578195       4.13265160      11.93417299
Pd       1.37110082       6.89256210      11.94010419
Pd       4.13935064       6.87026939      11.96482277
Pd       6.87097415       6.85831372      11.95140951
Pd       9.64205429       6.82915781      11.94515418
Pd      12.39111484       6.85622887      11.94896407
Pd       1.35216595       9.69735034      11.99083951
Pd       4.11777592       9.66324146      11.95099537
Pd       6.89476706       9.64088005      11.95142944
Pd       9.64982872       9.59779534      11.89439304
Pd      12.42487279       9.60955999      11.94161946
Pd       1.35802606      12.41462245      12.04582394
Pd       4.10624816      12.40887780      12.00662317
Pd       6.86816975      12.39901143      11.97280504
Pd       9.63028672      12.36702810      11.91406436
Pd      12.41879361      12.34804731      11.97632258
Pd       0.04522928      13.70443123      14.01912569
Pd       2.86271884       0.09655324      14.04270878
Pd       5.60698962       0.06456720      14.07685006
Pd       8.35235632      13.70263233      13.91547911
Pd      11.06084021      13.70183184      13.96604072
Pd      13.67393966       2.69742477      14.02848550
Pd       2.68447568       2.80849458      14.08790323
Pd       5.42970755       2.77908460      14.01262446
Pd       8.17526806       2.78639929      13.92268272
Pd      10.89864753       2.67074025      13.99864353
Pd      13.70704116       5.39517127      13.89801767
Pd       2.68456023       5.55662742      13.92531292
Pd       5.45145378       5.52082803      14.04103808
Pd       8.22475270       5.53775402      14.02626212
Pd      11.00379164       5.47543939      13.89425529
Pd      13.70025757       8.14791325      14.04062368
Pd       2.67099088       8.33043386      13.94866393
Pd       5.48591934       8.27652297      13.91983891
Pd       8.24303073       8.27234776      13.97312315
Pd      10.99575225       8.24600311      13.97977665
Pd      13.74325280      10.90262191      14.02974086
Pd       2.77868440      11.06410833      13.95616032
Pd       5.48781086      11.06025410      14.01330545
Pd       8.19716873      10.94284929      13.95855061
Pd      10.95306385      10.96204493      13.90309587
Pd      12.19007503       7.09726693      16.39686371
Pd       9.24626312      11.38163152      16.48246218
Pd       1.66448105      12.26122944      16.15043429
Pd       1.06777558       6.50704909      15.98684627
Pd      12.04981804      10.29020120      16.47712673
Pd       8.25652388       1.45148704      16.28666325
Pd       4.58809681       1.88137376      16.51844551
Pd       6.51405815       9.51490792      16.02687505
Pd       3.94028404      10.68583864      16.42401479
Pd      12.04112691       1.23156923      16.13615807
Pd      12.82548919       3.89244785      16.46452560
Pd       2.68566232       4.51162548      16.48678197
Pd       9.70145674       4.23094922      16.24680022
Pd       1.07984392       8.96729306      16.53912410
Pd       7.11730199       6.82391722      16.33343936
Pd       6.50386239      12.62512104      16.56614991
Pd       9.64230975       7.96948536      16.38029276
Pd       6.27023534       4.14931269      16.34934594
Pd       1.39729491       1.44611779      16.64417637
Pd       3.88835174       7.06918456      16.05913439
O        8.92836802       6.10914494      16.01345775
O        8.37714387      13.17920777      15.94866015
O       13.72279598       0.12455847      16.05223650
O       10.25007521       2.19783405      16.17379122
O        7.98299237       3.33701658      16.82113403
O        3.02479245       8.94248225      16.00348485
O        6.19088182       0.82635809      16.05624276
O        2.91890802       2.63710252      17.23108886
O       11.03445586      11.88655450      15.75589229
O        0.26272045      10.87564897      16.10382564
O        2.80505494       0.12899527      16.08125084
O        0.81370438       4.82306730      17.04148089
O        5.59502558       7.87941398      16.88798197
O       10.20968557       9.71592375      17.06361213
O        4.56949012       5.13356571      16.05894553
O       13.50482157       2.31014992      17.34032502
O       11.48587667       5.27520449      15.90326360
O       12.97972916       8.70456179      17.22082918
O        4.76787403      12.17645034      17.22472493
O        7.41320589      10.93417642      17.14507015
