115
Lattice="13.75323 0.0 0.0 0.0 13.75323 0.0 0.0 0.0 23.89" Properties=species:S:1:pos:R:3 trial_index=30 seed_entry_id=22 discovered_entry_id=23 energy=-572.7197265625 status=accepted pbc="T T F"
Pd       0.00000000       0.00000000      10.00000000
Pd       2.75064538       0.00000000      10.00000000
Pd       5.50129076       0.00000000      10.00000000
Pd       8.25193614       0.00000000      10.00000000
Pd      11.00258152       0.00000000      10.00000000
Pd       0.00000000       2.75064538      10.00000000
Pd       2.75064538       2.75064538      10.00000000
Pd       5.50129076       2.75064538      10.00000000
Pd       8.25193614       2.75064538      10.00000000
Pd      11.00258152       2.75064538      10.00000000
Pd       0.00000000       5.50129076      10.00000000
Pd       2.75064538       5.50129076      10.00000000
Pd       5.50129076       5.50129076      10.00000000
Pd       8.25193614       5.50129076      10.00000000
Pd      11.00258152       5.50129076      10.00000000
Pd       0.00000000       8.25193614      10.00000000
Pd       2.75064538       8.25193614      10.00000000
Pd       5.50129076       8.25193614      10.00000000
Pd       8.25193614       8.25193614      10.00000000
Pd      11.00258152       8.25193614      10.00000000
Pd       0.00000000      11.00258152      10.00000000
Pd       2.75064538      11.00258152      10.00000000
Pd       5.50129076      11.00258152      10.00000000
Pd       8.25193614      11.00258152      10.00000000
Pd      11.00258152      11.00258152      10.00000000
Pd       1.33305437       1.38035701      12.05221797
Pd       4.08925664       1.38750338      11.98771029
Pd       6.82888190       1.38154444      11.99332965
Pd       9.57512057       1.39592898      11.89594876
Pd      12.38684272       1.37174114      11.92044161
Pd       1.37065655       4.09970544      12.00656864
Pd       4.10125007       4.12393621      12.00820233
Pd       6.82444734       4.12497179      12.00908219
Pd       9.56728621       4.13975942      11.94281254
Pd      12.36578195       4.13265160      11.93417299
Pd       1.37110082       6.89256210      11.94010419
Pd       4.13935064       6.87026939      11.96482277
Pd       6.87097415       6.85831372      11.95140951
Pd       9.64205429       6.82915781      11.94515418
Pd      12.39111484       6.85622887      11.94896407
Pd       1.35216595       9.69735034      11.99083951
Pd       4.11777592       9.66324146      11.95099537
Pd       6.89476706       9.64088005      11.95142944
Pd       9.64982872       9.59779534      11.89439304
Pd      12.42487279       9.60955999      11.94161946
Pd       1.35802606      12.41462245      12.04582394
Pd       4.10624816      12.40887780      12.00662317
Pd       6.86816975      12.39901143      11.97280504
Pd       9.63028672      12.36702810      11.91406436
Pd      12.41879361      12.34804731      11.97632258
Pd       0.11029682       0.06835644      14.09837723
Pd       2.76322802      13.63613266      14.13254129
Pd       5.44415092       0.06576180      14.01524201
Pd       8.17263318       0.07394766      13.93038876
Pd      10.90105194      13.72908220      13.90231602
Pd      13.65906378       2.79394373      14.05221407
Pd       2.69167214       2.63273615      14.04512787
Pd       5.50242016       2.85488091      14.02893708
Pd       8.32736186       2.80082726      13.97276702
Pd       9.41470541       1.21399295      15.94098999
Pd      13.75100394       5.52378659      13.91355473
Pd       2.75082286       5.46249885      13.93885191
Pd       5.51146287       5.58083996      14.01340458
Pd       8.25099079       5.55936762      14.04176070
Pd      10.98721260       5.31281881      13.90561638
Pd       0.02976888       8.33015399      14.05594542
Pd       2.76675467       8.23367377      13.94422080
Pd       5.53162242       8.33695392      13.95888683
Pd       8.28262198       8.30003901      13.88859302
Pd      11.01543247       8.22740779      13.87952584
Pd      13.73755102      11.06233096      14.02041583
Pd       2.71875374      10.92883760      13.93157729
Pd       5.45601600      11.03186274      14.05532941
Pd       8.21501849      10.94929776      13.95465002
Pd      10.97820029      10.94051572      13.94202760
Pd      12.13964814       6.78446561      15.97942599
Pd       9.92151734      12.21426805      16.21669031
Pd       1.18307120      12.64897887      16.56292950
Pd       1.38975488       6.78084988      15.91539611
Pd      12.24280450      10.26266280      16.48171389
Pd       6.97440292       2.18117640      16.44178134
Pd       3.82746414       0.61551877      16.79749063
Pd       5.24592130       9.52345170      16.64828405
Pd       3.65621062      11.66636950      16.17077872
Pd      12.06964555       1.69255030      16.42095024
Pd      13.51957055       4.52675928      16.43364271
Pd       3.40833342       4.29225377      16.39006624
Pd       9.57003084       4.33702324      16.51062705
Pd       1.98202790       9.56609975      16.31156765
Pd       7.00319671       7.53229329      16.08951689
Pd       6.36887956      12.45083477      16.55942589
Pd       9.72137842       7.97528661      16.24187348
Pd       6.07344325       5.09711504      16.87101090
Pd       0.96347025       2.13484451      16.85120674
Pd       4.15869730       6.87309409      15.91985239
O        8.89178700       6.18200396      15.93407706
O        8.09610448      12.38284954      15.47037747
O       12.31045510       0.12804544      15.30337053
O       10.31082022       2.57387882      17.04762553
O        7.75947461       3.81990042      17.16457339
O        3.55886139       8.53826462      16.90891199
O        5.79514318       0.61733417      16.03140772
O        2.83582931       2.29419732      16.08829604
O       11.60184548      11.98490904      17.04829520
O        0.41572172      10.88280477      16.05555500
O        1.95017748       0.43268226      17.48105605
O        1.65560279       5.05433068      16.93376851
O        6.66862391       6.64732489      17.78028935
O       10.36887705       9.68892881      16.75453983
O        5.22454324       3.51776714      16.00635893
O       13.06264667       2.89039319      17.62271560
O       11.44902775       4.91400530      15.91204585
O       13.06038550       8.48225052      16.03618350
O        4.64375570      12.69160279      17.57927902
O        6.73808877      10.62464530      17.04377294
