115
Lattice="13.75323 0.0 0.0 0.0 13.75323 0.0 0.0 0.0 23.89" Properties=species:S:1:pos:R:3 trial_index=26 seed_entry_id=19 discovered_entry_id=20 energy=-574.2403564453125 status=accepted pbc="T T F"
Pd       0.00000000       0.00000000      10.00000000
Pd       2.75064538       0.00000000      10.00000000
Pd       5.50129076       0.00000000      10.00000000
Pd       8.25193614       0.00000000      10.00000000
Pd      11.00258152       0.00000000      10.00000000
Pd       0.00000000       2.75064538      10.00000000
Pd       2.75064538       2.75064538      10.00000000
Pd       5.50129076       2.75064538      10.00000000
Pd       8.25193614       2.75064538      10.00000000
Pd      11.00258152       2.75064538      10.00000000
Pd       0.00000000       5.50129076      10.00000000
Pd       2.75064538       5.50129076      10.00000000
Pd       5.50129076       5.50129076      10.00000000
Pd       8.25193614       5.50129076      10.00000000
Pd      11.00258152       5.50129076      10.00000000
Pd       0.00000000       8.25193614      10.00000000
Pd       2.75064538       8.25193614      10.00000000
Pd       5.50129076       8.25193614      10.00000000
Pd       8.25193614       8.25193614      10.00000000
Pd      11.00258152       8.25193614      10.00000000
Pd       0.00000000      11.00258152      10.00000000
Pd       2.75064538      11.00258152      10.00000000
Pd       5.50129076      11.00258152      10.00000000
Pd       8.25193614      11.00258152      10.00000000
Pd      11.00258152      11.00258152      10.00000000
Pd       1.33305437       1.38035701      12.05221797
Pd       4.08925664       1.38750338      11.98771029
Pd       6.82888190       1.38154444      11.99332965
Pd       9.57512057       1.39592898      11.89594876
Pd      12.38684272       1.37174114      11.92044161
Pd       1.37065655       4.09970544      12.00656864
Pd       4.10125007       4.12393621      12.00820233
Pd       6.82444734       4.12497179      12.00908219
Pd       9.56728621       4.13975942      11.94281254
Pd      12.36578195       4.13265160      11.93417299
Pd       1.37110082       6.89256210      11.94010419
Pd       4.13935064       6.87026939      11.96482277
Pd       6.87097415       6.85831372      11.95140951
Pd       9.64205429       6.82915781      11.94515418
Pd      12.39111484       6.85622887      11.94896407
Pd       1.35216595       9.69735034      11.99083951
Pd       4.11777592       9.66324146      11.95099537
Pd       6.89476706       9.64088005      11.95142944
Pd       9.64982872       9.59779534      11.89439304
Pd      12.42487279       9.60955999      11.94161946
Pd       1.35802606      12.41462245      12.04582394
Pd       4.10624816      12.40887780      12.00662317
Pd       6.86816975      12.39901143      11.97280504
Pd       9.63028672      12.36702810      11.91406436
Pd      12.41879361      12.34804731      11.97632258
Pd      13.66803481      13.71304876      13.98273124
Pd       2.68454791       0.02178114      14.12883319
Pd       5.45710013      13.73606012      14.04219022
Pd       8.27419825      13.71600040      13.95535831
Pd      10.95852072       0.00527368      13.93491533
Pd      13.68781417       2.78360177      13.97204765
Pd       2.75165793       2.77446614      14.02949866
Pd       5.55550202       2.69290564      14.11968152
Pd       8.29219760       2.77177552      13.94363047
Pd      10.98003470       2.68987151      13.92002646
Pd       0.02205137       5.51273331      13.93146316
Pd       2.68650439       5.58961147      13.95284841
Pd       5.42007170       5.55190616      14.01451329
Pd       8.12860992       5.54631620      13.99777175
Pd      11.05128394       5.46321613      13.93740685
Pd       0.00301469       8.24701710      13.97552253
Pd       2.74668126       8.31136603      13.93354334
Pd       5.57362311       8.31710298      13.96433970
Pd       8.25965635       8.27580611      13.98465698
Pd      11.02539651       8.25941559      13.90717440
Pd      13.72831403      10.96629962      14.07954086
Pd       2.73932226      11.01539898      13.92163545
Pd       5.52254010      10.99806883      13.99461164
Pd       8.22496711      10.97263397      13.89378506
Pd      10.95040954      11.03166305      13.96283071
Pd      12.33888467       6.59729926      16.16334564
Pd       8.91806710      11.04699408      16.49901734
Pd       1.38063178      12.47747804      16.59547776
Pd       1.35108230       7.01065169      16.00532516
Pd      12.12907862       9.47705065      16.18631709
Pd       8.13984370       1.55941319      16.40413759
Pd       3.95924015       0.95257801      16.72715362
Pd       5.54331729       9.99635983      16.71715172
Pd       3.91993130      11.98185595      15.96382127
Pd      11.71546965       1.22991765      16.27822877
Pd      13.72940150       4.34945443      16.49036913
Pd       3.44109387       4.61354049      16.34462046
Pd       9.87348520       3.95043215      16.31483138
Pd       2.22568049       9.74651423      16.31426136
Pd       7.26953959       8.03523472      16.89081116
Pd       6.53569602      13.02797356      16.57822278
Pd       9.76835752       7.62680910      16.22547161
Pd       6.80425621       5.07844966      16.66141507
Pd       1.07403931       1.63464999      16.12436559
Pd       4.12218474       7.11956417      15.89717573
O        9.55673797       5.77170253      15.47015913
O        8.45303471      13.24460119      15.96563089
O       13.39666566       0.20352527      15.98631226
O       10.06526658       2.05412535      16.91253285
O        7.98146547       3.52664890      16.79208601
O        3.91766186       8.91033562      16.84066976
O        5.96399014       1.21989786      15.92499668
O        2.90186585       2.59068426      16.11578505
O       10.83820378      10.96647122      15.95423498
O        0.53270371      10.77632134      16.05789888
O        2.14692614       0.37590109      17.38001530
O        1.69835978       5.19426938      17.01737369
O        5.82548997       6.73468713      16.99304870
O        8.89868763       9.14871769      17.14240528
O        5.25268654       4.17805358      15.63049493
O       13.19315511       2.51364488      17.09922915
O       11.78588331       4.62493808      15.90201439
O       13.38995946       8.10087536      16.80341530
O        4.75924013      13.04654848      17.44992848
O        7.04499405      11.20838777      17.14848110
