115
Lattice="13.75323 0.0 0.0 0.0 13.75323 0.0 0.0 0.0 23.89" Properties=species:S:1:pos:R:3 trial_index=94 seed_entry_id=77 discovered_entry_id=78 energy=-571.4412841796875 status=accepted pbc="T T F"
Pd       0.00000000       0.00000000      10.00000000
Pd       2.75064538       0.00000000      10.00000000
Pd       5.50129076       0.00000000      10.00000000
Pd       8.25193614       0.00000000      10.00000000
Pd      11.00258152       0.00000000      10.00000000
Pd       0.00000000       2.75064538      10.00000000
Pd       2.75064538       2.75064538      10.00000000
Pd       5.50129076       2.75064538      10.00000000
Pd       8.25193614       2.75064538      10.00000000
Pd      11.00258152       2.75064538      10.00000000
Pd       0.00000000       5.50129076      10.00000000
Pd       2.75064538       5.50129076      10.00000000
Pd       5.50129076       5.50129076      10.00000000
Pd       8.25193614       5.50129076      10.00000000
Pd      11.00258152       5.50129076      10.00000000
Pd       0.00000000       8.25193614      10.00000000
Pd       2.75064538       8.25193614      10.00000000
Pd       5.50129076       8.25193614      10.00000000
Pd       8.25193614       8.25193614      10.00000000
Pd      11.00258152       8.25193614      10.00000000
Pd       0.00000000      11.00258152      10.00000000
Pd       2.75064538      11.00258152      10.00000000
Pd       5.50129076      11.00258152      10.00000000
Pd       8.25193614      11.00258152      10.00000000
Pd      11.00258152      11.00258152      10.00000000
Pd       1.33305437       1.38035701      12.05221797
Pd       4.08925664       1.38750338      11.98771029
Pd       6.82888190       1.38154444      11.99332965
Pd       9.57512057       1.39592898      11.89594876
Pd      12.38684272       1.37174114      11.92044161
Pd       1.37065655       4.09970544      12.00656864
Pd       4.10125007       4.12393621      12.00820233
Pd       6.82444734       4.12497179      12.00908219
Pd       9.56728621       4.13975942      11.94281254
Pd      12.36578195       4.13265160      11.93417299
Pd       1.37110082       6.89256210      11.94010419
Pd       4.13935064       6.87026939      11.96482277
Pd       6.87097415       6.85831372      11.95140951
Pd       9.64205429       6.82915781      11.94515418
Pd      12.39111484       6.85622887      11.94896407
Pd       1.35216595       9.69735034      11.99083951
Pd       4.11777592       9.66324146      11.95099537
Pd       6.89476706       9.64088005      11.95142944
Pd       9.64982872       9.59779534      11.89439304
Pd      12.42487279       9.60955999      11.94161946
Pd       1.35802606      12.41462245      12.04582394
Pd       4.10624816      12.40887780      12.00662317
Pd       6.86816975      12.39901143      11.97280504
Pd       9.63028672      12.36702810      11.91406436
Pd      12.41879361      12.34804731      11.97632258
Pd      13.63715819      13.73766121      14.06466921
Pd       2.69967797       0.03100539      14.06325598
Pd       5.42720020       0.03141649      14.00837438
Pd       8.17418394      13.69434501      13.95641156
Pd      10.89263670       0.07468372      13.91184993
Pd      13.65045784       2.73675487      14.04196223
Pd       2.71759345       2.78348785      13.99211022
Pd       5.50408794       2.77656542      14.02518580
Pd       8.24395965       2.70486138      14.06093541
Pd      10.91030931       2.79924315      13.86637912
Pd       0.00231512       5.47500378      13.93188500
Pd       2.76218473       5.50797264      13.92460005
Pd       5.48418425       5.52565747      14.00117681
Pd       8.21903358       5.49621995      14.01434631
Pd      10.98972510       5.53658393      13.93019870
Pd       0.03602995       8.17395873      14.02011849
Pd       2.78409300       8.19560662      14.01977163
Pd       5.56509608       8.29644896      13.93023661
Pd       8.31622461       8.26825416      13.94890195
Pd      11.06037408       8.31479262      13.98785511
Pd      13.73769516      10.92721395      14.02247512
Pd       2.77591889      10.97372995      14.03523569
Pd       5.53683413      11.09030514      14.00767427
Pd       8.23722501      10.95693756      13.86517936
Pd      10.97734215      11.06614886      13.94177869
Pd      12.33566493       6.89566299      16.17623211
Pd       9.08787083      10.77591398      16.39724635
Pd       1.34129602      12.53992832      16.16265920
Pd       1.46653971       6.31556118      16.10864616
Pd      12.14018881      10.00859199      16.45154148
Pd       9.30093034       0.87402956      16.23065474
Pd       4.07508384       1.48024494      16.14655895
Pd       5.34224659       9.68309559      16.29775372
Pd       3.91797142      11.86978023      16.38887993
Pd      11.93087428       1.87901454      16.13589366
Pd      13.06008909       4.33802244      16.34839173
Pd       3.42447182       4.33026761      16.21511038
Pd       9.37752035       4.26380939      16.52548887
Pd       1.42178192       8.99938526      16.31208805
Pd       7.10860687       7.72844664      16.48087146
Pd       6.51890191      13.04805308      16.38237960
Pd       9.72231922       7.66665175      16.34097312
Pd       6.06378467       4.31417681      16.45829935
Pd       1.36503281       2.46030858      16.37946798
Pd       4.25212558       6.95088680      15.97592904
O        8.63447140       6.05696272      15.96413979
O        8.41088983      12.78749855      15.91782122
O       12.68852151       0.00843287      16.01479275
O       10.18840613       2.48575868      16.94387765
O        7.72610742       3.83673451      17.37799212
O        3.28701538       9.98276725      15.95295223
O        5.84410132       2.39978948      15.98006691
O        3.85260096       2.35528133      18.15952802
O       10.90022214      11.48358411      15.91786437
O        0.31625599      10.81876146      16.07276047
O        2.19274571       0.63701929      16.10253569
O        1.14136455       4.32450099      17.00039389
O        5.87012331       6.22124906      16.95039243
O       10.33925912       9.32780355      17.10612103
O        3.96361324       3.65063364      18.10717009
O       13.45012687      13.35398583      17.06157539
O       11.24454914       5.05869035      15.92222807
O       13.31642747       8.44904269      16.94790871
O        4.76646176      13.47446065      17.08420881
O        7.28434519       9.69611145      16.79564866
