115
Lattice="13.75323 0.0 0.0 0.0 13.75323 0.0 0.0 0.0 23.89" Properties=species:S:1:pos:R:3 trial_index=109 seed_entry_id=90 discovered_entry_id=91 energy=-574.3851318359375 status=accepted pbc="T T F"
Pd       0.00000000       0.00000000      10.00000000
Pd       2.75064538       0.00000000      10.00000000
Pd       5.50129076       0.00000000      10.00000000
Pd       8.25193614       0.00000000      10.00000000
Pd      11.00258152       0.00000000      10.00000000
Pd       0.00000000       2.75064538      10.00000000
Pd       2.75064538       2.75064538      10.00000000
Pd       5.50129076       2.75064538      10.00000000
Pd       8.25193614       2.75064538      10.00000000
Pd      11.00258152       2.75064538      10.00000000
Pd       0.00000000       5.50129076      10.00000000
Pd       2.75064538       5.50129076      10.00000000
Pd       5.50129076       5.50129076      10.00000000
Pd       8.25193614       5.50129076      10.00000000
Pd      11.00258152       5.50129076      10.00000000
Pd       0.00000000       8.25193614      10.00000000
Pd       2.75064538       8.25193614      10.00000000
Pd       5.50129076       8.25193614      10.00000000
Pd       8.25193614       8.25193614      10.00000000
Pd      11.00258152       8.25193614      10.00000000
Pd       0.00000000      11.00258152      10.00000000
Pd       2.75064538      11.00258152      10.00000000
Pd       5.50129076      11.00258152      10.00000000
Pd       8.25193614      11.00258152      10.00000000
Pd      11.00258152      11.00258152      10.00000000
Pd       1.33305437       1.38035701      12.05221797
Pd       4.08925664       1.38750338      11.98771029
Pd       6.82888190       1.38154444      11.99332965
Pd       9.57512057       1.39592898      11.89594876
Pd      12.38684272       1.37174114      11.92044161
Pd       1.37065655       4.09970544      12.00656864
Pd       4.10125007       4.12393621      12.00820233
Pd       6.82444734       4.12497179      12.00908219
Pd       9.56728621       4.13975942      11.94281254
Pd      12.36578195       4.13265160      11.93417299
Pd       1.37110082       6.89256210      11.94010419
Pd       4.13935064       6.87026939      11.96482277
Pd       6.87097415       6.85831372      11.95140951
Pd       9.64205429       6.82915781      11.94515418
Pd      12.39111484       6.85622887      11.94896407
Pd       1.35216595       9.69735034      11.99083951
Pd       4.11777592       9.66324146      11.95099537
Pd       6.89476706       9.64088005      11.95142944
Pd       9.64982872       9.59779534      11.89439304
Pd      12.42487279       9.60955999      11.94161946
Pd       1.35802606      12.41462245      12.04582394
Pd       4.10624816      12.40887780      12.00662317
Pd       6.86816975      12.39901143      11.97280504
Pd       9.63028672      12.36702810      11.91406436
Pd      12.41879361      12.34804731      11.97632258
Pd      13.69610035      13.74047228      14.01199614
Pd       2.78883647       0.03389201      14.08639740
Pd       5.54728247       0.04255561      14.06681153
Pd       8.30588996      13.67713889      13.97332397
Pd      10.97925967       0.02097041      13.90666714
Pd      13.73960789       2.77015981      14.02305944
Pd       2.75049031       2.74410035      14.00616133
Pd       5.49118901       2.74338152      13.97585877
Pd       8.22801040       2.72105511      13.94154406
Pd      10.99072872       2.72751221      13.89713402
Pd      13.73462826       5.52648017      14.02622544
Pd       2.71064070       5.55182220      13.87386237
Pd       5.50773349       5.51803071      13.94060684
Pd       8.24046049       5.45903619      14.06395909
Pd      10.96946714       5.44709472      14.06434318
Pd       0.04271657       8.19997585      14.03903453
Pd       2.73381920       8.28309829      13.91011980
Pd       5.44708369       8.29376561      13.97466429
Pd       8.22945351       8.21974508      13.90736075
Pd      11.07050148       8.36041372      13.92092687
Pd      13.69611949      10.92817396      13.98705241
Pd       2.77907857      11.01466935      14.05591971
Pd       5.50080287      11.04846959      14.03062917
Pd       8.23644468      10.94136215      13.93673498
Pd      10.95744355      11.07466449      13.95275342
Pd      11.65727784       6.47788007      17.24479230
Pd       9.20537009      11.30446697      16.57211108
Pd       1.29656691      12.22550640      16.08871121
Pd       0.46437648       7.15281646      16.67173554
Pd      11.93350396       9.89899102      16.57969876
Pd       7.97346405       1.43210314      16.45376969
Pd       4.22777276       1.92530763      16.34409988
Pd       6.70081038       9.58815821      15.94247270
Pd       4.14144317      10.53526984      16.50144230
Pd      11.58727760       1.14453646      16.26892886
Pd      12.47762934       4.06475089      16.00400035
Pd       1.53484244       4.27975510      15.88937738
Pd       9.50203284       3.89287620      15.98487442
Pd       1.65447106       9.45436179      16.20146670
Pd       6.73022723       6.76622477      15.95655676
Pd       6.41913879      12.66039511      16.57886409
Pd       9.19772389       7.77436679      16.42602000
Pd       6.03081137       4.11449832      16.28284308
Pd       0.95788866       1.51836057      16.53331675
Pd       3.94624168       6.91747380      16.09687899
O       10.75542808       7.04356001      15.44573180
O        8.31078034      13.20614498      16.01632217
O       13.32110537       0.15133225      16.03122355
O        9.87970276       1.96962833      16.76212869
O        7.66640975       3.32630870      16.94068524
O        3.39505874       8.71064581      16.68056192
O        5.92103270       0.83914167      16.04675097
O        2.50157221       2.76788029      16.88845732
O       11.05815678      11.58288564      15.91533507
O        0.04013133      10.60605045      16.05068969
O        2.37739251       0.13780634      16.09235538
O        2.07177128       6.07597359      16.67879077
O        7.45476630       8.16775847      17.21064706
O       10.05360704       9.54528768      17.15059233
O        4.41867971       5.05619754      15.66330931
O       13.01794872       2.46991092      17.12295841
O       10.94282767       4.68308772      17.21846706
O       12.65616260       8.16495976      17.32588939
O        4.66385381      12.21988773      17.16080151
O        7.35457475      11.01317444      17.21784434
