115
Lattice="13.75323 0.0 0.0 0.0 13.75323 0.0 0.0 0.0 23.89" Properties=species:S:1:pos:R:3 trial_index=86 seed_entry_id=71 discovered_entry_id=72 energy=-574.7388916015625 status=accepted pbc="T T F"
Pd       0.00000000       0.00000000      10.00000000
Pd       2.75064538       0.00000000      10.00000000
Pd       5.50129076       0.00000000      10.00000000
Pd       8.25193614       0.00000000      10.00000000
Pd      11.00258152       0.00000000      10.00000000
Pd       0.00000000       2.75064538      10.00000000
Pd       2.75064538       2.75064538      10.00000000
Pd       5.50129076       2.75064538      10.00000000
Pd       8.25193614       2.75064538      10.00000000
Pd      11.00258152       2.75064538      10.00000000
Pd       0.00000000       5.50129076      10.00000000
Pd       2.75064538       5.50129076      10.00000000
Pd       5.50129076       5.50129076      10.00000000
Pd       8.25193614       5.50129076      10.00000000
Pd      11.00258152       5.50129076      10.00000000
Pd       0.00000000       8.25193614      10.00000000
Pd       2.75064538       8.25193614      10.00000000
Pd       5.50129076       8.25193614      10.00000000
Pd       8.25193614       8.25193614      10.00000000
Pd      11.00258152       8.25193614      10.00000000
Pd       0.00000000      11.00258152      10.00000000
Pd       2.75064538      11.00258152      10.00000000
Pd       5.50129076      11.00258152      10.00000000
Pd       8.25193614      11.00258152      10.00000000
Pd      11.00258152      11.00258152      10.00000000
Pd       1.33305437       1.38035701      12.05221797
Pd       4.08925664       1.38750338      11.98771029
Pd       6.82888190       1.38154444      11.99332965
Pd       9.57512057       1.39592898      11.89594876
Pd      12.38684272       1.37174114      11.92044161
Pd       1.37065655       4.09970544      12.00656864
Pd       4.10125007       4.12393621      12.00820233
Pd       6.82444734       4.12497179      12.00908219
Pd       9.56728621       4.13975942      11.94281254
Pd      12.36578195       4.13265160      11.93417299
Pd       1.37110082       6.89256210      11.94010419
Pd       4.13935064       6.87026939      11.96482277
Pd       6.87097415       6.85831372      11.95140951
Pd       9.64205429       6.82915781      11.94515418
Pd      12.39111484       6.85622887      11.94896407
Pd       1.35216595       9.69735034      11.99083951
Pd       4.11777592       9.66324146      11.95099537
Pd       6.89476706       9.64088005      11.95142944
Pd       9.64982872       9.59779534      11.89439304
Pd      12.42487279       9.60955999      11.94161946
Pd       1.35802606      12.41462245      12.04582394
Pd       4.10624816      12.40887780      12.00662317
Pd       6.86816975      12.39901143      11.97280504
Pd       9.63028672      12.36702810      11.91406436
Pd      12.41879361      12.34804731      11.97632258
Pd       0.00802549       0.10479522      14.08289493
Pd       2.77559346       0.01160932      13.99210755
Pd       5.54066684       0.01139089      14.03777918
Pd       8.27824244      13.65186080      14.00815218
Pd      10.93418967      13.70368049      13.81566079
Pd      13.67833736       2.85016767      14.03591206
Pd       2.71475985       2.77031494      14.00310182
Pd       5.52141644       2.77782209      13.95528794
Pd       8.25316603       2.68305567      14.00022402
Pd      10.95663460       2.69413458      13.93799866
Pd      13.74981444       5.53467814      13.94512682
Pd       2.70306472       5.49959649      14.09468566
Pd       5.52293314       5.56953983      13.97681258
Pd       8.27369752       5.45467583      13.93940173
Pd      11.03988344       5.43288814      13.97264902
Pd      13.67968106       8.27572283      13.97879232
Pd       2.70058995       8.25711681      13.97542788
Pd       5.44791412       8.28937954      13.92914064
Pd       8.22523854       8.23178380      13.99500652
Pd      10.95677835       8.18263412      14.01534722
Pd       0.01394646      11.13874635      13.93131071
Pd       2.79899718      10.99933480      14.16253775
Pd       5.47533092      11.02499294      14.04606616
Pd       8.18279963      10.92046399      13.98678121
Pd      10.93275590      10.93759702      13.88495961
Pd      12.02360129       6.43833368      16.51701367
Pd       9.20560204      11.04644237      16.58265510
Pd       3.11651760      12.95192167      16.51028766
Pd       1.09885473       6.92414855      16.02689424
Pd      11.91113172       9.54608214      16.46776748
Pd       7.89569146       1.36152287      16.53012072
Pd       4.32656743       1.66806015      16.13739887
Pd       6.54190596       9.43336197      16.02117821
Pd       4.13361051      10.46854497      16.92514584
Pd      11.07399075       0.95720769      16.32477446
Pd      12.40033070       3.21983520      16.53178900
Pd       1.35698168       4.23507470      16.31826143
Pd       9.29096998       3.91857095      16.49951934
Pd       1.64311964       9.47601636      16.26226348
Pd       7.05480633       6.64732107      16.27711076
Pd       6.51394573      12.52225535      16.63619880
Pd       9.57189318       7.60329706      16.42228625
Pd       5.82761134       4.14565336      16.29882130
Pd       0.85745797       1.67380405      16.59339039
Pd       3.81218196       7.12570312      16.31008699
O        8.79043096       5.78465658      15.92420885
O        8.39066250      13.04338993      16.04167807
O       12.21039627      13.50811001      15.33691839
O        9.66373168       2.02635215      17.15944789
O        7.42072784       3.26070548      17.01091458
O        3.21093019       8.78244917      17.17416688
O        6.02771796       0.65199738      16.05651730
O        2.57624915       2.59992082      16.06611298
O       11.02156502      11.22203232      15.86247117
O       13.64384789       9.89489361      15.50030976
O        1.46609201      13.65494909      15.73547383
O        0.13280829       5.51746564      17.11187390
O        5.66995692       7.77976925      16.93529590
O       10.07551688       9.30261790      17.25830750
O        4.29794282       5.29122365      15.65863810
O       12.84208837       1.49547467      17.37395768
O       11.17203728       4.69161002      15.98338340
O       12.83652766       8.01898676      17.24022028
O        4.71326798      12.25575874      17.39860177
O        7.36037280      10.81928551      17.25797408
