115
Lattice="13.75323 0.0 0.0 0.0 13.75323 0.0 0.0 0.0 23.89" Properties=species:S:1:pos:R:3 trial_index=11 seed_entry_id=6 discovered_entry_id=7 energy=-569.66259765625 status=accepted pbc="T T F"
Pd       0.00000000       0.00000000      10.00000000
Pd       2.75064538       0.00000000      10.00000000
Pd       5.50129076       0.00000000      10.00000000
Pd       8.25193614       0.00000000      10.00000000
Pd      11.00258152       0.00000000      10.00000000
Pd       0.00000000       2.75064538      10.00000000
Pd       2.75064538       2.75064538      10.00000000
Pd       5.50129076       2.75064538      10.00000000
Pd       8.25193614       2.75064538      10.00000000
Pd      11.00258152       2.75064538      10.00000000
Pd       0.00000000       5.50129076      10.00000000
Pd       2.75064538       5.50129076      10.00000000
Pd       5.50129076       5.50129076      10.00000000
Pd       8.25193614       5.50129076      10.00000000
Pd      11.00258152       5.50129076      10.00000000
Pd       0.00000000       8.25193614      10.00000000
Pd       2.75064538       8.25193614      10.00000000
Pd       5.50129076       8.25193614      10.00000000
Pd       8.25193614       8.25193614      10.00000000
Pd      11.00258152       8.25193614      10.00000000
Pd       0.00000000      11.00258152      10.00000000
Pd       2.75064538      11.00258152      10.00000000
Pd       5.50129076      11.00258152      10.00000000
Pd       8.25193614      11.00258152      10.00000000
Pd      11.00258152      11.00258152      10.00000000
Pd       1.33305437       1.38035701      12.05221797
Pd       4.08925664       1.38750338      11.98771029
Pd       6.82888190       1.38154444      11.99332965
Pd       9.57512057       1.39592898      11.89594876
Pd      12.38684272       1.37174114      11.92044161
Pd       1.37065655       4.09970544      12.00656864
Pd       4.10125007       4.12393621      12.00820233
Pd       6.82444734       4.12497179      12.00908219
Pd       9.56728621       4.13975942      11.94281254
Pd      12.36578195       4.13265160      11.93417299
Pd       1.37110082       6.89256210      11.94010419
Pd       4.13935064       6.87026939      11.96482277
Pd       6.87097415       6.85831372      11.95140951
Pd       9.64205429       6.82915781      11.94515418
Pd      12.39111484       6.85622887      11.94896407
Pd       1.35216595       9.69735034      11.99083951
Pd       4.11777592       9.66324146      11.95099537
Pd       6.89476706       9.64088005      11.95142944
Pd       9.64982872       9.59779534      11.89439304
Pd      12.42487279       9.60955999      11.94161946
Pd       1.35802606      12.41462245      12.04582394
Pd       4.10624816      12.40887780      12.00662317
Pd       6.86816975      12.39901143      11.97280504
Pd       9.63028672      12.36702810      11.91406436
Pd      12.41879361      12.34804731      11.97632258
Pd      13.65858796      13.72537927      14.04555342
Pd       2.72089295      13.70480834      14.07101875
Pd       5.43597869       0.03827260      14.05501777
Pd       8.17965867      13.68927128      14.01920222
Pd      10.90071251       0.08360727      13.92920443
Pd      13.66181519       2.77152582      13.99539632
Pd       2.68299928       2.70408368      14.06681753
Pd       5.43843989       2.86651606      14.03093023
Pd       8.20278973       2.72589007      14.01255456
Pd      10.87520094       2.77049045      13.88693948
Pd       0.00415234       5.56010653      13.93227363
Pd       2.80691752       5.43199531      14.05717362
Pd       5.51271513       5.62860135      14.14440134
Pd       8.22293270       5.48578670      14.05738459
Pd      10.96995474       5.46633576      14.00636452
Pd       0.03658949       8.28623715      14.03271218
Pd       2.65480694       8.17158802      13.90033268
Pd       5.21011524       8.48993286      14.58139843
Pd       8.61301495       8.23558912      14.20597205
Pd      11.15198846       8.18676816      13.95801759
Pd       0.01722335      10.99078327      14.03578999
Pd       2.78558221      10.96513063      13.94276480
Pd       5.58418308      11.12054150      13.95166068
Pd       8.32836053      10.98660279      13.96444026
Pd      11.06519351      10.85065371      13.93336672
Pd      12.57779548       6.79682673      16.42074301
Pd       6.84000579      10.10637271      16.13002043
Pd       1.39533967      12.36258348      15.97564883
Pd       1.45630211       6.86149152      16.02926051
Pd       9.49613787       8.52555325      16.69627993
Pd       6.87581465       1.17715442      16.06152920
Pd       3.58667286       0.08358758      16.89853211
Pd       2.02611330       9.57766303      16.29727899
Pd       4.15891015      11.26668921      16.15591548
Pd       9.31944377      11.94632002      16.31703106
Pd       1.15086175       4.13102591      15.98128569
Pd       3.67677794       3.55539588      16.60772575
Pd      12.08288718       0.96473644      16.31244477
Pd      12.88580635       9.64421922      16.32364962
Pd       6.83143478       7.11536424      16.16802391
Pd       6.35998827      12.63168499      17.44251277
Pd       9.33952169       5.81253413      16.72125984
Pd       6.59834537       4.39625169      16.94590412
Pd       0.97318363       1.33863005      16.09655276
Pd       4.13008719       6.60091043      16.50141696
O        8.60302878       2.46290788      16.04463702
O        7.64321046       8.63800635      17.25573523
O       10.85943972      12.32029809      15.22301443
O       11.68438062      13.23702117      17.53841804
O       10.39853137      13.03625351      17.77490501
O        3.62868604       8.41228844      15.83512354
O        5.66861863       2.87972628      16.08854977
O        2.94999087       1.78872803      16.12309798
O        7.80662111      11.36991199      17.41120248
O        0.60575691      10.77099391      16.95249847
O        4.29878226      12.24892220      17.85742344
O        0.23797049       5.57586003      17.02276473
O        4.70716023       5.00819844      17.42754962
O        7.60180227       5.93506410      17.63781685
O        8.46258243       3.56199855      16.87317514
O       12.18401346       2.67133092      15.40362176
O       11.08567799       5.47223848      16.00485963
O       11.36138811       8.36561523      16.04665982
O        5.52374308       0.63731189      17.45757725
O        6.76118361       8.28494346      13.42316316
