115
Lattice="13.75323 0.0 0.0 0.0 13.75323 0.0 0.0 0.0 23.89" Properties=species:S:1:pos:R:3 trial_index=179 seed_entry_id=147 discovered_entry_id=148 energy=-576.73779296875 status=accepted pbc="T T F"
Pd       0.00000000       0.00000000      10.00000000
Pd       2.75064538       0.00000000      10.00000000
Pd       5.50129076       0.00000000      10.00000000
Pd       8.25193614       0.00000000      10.00000000
Pd      11.00258152       0.00000000      10.00000000
Pd       0.00000000       2.75064538      10.00000000
Pd       2.75064538       2.75064538      10.00000000
Pd       5.50129076       2.75064538      10.00000000
Pd       8.25193614       2.75064538      10.00000000
Pd      11.00258152       2.75064538      10.00000000
Pd       0.00000000       5.50129076      10.00000000
Pd       2.75064538       5.50129076      10.00000000
Pd       5.50129076       5.50129076      10.00000000
Pd       8.25193614       5.50129076      10.00000000
Pd      11.00258152       5.50129076      10.00000000
Pd       0.00000000       8.25193614      10.00000000
Pd       2.75064538       8.25193614      10.00000000
Pd       5.50129076       8.25193614      10.00000000
Pd       8.25193614       8.25193614      10.00000000
Pd      11.00258152       8.25193614      10.00000000
Pd       0.00000000      11.00258152      10.00000000
Pd       2.75064538      11.00258152      10.00000000
Pd       5.50129076      11.00258152      10.00000000
Pd       8.25193614      11.00258152      10.00000000
Pd      11.00258152      11.00258152      10.00000000
Pd       1.33305437       1.38035701      12.05221797
Pd       4.08925664       1.38750338      11.98771029
Pd       6.82888190       1.38154444      11.99332965
Pd       9.57512057       1.39592898      11.89594876
Pd      12.38684272       1.37174114      11.92044161
Pd       1.37065655       4.09970544      12.00656864
Pd       4.10125007       4.12393621      12.00820233
Pd       6.82444734       4.12497179      12.00908219
Pd       9.56728621       4.13975942      11.94281254
Pd      12.36578195       4.13265160      11.93417299
Pd       1.37110082       6.89256210      11.94010419
Pd       4.13935064       6.87026939      11.96482277
Pd       6.87097415       6.85831372      11.95140951
Pd       9.64205429       6.82915781      11.94515418
Pd      12.39111484       6.85622887      11.94896407
Pd       1.35216595       9.69735034      11.99083951
Pd       4.11777592       9.66324146      11.95099537
Pd       6.89476706       9.64088005      11.95142944
Pd       9.64982872       9.59779534      11.89439304
Pd      12.42487279       9.60955999      11.94161946
Pd       1.35802606      12.41462245      12.04582394
Pd       4.10624816      12.40887780      12.00662317
Pd       6.86816975      12.39901143      11.97280504
Pd       9.63028672      12.36702810      11.91406436
Pd      12.41879361      12.34804731      11.97632258
Pd       0.00449378      13.71274994      14.09927747
Pd       2.81333778       0.08236011      14.01449130
Pd       5.54273517      13.73744909      14.03372647
Pd       8.31960050      13.73126188      13.95826599
Pd      11.03285232       0.01739682      13.95133269
Pd      13.66157144       2.75753021      13.98303284
Pd       2.66578721       2.84332418      14.03970454
Pd       5.36751106       2.65438304      13.93505890
Pd       8.23570023       2.71970355      13.95842990
Pd      10.93236441       2.74493718      13.88392271
Pd       0.03032669       5.49405365      14.05068822
Pd       2.72987772       5.59124888      14.03757055
Pd       5.46177546       5.44288249      14.03142116
Pd       8.23751334       5.53501896      14.05842856
Pd      11.00256119       5.51303073      13.87875693
Pd      13.71789329       8.16208550      14.00453690
Pd       2.73534659       8.31686341      13.93200815
Pd       5.53048737       8.24029898      13.91433954
Pd       8.28550085       8.28949933      13.93779845
Pd      11.00306499       8.27296558      14.02142433
Pd      13.73632876      10.89943348      13.99926107
Pd       2.78704603      11.06563110      13.92047007
Pd       5.53470788      11.01036704      14.06485004
Pd       8.22943281      10.96806067      13.97232053
Pd      10.96888752      11.00505685      13.90291232
Pd      12.03677374       6.89606803      16.30236175
Pd       9.39776467      11.46766343      16.49383879
Pd       1.47789005      12.14551149      16.08700411
Pd       1.46167777       5.25946899      16.58791443
Pd      12.06511815      10.08729644      16.45074976
Pd       8.23841618       1.50794172      16.79256611
Pd       4.41906956       0.57457443      16.70009675
Pd       6.73671815       9.55670836      16.33368620
Pd       3.94399306      10.79322578      16.35003349
Pd      11.81371638       1.59753411      16.16434109
Pd      12.77103187       4.10812185      16.27484455
Pd       3.99166835       4.13493845      16.02893909
Pd       9.42565125       4.29032640      16.52235155
Pd       1.05977134       8.72196776      16.54456038
Pd       6.62329478       6.07866884      16.56179696
Pd       6.68034533      12.67956196      16.31283628
Pd       9.41943522       8.00652927      16.40349718
Pd       6.63951995       3.62089563      15.88135872
Pd       1.58011295       1.78093041      16.41776911
Pd       3.84345314       7.38506922      16.50872239
O        8.57984042       6.19433118      16.13063292
O        8.59318558      13.36862049      15.99368374
O       13.59030102       0.81384298      15.96760925
O       10.08652342       2.35407715      16.67451937
O        7.87326280       3.37989620      17.42201445
O        2.96539199       9.10262943      15.92536556
O        6.38441713       0.76427219      17.22211859
O        3.46025881       2.38070622      16.87738053
O       11.21219449      11.80179162      15.78671032
O        0.29221470      10.55423406      16.05352043
O        2.54772783       0.05985772      16.09036178
O        1.99394558       7.04436219      17.14821018
O        5.72219824       7.92066876      15.94275140
O       10.19155691       9.69754048      17.04019550
O        4.75315796       5.72123676      17.10934452
O        0.72067450       3.47069532      16.94140485
O       11.13216233       5.13599015      15.88538773
O       12.93223610       8.42194969      17.14720606
O        4.85889864      12.36563765      17.01028414
O        7.60222107      11.06914646      17.18158548
