115
Lattice="13.75323 0.0 0.0 0.0 13.75323 0.0 0.0 0.0 23.89" Properties=species:S:1:pos:R:3 trial_index=100 seed_entry_id=82 discovered_entry_id=83 energy=-575.2247314453125 status=accepted pbc="T T F"
Pd       0.00000000       0.00000000      10.00000000
Pd       2.75064538       0.00000000      10.00000000
Pd       5.50129076       0.00000000      10.00000000
Pd       8.25193614       0.00000000      10.00000000
Pd      11.00258152       0.00000000      10.00000000
Pd       0.00000000       2.75064538      10.00000000
Pd       2.75064538       2.75064538      10.00000000
Pd       5.50129076       2.75064538      10.00000000
Pd       8.25193614       2.75064538      10.00000000
Pd      11.00258152       2.75064538      10.00000000
Pd       0.00000000       5.50129076      10.00000000
Pd       2.75064538       5.50129076      10.00000000
Pd       5.50129076       5.50129076      10.00000000
Pd       8.25193614       5.50129076      10.00000000
Pd      11.00258152       5.50129076      10.00000000
Pd       0.00000000       8.25193614      10.00000000
Pd       2.75064538       8.25193614      10.00000000
Pd       5.50129076       8.25193614      10.00000000
Pd       8.25193614       8.25193614      10.00000000
Pd      11.00258152       8.25193614      10.00000000
Pd       0.00000000      11.00258152      10.00000000
Pd       2.75064538      11.00258152      10.00000000
Pd       5.50129076      11.00258152      10.00000000
Pd       8.25193614      11.00258152      10.00000000
Pd      11.00258152      11.00258152      10.00000000
Pd       1.33305437       1.38035701      12.05221797
Pd       4.08925664       1.38750338      11.98771029
Pd       6.82888190       1.38154444      11.99332965
Pd       9.57512057       1.39592898      11.89594876
Pd      12.38684272       1.37174114      11.92044161
Pd       1.37065655       4.09970544      12.00656864
Pd       4.10125007       4.12393621      12.00820233
Pd       6.82444734       4.12497179      12.00908219
Pd       9.56728621       4.13975942      11.94281254
Pd      12.36578195       4.13265160      11.93417299
Pd       1.37110082       6.89256210      11.94010419
Pd       4.13935064       6.87026939      11.96482277
Pd       6.87097415       6.85831372      11.95140951
Pd       9.64205429       6.82915781      11.94515418
Pd      12.39111484       6.85622887      11.94896407
Pd       1.35216595       9.69735034      11.99083951
Pd       4.11777592       9.66324146      11.95099537
Pd       6.89476706       9.64088005      11.95142944
Pd       9.64982872       9.59779534      11.89439304
Pd      12.42487279       9.60955999      11.94161946
Pd       1.35802606      12.41462245      12.04582394
Pd       4.10624816      12.40887780      12.00662317
Pd       6.86816975      12.39901143      11.97280504
Pd       9.63028672      12.36702810      11.91406436
Pd      12.41879361      12.34804731      11.97632258
Pd       0.00339308       0.00060876      14.01314204
Pd       2.81148031       0.04713943      14.03494951
Pd       5.53501328       0.00872748      13.98297159
Pd       8.30000584      13.66926440      13.93472883
Pd      11.03371368       0.01986490      14.05475257
Pd      13.69946988       2.74873257      14.01801090
Pd       2.69655487       2.78555096      14.09417430
Pd       5.42937541       2.75906039      13.96902935
Pd       8.21125381       2.68992797      14.07981403
Pd      10.96590218       2.71670523      13.91305496
Pd      13.75022867       5.45513076      13.93393300
Pd       2.71723839       5.51822995      13.93197176
Pd       5.44687465       5.52885961      14.03011119
Pd       8.22270869       5.49481524      13.95012464
Pd      11.04392090       5.49707677      13.91277053
Pd      13.73861649       8.19812427      14.00446962
Pd       2.72117177       8.25136506      13.97423478
Pd       5.49151323       8.27175398      13.92816778
Pd       8.25905696       8.25425534      13.96063490
Pd      11.02750648       8.27285192      13.96706691
Pd      13.70948520      10.96139104      13.97723993
Pd       2.75813268      10.97443449      14.03507093
Pd       5.45948193      11.02747848      14.02188598
Pd       8.18197072      10.92487039      13.96053278
Pd      10.93522868      11.00456506      13.90482789
Pd      12.32696847       7.10087625      16.34434089
Pd       9.19017234      11.27698485      16.51926536
Pd       1.60607920      12.29657322      16.15044173
Pd       1.27385965       6.69709618      15.94521580
Pd      12.02670999      10.21044251      16.49652274
Pd       9.48040316       0.95292843      16.25588058
Pd       4.58036099       1.83730787      16.45626586
Pd       6.57289059       9.51271601      15.98277364
Pd       3.94788475      10.63971034      16.54956999
Pd      12.23839518       1.48811690      16.23113918
Pd      13.15560082       4.19935934      16.43718442
Pd       2.90715891       4.64349612      16.54970592
Pd       9.81988485       4.18197356      16.21525441
Pd       1.33379295       9.32680765      16.27707613
Pd       7.23918484       6.78623313      16.31167888
Pd       6.45208539      12.61404139      16.59466351
Pd       9.70739932       7.88356957      16.33855392
Pd       6.42327620       4.02376408      16.18098042
Pd       1.53968839       1.54520609      16.64249622
Pd       4.07092313       7.09392969      16.18595073
O        9.00484068       6.02528475      15.85171951
O        8.36796805      13.07891476      15.97862564
O        0.07777393       0.26340501      16.03822808
O       10.61036916       2.43800214      16.82720827
O        8.12307547       3.08577191      16.15576119
O        3.21205047       8.81212873      16.66684747
O        5.92931722       0.60535154      15.86072968
O        3.04233814       2.73292948      17.27169182
O       10.97932161      11.76634137      15.80963780
O        0.11087324      10.96100589      16.03688553
O        2.83720141       0.11675558      16.08391396
O        1.09577003       5.04314690      17.13036861
O        5.81039449       7.88276584      16.99042444
O       10.19733346       9.61131983      17.10616539
O        4.78790566       5.13518207      16.06575688
O       13.75083318       2.55905225      17.33455629
O       11.53416694       5.28676534      15.95205085
O       13.15754915       8.70330734      17.09948119
O        4.72785182      12.18576664      17.28101304
O        7.35662934      10.92290689      17.21057168
